c Type 1: interval ordering (ordered), n=50, m=60
p cnf 50 57
-3 9 2 0
3 -9 2 -7 0
9 -7 -4 -11 0
-9 -7 -11 -5 -6 -8 0
-9 -7 -4 -11 -5 6 8 10 0
-9 -7 11 5 -6 8 10 0
9 -7 -4 -11 5 6 8 10 0
9 -7 -4 -11 -5 6 -8 10 0
9 7 -4 11 -5 -6 8 10 0
9 7 11 -5 6 8 10 12 0
9 -7 -4 11 5 6 8 10 12 -16 0
-12 -16 0
9 -11 10 -12 -16 -18 -13 0
12 16 -18 13 -15 0
-16 18 -13 15 14 0
18 -26 17 0
16 -18 -13 -15 -14 -26 17 0
-18 -26 17 0
-18 26 -17 0
18 26 0
18 26 -19 0
-18 -26 17 -19 -21 20 -22 0
-12 16 -18 13 15 -14 26 17 19 21 -20 22 0
9 -7 11 -5 6 8 10 12 -16 18 -13 -15 -14 26 -17 -19 21 -20 -22 0
-16 -18 13 -15 -14 26 17 19 21 20 22 0
-26 19 -21 -20 -22 34 -24 23 -27 0
34 -27 47 -33 -29 0
-34 47 33 29 28 0
-34 47 33 -29 28 0
-34 -47 -33 29 28 -39 0
-34 -47 33 29 39 0
34 -47 33 29 -28 -39 0
-34 47 33 39 0
-34 47 33 39 32 -36 -50 -35 0
34 47 -33 39 32 -36 31 -50 -35 -46 0
47 -39 -36 50 -35 -46 -40 0
34 -47 39 -36 50 -35 46 40 0
-34 -47 33 39 -32 36 -50 35 -46 -40 0
47 -39 36 50 -46 -40 0
47 39 -36 -50 46 40 -45 0
47 -39 50 -46 -40 45 43 -41 0
-47 -39 -50 -46 -40 -45 43 -41 -49 -38 0
47 39 50 -46 -40 -45 -43 -41 49 44 0
47 39 -50 46 40 45 -43 41 -49 -44 0
-47 39 -50 -46 -40 -45 -43 -41 -49 -44 0
47 -39 -50 -46 40 -45 43 -41 49 44 0
-47 -39 -50 46 40 45 43 37 41 49 -38 -44 0
-47 -39 -50 -46 40 45 43 -41 -49 -44 -42 0
-47 50 46 40 -45 -43 41 -49 44 42 -48 0
-47 -50 -46 -40 45 -43 41 -49 -44 -42 -48 0
-47 50 46 -40 -45 -43 41 -49 44 -42 48 0
47 50 -46 -40 45 43 41 49 44 42 -48 0
47 50 -46 -45 -43 49 44 48 0
47 -50 -46 -45 43 -49 44 -48 0
47 -50 46 45 -43 49 44 48 0
47 50 46 45 -49 48 0
47 50 46 49 -48 0
