c Type 1: interval ordering (permuted), n=200, m=250
p cnf 200 213
116 -68 178 -195 198 82 -112 45 -28 126 0
187 0
182 130 -80 -194 -138 133 -179 81 -140 151 147 122 100 29 0
130 -138 -147 -122 100 -29 -142 -108 13 -162 121 2 7 -149 36 5 117 -30 40 -16 44 169 -172 186 0
-65 0
68 -178 82 112 28 -69 -182 190 -50 62 -64 181 130 -80 -171 -183 -194 -138 106 -133 -21 -179 -81 -140 151 147 -122 -100 29 0
138 -121 149 5 -30 -40 16 172 186 -192 -188 58 -197 -101 110 105 15 -17 -66 -189 -33 59 -173 124 55 -39 -185 137 3 -180 -113 -200 150 155 0
-138 -121 30 172 -186 -192 -188 -58 15 189 59 -173 124 55 39 185 -137 -3 180 113 -200 150 155 91 -27 114 -118 47 86 60 0
46 79 170 9 -131 -152 -94 85 0
11 -46 -139 -79 109 163 111 -153 191 -129 61 -75 -170 20 161 9 38 -131 152 -94 85 143 77 -35 176 -115 -144 -134 -136 -78 -119 63 128 102 4 -32 56 90 10 -160 157 166 37 -168 -48 -43 -127 -74 -107 -154 -159 -1 -123 97 156 76 24 0
138 -121 149 -5 -30 -40 -16 172 -186 192 188 58 -197 -101 -110 105 -15 -17 -66 189 33 0
-186 59 113 150 -155 -86 98 -71 167 52 12 -93 0
-116 -68 41 -178 -196 -195 -198 174 31 82 0
138 -121 149 -30 16 -172 -186 -192 -188 -58 197 -110 15 189 -33 59 0
116 88 0
65 125 -6 0
-138 121 -7 -149 -36 5 30 40 16 44 -172 -186 192 188 -25 58 -135 197 101 110 -105 -15 -17 66 189 -33 -59 0
-94 143 77 4 -43 74 -159 -1 123 97 156 0
79 131 94 -85 -143 77 -176 -115 144 -134 -136 78 -63 -128 -102 4 -32 56 -90 10 160 -157 -166 37 -168 48 43 127 -74 0
46 -79 170 -131 -94 -85 143 77 176 115 -144 -134 -136 78 119 -63 -128 -102 -4 32 -56 90 -10 -160 -157 -166 -37 -168 48 0
121 186 -59 113 -200 -150 -155 -114 86 -83 18 89 -98 -71 167 0
-182 130 80 -194 138 -106 133 21 -179 81 -140 151 147 122 -100 29 -142 108 13 162 -121 2 -7 149 -36 0
-11 92 -165 46 -184 -95 -139 -199 -54 -22 -79 70 0
-11 46 139 79 -70 -103 -109 163 -111 153 -191 129 -61 -75 170 -20 161 9 -38 131 -152 94 -85 0
-138 -121 7 -149 -36 -5 -30 -40 -16 44 169 -172 -186 -192 188 -25 -58 -135 197 101 -110 -105 15 -17 66 -189 33 0
68 178 195 198 82 112 -45 -28 69 -182 190 50 -62 -64 -181 -130 -80 171 183 194 -138 106 -133 21 179 81 0
116 68 41 -178 -196 195 -198 31 -82 99 19 112 8 -72 0
-121 -186 -59 -113 -200 150 -155 -114 -86 60 -83 18 0
-11 46 139 -199 -79 -70 103 109 -163 111 -153 -191 129 -61 75 170 -20 -161 -9 -38 131 -152 94 -85 143 -77 35 -176 115 144 134 -136 78 119 -63 128 102 -4 32 56 -90 -10 0
-79 -131 94 -143 77 -144 -134 136 -78 4 -32 56 37 -43 127 -74 107 -154 159 -1 -123 97 156 76 24 0
130 138 -147 142 108 13 121 7 -149 36 5 117 30 40 -16 44 -169 172 186 192 -188 25 -58 -135 197 -101 110 0
-138 -142 -108 13 121 -7 149 -36 5 -30 -40 -16 -44 169 -172 -186 -192 -188 25 -58 135 -197 101 110 -105 15 -17 -66 189 -33 -59 -173 124 -55 0
-46 -79 -170 -131 -94 -85 143 77 -176 -115 144 134 -136 78 -119 63 -128 -102 4 0
-86 141 11 -92 -26 -73 -165 -46 184 14 -95 -23 0
46 -79 -170 9 131 152 -94 85 143 -77 -35 -176 -115 -144 134 136 78 119 63 128 -102 4 -32 56 90 10 160 157 166 37 168 -48 -43 -127 0
-11 46 -139 -79 170 -9 -38 131 -152 94 85 0
-138 -121 -30 -186 59 -173 -124 55 -39 137 3 113 200 150 155 91 0
-182 130 -80 -194 -138 106 133 0
79 -170 -131 -94 -85 -143 -77 -176 -115 144 -134 136 -78 63 128 -102 -4 32 -56 90 10 0
138 121 186 59 -173 124 39 3 113 -200 150 155 91 0
-182 -130 -80 194 -138 -106 133 21 -179 0
187 116 88 68 -41 0
-11 46 139 79 70 103 109 -163 -111 -153 191 -129 61 75 -170 20 -161 0
116 88 -68 41 178 196 84 195 145 -198 0
94 -143 77 -144 134 136 -4 32 -56 43 -127 -74 107 154 159 -1 123 -97 -156 -76 24 0
138 121 186 -59 173 124 39 3 113 200 -150 -155 91 -27 114 -118 -47 86 60 0
-138 121 -186 59 -173 124 -55 -39 137 3 113 200 -150 0
94 143 77 4 -43 74 159 1 -123 97 -156 0
182 -130 -80 194 138 106 -133 21 -179 81 0
94 143 77 -144 134 -136 -4 -32 56 -43 -127 74 107 159 -1 -123 -97 156 -76 -24 0
-11 -46 -139 -79 70 103 -109 -163 -111 0
-116 -88 68 41 178 -196 0
116 68 -178 195 198 -82 -112 45 28 -87 -126 0
65 0
116 -68 -41 178 196 -195 198 -174 0
138 -121 -30 186 -189 -59 -173 124 55 -39 -185 137 -3 180 113 200 -150 0
11 -46 -139 -79 109 -153 61 170 -20 161 -9 -38 131 152 -94 -85 -143 -77 -35 -176 -115 -144 134 -136 78 0
11 -46 139 199 -54 79 70 103 -109 0
-86 -141 11 -92 -26 -73 165 46 -184 -14 95 23 -139 199 51 -54 22 -79 0
-138 -121 7 149 -36 5 -30 -40 -16 -44 -172 -186 192 188 -25 58 135 -197 101 110 105 15 -17 -66 189 -33 -59 173 124 55 -39 -185 -137 -3 180 -113 -200 150 -155 91 27 -114 118 -47 0
-94 -143 -77 -144 134 -136 4 -32 -56 43 -127 74 -107 159 1 123 97 -156 76 24 0
11 -46 -139 199 54 -79 70 -103 109 0
-68 178 -112 -28 -69 182 -190 -50 62 64 181 130 -80 171 -183 0
-11 -46 -139 79 -109 153 170 -20 -9 38 131 0
138 -121 -30 -172 -186 -192 188 -58 189 59 173 -124 55 0
-11 46 -139 -79 109 -163 -111 -153 -191 -129 -61 -75 170 -20 -161 -9 38 -131 152 0
-138 -121 30 172 -186 192 -188 58 15 -189 -59 -173 124 -55 -39 -185 -137 3 -180 -113 -200 -150 -155 91 -27 -114 118 47 -86 60 0
-68 -178 -195 -82 -112 28 -69 182 -190 50 -62 -64 181 130 80 -171 183 -194 138 -106 -133 -21 179 -81 140 -151 -147 122 100 -29 142 -108 -13 -162 -121 2 -7 -149 36 -5 117 0
-182 -130 80 194 138 106 -133 -21 -179 -81 140 151 -147 -122 -100 -29 142 108 0
94 143 -77 -4 -43 -74 159 -1 -123 97 -156 0
68 178 -195 198 82 -112 45 28 69 -182 -190 50 -62 64 181 -130 -80 -171 183 -194 -138 106 133 21 -179 81 140 -151 147 -122 -100 -29 -142 -108 -13 162 -121 -2 0
11 46 -139 79 -170 -9 -38 131 152 -94 -85 143 77 -35 176 -115 144 134 -136 78 -119 63 128 -102 4 32 -56 -90 0
-182 -130 80 194 138 -106 133 -21 179 81 0
68 -112 -182 62 181 130 80 171 183 194 -138 0
11 -46 139 79 109 -153 -61 -170 -20 -161 -9 -38 -131 -152 94 85 143 -77 35 176 -115 144 -134 -136 -78 -119 -63 128 102 -4 -32 56 90 10 160 -157 -166 37 -168 -48 -43 127 -74 0
-130 -138 -147 -142 -108 -13 121 7 -149 36 5 -117 -30 -40 16 44 169 172 -186 -192 188 25 58 135 0
79 -170 -131 -94 85 143 -77 -176 -115 -144 -134 -136 -78 -63 128 102 4 32 56 -90 -10 0
-138 142 108 13 -121 7 -149 36 5 -30 40 16 44 169 172 186 192 188 25 58 -135 197 -101 110 105 15 -17 -66 189 -33 0
-11 46 -139 79 170 -9 -38 131 152 94 -85 143 -77 -35 -176 -115 144 134 -136 78 -119 -63 -128 -102 4 32 -56 -90 -10 -160 -157 166 37 -168 -48 43 -127 74 -107 0
130 -138 147 -142 -108 13 121 -7 149 -36 5 -117 -30 40 -16 -44 169 172 -186 -192 188 -25 -58 -135 197 101 110 105 0
-150 155 -86 -98 -71 -167 52 -57 148 -104 96 -42 -132 141 34 49 0
-130 138 -147 29 -142 -108 -13 -162 121 7 149 36 5 -117 30 -40 16 -44 -169 172 -186 -192 0
-68 112 182 -190 62 64 181 130 -80 -171 183 194 0
-138 -121 30 -186 189 59 -173 -124 -55 -39 185 0
-11 -46 139 -79 -109 -153 61 -170 20 0
94 143 -77 -4 -74 -159 -1 123 -97 -156 0
130 -138 -147 -122 29 -142 -108 13 162 121 2 7 -149 36 -5 -117 30 40 16 -44 169 172 0
94 143 77 -4 123 0
-116 68 41 178 195 198 31 -82 112 72 45 28 87 -158 126 0
79 -131 94 -143 77 144 -134 136 -78 -4 32 -56 37 -43 127 -74 107 0
155 86 98 141 11 -92 193 175 -26 -164 0
155 86 98 -141 11 -92 193 -26 164 -73 0
-182 181 130 -80 -194 -138 106 133 -21 -179 -81 0
-138 121 -7 149 36 -5 30 40 16 -44 172 186 192 -188 25 -58 135 -197 -101 -110 -105 15 17 0
-94 -143 -77 -144 -134 -136 -4 32 56 -43 -127 74 -107 -154 159 -1 -123 -97 156 76 -24 0
-130 -80 138 -179 -81 -147 -122 -100 -29 -142 108 13 162 -121 2 -7 149 36 5 -117 30 40 16 44 169 -172 186 -192 188 25 58 135 -197 101 -110 0
11 46 -139 -79 109 -163 111 -153 -191 129 61 -75 0
-11 -46 139 199 79 70 103 109 163 -111 153 191 129 -61 -75 170 20 161 9 38 -131 152 94 85 -143 -77 35 -176 -115 144 134 -136 -78 -119 63 -128 102 -4 32 0
68 112 182 190 62 64 -181 130 80 171 0
116 -68 -178 195 -198 -82 -112 -72 -45 -28 87 -158 -126 0
-11 -92 -165 -46 -184 95 -139 -199 51 -54 22 -79 70 -53 -103 0
46 79 170 -131 94 85 -143 77 176 115 -144 -134 -136 78 -119 -63 -128 102 -4 32 -56 -90 -10 160 -157 166 -37 168 -48 43 -127 -74 0
-138 142 -108 -13 121 7 149 36 -5 -30 -40 16 44 -169 -172 -186 -192 -188 25 58 135 197 101 110 105 15 17 -66 -189 -33 59 -173 -124 -55 39 185 0
-138 -121 -149 5 30 -40 -16 172 -186 192 -188 -58 197 -101 110 -105 15 17 0
-79 -131 94 85 143 77 -176 -144 134 136 78 128 -102 4 -32 -56 -10 160 -157 166 37 168 -48 43 -127 -74 107 -154 159 -1 123 -97 -156 76 -24 0
46 -79 -170 131 -94 85 143 77 176 -115 -144 134 136 -78 119 0
-46 -79 -170 9 131 -152 -94 85 -143 -77 -35 176 115 -144 134 -136 78 -119 63 -128 -102 4 -32 56 -90 10 -160 157 -166 37 -168 48 -43 127 74 107 154 -159 1 0
138 121 149 30 40 16 172 -186 192 188 -58 197 101 -110 -15 -189 -33 -59 0
86 98 -141 -11 -92 193 26 164 0
79 131 94 -85 143 77 176 144 -134 136 -78 -4 32 56 -10 160 157 -166 -37 168 48 43 127 -74 107 -154 159 -1 0
116 68 -41 -178 196 -195 -198 -31 82 -99 0
-94 143 77 -4 32 -43 74 -159 -1 123 97 -156 0
-94 143 -77 4 -43 74 -159 -1 123 -97 -156 0
94 -143 -77 -144 -4 32 56 -43 -74 107 -159 1 123 -97 156 -76 -24 0
116 -88 68 -41 0
79 131 94 -85 143 77 144 -134 -136 78 4 32 56 160 -37 43 -127 74 0
187 0
11 92 -165 -46 184 -95 -139 199 54 -22 79 70 53 0
-187 0
79 131 -94 -85 143 77 176 -144 -134 136 78 63 128 -102 -4 -32 -56 -90 10 -160 157 166 -37 168 48 43 -127 -74 -107 -154 -159 -1 -123 -97 156 76 24 0
-79 -131 94 -85 -143 77 176 144 134 136 -78 128 -4 32 -56 -10 -160 -157 -166 -37 -168 48 -43 127 74 -107 154 -159 1 -123 0
68 -112 -182 -62 -181 130 -80 171 -183 194 138 -106 133 21 -179 0
-68 -178 -195 198 -82 -112 45 28 69 182 190 50 62 -64 -181 130 -80 -171 183 194 -138 -106 133 -21 179 81 140 -151 -147 122 -100 29 142 108 13 -162 121 2 7 149 36 0
116 88 68 41 0
130 -138 -147 -29 -142 -108 -13 -162 -121 7 149 36 -5 -117 30 -40 16 44 -169 172 -186 -192 188 25 58 -135 197 -101 110 105 -15 17 66 -189 -33 59 -173 -124 0
-121 -186 -59 -113 200 -150 155 -114 -86 -60 -83 -18 89 98 -71 167 0
-11 -92 -165 46 184 95 139 -199 51 0
-79 -131 94 85 143 77 176 144 134 -136 -78 -63 -128 102 4 32 56 90 -10 160 -157 -166 37 -168 -48 -43 -127 0
-130 -138 179 147 -122 100 -29 -142 -108 -13 162 121 2 7 149 36 5 117 -30 -40 16 -44 169 -172 186 -192 -188 25 58 -135 197 101 -110 -105 15 -17 -66 -189 33 -59 -173 124 -55 -39 185 137 -3 -180 113 0
-46 -79 -170 -131 -94 -85 143 77 -35 -176 -115 -144 -134 136 78 -119 -63 -128 102 -4 -32 56 90 -10 160 157 166 37 168 48 0
-79 -131 94 -85 143 -77 176 115 144 -134 136 -78 63 128 -102 -4 32 56 90 -10 -160 -157 -166 37 -168 -48 0
94 143 -77 -4 32 56 -43 -74 159 -1 123 -97 -156 0
-11 -92 -165 -46 -184 95 -139 -199 51 -54 22 79 0
-138 -121 149 -30 -40 -16 172 186 192 188 -58 -197 -101 -110 -15 -66 -189 -33 0
11 46 139 79 -109 163 111 -153 191 -129 -61 -75 -170 -20 -161 0
79 131 -94 85 -143 77 -176 -144 134 136 78 -128 -4 -32 56 -10 160 157 166 37 168 48 43 127 -74 -107 154 -159 1 -123 97 156 76 24 0
-79 131 94 -85 143 -77 176 144 134 -136 78 -128 -102 -4 32 56 -90 10 -160 157 -166 -37 -168 0
-68 -178 195 198 -82 -112 -45 -28 -126 67 -69 0
116 68 -178 -195 -198 31 82 112 -72 -45 0
68 112 -69 182 -190 50 -62 0
-68 178 195 -198 82 -112 45 -28 126 67 69 -182 -190 50 -62 -64 181 -130 80 -171 183 194 -138 106 133 21 0
116 -88 -68 41 -178 -196 -195 -145 -198 -174 -31 82 0
11 46 -139 -79 70 -103 109 163 111 153 -191 0
-79 -131 94 85 -143 -77 176 -144 -134 -136 78 128 -4 -32 -56 -10 -160 -157 -166 37 -168 48 43 127 74 0
-94 -143 -77 144 134 -136 4 32 56 43 127 -74 107 -159 -1 -123 -97 -156 -76 24 0
-79 -131 94 -143 -77 144 134 -136 4 32 -56 -43 -127 -74 107 154 -159 0
-46 -79 -170 -9 -131 -152 94 85 -143 77 -35 176 115 -144 -134 0
94 143 77 144 -134 -136 -4 32 -56 -43 127 74 -107 -159 1 123 97 -156 0
-79 131 -94 -85 -143 77 -176 -144 -134 136 -78 -4 -32 56 160 157 166 -37 43 127 74 107 -154 159 1 0
-86 -141 -11 -92 -26 -73 -165 -46 184 -14 -95 -23 0
-79 -170 -131 94 85 -143 77 176 -115 -144 -134 136 78 63 128 102 -4 32 -56 90 10 -160 0
46 -79 170 -9 -131 -152 -94 -85 -143 -77 35 -176 115 -144 134 -136 -78 0
-155 -86 -98 42 132 -141 -34 -177 120 0
116 -68 41 -178 196 195 -198 31 82 99 -19 -112 0
-65 0
11 -92 -165 -46 -184 95 139 -199 54 22 -79 70 -53 103 109 -163 111 -153 0
11 46 -95 -139 199 -54 -79 -70 103 0
-94 143 77 -144 4 32 -56 43 -74 159 1 123 -97 -156 76 24 0
-116 -68 -178 -195 -198 -82 112 -45 28 87 -126 0
94 143 -77 -4 -159 123 -97 0
187 0
-11 -46 -139 79 -109 153 -170 -20 -9 38 -131 152 0
-121 -186 -59 113 -200 150 155 114 86 -60 83 18 89 98 -71 -167 0
-46 79 -170 131 94 85 143 77 -176 -115 144 134 -136 78 -119 -63 128 102 -4 -32 56 90 -10 -160 0
-138 -142 108 13 -121 7 149 -36 -5 117 30 40 -16 -44 -169 -172 -186 192 188 -25 58 -135 -197 101 110 105 -15 -17 -66 -189 0
46 79 170 131 -94 85 143 77 -176 115 -144 -134 -136 78 119 -63 -128 102 -4 -32 56 -90 0
79 -131 94 -85 -143 -77 -176 115 -144 134 136 -78 63 -128 -102 -4 32 -56 -90 -10 -160 -157 166 37 168 48 43 -127 -74 107 -154 159 -1 123 97 -156 -76 -24 0
-116 68 -41 178 196 -195 -198 31 -82 -99 -19 112 -8 72 -45 0
141 11 -92 -26 -73 165 -46 -184 -95 139 199 -51 -54 -22 -79 -70 0
-150 155 -86 -98 -167 -148 96 -42 132 -141 -34 -49 0
-187 0
-11 46 139 -79 170 20 -9 38 131 152 0
-68 -178 195 82 -112 28 69 182 -190 -50 62 64 181 -130 80 -171 -183 194 138 -106 0
-138 121 149 30 40 -16 172 186 -192 -188 58 197 101 110 -105 15 66 -189 -33 -59 0
138 121 30 -186 -59 173 124 -55 39 -185 137 3 180 -113 -200 150 -155 91 27 -114 -118 47 86 60 0
138 121 -30 16 -172 186 192 188 58 -15 -189 59 173 124 55 39 -185 0
79 -131 -94 85 -143 -77 -176 -144 134 -136 78 -128 102 -4 32 -56 -10 -160 -157 166 -37 -168 48 -43 -127 74 107 154 -159 1 0
68 -178 195 -198 82 112 45 -28 69 0
186 150 -155 -86 -98 -71 167 52 93 57 -148 104 0
-11 -46 -139 79 109 153 61 170 -20 -161 9 38 -131 152 -94 85 -143 -77 35 -176 -115 144 0
-46 -79 -170 9 -131 -152 94 85 143 77 -35 176 115 144 -134 -136 -78 119 63 -128 -102 4 -32 -56 -90 10 0
-116 68 41 -178 -195 198 31 82 -19 112 -72 0
46 -79 170 131 94 -85 -143 77 -176 -115 144 -134 -136 -78 -119 63 128 -102 -4 -32 56 90 10 -160 -157 -166 -37 168 -48 -43 -127 -74 107 154 159 0
146 0
130 138 -147 -122 100 -29 -142 108 13 162 121 -2 -7 0
-116 -68 41 -178 196 -195 198 -31 -82 19 112 8 72 -45 -28 87 -158 -126 0
-11 -46 139 -79 -109 -111 153 61 75 -170 20 -161 0
-116 88 -68 -41 0
79 131 -94 85 143 77 -176 -144 -134 -136 78 63 128 102 4 -32 56 90 10 0
-116 -68 -41 178 -196 -195 -198 31 -82 99 -19 112 8 72 -45 28 87 -158 -126 0
46 79 170 -9 38 -131 152 94 -85 -143 -77 -35 -176 115 144 -134 -136 -78 0
46 -79 170 131 -94 85 143 77 -35 176 115 144 -134 136 78 -119 63 -128 102 4 -32 56 90 10 -160 157 166 -37 168 -48 -43 127 74 -107 154 -159 1 0
-11 -92 -165 46 -184 95 139 199 -51 54 22 -79 70 0
68 178 -112 69 -182 190 50 -62 -64 181 -130 -80 -171 -183 194 -138 106 -133 -21 179 81 0
-187 116 0
-130 138 147 -29 142 -108 -13 162 -121 7 149 36 -5 -117 -30 -40 16 44 169 172 186 -192 188 -25 0
-11 -46 95 -139 199 54 -79 -70 103 0
-86 -98 -141 -11 -92 26 73 -165 -46 184 -14 -95 23 -139 -199 0
-11 -46 139 -79 -109 -163 -111 153 -191 129 -61 75 -170 20 161 9 38 0
-46 -79 170 -9 131 -152 -94 -85 0
-130 80 138 -179 81 -147 122 -100 29 142 108 -13 162 121 0
138 142 -108 -13 -121 -7 -149 -36 5 30 -40 16 44 -169 -172 -186 -192 188 25 58 -135 -197 101 -110 -105 -15 -17 -66 -189 -33 0
182 181 -130 -80 194 138 106 133 -21 -179 81 140 0
138 121 -30 186 189 -59 173 124 -55 -39 -185 -137 -3 -180 -113 0
-11 46 -139 79 109 163 111 153 -191 129 61 75 0
-116 -68 -178 -195 198 82 112 -72 45 28 87 126 67 -69 -182 190 50 62 0
-130 138 -147 -142 -108 -13 -162 121 -7 -149 -36 5 -117 0
94 -143 77 -4 74 159 -123 -97 0
-116 68 -41 -178 -195 198 -31 -82 -112 72 0
11 -46 139 79 109 163 -111 153 191 -129 61 -75 -170 20 161 -9 38 -131 -152 -94 -85 -143 -77 -35 -176 115 -144 0
182 -130 -80 194 138 -106 -133 -21 179 -81 140 151 -147 122 100 -29 -142 108 -13 162 121 2 7 0
-11 -92 -165 -46 -184 -95 139 -199 -54 22 79 -70 53 -103 -109 163 -111 -153 191 0
116 68 41 -178 196 195 -198 174 0
