c Type 1: interval ordering (ordered), n=20, m=25
p cnf 20 25
1 0
 0
3 -2 0
-7 5 -4 8 -10 -6 0
7 -5 4 -8 10 6 -9 0
3 2 7 5 -4 8 10 6 -9 0
3 2 -7 5 -4 8 -10 6 9 0
7 -8 -10 6 -9 11 0
-10 -11 0
-12 0
10 -11 -12 -13 -14 0
10 -9 11 12 13 -14 -15 -16 17 0
-12 -13 -14 15 16 17 -18 0
10 11 12 -13 14 -15 -16 17 18 0
-7 5 -8 10 6 -9 11 -12 -13 -14 -15 -16 17 -18 0
-11 12 -13 14 -15 -16 -17 18 -19 20 0
-10 -11 12 -13 14 15 16 -17 18 19 -20 0
7 -8 -10 9 11 12 -13 14 15 16 -17 -18 -19 -20 0
7 5 -4 -8 -10 6 -9 11 12 -13 14 -15 -16 -17 -18 -19 -20 0
11 12 -13 -14 -15 16 -17 18 -19 20 0
7 8 10 -9 -11 -12 13 -14 15 -16 17 18 19 -20 0
10 11 -12 -13 14 -15 16 17 18 -19 -20 0
-7 -5 -8 10 -6 -9 -11 12 13 14 15 16 -17 -18 -19 20 0
-12 -13 -14 15 -16 -17 18 -19 20 0
12 -13 -14 15 16 17 -18 19 20 0
