c Type 1: interval ordering (ordered), n=500, m=600
p cnf 500 508
-2 0
2 4 0
4 -3 0
4 -3 0
4 -9 -6 0
-4 3 -9 -6 0
-4 -9 -6 -7 0
-4 9 -6 -7 -5 0
-9 -7 0
4 3 -9 -6 -7 5 -8 0
9 -7 -8 0
-9 -8 -10 0
12 -13 0
-11 12 -13 0
-9 8 10 11 12 13 0
13 0
-13 14 0
17 0
17 0
-17 0
17 -36 15 -22 25 -52 0
17 -36 22 25 -52 16 50 -23 -45 0
-17 36 -22 -25 -52 16 50 23 -45 0
-17 -36 -15 22 -25 -52 -16 50 23 -45 81 0
17 36 15 22 -25 52 -16 50 23 45 -81 18 -21 27 -35 24 0
-36 -22 25 52 -50 -23 45 -81 18 21 -27 -35 24 -19 41 -20 0
36 -22 -25 52 -50 23 45 -81 -21 -27 -35 24 -41 -20 0
17 -36 -22 25 52 50 -23 45 81 18 21 27 35 24 19 41 -20 0
-36 -22 25 52 50 -23 -45 -81 -27 -35 -24 41 -32 0
-36 -22 -25 52 -50 23 45 -81 -21 -27 35 24 -19 -41 -20 32 0
36 52 -50 45 81 27 35 41 -32 -26 -33 0
36 52 -50 -45 81 -27 35 -41 32 -26 -33 -29 -31 0
36 -52 -50 -45 81 -27 35 41 -32 -26 -33 29 -31 34 0
-36 -25 52 -50 45 -81 27 35 -24 41 32 26 -33 -29 -31 -34 0
36 52 50 45 81 -27 35 -41 32 -26 33 -29 31 34 28 0
-36 52 50 -45 -81 27 -35 41 32 26 -33 29 31 -34 28 -30 0
36 -52 -50 -45 -81 35 -41 -32 -33 -29 31 34 30 40 0
36 52 50 -45 -81 -35 41 -32 -33 31 34 -40 38 0
36 -25 52 50 23 -45 -81 27 -35 -24 -41 -32 -26 33 -29 -31 34 28 30 40 -38 -43 0
-36 -52 50 45 81 -41 -40 -38 -43 39 51 -59 37 0
-36 52 -50 45 81 -41 -40 38 -43 -39 51 -59 37 0
-36 -52 -50 45 81 41 40 38 43 -39 -51 -59 -37 48 0
52 50 45 -81 41 40 -38 43 39 51 59 -37 48 0
-36 52 50 45 81 -35 41 -34 40 38 43 39 -51 59 37 48 42 46 0
36 -52 50 45 81 -41 -40 -38 43 -39 51 -59 -37 48 -42 46 0
52 -50 -45 81 41 43 51 -59 -48 -42 46 0
-52 50 -45 -81 43 51 59 -48 -46 44 0
-52 50 -45 -81 -43 -51 -59 -48 -46 44 49 63 0
52 -50 45 81 43 51 -59 48 46 44 49 63 53 -62 0
52 50 -45 81 43 -51 59 48 46 44 49 63 -53 62 0
52 -50 45 81 51 59 48 -46 -49 63 53 62 -66 -47 -60 0
-52 -50 81 51 -59 -49 -63 -53 62 -66 60 -70 -64 0
-52 -50 81 51 59 -63 -53 62 66 60 -70 64 0
-81 -59 63 -53 62 66 -60 70 64 -73 69 57 56 0
81 -59 -63 53 62 66 -60 70 64 73 -69 -57 56 0
81 59 63 -62 66 -60 70 64 73 -69 -57 -56 -54 -68 0
81 -59 63 -62 66 60 -70 -64 73 69 -57 56 -68 0
-81 59 -63 -62 66 60 70 64 73 69 57 -56 54 -68 -55 0
81 -59 63 -53 62 66 60 70 64 -73 -69 57 -56 -54 -68 55 0
81 59 -63 62 -66 -60 70 64 -73 69 -57 56 68 55 108 0
-81 -59 63 -62 -66 60 -70 64 -73 69 -57 -56 68 -55 -108 0
81 -59 -63 -62 66 -60 -70 -64 -73 -69 -57 56 -54 -68 55 -108 -84 0
-81 -59 -63 -62 66 -60 70 64 73 -69 57 56 -68 -55 108 84 -58 0
-81 59 63 -62 66 60 -70 -64 -73 -69 -57 56 -68 55 -108 84 58 0
81 59 -63 -62 -66 -60 -70 -64 73 69 -57 -56 -68 108 84 -58 0
-81 59 -63 62 66 60 70 -64 73 69 68 -108 -84 85 65 61 -130 94 -75 0
-81 -59 -63 -62 66 60 70 -64 73 69 -68 -108 -84 -85 -65 61 130 -94 75 0
81 59 63 62 -66 60 -70 64 -73 69 -68 108 84 85 65 61 -130 -94 75 87 -82 0
81 -59 63 62 -66 60 -70 -64 73 69 -57 56 68 55 108 84 -58 85 -65 -61 -130 -94 75 87 82 0
81 -63 -62 -66 60 -70 64 73 -69 68 -108 -84 85 65 -61 130 94 75 87 82 0
-81 -63 -62 -66 60 -70 64 -73 -69 68 -108 -84 -85 -65 -61 130 94 -75 87 82 -74 0
-81 59 63 62 66 -60 70 64 73 -69 57 56 -68 -55 -108 84 58 -85 65 -61 -130 94 -75 -87 -82 74 -191 0
81 -66 -70 -64 73 -69 68 -108 84 -85 -65 -130 -94 -75 87 82 -74 -191 -160 0
-81 66 -70 -64 73 69 68 -108 84 -85 65 -130 -94 75 87 82 -74 -191 160 106 -79 0
-81 -59 63 -62 -66 -60 -70 -64 73 -69 68 108 -84 -58 -85 -65 -61 130 94 -75 -87 82 -74 -191 -160 -106 79 107 80 0
81 -66 -70 64 73 -69 -68 -108 84 -85 -65 130 94 75 -87 82 -74 191 -160 -106 79 107 80 0
81 -66 -70 -64 73 -69 -68 -108 -84 85 65 130 94 75 -87 -82 -74 191 -160 106 79 107 -80 -97 71 72 0
81 66 70 73 69 -68 -108 84 85 -65 -130 94 -75 87 -82 -74 191 160 -106 -79 107 -80 -97 71 -72 121 0
-81 -66 70 -64 73 69 68 108 84 85 65 -130 94 75 -87 82 74 191 -160 -106 79 -107 80 97 -71 -72 121 -88 0
81 66 -70 -73 -69 68 108 84 85 -130 -94 -75 87 -82 74 -191 -160 -106 -79 -107 80 -97 -71 72 -121 88 -67 0
81 -66 70 64 -73 -69 -68 108 84 -85 -65 130 94 -75 87 82 -74 -191 160 -106 79 -107 80 -97 71 72 121 -88 67 110 -122 0
81 70 -73 69 68 -108 84 85 -130 -94 -75 -87 82 -74 191 -160 -106 79 -107 80 97 71 72 121 88 -110 122 125 -113 -96 -104 0
-81 66 70 -73 69 -68 108 84 -85 130 94 75 87 82 74 191 -160 106 79 -107 -80 97 -71 72 -121 -88 -67 110 122 125 -113 96 104 0
-81 -73 108 -84 85 130 -94 -75 87 82 -74 191 -160 106 -79 107 80 97 -71 -72 121 88 110 122 125 113 96 -104 78 -101 0
-81 70 -73 -69 108 -84 85 130 94 75 -87 -82 -74 191 160 -106 79 -107 80 97 71 72 -121 88 110 122 125 -113 -96 104 78 -101 -83 91 -250 0
-81 70 73 -69 -68 -108 -84 -85 130 -94 -75 -87 82 -74 191 -160 -106 -79 -107 80 -97 71 -72 121 -88 67 -110 -122 -125 -113 96 104 78 -101 83 -91 250 -76 92 102 90 0
-81 73 108 84 85 130 94 -75 87 82 -74 191 160 106 79 -107 80 -97 71 72 121 -88 -110 -122 -125 -113 96 104 78 -101 -83 91 -250 76 92 102 -90 86 0
-81 66 -70 -73 69 -68 -108 84 85 -130 94 -75 87 82 74 191 160 -106 -79 -107 -80 -97 -71 -72 -121 88 67 -110 122 -125 113 96 104 78 -101 -83 91 -250 76 92 102 -90 86 -77 0
81 -108 84 -85 130 -94 75 87 82 -191 160 -106 79 107 -80 -97 121 88 -110 122 125 113 96 -104 78 101 -83 -91 -250 -76 -92 102 -90 86 77 0
-81 -66 70 -64 73 -69 68 108 84 85 65 -130 -94 75 -87 82 74 -191 -160 106 79 -107 -80 97 -71 -72 121 -88 67 110 122 125 113 -96 -104 -78 101 -83 91 -250 76 92 102 90 86 77 -132 0
-81 108 -84 85 130 94 87 82 191 160 -106 79 -107 -80 -97 -121 88 110 -122 125 113 96 104 -78 -101 -83 91 250 76 -92 -102 -90 86 -77 132 89 0
-81 73 -108 84 -85 130 -94 -75 87 82 -74 191 -160 -106 -79 107 -80 97 -121 -88 110 122 -125 113 -96 -104 78 -101 -83 91 250 76 92 -102 90 -86 77 132 89 0
81 108 84 -85 130 -94 75 87 -82 74 -191 -160 -106 79 -107 80 97 121 -88 -110 -122 125 113 -96 -104 78 -101 83 91 -250 -76 92 -102 90 86 77 -132 89 0
-81 108 -84 85 -130 -94 75 87 82 -74 -191 -160 -106 79 -107 80 -97 -121 -88 -110 122 -125 -113 -96 -104 78 -101 83 -91 -250 76 92 102 90 86 -77 132 -89 142 0
-81 108 -84 85 -130 -94 87 82 -191 -160 -106 79 -107 80 -97 121 88 110 -122 -125 113 -96 -104 -78 -101 83 91 -250 -76 92 102 90 86 77 -132 89 142 149 -128 -93 0
-81 108 -84 -85 130 94 -87 82 191 -160 -106 -79 107 80 -97 121 88 110 122 -125 -113 96 104 78 101 83 -91 250 -92 102 90 -86 132 89 -142 149 128 -93 0
-81 108 84 -85 130 -94 87 -82 -191 -160 -106 79 -107 80 97 -121 88 -110 122 -125 113 96 -104 -78 -101 83 -91 -250 -76 92 102 -90 -86 77 132 -89 -142 149 128 -93 0
81 108 -84 85 -130 -94 87 82 -191 -160 106 -79 107 80 97 121 88 -110 -122 125 -113 96 104 -78 101 -83 91 -250 92 102 -90 -86 132 89 -142 -149 -128 93 -111 -100 0
-81 -70 -73 69 -108 84 85 130 -94 -75 -87 82 74 191 160 -106 79 -107 80 97 71 -72 121 88 -110 -122 -125 -113 -96 104 78 -101 -83 91 250 76 92 102 -90 86 -77 132 -89 -142 149 -128 93 111 100 98 -109 0
-81 -108 -84 -85 -130 -94 -87 82 -191 -160 -106 79 -107 -80 97 121 -88 -110 -122 -125 -113 -96 -104 78 -101 83 -91 -250 -76 92 102 90 86 77 132 -89 -142 -149 128 93 111 -100 98 -109 95 0
-81 108 84 85 130 94 -87 82 191 160 106 -79 107 -80 -97 121 88 110 122 -125 113 96 -104 78 101 83 -91 250 92 -102 -90 86 -77 -132 -89 142 -149 128 -93 -111 100 98 -109 -95 0
-108 -130 94 -87 191 -160 106 107 97 121 88 110 122 -125 113 -96 -104 -101 91 250 92 102 90 132 89 142 149 -128 -93 111 100 -98 -109 95 0
-81 -108 84 -85 -130 94 87 -82 -191 160 -106 -79 -107 80 97 121 88 -110 -122 125 113 -96 104 78 -101 83 91 -250 76 -92 -102 90 -86 -77 -132 -89 142 149 -128 -93 -111 -100 98 109 -95 103 -127 0
108 -130 -94 191 -160 -106 107 -97 -121 110 122 125 113 96 104 -101 91 250 -92 -102 90 -132 89 -142 149 128 -93 111 100 -98 -109 95 103 127 0
81 -108 84 -85 -130 94 -87 82 -191 160 106 79 -107 -80 -97 -121 88 110 -122 125 113 -96 104 -78 -101 -83 -91 -250 -92 -102 90 86 77 132 -89 142 149 128 93 111 -100 -98 109 95 103 127 0
108 130 94 -191 160 106 107 -97 121 -110 122 125 113 96 104 101 250 92 -102 132 -142 -149 128 -93 111 -100 98 109 95 -103 -127 135 0
-81 -108 -84 -85 130 -94 87 82 -191 160 -106 79 107 -80 -97 -121 88 -110 -122 -125 113 96 -104 78 -101 -83 -91 -250 76 92 -102 -90 86 77 132 89 -142 -149 -128 -93 111 -100 -98 109 -95 -103 127 -135 0
108 -130 94 191 160 106 -107 97 121 110 122 -125 -113 -96 -104 101 -250 -92 -102 132 142 149 128 -93 111 100 -98 -109 95 103 127 -135 -141 116 0
-108 84 -85 130 -94 -87 -191 160 -106 -107 -97 -121 -88 110 122 125 113 96 104 -101 91 -250 92 -102 -90 -86 132 -89 142 -149 128 93 111 -100 -98 -109 -95 -103 127 135 -141 -116 0
-108 130 94 -191 160 106 -107 -97 121 110 -122 -125 -113 -96 -104 101 -91 250 -92 -102 90 132 142 149 128 -93 111 -100 98 -109 95 103 127 -135 141 116 0
-108 130 94 191 -160 106 -107 -97 -121 -110 -122 125 -113 96 104 -101 250 -102 -132 -142 -149 128 93 111 -100 98 -109 -95 103 -127 135 141 -116 112 0
-108 -130 -94 191 160 -106 107 97 -121 110 122 -125 -113 -96 104 -101 250 102 -132 142 149 128 -93 111 100 -98 -109 -95 -103 -127 -135 -141 116 -112 0
-81 108 84 85 -130 94 -75 87 82 191 160 106 -79 107 80 97 121 88 110 -122 -125 113 -96 -104 -78 -101 -83 -91 250 76 92 -102 -90 86 -77 -132 -89 142 149 128 93 -111 -100 98 -109 -95 -103 -127 135 -141 116 -112 -99 105 133 114 0
108 -130 94 -191 160 106 -107 97 121 110 -122 -125 -113 96 104 101 250 -102 -132 142 149 128 -93 111 100 -98 -109 95 103 -127 -135 141 -116 -112 99 105 133 114 0
108 -130 -191 160 106 -107 121 -110 -122 -125 113 -104 -101 -250 102 -132 142 149 -128 111 100 -109 103 -127 -135 141 116 112 99 -105 133 114 159 0
108 -130 94 191 -160 -106 -107 97 121 110 -122 125 113 96 -104 -101 250 92 -102 132 -142 -149 128 -93 111 100 98 109 -95 -103 -127 135 -141 -116 -112 -99 -105 133 -114 159 0
-108 130 191 160 106 107 121 -110 -122 125 -113 -104 -101 250 -102 132 142 -149 -128 111 -100 -109 -103 -127 135 -141 116 -112 105 -133 114 -159 0
81 73 -108 84 -85 130 -94 75 -87 -82 74 191 -160 106 79 107 -80 97 72 -121 88 -110 122 125 -113 96 -104 -78 101 83 -91 250 -76 -92 -102 -90 -86 -77 -132 89 -142 149 128 -93 -111 100 -98 109 -95 103 -127 135 -141 -116 -112 99 105 -133 -114 159 0
-81 -73 108 -84 -85 130 -94 -75 87 -82 -74 191 -160 106 -79 107 -80 97 -71 72 121 -88 -110 122 125 113 -96 -104 78 -101 -83 91 -250 76 -92 -102 90 -86 -77 132 89 -142 -149 -128 93 111 -100 -98 109 -95 -103 127 135 -141 -116 -112 -99 105 -133 114 -159 -123 0
108 85 -130 -94 87 191 -160 -106 -107 -97 121 -88 110 122 125 -113 -96 -104 -101 91 -250 92 -102 -90 -86 132 -89 142 -149 128 93 -111 100 98 -109 95 103 -127 -135 141 116 -112 -99 -105 -133 -114 159 123 -115 0
-108 130 -94 -87 191 -160 -106 -107 97 -121 88 110 122 -125 -113 96 -104 101 -91 -250 92 -102 -90 -86 132 89 -142 -149 -128 -93 111 100 -98 109 -95 -103 127 -135 -141 116 -112 -99 105 133 114 -159 123 115 -124 0
-108 130 191 -160 -106 107 -121 110 122 -125 -113 -104 250 102 132 -142 149 -128 -111 -109 103 127 -135 141 -116 112 105 133 -114 -159 -123 115 -124 -164 119 0
108 -130 -94 -87 191 160 106 -107 -97 121 -88 110 122 -125 -113 -96 -104 101 91 -250 -92 -102 90 132 -89 -142 149 128 93 111 100 98 109 -95 103 127 135 141 -116 112 99 105 133 -114 -159 123 -115 124 -164 119 0
130 -191 -160 -121 110 122 -125 -113 250 132 142 -149 128 -111 127 135 141 116 -112 -133 -114 -159 -123 115 124 164 -119 147 -118 0
-108 -130 191 160 -107 -121 110 122 125 113 -250 -132 142 -149 -128 111 109 -127 135 141 116 112 -133 114 -159 123 115 124 164 -119 147 118 0
108 130 -191 -160 107 121 110 122 125 113 250 132 142 -149 -128 111 109 127 135 141 116 -112 -133 114 159 -123 -115 124 -164 119 147 118 0
-108 130 191 -160 -106 107 -121 110 122 125 -113 -104 101 -250 -102 132 -142 149 128 111 -100 98 -109 -103 -127 -135 -141 -116 -112 99 105 133 114 159 123 -115 -124 164 -119 -147 -118 -117 120 -151 137 139 0
108 -130 94 -191 -160 106 -107 -97 121 -110 -122 -125 -113 -96 -104 101 91 -250 92 -102 90 -132 89 -142 -149 -128 -93 111 100 -98 109 -95 -103 127 135 -141 116 -112 -99 -105 133 114 159 123 115 124 -164 119 -147 -118 117 120 151 -137 -139 0
130 191 160 121 -122 -125 113 -250 132 142 149 -128 -127 -135 141 116 133 -114 159 123 -115 124 -164 -119 147 118 117 120 -151 -137 -139 0
-130 -191 160 121 -122 125 250 132 -142 149 128 127 -135 141 133 -159 -123 -124 164 -119 -147 120 -151 -137 139 -156 -138 -126 0
108 130 -191 160 106 107 121 110 -122 125 113 -250 132 142 -149 -128 111 -109 -127 -135 141 116 112 105 133 114 -159 123 -115 -124 164 119 -147 -118 117 120 151 -137 -139 156 138 126 131 173 0
130 191 -160 121 122 -125 113 250 -132 142 -149 -128 -111 127 -135 141 116 112 -133 -114 159 123 115 -124 -164 -119 147 118 117 120 -151 -137 -139 156 138 126 131 173 129 -165 0
-130 -191 -160 121 -110 -122 -125 113 250 132 142 149 -128 -111 109 127 135 -141 116 -112 -133 114 159 123 115 -124 -164 -119 -147 -118 -117 120 -151 137 -139 156 -138 -126 131 -173 129 165 171 272 0
-130 191 -160 -121 122 125 250 132 -142 -149 -128 127 -135 -141 116 -133 -159 123 115 124 164 -119 -147 -118 -117 120 -151 -137 -139 156 138 126 131 173 129 165 171 -272 0
130 191 160 -121 122 125 250 -132 -142 -149 -128 127 135 -141 133 159 123 124 -164 119 147 118 120 151 -137 -139 -156 -138 -126 131 -173 -129 165 171 -272 153 -362 -134 203 0
108 130 -94 -87 -191 160 -106 107 -97 121 -88 -110 122 125 -113 -96 -104 101 -91 -250 -92 102 -90 132 -89 142 149 128 -93 -111 100 98 -109 95 -103 -127 -135 141 -116 112 99 105 133 -114 159 123 -115 -124 -164 -119 147 -118 -117 120 -151 137 -139 -156 -138 -126 -131 -173 129 -165 171 -272 -153 -362 -134 203 0
-130 -191 -160 121 122 -125 250 132 142 149 -128 -127 -135 -141 -133 159 -123 124 -164 -119 147 -118 120 -151 137 -139 156 138 -126 131 -173 129 -165 171 272 -153 362 134 203 0
-108 84 85 130 -94 -87 191 -160 -106 107 -97 121 88 110 -122 -125 -113 -96 104 101 91 250 -92 102 90 86 -132 89 -142 149 -128 -93 111 100 98 109 95 -103 127 -135 141 -116 112 -99 -105 -133 114 159 123 115 -124 164 -119 -147 -118 117 -120 -151 137 139 156 -138 -126 131 -173 129 165 -171 272 -153 362 134 203 -152 -184 0
-130 191 -160 121 -122 125 250 132 142 -149 -128 127 135 -141 133 -159 123 124 -164 119 -147 -118 -120 151 -137 -139 156 -138 -126 -131 173 -129 165 -171 272 153 -362 -134 203 152 -184 0
130 -191 -160 -121 110 122 125 -113 250 -132 -142 -149 -128 111 -127 135 141 -116 -112 133 -114 159 123 -115 124 -164 119 -147 118 -117 -120 -151 -137 139 156 -138 126 131 -173 129 165 -171 272 -153 -362 -134 203 -152 184 148 0
81 108 -84 85 -130 -94 87 -82 -191 -160 106 -79 -107 80 97 -121 -88 110 122 125 -113 96 104 78 101 -83 91 250 -76 -92 -102 90 -86 77 -132 89 -142 -149 -128 93 111 100 -98 109 95 103 -127 135 141 -116 -112 -99 105 133 -114 -159 123 115 -124 164 119 -147 -118 117 120 -151 137 -139 -156 -138 126 131 173 129 -165 171 272 153 362 -134 203 152 184 -148 -136 0
-130 -191 -160 121 110 -122 125 113 250 -132 -142 -149 128 111 127 -135 141 -116 -112 -133 114 -159 123 -115 -124 164 119 147 118 117 120 -151 137 -139 -156 138 126 131 -173 -129 165 -171 272 -153 362 134 203 152 184 -148 -136 0
81 73 -108 -84 -85 -130 -94 -75 -87 -82 -74 -191 -160 -106 -79 -107 -80 97 121 -88 110 122 -125 -113 -96 104 -78 -101 -83 91 250 -76 92 -102 90 86 -77 132 -89 142 149 -128 -93 111 -100 98 -109 -95 103 -127 -135 -141 116 112 -99 -105 133 -114 -159 123 115 -124 164 -119 -147 118 -117 120 151 -137 -139 156 -138 126 131 -173 -129 -165 -171 272 -153 -362 -134 203 -152 184 -148 -136 262 0
130 -191 160 -121 -122 125 250 -132 -142 -149 128 -127 -135 141 -116 -133 159 123 -115 -124 164 119 -147 118 117 120 -151 -137 -139 -156 138 126 131 -173 -129 -165 171 272 -153 -362 -134 203 -152 184 148 -136 -262 243 -145 -215 -198 0
130 -191 160 -121 -122 -125 250 -132 142 149 128 127 135 -141 116 -133 -159 123 115 124 164 -119 -147 -118 -117 120 151 -137 139 -156 -138 126 -131 173 -129 165 171 272 153 362 134 -203 152 -184 148 136 -262 243 145 215 198 0
-130 191 160 250 132 142 -149 135 141 -133 -159 -164 147 -151 -137 139 -156 138 131 -173 -165 171 -272 153 -362 134 -203 -152 184 148 -136 -262 243 -145 -215 198 -155 196 228 0
130 -191 160 -250 132 142 -149 -128 135 -141 -133 -159 -164 147 -151 137 -139 -156 138 131 -173 -129 -165 171 272 -153 362 134 -203 -152 184 -148 -136 -262 -243 145 -215 198 -155 -196 228 -247 0
-191 160 -250 142 -149 141 -159 -164 147 151 -137 -139 156 138 173 165 -171 272 153 362 -203 -152 184 148 -262 -243 145 215 -198 -155 -196 228 247 154 0
-81 108 84 85 -130 -94 87 -82 -191 160 106 -79 107 80 -97 -121 -88 -110 -122 -125 113 96 104 78 -101 -83 -91 250 76 92 102 90 -86 -77 -132 89 -142 149 -128 93 111 100 98 109 -95 -103 -127 135 -141 -116 -112 99 105 133 -114 159 -123 115 -124 164 -119 -147 118 -117 120 151 137 139 -156 138 -126 -131 -173 129 -165 -171 272 -153 362 -134 -203 152 184 148 -136 262 -243 -145 215 198 -155 196 -228 -247 154 0
191 160 250 -142 -149 135 141 -159 164 -147 -151 137 139 -156 -138 173 -165 171 -272 -153 362 203 -152 184 148 -136 262 -243 -145 -215 198 155 196 -228 -247 -154 -146 0
191 -160 -250 -142 149 -141 -159 164 -147 -151 137 -139 -156 138 -173 -165 -171 272 -153 -362 -203 152 184 -148 262 243 145 -215 198 155 196 228 -247 154 -146 0
-191 160 -250 142 -149 -141 -159 164 147 151 137 139 -156 -138 -173 -165 -171 -272 -153 362 203 152 -184 -148 -136 -262 243 -145 -215 -198 155 196 228 -247 154 146 189 0
-191 160 -250 142 149 141 159 164 147 -151 137 -139 156 -138 -173 165 -171 272 153 362 -203 -152 -184 148 -136 -262 243 -145 215 198 155 -196 -228 247 154 146 189 143 0
191 160 -250 -142 -149 -141 -159 164 -147 -151 137 139 -156 138 -173 -165 171 -272 153 -362 -203 152 -184 -148 -136 262 -243 -145 -215 -198 -155 196 228 247 -154 -146 -189 -143 0
191 160 250 142 149 135 141 -159 164 147 -151 -137 -139 156 138 -173 -165 171 -272 -153 362 203 -152 -184 -148 136 -262 243 145 215 -198 -155 196 -228 -247 154 146 189 143 140 -318 -144 -163 150 0
-130 191 160 -121 122 125 250 132 142 149 128 -127 135 141 133 -159 123 124 -164 -147 -151 137 139 156 -138 126 -131 173 -129 165 171 272 153 362 134 -203 -152 -184 148 136 -262 -243 145 215 198 155 -196 228 247 -154 -146 -189 -143 -140 318 144 -163 150 0
-191 160 250 -149 159 -164 -147 151 -156 173 165 171 -272 -153 362 203 -152 184 148 262 243 -215 -198 155 196 228 -247 -154 -146 -189 -318 163 150 169 -162 217 -188 0
-191 -160 -250 142 -149 141 159 -164 147 -151 137 -139 156 -138 173 165 -171 272 153 362 203 152 184 148 -262 -243 145 -215 198 -155 196 228 247 -154 146 189 143 140 -318 144 163 -150 169 -162 -217 188 0
191 160 -250 -149 159 164 -147 151 -156 -173 -165 -171 272 -153 -362 -203 152 184 148 262 243 215 -198 -155 196 -228 247 154 -189 -318 163 150 169 -162 217 188 0
-191 -160 -250 -142 149 -141 159 -164 147 -151 156 -173 -165 -171 -272 -153 -362 203 152 -184 -148 -262 243 -145 -215 198 -155 -196 228 247 154 -146 -189 143 140 318 144 163 150 -169 162 217 188 0
-191 -160 250 -149 159 164 -147 -151 -156 173 -165 -171 -272 -153 -362 203 152 -184 -148 -262 243 -215 -198 155 196 228 -247 -154 146 189 318 -163 -150 -169 -162 217 -188 0
191 160 -250 149 159 -164 147 -151 -156 173 -165 171 -272 -153 362 203 -152 184 -148 -262 243 -145 215 198 -155 196 -228 -247 -154 146 -189 -143 318 144 -163 150 169 -162 -217 188 -161 0
-191 160 -250 132 -142 -149 135 141 133 159 164 147 151 -137 139 -156 -138 131 173 165 171 -272 153 -362 134 -203 -152 184 -148 -136 262 243 145 -215 -198 155 -196 228 -247 154 146 189 -143 140 318 144 163 150 169 162 -217 -188 161 157 0
191 -160 -250 -149 159 164 147 151 -156 -173 -165 171 -272 -153 -362 203 152 184 -148 262 -243 -145 -215 -198 155 -196 -228 -247 154 146 -189 -143 318 -144 -163 -150 -169 162 217 188 -161 -157 -176 167 209 -200 0
-191 -160 -250 149 -159 164 -147 151 -156 173 -165 171 272 -153 -362 -203 152 -184 -148 262 -243 215 198 155 -196 -228 -247 154 -189 318 -163 150 169 -162 217 188 161 -157 176 -167 209 -200 0
-191 160 250 -159 -164 156 -173 165 171 272 -362 203 184 -262 243 215 198 -155 196 228 247 -154 -189 318 163 169 162 217 -188 -161 157 176 167 209 -200 -174 0
191 -160 250 -149 159 164 147 -151 156 -173 165 -171 -272 -153 -362 203 152 184 148 -262 243 215 198 155 -196 -228 247 -154 -189 -318 163 -150 -169 162 217 -188 -161 -157 176 -167 209 200 174 0
-191 -160 -250 -149 159 -164 147 151 156 173 -165 171 272 -153 -362 203 152 -184 -148 262 -243 145 -215 -198 155 196 -228 247 -154 -146 189 318 -144 163 -150 -169 162 -217 -188 -161 157 176 167 -209 200 -174 0
191 160 250 149 -159 164 147 151 -156 -173 -165 -171 -272 153 362 203 -152 184 148 -262 243 215 -198 155 196 -228 -247 -154 -189 318 -163 -150 169 162 217 188 161 157 176 167 209 200 -174 0
-191 -160 250 142 149 141 -159 164 -147 151 -137 -139 156 -138 -173 -165 171 -272 -153 362 203 -152 184 148 262 -243 145 215 198 155 196 -228 247 -154 -146 189 143 140 -318 -144 -163 150 -169 -162 -217 188 -161 -157 176 -167 -209 200 174 0
-191 -160 -250 159 164 156 -173 165 171 272 -362 -203 184 262 243 215 -198 -155 -196 -228 -247 154 189 318 163 -169 162 -217 -188 161 157 -176 -167 209 -200 -174 0
191 -160 -250 142 -149 -141 159 -164 147 151 137 -139 -156 138 173 165 -171 -272 153 -362 203 152 -184 -148 -262 -243 -145 -215 -198 -155 -196 228 -247 -154 146 189 143 -140 318 144 -163 -150 -169 -162 217 188 -161 157 -176 -167 209 -200 -174 0
-191 -160 -250 -159 -164 156 173 165 -171 -272 -362 -203 184 -262 -243 -215 198 155 196 228 247 154 -189 -318 163 169 -162 217 188 -161 -157 -176 -167 209 200 174 -308 0
-191 -160 250 -149 -159 164 -147 -151 156 173 -165 171 272 153 -362 -203 -152 184 -148 -262 -243 145 -215 198 -155 -196 228 247 -154 146 -189 -143 318 144 163 -150 169 -162 -217 -188 161 157 -176 167 -209 -200 -174 -308 -237 0
191 160 250 -142 -149 141 159 164 147 -151 -156 -173 -165 -171 -272 -153 -362 203 152 184 148 262 243 145 215 -198 155 196 228 -247 -154 -146 189 143 -140 318 -144 163 -150 -169 162 217 188 -161 157 176 -167 -209 -200 174 -308 -237 -158 0
-130 -191 -160 125 -250 132 -142 -149 128 -127 -135 -141 -133 159 -123 -124 -164 -147 -151 137 139 156 138 126 131 -173 -129 165 171 272 153 362 -134 -203 -152 184 148 136 262 -243 -145 215 -198 155 -196 -228 -247 154 -146 -189 -143 -140 318 144 163 -150 169 -162 217 188 -161 -157 -176 167 -209 200 174 308 237 -158 0
-191 160 250 149 -159 -164 147 -151 -156 -173 -165 -171 -272 -153 -362 -203 152 184 -148 -262 243 -145 -215 -198 155 -196 228 -247 -154 -146 189 318 -163 -150 169 -162 -217 -188 -161 157 176 -167 -209 -200 174 -308 -237 158 0
-108 130 191 -160 106 -107 121 110 122 -125 113 104 250 -102 132 142 149 -128 111 109 -103 -127 135 141 -116 -112 105 -133 114 -159 123 -115 124 -164 119 147 118 117 -120 151 -137 -139 -156 -138 -126 -131 173 129 165 -171 -272 -153 -362 134 203 -152 184 148 -136 -262 243 145 -215 -198 155 196 228 247 -154 -146 -189 143 140 318 144 -163 150 -169 162 217 -188 161 157 176 167 209 -200 -174 308 237 158 0
191 160 250 -159 -164 156 173 -165 -171 -272 -362 203 184 -262 -243 -215 -198 -196 -228 247 189 318 163 169 -162 -217 -188 161 -157 -176 -167 -209 200 174 -308 237 -158 -178 0
191 -160 250 -159 -164 156 -173 165 171 -272 -362 -203 -184 262 243 -215 -198 -196 228 247 -189 -318 -163 169 -162 217 -188 161 -157 176 167 209 -200 -174 -308 237 158 178 0
191 -160 250 -149 159 164 -147 151 156 173 -165 -171 272 -153 -362 -203 152 184 148 262 -243 215 198 -155 196 228 247 -154 189 318 -163 150 169 162 217 188 161 157 -176 -167 209 -200 -174 308 -237 -158 -178 264 -277 300 0
-191 -160 -250 -149 -159 164 147 151 156 173 165 -171 272 153 362 -203 152 -184 -148 262 -243 215 -198 -155 196 -228 247 -154 189 -318 -163 150 -169 162 -217 -188 -161 -157 176 167 209 200 174 -308 -237 -158 -178 264 -277 300 220 -166 245 0
-191 160 250 -159 164 -151 -156 -173 -165 -171 -272 -153 362 203 152 184 -262 243 215 198 -155 196 -228 247 154 -189 318 -163 150 -169 -162 217 188 -161 157 -176 167 -209 -200 -174 -308 -237 158 178 264 277 -300 220 -166 245 0
191 -160 -250 142 -149 141 159 -164 147 151 -139 -156 173 165 171 272 -153 -362 203 152 -184 148 262 -243 145 215 198 -155 196 -228 247 154 146 189 -143 -140 -318 144 163 150 -169 162 217 -188 -161 157 176 167 209 200 174 308 -237 -158 178 -264 277 300 -220 -166 -245 -181 0
108 -130 94 191 -160 106 107 -97 -121 -88 -110 122 -125 -113 96 104 -101 91 -250 -92 -102 90 132 89 -142 -149 -128 93 111 -100 -98 109 95 103 127 135 141 116 112 99 105 133 114 159 123 -115 -124 164 119 -147 -118 -117 -120 151 137 -139 -156 138 126 -131 -173 -129 -165 171 272 -153 362 -134 -203 152 184 -148 136 -262 243 -145 215 198 155 196 -228 -247 -154 146 189 -143 -140 -318 144 -163 -150 169 -162 217 -188 -161 157 176 -167 209 200 -174 308 -237 158 178 264 -277 -300 -220 166 245 -181 0
191 -250 164 173 165 -171 -272 -362 -203 -184 262 243 215 198 -196 -228 247 189 318 163 -169 162 217 -188 161 176 167 209 200 -174 -308 237 -178 264 277 -300 220 166 -245 -181 0
191 -160 250 164 -173 165 -171 272 362 203 -184 -262 -243 -215 198 196 -228 247 -189 -318 -163 169 -162 217 -188 161 -176 167 -209 -200 -174 308 237 -178 -264 -277 300 -220 166 -245 181 0
-191 -160 -250 149 -159 -164 147 -151 -156 173 -165 171 -272 -153 -362 -203 152 -184 -148 -262 243 -145 -215 -198 -155 -196 -228 -247 -154 -146 -189 143 -318 -144 163 -150 169 162 217 -188 -161 -157 176 -167 -209 -200 -174 308 -237 -158 178 -264 277 -300 -220 -166 -245 181 -235 0
-191 -250 -164 173 -165 171 -272 -362 -203 184 262 -243 -215 -198 -196 -228 247 189 -318 163 -169 162 -217 188 161 -176 -167 -209 200 -174 -308 -237 -178 -264 -277 -300 -220 -166 245 -181 -235 0
-191 -160 250 164 -173 165 -171 272 -362 203 -184 262 243 -215 -198 196 228 -247 189 -318 163 169 162 217 188 161 -176 167 -209 -200 -174 -308 -237 178 264 -277 -300 220 -166 -245 181 -235 0
191 -160 -250 -159 -164 156 -173 165 171 272 -362 203 184 -262 243 -215 -198 155 -196 228 -247 -189 -318 163 169 -162 -217 188 -161 -157 176 167 -209 -200 174 -308 -237 158 -178 -264 -277 300 -220 166 245 -181 -235 180 0
-191 160 -250 -149 159 -164 -151 156 173 165 -171 272 153 362 -203 -152 184 148 262 -243 215 198 155 196 -228 -247 -154 -189 -318 -163 150 169 -162 217 188 161 -157 -176 167 -209 -200 -174 -308 237 158 178 264 -277 300 -220 -166 245 181 -235 -180 0
-191 160 -250 159 164 156 173 -165 171 -272 -362 -203 -184 -262 243 215 198 -196 228 247 189 -318 -163 -169 -162 -217 -188 -161 157 176 167 -209 -200 174 -308 -237 -158 -178 264 -277 -300 220 166 -245 -181 235 -180 194 0
130 -191 -160 -121 -110 -122 -125 113 -250 -132 -142 149 -128 -111 127 -135 141 116 112 -133 -114 -159 -123 -115 124 164 -119 -147 118 117 120 151 137 139 -156 138 126 131 -173 129 -165 -171 -272 153 362 134 203 -152 -184 148 -136 262 -243 -145 215 -198 -155 -196 228 247 -154 -146 189 -143 -140 318 -144 -163 -150 -169 162 -217 188 -161 -157 -176 -167 -209 -200 174 308 -237 -158 -178 -264 277 300 -220 166 -245 -181 -235 180 194 183 0
191 250 -173 -165 -171 272 -362 203 184 -262 243 215 -198 -196 228 247 -189 -318 169 217 188 176 167 209 -200 174 308 237 178 -264 277 -300 220 166 245 181 235 -180 -194 183 -170 190 -284 0
-191 250 173 -171 272 -362 -203 -184 262 -243 -215 -198 196 228 -247 189 318 -169 -217 -188 -176 -167 209 -200 174 308 237 178 -264 -277 300 -220 166 245 181 235 180 194 -183 170 -190 284 168 0
191 160 250 159 -164 173 -165 -171 -272 -362 -203 184 -262 -243 -215 198 -196 -228 -247 189 318 -163 -169 -162 -217 188 161 176 -167 -209 200 -174 -308 -237 -178 -264 -277 -300 220 166 245 181 235 -180 194 -183 -170 190 -284 168 208 -175 0
191 -160 -250 142 149 159 -164 147 151 -156 -173 165 171 -272 153 -362 -203 152 -184 148 262 243 -145 -215 198 -155 -196 228 247 154 146 -189 -143 -318 144 163 150 169 -162 217 -188 -161 157 176 -167 -209 200 -174 308 -237 -158 -178 264 -277 300 -220 166 -245 -181 -235 180 194 -183 -170 -190 -284 168 208 175 -204 -182 0
-191 250 164 173 165 -171 -272 -362 -203 -184 262 243 -215 -198 -196 228 -247 189 318 -163 -169 217 188 176 167 209 200 -174 -308 237 -178 264 277 -300 -220 166 245 181 235 -180 194 -183 -170 190 284 168 -208 -175 -204 -182 0
-191 250 173 171 272 362 -203 184 -262 -243 -215 198 -196 -228 247 189 318 169 -217 188 -176 -209 200 -174 -308 237 178 -264 -277 -300 -220 245 -181 235 -180 -194 -183 -170 -190 284 -168 208 175 -204 182 0
191 -250 -173 171 272 362 -203 -184 -262 243 215 -198 196 228 -247 -189 318 169 -217 188 -176 167 -209 -200 174 -308 -237 -178 -264 -277 -300 220 245 181 235 -180 -194 183 170 -190 -284 168 208 -175 204 -182 0
191 250 -173 171 -272 -362 203 184 -262 -243 -215 -198 -196 -228 247 189 -318 169 -217 188 176 -209 200 174 308 237 -178 264 277 -300 220 -245 181 -235 -180 194 183 170 190 -284 -168 -208 175 204 182 317 0
191 -250 -173 -171 272 362 203 -184 262 -243 215 -198 -196 228 -247 189 318 169 217 -188 176 167 209 -200 -174 -308 -237 178 -264 -277 -300 -220 -245 181 235 180 194 -183 -170 190 284 168 208 175 -204 182 317 0
-191 -160 250 159 164 -151 156 -173 165 171 -272 -153 362 203 152 184 -262 243 -215 -198 -155 -196 -228 247 154 189 -318 -163 -169 -162 -217 188 161 157 -176 -167 -209 -200 174 -308 -237 -158 178 264 -277 -300 -220 166 245 181 235 -180 -194 183 -170 190 -284 168 208 175 -204 -182 -317 0
-191 -250 173 -171 -272 362 -203 184 -262 -243 -215 198 196 -228 -247 -189 318 169 217 -188 176 209 200 174 308 -237 -178 264 277 300 220 245 181 -235 180 194 -183 -170 -190 284 -168 208 175 -204 182 317 172 0
-130 -191 160 -121 122 -125 250 132 142 149 128 127 -135 141 -133 -159 -123 124 -164 147 151 -137 -139 156 138 -126 131 173 129 -165 171 272 -153 362 -134 -203 -152 -184 -148 136 262 -243 -145 -215 -198 -155 196 -228 -247 -154 146 -189 -143 -140 -318 -144 163 150 169 -162 -217 -188 161 -157 -176 167 209 200 174 -308 -237 -158 -178 -264 -277 300 -220 -166 245 181 235 -180 194 183 -170 -190 -284 168 208 175 -204 182 -317 -172 -185 0
-191 250 173 -171 272 -362 -203 -184 -262 -243 -215 -198 -196 228 247 -189 -318 169 -217 -188 -176 209 -200 174 -308 -237 178 264 277 300 220 245 -181 -235 -180 194 183 170 -190 284 -168 208 -175 -204 182 -317 172 185 312 0
191 250 272 -362 -203 184 -262 243 -215 -198 196 -228 247 189 -318 -217 -188 -176 -209 -200 -174 -308 237 178 264 -277 -300 220 -245 181 -235 180 194 183 190 -284 208 175 204 182 -317 185 312 0
-191 -250 272 -362 -203 -184 262 243 215 198 -196 -228 -247 -189 318 217 188 -176 209 -200 -308 237 178 264 -277 300 220 245 181 -235 180 194 -183 190 -284 -208 175 -204 182 317 -185 -312 0
191 -250 272 -362 -203 184 -262 243 215 -198 -196 -228 247 -189 -318 -217 -188 -209 -200 -308 -237 -178 -264 277 300 220 -245 -181 -235 180 194 -183 190 -284 208 204 182 -317 185 312 -179 -195 -177 340 -216 0
-191 250 -272 -362 -203 -184 -262 243 -215 198 -196 -228 247 189 -318 -217 188 -209 -200 -308 237 -178 -264 277 300 -220 -245 181 235 180 194 183 -190 -284 -208 -204 -182 317 -185 312 179 -195 -177 -340 216 0
-191 250 -272 362 -203 184 -262 243 -215 198 196 228 -247 -189 318 217 -188 -209 -200 308 -237 178 264 -277 -300 -220 -245 181 -235 180 194 -183 190 284 -208 -204 -182 317 -185 -312 -179 195 177 340 216 -199 -201 -285 -213 192 292 229 -259 187 -273 0
-191 250 272 362 203 184 -262 243 -215 -198 -196 228 247 -189 -318 -217 188 -209 -200 -308 237 -264 -277 -300 220 245 -235 -194 -190 -284 208 -204 317 -185 312 -195 -340 216 -199 -201 285 -213 -192 292 229 259 -187 273 -210 186 -230 0
-191 250 -272 362 203 262 243 -215 -198 -196 228 -247 189 -318 -217 188 209 200 -308 -237 264 277 -300 -220 245 235 194 190 284 -208 204 317 -185 312 195 340 -216 -199 -201 285 -213 -192 -292 229 259 187 -273 210 -186 230 -232 0
191 -250 -272 362 -203 -184 262 243 215 -198 -196 -228 -247 189 318 -217 188 -209 -200 308 -237 -264 -277 -300 -220 245 -235 -194 183 -190 -284 208 204 -317 185 -312 -195 -340 216 199 201 285 213 -192 292 229 -259 187 -273 210 186 230 232 0
191 -250 -272 362 -203 262 -243 215 198 -196 -228 247 189 -318 -217 -188 209 200 -308 237 264 277 300 -220 245 235 194 -190 284 208 204 -317 -185 312 195 -340 -216 199 -201 -285 -213 192 292 229 -259 187 -273 210 186 230 -232 225 0
-250 -272 -362 203 262 -243 215 198 -196 -228 247 -318 217 -209 -200 -308 237 -264 277 -300 220 245 -235 194 -284 -208 -204 -317 -312 -195 -340 216 199 201 285 -213 292 229 -259 273 -210 -230 -232 225 197 -193 0
191 250 -272 362 -203 184 -262 -243 -215 -198 196 -228 247 -189 318 217 -188 -209 200 -308 237 -264 277 300 -220 245 -235 194 -183 -190 -284 208 204 -317 -185 -312 195 340 216 -199 -201 -285 -213 -192 292 -229 259 187 273 -210 -186 -230 -232 225 197 193 -291 0
-191 -250 -272 362 -203 262 -243 215 -198 196 228 247 189 318 217 188 -209 200 308 -237 264 277 300 -220 245 -235 194 190 284 208 204 -317 312 -195 340 -216 -199 201 -285 213 192 292 229 259 -187 -273 210 186 230 -232 -225 -197 193 291 0
250 272 -362 203 262 -243 -215 198 -196 -228 -247 318 -217 209 200 308 237 -264 277 -300 220 245 235 194 284 -208 204 317 312 195 340 -216 199 201 -285 -213 292 229 -259 -273 -210 -230 232 225 197 193 -291 -236 -333 0
191 -250 272 -362 203 262 243 -215 198 196 228 247 189 -318 217 -188 -209 -200 -308 -237 264 -277 300 220 245 235 194 -190 -284 208 204 -317 -312 195 -340 216 -199 201 285 -213 192 292 229 259 -187 273 -210 -186 -230 232 225 197 -193 -291 -236 333 205 0
191 -250 272 362 203 184 262 -243 -215 198 -196 -228 247 189 318 -217 -188 -209 -200 -308 237 -264 277 -300 220 -245 181 -235 194 -183 190 -284 -208 -204 182 317 -185 312 -195 340 216 199 201 285 213 -192 -292 229 259 187 273 210 186 -230 232 225 197 -193 291 -236 -333 -205 0
250 -272 -362 -203 262 243 -215 198 196 -228 -247 318 217 209 200 308 237 -264 277 300 220 245 -235 -284 208 -204 317 312 -195 340 -216 -199 -201 -285 213 -292 -229 259 -273 210 -230 -232 -225 197 291 -236 333 205 211 0
-250 272 -362 203 262 -243 215 -198 -196 -228 -247 -318 217 -209 -200 308 237 264 -277 300 -220 -245 -235 194 -284 -208 204 317 312 195 340 216 199 201 285 -213 292 -229 -259 -273 210 230 232 -225 -197 193 -291 -236 333 205 211 202 0
191 -250 -272 -362 -203 -262 -243 -215 198 -196 228 247 189 318 217 188 209 200 -308 237 -264 277 -300 -220 -245 -235 194 -190 284 208 204 -317 312 -195 340 -216 -199 -201 -285 213 -192 -292 -229 -259 187 -273 210 186 230 232 225 -197 -193 291 236 333 -205 211 202 -214 325 0
250 -272 362 203 -262 243 215 198 228 -247 -318 -217 -209 -200 -308 237 264 277 300 220 245 -235 284 -208 -204 317 312 -340 216 199 -201 -285 -213 292 -229 259 -273 210 -230 232 -225 -291 236 -333 205 211 -202 214 325 0
250 272 -362 203 262 243 -215 198 -196 -228 247 318 -217 -209 -200 -308 237 -264 277 300 220 245 235 194 284 -208 -204 317 312 195 -340 216 -199 -201 285 -213 292 -229 -259 273 210 230 232 225 197 -193 291 -236 333 205 -211 202 -214 -325 0
-250 272 -362 -203 -262 -243 -215 228 247 318 217 -209 -200 308 237 264 -277 300 220 -245 235 -284 208 204 317 -312 340 -216 -199 201 -285 213 -292 229 -259 273 210 230 -232 225 291 -236 -333 -205 211 202 214 -325 0
-250 272 362 203 -262 243 215 -228 -247 -318 -217 209 200 -308 -237 264 277 300 220 -245 -235 -284 -208 204 -317 -312 -340 -216 -199 201 -285 213 292 229 259 273 -210 230 232 -225 -291 -236 -333 205 211 202 214 325 282 267 0
-250 272 -362 -203 -262 -243 215 228 -247 318 -217 -209 -200 308 237 264 277 -300 -220 -245 -235 284 208 -204 317 -312 -340 216 201 -285 -213 -292 -229 -259 273 210 230 -232 225 -291 -236 -333 -205 -211 -202 214 -325 -282 267 222 0
250 272 362 203 -262 -243 215 -228 -247 318 217 -209 -308 -237 -264 -277 -300 220 -245 -235 284 208 204 -317 -312 -340 -216 -285 213 292 -229 -259 273 210 230 232 225 291 -236 -333 205 -211 202 214 -325 282 267 -222 -212 0
250 -272 -362 -203 -262 243 -215 228 -247 318 217 209 308 237 -264 277 -300 220 -245 235 284 208 -204 317 312 340 -216 285 213 -292 -229 259 273 210 230 -232 -225 -291 -236 333 -205 211 -202 -214 -325 -282 -267 222 212 0
250 -272 -362 -203 262 -243 -215 228 -247 -318 217 209 308 237 -264 277 -300 -220 245 235 284 208 -204 -317 312 340 -216 -285 -213 292 -229 -259 273 210 -230 232 -225 291 236 333 -205 -211 -214 325 -282 -267 -222 -212 -207 0
-250 -272 362 203 -262 243 215 228 247 -318 -217 209 308 237 -264 277 -300 220 -245 -235 -284 208 -204 -317 312 -340 -216 285 213 292 229 259 273 -210 -230 232 -225 291 -236 -333 -205 211 202 -214 325 282 -267 222 212 -207 218 -269 219 206 0
250 -272 362 262 -243 -215 -228 -247 318 -217 -209 308 -237 264 277 -300 220 -245 -235 284 -208 317 -312 340 216 285 -213 -292 -229 -259 -273 -210 -230 232 225 291 236 -333 211 214 325 -282 267 222 -212 -207 218 -269 219 206 0
-250 272 -362 -203 262 243 -215 228 247 318 -217 209 -308 237 264 -277 300 -220 -245 -235 -284 -208 -204 317 -312 340 216 285 213 -292 229 259 -273 -210 -230 -232 225 -291 -236 -333 -205 -211 202 -214 -325 282 -267 -222 212 -207 218 269 -219 206 0
250 272 -362 262 243 -215 -228 -247 318 -217 209 308 -237 -264 277 300 220 -245 -235 -284 -208 317 -312 -340 -216 285 -213 292 -229 -259 -273 -210 230 -232 225 291 -236 -333 211 214 325 282 -267 222 -212 -218 -269 -219 0
250 272 362 262 -243 215 228 -247 -318 217 209 308 237 -264 277 300 -220 -245 -235 284 208 317 -312 340 216 285 213 292 -229 -259 -273 -210 -230 232 225 -291 -236 333 -211 214 325 -282 -267 222 212 207 218 269 -219 -206 -328 233 258 223 -283 0
-250 272 -362 -262 -243 -215 -228 -247 318 217 308 -237 264 -277 300 -220 245 -235 284 317 312 -340 216 285 213 292 229 -259 273 -210 -230 232 225 -291 -236 -333 211 214 325 -282 267 -222 -212 -218 -269 -219 -328 233 258 223 -283 0
250 272 362 -262 243 -215 228 247 318 217 -209 308 -237 -264 277 300 220 245 -235 -284 -208 -317 -312 340 -216 -285 -213 292 229 259 -273 -210 230 232 -225 -291 -236 333 211 214 325 -282 267 -222 212 -218 -269 -219 328 233 258 223 -283 238 0
-250 -272 362 -262 -243 215 -228 -247 318 -217 -308 -237 264 277 -300 220 245 -235 284 -317 -312 340 216 285 213 -292 229 259 273 -210 230 -232 225 -291 -236 -333 211 -214 -325 -282 -267 -222 -212 -218 269 219 -328 -233 -258 223 -283 -238 239 265 342 -248 244 0
250 272 -362 -262 -243 -215 -228 -247 -318 217 -308 -237 264 -277 300 -220 245 235 -284 -317 312 -340 216 285 213 -292 229 -259 -273 230 -232 225 291 -236 -333 214 -325 282 267 -222 218 269 -219 -328 233 -258 223 -283 238 239 -265 342 248 244 -224 0
-250 -272 -362 262 -243 215 -228 -247 -318 217 308 237 264 277 -300 220 245 235 284 -317 -312 -340 -216 -285 213 292 -229 259 -273 230 -232 -225 291 236 -333 214 325 282 267 -222 218 269 219 -328 233 -258 223 -283 -238 239 265 -342 248 -244 -224 0
250 272 -362 262 243 215 -228 -247 318 -217 308 237 -264 277 -300 220 245 235 284 317 312 340 -216 -285 -213 292 229 -259 273 230 232 225 -291 -236 -333 -214 325 282 267 222 -218 -269 219 328 233 -258 -223 283 -238 -239 -265 -342 248 244 -224 0
-250 272 362 -262 -243 -215 228 247 -318 217 -308 237 -264 -277 300 -220 245 -235 -284 -317 312 -340 216 285 -292 229 -259 273 230 -232 -225 -291 -236 -333 325 -282 267 -222 218 269 -219 328 233 258 223 283 238 239 -265 342 248 -244 -224 221 296 241 0
250 -272 -362 -262 243 215 -228 247 -318 -217 -308 -237 -264 277 -300 -220 245 -235 -284 -317 312 -340 216 285 213 -292 -229 259 -273 210 -230 -232 225 291 -236 -333 -211 214 325 -282 267 -222 -212 218 269 -219 328 -233 258 223 -283 -238 239 -265 -342 248 -244 224 221 296 -241 275 0
250 272 -362 262 243 -228 247 318 -308 237 -264 -277 -300 220 -245 235 -284 317 -312 340 285 292 -229 259 273 -230 232 -225 -291 236 333 325 -282 267 222 -269 -328 233 258 223 283 -238 239 265 -342 248 -244 -224 221 -296 241 275 -226 -276 -288 0
-250 272 -362 -262 -243 228 -247 -318 217 308 -237 264 -277 300 220 -245 -235 -284 -317 312 -340 -285 -292 -229 -259 -273 -230 232 -225 -291 236 333 -325 282 -267 222 218 269 219 328 -233 258 223 283 -238 -239 265 -342 248 -244 224 221 296 -241 275 -226 276 -288 0
-250 -272 362 262 243 -228 247 -318 308 237 264 -277 300 -220 245 235 284 -317 -312 -340 285 292 -229 259 -273 -230 232 225 -291 236 333 -325 282 -267 -222 269 328 233 258 -223 -283 238 -239 -265 -342 -248 244 -224 -221 -296 -241 -275 226 276 288 0
-250 272 -362 -262 243 -228 -247 318 -308 237 264 277 -300 245 235 284 317 312 -340 -285 -292 229 -259 -273 -230 232 225 -291 -236 333 325 -282 -267 -222 269 328 233 -258 223 -283 -238 239 265 342 -248 -244 224 296 -241 -275 226 -276 -288 -227 0
-250 272 362 262 243 228 -247 318 308 237 264 -277 300 -245 235 -284 -317 -312 -340 -285 292 229 -259 273 -230 232 -225 291 236 333 -325 -282 267 -222 269 -328 -233 258 -223 -283 238 -239 265 342 248 244 224 -296 -241 275 -226 276 288 -227 -234 0
-250 272 362 262 -243 228 -247 318 308 237 -264 277 300 245 -235 -284 -317 -312 340 -285 292 -229 -259 273 230 232 291 236 -333 -325 282 -267 269 -328 -233 258 -283 238 239 265 342 -248 -244 296 -241 -275 276 288 234 249 246 311 -256 0
250 272 -362 -262 -243 228 -247 -318 -308 -237 264 -277 -300 -245 -235 284 317 -312 -340 -285 292 229 -259 273 230 232 -291 236 333 325 -282 -267 -269 -328 233 -258 283 238 239 265 -342 248 244 296 241 275 -276 -288 234 249 -246 -311 256 0
-250 272 362 -262 243 228 247 -318 -308 237 -264 -277 300 245 -235 284 -317 -312 -340 285 -292 -229 -259 -273 -230 -232 -291 -236 333 -325 282 -267 -269 -328 233 -258 -283 238 239 265 342 -248 -244 296 -241 -275 -276 -288 -234 249 -246 -311 -256 329 -231 242 0
-250 272 -362 262 -243 -247 -318 -308 237 264 277 300 245 235 284 -317 -312 -340 -285 292 -259 -273 232 291 236 333 -325 282 267 -269 328 -233 -258 283 -238 239 -265 -342 248 244 296 -241 275 276 -288 234 249 -246 -311 256 -329 231 242 0
-250 272 362 262 243 247 -318 308 -237 -264 277 -300 245 -235 284 -317 312 340 -285 292 259 273 -232 -291 236 333 325 282 267 -269 328 233 -258 283 238 -239 -265 -342 -248 -244 296 241 275 -276 288 234 249 -246 -311 256 -329 242 289 -252 255 0
250 272 -362 -262 243 247 -318 -308 237 264 277 300 -245 235 -284 317 312 -340 -285 292 -259 -273 232 291 236 -333 325 -282 267 -269 328 -233 258 -283 238 239 -265 342 -248 -244 296 241 -275 -276 288 -234 -249 -246 311 256 -329 242 -289 -252 255 -240 -266 280 500 0
250 -272 -362 -262 -243 -247 -318 308 -237 264 -277 300 -245 -235 -284 317 312 340 285 292 259 -273 232 291 236 -333 -325 -282 267 269 -328 -233 258 283 238 239 -265 -342 -248 -244 -296 -241 275 -276 -288 -234 249 246 311 -256 329 242 289 -252 255 240 266 280 -500 281 -343 0
-250 272 362 262 -243 247 318 308 237 -264 277 300 245 235 284 317 -312 -340 285 292 259 273 -232 291 -236 333 -325 -282 -267 -269 -328 -233 258 283 -238 -239 265 342 248 -244 -296 -241 -275 276 -288 234 -249 -246 -311 256 -329 242 -289 -252 255 240 266 -280 500 -281 -343 0
-250 -272 -362 -262 -243 -247 -318 308 -237 -264 277 300 -245 235 -284 -317 -312 -340 -285 -292 259 273 -232 -291 -236 333 325 282 267 -269 328 233 -258 283 238 -239 265 342 -248 244 -296 241 -275 -276 288 234 -249 -246 -311 256 -329 -242 289 -252 255 240 -266 280 -500 -281 343 0
-250 -272 362 -262 243 -247 -318 308 -237 -264 277 300 245 235 -284 317 312 -340 -285 -292 259 273 -291 -236 333 325 -282 267 269 -328 258 283 238 239 265 -342 248 -244 -296 -241 275 -276 -288 234 -249 -246 -311 -256 -329 242 289 -252 -255 240 266 280 500 281 -343 0
-250 272 -362 -262 243 247 -318 308 237 264 277 300 245 -284 -317 -312 340 285 -292 -259 -273 -291 -333 -325 -282 -267 269 328 258 -283 238 239 265 -342 -248 -244 296 241 -275 276 288 -249 -246 311 -256 329 -242 289 -252 255 240 266 -280 500 -281 -343 0
250 -272 362 -262 243 -247 318 -308 264 -277 -300 -245 -284 317 312 -340 -285 292 259 -273 -291 333 -325 -282 267 -269 -328 -258 -283 -239 265 -342 -248 244 -296 241 -275 276 288 -249 246 311 -256 329 242 -289 252 -255 -240 -266 -280 -500 281 -343 0
250 -272 362 -262 243 -247 -318 -308 -264 277 300 -245 -284 -317 312 -340 -285 292 -259 -273 -291 -333 325 282 -267 269 -328 258 283 239 -265 -342 248 244 296 241 275 276 288 -249 246 -311 256 329 242 289 252 255 240 -266 280 500 281 343 0
250 -272 -362 262 243 -247 -318 308 264 277 300 245 -284 317 312 -340 285 292 -259 -273 291 333 325 -282 -267 -269 -328 -258 283 265 342 248 244 -296 -241 -275 -276 288 249 246 -311 -256 329 -242 -289 -252 -255 -240 -266 -280 500 -281 -343 0
-250 -272 362 262 -243 247 318 308 -264 -277 300 -245 -284 -317 312 -340 -285 -292 -259 273 -291 -333 -325 -282 -267 269 328 -258 -283 -265 342 -248 244 296 -241 -275 -276 288 249 246 311 256 329 -242 -289 -252 -255 -266 -280 -500 281 343 0
250 -272 -362 -262 -243 -247 318 308 -264 -277 300 245 284 -317 312 -340 -285 292 -259 273 291 -333 325 -282 267 -269 -328 258 283 265 342 248 244 -296 -241 -275 276 -288 -249 -246 311 256 329 242 -289 -252 -255 266 280 -500 281 -343 0
-250 272 -362 262 -243 -247 318 -308 264 277 -300 245 284 317 312 -340 285 -292 -259 -273 -291 333 -325 -282 267 269 -328 258 -283 265 -342 248 -244 -296 241 275 276 -288 -249 -246 -311 256 329 242 -289 252 -255 -266 280 500 281 -343 431 0
250 -272 -362 -262 -243 247 -318 -308 -264 277 300 -245 -284 317 312 340 285 292 259 273 291 -333 -325 282 -267 -269 -328 258 -283 265 342 -248 244 296 -275 276 -288 -249 246 -311 -256 329 -242 289 -252 255 -266 -280 500 -281 -343 -431 -299 0
-250 272 362 -262 243 247 318 -308 264 -277 -300 -245 284 317 -312 340 285 -292 -259 273 291 -333 325 282 267 269 328 -258 -283 -265 342 -248 -244 -296 -275 -276 -288 -249 246 311 256 329 -242 -289 252 255 -266 280 -500 -281 343 -431 -299 0
250 -272 362 262 -243 -247 318 -308 -264 -277 300 245 -284 317 312 -340 -285 -292 259 -273 291 333 -325 -282 -267 269 328 -258 283 -265 342 248 -244 -296 275 276 -288 249 246 311 256 329 242 289 -252 255 -266 -280 -500 281 343 -431 -299 0
250 272 362 -262 -243 247 318 -308 264 277 -300 245 284 317 -312 -340 285 292 259 -273 291 333 -325 -282 -267 269 -328 -258 283 -265 342 -248 -244 296 275 -276 288 249 -246 -311 -256 -329 242 289 252 -255 -266 -280 -500 281 -343 -431 -299 0
250 272 -362 -262 -247 -318 -308 264 277 300 245 284 -317 -312 340 285 292 -259 -273 -291 -333 325 -282 -267 269 328 -258 -283 265 -342 -248 -244 -296 275 276 -288 -249 246 -311 -256 -329 289 -252 255 -266 -280 500 281 343 431 -299 254 0
250 272 362 -262 -247 318 308 264 -277 300 -245 284 317 312 -340 285 292 259 -273 291 -333 -325 282 -267 269 328 258 283 -265 342 248 244 -296 275 276 288 -249 246 311 -256 -329 -289 252 255 -266 280 -500 -281 -343 431 299 -254 301 -303 271 0
250 -272 -362 262 247 -318 -308 264 277 -300 245 -284 317 -312 -340 -285 292 -259 -273 291 -333 325 -282 267 -269 -328 -258 283 -265 342 -248 244 296 275 -276 -288 -249 -246 311 -256 -329 -289 -252 -255 -266 -280 -500 -281 343 -431 299 -254 301 -303 -271 -257 -261 0
-250 -272 362 262 -247 -318 308 -264 -277 300 284 317 -312 340 -285 -292 -259 -273 291 333 -325 -282 267 269 328 -258 283 -265 342 -248 296 -275 276 288 -249 -246 -311 -256 329 -289 -252 -255 -266 280 -500 -281 343 -431 -299 254 301 -303 -271 -257 261 251 -371 0
250 272 362 262 318 308 264 277 -300 -284 -317 312 -340 285 -292 259 273 291 333 325 282 -267 -269 -328 -258 283 265 -342 -248 -296 -275 276 -288 249 311 256 -329 289 -252 -255 266 -280 -500 -281 -343 431 299 -254 -301 303 -271 -257 -261 251 371 -293 0
250 272 362 262 -318 308 -264 -277 300 -284 317 312 340 -285 292 259 273 -291 -333 325 282 267 269 -328 258 283 -265 -342 296 -275 -276 288 249 -311 256 329 289 252 255 -266 280 -500 -281 -343 -431 -299 254 -301 303 271 257 -261 251 -371 -293 0
-272 -362 262 318 -308 -264 -277 300 284 -317 -312 340 285 -292 259 273 291 -333 -325 282 -267 -269 328 258 283 265 342 -296 275 276 288 -311 -256 329 289 252 -255 -266 -280 -500 -281 -343 431 -299 -254 301 -303 -271 -257 -261 -371 293 263 0
272 -362 -262 318 -308 264 277 300 284 -317 312 -340 -285 -292 259 273 -291 333 -325 282 -267 269 328 -258 -283 265 342 296 275 -276 -288 311 256 329 -289 266 -280 -500 281 -343 -431 -299 301 -303 271 -257 261 -371 -293 263 290 0
272 -362 262 -318 308 264 -277 300 -284 317 312 340 285 -292 259 -273 291 -333 325 -282 267 269 -328 -258 -283 265 342 296 -275 276 -288 311 256 -329 -289 -252 -255 -266 280 500 -281 -343 431 299 254 301 -303 271 -257 261 -371 -293 -263 253 290 335 0
272 362 262 -318 308 264 -277 300 284 -317 312 -340 -285 -292 259 -273 291 333 325 282 267 269 -328 -258 -283 265 -342 296 -275 -276 -288 311 256 329 289 255 266 280 500 281 -343 -431 -299 -301 -303 271 -257 261 371 293 -263 290 335 0
272 -362 262 -318 -308 264 277 -300 284 -317 -312 340 -285 -292 259 -273 291 -333 325 -282 -267 -269 -328 -258 283 -265 -342 -296 -275 -276 288 311 -329 -289 -266 280 -500 -281 343 -431 299 -301 303 -271 -257 261 -371 293 -263 -290 -335 -260 0
272 -362 262 318 -308 -264 -277 300 -284 317 -312 340 -285 292 259 -273 -291 333 -325 282 267 -269 328 283 -265 342 296 275 -276 288 -311 -329 289 -266 280 -500 281 -343 -431 299 301 -303 -271 -261 371 293 263 -290 -335 260 0
-272 -362 262 -318 -308 264 277 -300 284 317 312 340 285 -292 -259 273 -291 -333 -325 -282 267 -269 -328 -283 -265 -342 296 275 -276 288 -311 329 -289 266 280 500 -281 343 -431 -299 -301 -303 271 -261 371 -293 263 -290 -335 -260 -268 0
272 -362 262 318 -308 -264 -277 -300 284 -317 -312 -340 285 292 -259 -273 -291 -333 -325 -282 -267 -269 -328 258 -283 -265 -342 296 -275 -276 288 311 329 -289 266 280 -500 -281 343 431 -299 301 303 271 -257 -261 -371 -293 -263 290 335 -260 268 -274 -309 0
272 -362 262 -318 308 264 -277 -300 -284 -317 -312 340 285 -292 273 -291 -333 -325 -282 267 -269 -328 283 265 -342 296 275 276 -288 311 -329 289 -266 -280 -500 -281 343 -431 299 -301 303 -271 261 371 -293 263 290 335 260 -268 274 -309 0
272 362 -262 -318 308 264 277 -300 -284 -317 -312 340 285 292 -259 273 -291 -333 325 -282 -267 -269 -328 -283 265 342 -296 275 276 -288 311 -329 289 266 280 -500 281 -343 431 -299 301 -303 -271 261 371 -293 263 -290 -335 260 268 274 309 0
-272 -362 -262 318 308 -264 277 -300 -284 -317 312 340 285 292 273 291 333 325 -282 267 -269 328 -283 -265 342 296 275 -276 288 311 329 289 -266 280 500 -281 -343 431 -299 301 -303 -271 -261 -371 293 263 290 335 -268 -274 309 0
-272 -362 318 -308 264 -277 -300 284 317 312 -340 -285 -292 273 291 -333 -325 -282 267 269 -328 283 -265 -342 -296 -275 -276 -288 -311 329 289 -266 -280 500 281 -343 -431 -299 301 303 271 371 293 263 290 -335 -268 274 -309 0
272 362 318 -308 -277 300 -284 -317 312 -340 -285 292 273 291 333 -325 -282 -267 269 -328 283 -265 -342 296 275 -276 -288 -311 329 -289 -266 280 500 -281 343 -431 299 301 303 271 -371 -293 290 -335 268 274 -309 0
272 -362 -318 -308 277 300 -284 317 312 -340 -285 -292 -273 291 -333 -325 282 267 -269 328 283 -342 -296 275 -276 288 -311 -329 289 266 -280 500 281 -343 -431 -299 301 303 271 371 293 -290 -335 -268 274 -309 -336 -387 361 270 352 -320 323 0
-362 318 -308 277 -300 284 317 312 340 285 -292 291 -333 -325 -282 -328 -283 342 296 -275 -276 288 311 -329 -289 280 -500 281 343 -431 -299 301 303 371 293 -290 -335 -274 -309 336 -387 -361 352 -320 -323 278 287 491 0
272 -362 -318 -308 277 300 284 317 312 -340 -285 -292 273 -291 333 -325 -282 267 269 -328 -283 -265 342 296 275 276 288 -311 -329 -289 -266 -280 500 -281 343 431 -299 301 303 271 371 293 290 -335 -268 -274 309 336 -387 -361 270 352 -320 323 278 -287 -491 -305 0
-362 -318 308 -277 -300 284 317 -312 -340 -285 -292 -291 333 325 -282 328 -283 342 -296 275 276 288 311 -329 -289 -280 500 281 343 -431 -299 -301 -303 371 -293 -290 335 -309 336 387 361 352 320 323 278 287 491 305 0
-362 318 -308 277 300 284 -317 312 340 285 292 -291 333 -325 -282 -328 -283 -342 -296 275 276 -288 311 329 289 -280 500 -281 343 -431 -299 301 -303 371 293 -290 -335 -309 336 -387 361 352 320 323 278 -287 -491 305 0
362 -318 308 -277 300 284 -317 -312 -340 -285 -292 -291 -333 325 -282 -328 -283 -342 -296 -275 -276 288 311 -329 -289 -280 -500 281 -343 431 299 301 303 371 293 290 335 -309 336 -387 -361 352 -320 -323 278 287 -491 305 0
362 318 308 -300 -284 317 -312 -340 285 -292 -291 333 325 -328 -283 -342 -296 288 311 329 -289 -500 -343 431 -299 -301 -303 371 -293 -290 -335 309 336 387 -361 352 -320 323 287 -491 305 286 0
362 -318 308 300 -284 -317 -312 -340 285 292 291 333 -325 -328 283 342 296 288 -311 -329 289 -500 343 431 -299 301 -303 -371 -293 290 335 -309 336 387 -361 352 320 -323 287 -491 305 -286 295 0
-362 318 -308 -277 -300 -284 -317 -312 -340 285 292 291 333 -325 282 -328 283 -342 296 275 276 288 -311 329 -289 -280 500 -281 -343 431 -299 -301 -303 371 -293 290 -335 -309 -336 387 -361 352 -320 -323 278 -287 491 305 -279 286 295 0
362 318 -308 277 300 284 -317 -312 340 285 292 291 -333 325 -282 -328 283 -342 -296 275 276 288 -311 329 -289 280 -500 281 -343 431 -299 -301 303 -371 293 -290 -335 309 -336 -387 361 352 320 -323 278 -287 491 305 279 286 -295 297 0
362 318 -308 300 -284 317 312 340 -285 292 -291 333 325 -328 342 -296 288 311 -329 289 -500 343 431 299 -301 -303 -371 -293 -290 335 -309 -336 -387 361 -352 -320 -323 287 -491 305 -286 -295 -297 0
362 -318 308 300 317 -312 -340 -292 291 333 325 -328 -342 296 288 311 -329 289 -500 343 431 299 301 303 -371 -293 -290 335 -309 -336 -387 -361 -352 320 -323 -491 305 -295 297 294 0
362 -318 -308 -300 -317 312 -340 292 -333 -325 328 342 -296 -311 -329 500 -343 -431 -299 301 -303 -371 293 -335 309 -336 387 -361 352 -320 323 491 305 295 -297 -294 -307 -346 326 -327 -313 -298 0
-362 318 -308 300 -317 312 -340 292 333 -325 328 -342 -296 -311 329 -500 -343 431 299 301 -303 -371 293 -335 -309 -336 -387 -361 -352 320 -323 -491 -305 -295 297 -294 307 -346 -326 -327 -313 -298 319 348 -405 0
362 -318 308 300 317 -312 -340 -292 291 333 -325 328 342 296 288 311 329 289 -500 343 431 299 301 303 371 293 290 335 309 336 387 361 -352 320 323 491 305 -295 -297 294 307 -346 326 -327 -313 -298 319 -348 -405 339 0
-362 -318 -308 300 317 -312 340 292 291 -333 -325 328 -342 -296 -288 -311 -329 289 -500 343 431 299 301 303 -371 -293 290 335 309 -336 -387 -361 352 320 -323 -491 305 -295 297 -294 -307 346 -326 -327 -313 -298 -319 -348 -405 -339 0
-362 -318 308 -300 -317 312 340 -292 -291 333 -325 -328 342 296 -288 -311 -329 -289 500 343 431 299 -301 303 -371 293 290 -335 -309 336 -387 -361 -352 -320 -323 287 491 305 286 295 297 -294 307 346 -326 327 313 298 319 -348 405 339 0
362 -318 308 300 317 -312 340 -333 -325 -328 342 -296 -311 -329 -500 343 -431 299 -301 303 371 335 309 336 387 -361 -352 -320 -323 491 -305 295 297 -307 346 -326 -327 -313 -298 319 -348 405 339 0
-362 318 -308 300 -317 -312 -340 292 333 -325 328 342 -296 -311 -329 -500 343 431 299 301 303 371 -293 335 -309 336 387 -361 -352 320 323 491 -305 -295 297 294 307 346 -326 327 313 -298 319 -348 405 339 0
-362 -318 -308 -300 -317 312 -340 292 291 -333 325 328 -342 -296 288 311 -329 289 500 343 431 299 301 -303 -371 293 -290 -335 -309 336 -387 -361 352 -320 323 -491 305 -295 -297 294 -307 346 -326 327 313 298 319 348 -405 339 0
362 -318 308 -300 -317 312 -340 292 333 -325 328 342 -296 -311 -329 -500 -343 431 299 -301 303 371 -293 335 -309 -336 -387 -361 352 320 -323 -491 -305 -295 297 294 -307 346 326 -327 313 298 319 348 -405 339 -331 302 0
362 318 308 -300 317 -312 -340 -333 -325 328 342 296 -311 329 500 -343 -431 -299 -301 303 371 -293 -335 309 336 -387 -361 352 -320 -323 491 -305 -295 297 294 -307 346 -326 -327 -313 298 319 348 405 -339 -331 -302 0
-362 -318 -308 300 -317 -312 -340 292 333 -325 328 -342 -296 -311 329 500 343 -431 299 301 303 -371 293 -335 -309 336 -387 -361 352 -320 323 -491 -305 -295 297 -294 -307 -346 -326 327 -313 298 -319 -348 -405 -339 -331 -302 -330 -306 0
-362 -318 308 -317 -312 -340 -333 325 328 342 311 -329 -500 343 -431 -303 -371 -335 309 336 387 361 -352 320 323 491 305 307 -346 326 327 313 -319 -348 -405 339 -331 330 306 304 322 -374 -316 -356 0
-362 318 -308 317 -312 340 333 325 328 -342 -311 -329 500 -343 -431 -303 371 -335 309 -336 -387 -361 -352 320 323 -491 -305 307 346 -326 -327 313 -319 348 -405 339 331 302 -330 306 -304 322 -374 316 -356 0
-362 318 -308 317 312 -340 -333 325 328 -342 -311 -329 500 343 431 303 371 335 309 336 -387 361 -352 320 -323 491 -305 -307 -346 326 -327 -313 -319 348 405 -339 -331 330 -306 -304 322 374 316 -356 0
362 -318 -317 -312 -340 -333 -325 328 342 311 -329 500 -343 -431 371 -335 -309 -336 387 361 -352 -320 323 -491 346 -326 327 313 -319 -348 -405 -339 331 -330 -322 374 316 -356 -310 0
-362 318 -308 -300 -317 312 -340 292 291 333 -325 -328 -342 296 -288 311 -329 289 -500 343 431 299 301 303 371 -293 -290 335 309 336 -387 361 -352 320 -323 -491 305 295 297 294 -307 -346 326 -327 313 298 -319 -348 405 339 331 302 330 -306 304 322 374 -316 -356 310 -338 0
362 -318 -317 -312 340 -333 325 -328 -342 -311 329 -500 343 -431 371 335 -309 -336 387 -361 -352 -320 323 491 -346 326 -327 313 -319 -348 -405 339 -331 -330 322 -374 316 356 310 338 378 -360 -314 -315 0
-362 -318 -317 -312 -340 -333 325 328 342 311 329 500 343 -431 -371 335 -309 -336 -387 361 -352 320 323 491 -346 326 327 313 319 348 -405 -339 331 -330 -322 -374 -316 -356 310 338 -378 -360 314 315 0
362 318 -308 -317 -312 340 -333 325 -328 -342 311 -329 500 -343 -431 303 -371 335 309 336 -387 -361 -352 320 -323 491 -305 307 -346 326 327 313 -319 348 405 339 331 302 330 306 -304 322 -374 316 -356 310 338 -378 360 314 315 -334 0
362 318 308 -300 -317 312 -340 292 333 -325 -328 -342 296 -311 -329 500 -343 -431 299 301 -303 371 293 335 -309 -336 387 361 352 320 -323 491 -305 -295 297 -294 307 346 326 -327 313 298 319 -348 405 339 331 302 -330 -306 -304 -322 374 316 -356 310 -338 378 360 -314 -315 -334 0
362 -318 317 -340 -333 325 -328 342 -329 500 -343 -431 371 335 -336 -387 361 352 320 -323 491 -346 -326 327 313 319 348 405 -339 331 330 -322 -374 316 -356 338 -378 -360 314 -315 -334 0
-362 318 317 340 333 325 328 -342 -329 -500 -343 431 -371 -335 -336 -387 -361 -352 -320 -323 491 346 -326 327 319 -348 -405 339 -331 -330 -322 374 -316 356 -338 -378 360 315 334 341 0
362 318 317 -312 -340 333 -325 328 -342 -329 -500 343 -431 371 335 336 387 -361 352 -320 323 491 -346 326 -327 313 -319 -348 405 339 -331 -330 322 -374 -316 -356 338 378 -360 -314 -315 334 -341 0
362 340 333 325 328 342 329 -500 -343 -431 371 335 336 387 -361 -352 -320 -323 491 346 326 -327 -319 348 -405 -339 -331 330 322 374 -356 -338 378 -360 -334 -341 0
362 318 -317 -340 -333 325 -328 342 -329 -500 343 -431 -371 335 336 387 361 -352 -320 323 -491 346 326 -327 -319 348 405 -339 331 330 -322 -374 316 356 338 378 -360 -334 -341 0
-362 318 317 -340 333 -325 328 -342 329 500 -343 -431 -371 -335 336 -387 -361 -352 -320 323 -491 346 -326 -327 313 -319 -348 405 339 331 -330 322 374 -316 356 -338 378 360 314 315 -334 341 0
-362 318 340 -333 325 -328 -342 -329 500 343 431 -371 335 336 -387 361 352 320 323 -491 346 326 -327 -319 348 405 339 331 -330 322 -374 -356 -338 -378 360 -334 341 0
-362 -318 -317 -312 -340 -333 -325 -328 342 -311 -329 -500 -343 -431 371 335 336 387 361 -352 -320 323 491 346 326 327 -313 319 -348 -405 339 331 330 -322 -374 316 356 -310 338 -378 360 314 315 334 341 -324 0
-362 -318 -308 -317 -312 -340 -333 325 328 -342 -311 329 500 343 431 -303 -371 -335 309 336 387 361 352 -320 323 491 -305 -307 -346 326 327 -313 319 348 -405 339 -331 -330 306 304 322 374 316 -356 310 338 378 -360 314 315 334 341 -324 0
-362 -318 340 333 -325 328 342 -329 500 343 -431 371 -335 -336 387 -361 352 -320 -323 491 346 -326 327 -319 -348 -405 -339 -331 330 322 374 -356 -338 -378 360 334 341 -324 0
362 -340 333 325 -328 342 329 -500 -343 -431 371 335 -336 387 361 352 -320 -323 491 346 -326 -327 348 405 339 331 -330 322 -374 356 -338 378 360 -334 341 -324 0
-362 -318 -317 -340 -333 325 -328 -342 329 -500 -343 431 -371 -335 -336 387 -361 352 320 -323 -491 -346 -326 327 -313 319 -348 -405 339 -331 -330 -322 374 316 356 338 -378 -360 -314 -315 334 341 -324 -332 0
362 318 308 -300 317 312 340 333 325 328 342 -296 311 -329 -500 -343 431 -299 -301 -303 -371 -335 -309 -336 -387 -361 352 -320 323 491 305 -295 -297 -307 346 326 -327 -313 -298 -319 348 -405 -339 331 302 -330 -306 -304 -322 -374 316 -356 310 338 378 -360 314 315 334 341 -324 332 321 0
362 340 333 325 -328 342 329 500 343 431 371 335 -336 -387 361 -352 323 491 -346 326 327 348 405 339 -331 -330 322 374 -356 338 -378 360 334 -341 324 -332 -321 433 0
362 340 333 325 -328 342 329 -500 -343 -431 -371 -335 336 387 361 -352 320 -323 -491 346 -326 -327 -348 -405 -339 331 -330 -322 374 -356 338 378 -360 -334 -341 -324 -332 321 -433 0
362 318 -308 -317 -312 340 333 325 -328 -342 -311 -329 -500 -343 431 303 -371 -335 309 336 -387 -361 352 320 323 491 -305 307 -346 -326 -327 313 -319 -348 405 -339 -331 -330 -306 304 322 374 316 356 -310 338 378 360 -314 -315 -334 -341 -324 332 -321 -433 355 0
-362 340 333 325 -328 -342 329 -500 -343 431 -371 -335 -336 -387 -361 -352 -320 -323 -491 346 -326 -327 348 -405 -339 -331 -330 322 374 356 338 -378 360 334 341 -324 332 -321 -433 355 -354 358 0
-362 340 -333 325 -328 -342 -329 500 -343 431 371 -335 336 -387 -361 352 -491 -346 -326 -327 -348 405 -339 -331 330 374 -356 338 378 -360 -334 -341 -332 433 355 -354 358 461 -350 366 0
-362 340 333 342 329 500 343 431 371 -335 -336 387 361 -352 491 346 -348 405 -339 -331 330 374 -356 338 -378 -360 -334 341 332 433 355 -354 358 -461 -350 366 0
362 -340 -333 328 342 -329 -500 -343 -431 371 335 -336 -387 -361 352 -491 -346 -327 -348 405 -339 -331 330 -374 356 338 378 -360 -334 -341 332 433 355 354 358 461 -350 -366 -349 0
362 -340 333 325 -328 342 329 500 -343 431 -371 -335 336 -387 -361 -352 -323 491 -346 326 -327 -348 -405 339 331 330 322 374 -356 -338 -378 -360 -334 341 -324 332 321 -433 355 -354 358 -461 -350 366 349 0
-362 340 -333 -342 -500 343 431 371 335 336 387 -361 352 -491 -346 -348 -405 339 331 -330 374 -356 338 -378 360 -334 341 -332 433 355 -354 358 461 350 -366 349 -344 0
362 -340 -342 -500 343 -431 -371 -335 336 -387 361 -352 491 -346 348 405 -339 -374 -356 -338 -378 -360 -334 341 433 -355 354 358 461 -350 -366 349 -344 364 0
-362 340 -342 500 343 -431 -371 335 336 387 361 352 491 -346 -348 -405 -339 374 356 338 378 360 -341 -433 355 -354 358 461 -350 -366 -349 344 364 0
-362 -340 342 -500 -343 431 371 -387 361 -352 -491 346 -348 -405 -339 -374 356 -338 -378 -360 341 -433 -355 -354 358 461 -350 -366 -349 -344 364 -347 383 0
362 340 -342 -500 343 -431 -371 -387 361 -352 -491 -346 348 -405 339 -374 -356 -338 -378 -360 -341 -433 355 -354 -358 461 -350 -366 -349 344 -364 -347 383 0
362 -340 -342 500 343 431 -371 387 361 -352 -491 346 348 -405 339 -374 356 338 378 360 -341 433 355 -354 358 -461 -350 -366 349 344 -364 347 -383 0
362 -340 342 -500 343 -431 371 387 -361 352 -491 346 348 -405 -339 374 -356 338 -378 360 -341 -433 -355 -354 -358 -461 350 -366 349 -344 364 -347 383 -357 0
362 340 -342 -500 343 -431 -371 -387 361 352 491 -346 -348 -405 -339 374 356 338 -378 360 341 433 -355 -354 358 -461 -350 -366 -349 -344 -364 -347 -383 -357 0
362 340 342 500 343 -431 371 387 361 352 491 -346 348 405 339 374 -356 338 -378 -360 -341 -433 355 354 -358 461 350 -366 -349 344 364 -347 -383 -357 -388 380 -337 0
362 -340 -342 -500 343 431 -371 -387 361 -352 -491 346 348 405 -339 374 -356 -378 360 341 433 -355 -354 358 -461 -350 -366 -349 344 -364 -347 -383 -357 388 -380 -386 434 0
362 500 431 -371 387 -361 352 491 346 -348 -405 -374 356 -378 -360 433 -355 354 -358 461 -350 -366 -349 -344 364 347 383 357 -388 380 -386 434 372 365 0
362 -340 342 -500 343 -431 -371 -387 -361 -352 -491 -346 -348 405 339 374 -356 -378 -360 -341 433 355 354 -358 461 350 366 349 344 364 347 -383 -357 388 -380 386 -434 -372 -365 0
-362 -340 342 500 -343 431 371 387 361 352 -491 -346 348 -405 374 -356 -378 360 -341 433 -355 354 358 461 -350 -366 -349 -344 -364 -347 383 -357 -388 -380 386 434 372 -365 -345 351 -359 0
362 500 -431 371 -387 361 -352 491 -346 348 405 374 -356 378 360 433 355 -354 358 -461 350 -366 -349 -364 -347 383 -357 -388 380 386 -434 372 365 351 359 0
-362 -340 342 500 343 431 -371 -387 361 -352 491 346 -348 405 339 374 -356 338 -378 360 341 433 -355 -354 358 -461 -350 -366 -349 344 364 347 383 357 388 380 -386 434 -372 -365 345 -351 359 0
-362 500 -431 -371 387 -361 352 -491 -346 -348 405 -374 356 -378 -360 -433 355 354 -358 -461 350 366 349 -364 347 -383 357 -388 380 -386 -434 -372 365 -345 351 359 0
362 500 -431 371 387 -361 352 -491 -346 -348 -405 -374 -356 -378 -360 433 -355 354 358 461 -350 -366 349 364 347 383 -357 388 380 -386 -434 372 -365 -345 -351 359 0
362 500 -431 371 -387 -361 352 -491 -348 405 -374 -356 378 -360 433 -355 -354 358 -461 -350 366 349 -364 383 -357 388 380 386 -434 372 365 -351 -359 -353 400 370 0
-362 -500 -431 -371 -387 361 352 -491 -346 -348 405 -374 -356 -378 -360 433 355 354 358 461 -350 366 349 -344 -364 -347 -383 357 388 -380 386 434 372 -365 -345 -351 -359 -353 400 370 0
-362 -340 -342 -500 343 -431 -371 387 -361 352 491 -346 348 405 374 -356 -378 -360 341 -433 355 354 358 461 -350 366 349 344 -364 -347 -383 357 388 380 -386 -434 372 -365 -345 351 359 -353 -400 370 -408 369 0
362 -500 431 371 387 361 352 -491 405 374 356 378 -360 433 -355 354 -358 -461 -350 366 -364 -383 357 388 380 386 434 372 -365 -351 -359 353 400 370 408 -369 396 0
-362 500 -431 -371 -387 361 352 -491 346 -348 405 -374 356 -378 -360 -433 355 354 -358 461 -350 -366 -349 -344 364 347 383 -357 -388 -380 -386 -434 372 365 -345 351 -359 353 400 -370 -408 -369 396 0
-362 500 431 371 -387 -361 352 -491 405 -374 -356 -378 360 433 355 -354 -358 -461 -366 364 383 357 -388 380 386 434 -372 -365 -351 -359 -353 -400 370 408 369 396 435 0
-362 500 -431 -371 -387 -361 -352 -491 405 -374 -356 378 -360 -433 355 354 358 461 -350 -366 -364 383 357 -388 -380 386 434 372 365 351 -359 353 400 370 -408 -369 396 435 -401 0
-362 -500 -431 -371 387 -361 -491 -405 -374 356 378 360 433 -355 354 -358 461 -366 -364 383 -357 -388 -380 -386 -434 372 -365 -359 -400 -370 -408 369 396 -435 401 -409 404 0
-362 -500 -431 -371 -387 361 352 -491 -405 -374 -356 -378 -360 433 -355 354 -358 -461 366 -364 383 -357 388 -380 -386 -434 -372 365 -351 -359 353 400 370 -408 -369 396 435 401 409 -404 0
362 500 431 -371 387 -361 352 -491 405 374 356 -378 -360 -433 355 -354 358 -461 -366 364 -383 -357 -388 -380 386 434 -372 365 -359 -353 400 -370 -408 -369 396 435 401 409 404 430 -368 0
362 -500 431 371 -387 361 -491 -405 374 356 -378 360 -433 355 354 -358 461 366 364 383 357 -388 -380 386 434 372 365 359 400 370 408 369 -396 435 -401 -409 -404 430 -368 0
362 500 -431 371 -387 -361 -491 405 -374 -356 -378 360 433 -355 354 -358 -461 -366 -364 383 357 -388 380 386 -434 372 -365 -359 400 370 -408 -369 396 435 401 409 404 430 368 379 0
362 -500 -431 -371 387 361 491 405 -374 -356 -378 -360 433 -358 -461 -366 364 383 -357 -388 -380 -386 434 -372 -365 359 -400 370 -408 369 396 435 401 409 -404 430 368 379 0
362 -500 -431 371 -387 361 -352 491 405 -374 -356 378 -360 433 -355 354 358 461 -350 366 364 -383 -357 -388 -380 386 434 372 -365 351 -359 -353 400 -370 408 369 -396 -435 -401 -409 404 -430 -368 -379 -422 0
-362 500 431 -371 387 361 -491 405 374 -378 -360 433 461 -366 364 -383 388 -380 386 -434 372 -365 400 370 408 -369 -396 -435 401 409 -404 -430 368 379 422 -381 399 -375 0
500 -431 371 -387 491 405 -374 378 -433 -461 366 364 383 388 -380 -386 434 -372 365 400 -370 -408 -369 396 435 -401 -409 -404 -430 368 379 -422 381 -399 -375 363 377 -438 0
-500 431 371 -387 -491 -405 -374 -378 -433 -461 -383 388 -380 386 434 -372 400 370 408 369 -396 435 -401 -409 404 430 -379 422 -381 -399 -375 377 438 384 397 483 395 -385 -376 0
-500 431 -371 387 491 -405 374 378 -433 -461 383 388 380 386 434 -372 -400 370 408 369 -396 435 -401 -409 -404 -430 -379 -422 -381 399 -375 377 438 -384 397 -483 395 -385 376 0
500 431 -371 387 491 405 374 -378 -433 461 383 -388 380 -386 -434 -372 400 408 396 -435 401 -409 -404 430 379 422 -381 -399 375 -377 438 -384 397 483 395 -385 -376 373 -451 450 0
-500 431 -371 387 491 405 374 378 -433 -461 -383 388 -380 -386 -434 372 400 370 -408 -396 -435 401 -409 404 430 -379 422 -381 -399 375 377 438 384 397 -483 -395 -385 -376 373 451 450 0
-500 -431 -371 387 -491 -405 -374 -378 -433 461 -383 388 380 -386 434 -372 400 408 -396 435 401 409 -404 430 -379 422 -381 399 -375 377 -438 384 397 483 -395 385 376 373 -451 -450 414 0
500 431 387 491 -405 374 378 433 -461 -383 388 380 386 -434 400 -408 -396 -435 401 409 404 -430 -379 422 381 399 375 -377 438 -384 397 -483 395 -385 376 373 -451 -450 414 389 418 0
500 431 387 491 -405 374 -378 -433 461 -383 388 380 -386 434 -400 408 -396 -435 401 -409 404 -430 379 -422 381 399 375 377 -438 384 397 483 395 385 376 -373 451 450 414 389 -418 0
500 431 371 -387 -491 405 -374 378 433 -461 -383 388 -380 -386 -434 -372 400 408 396 -435 401 -409 -404 -430 379 422 -381 -399 -375 -377 -438 384 397 483 395 385 376 373 451 450 414 -389 418 477 -393 0
-500 -431 387 -491 -405 374 378 -433 -461 -383 388 380 386 434 400 408 -396 -435 -401 -409 404 430 379 422 381 -399 -375 377 438 -384 397 483 395 -385 -376 -451 -450 414 389 -418 -477 -393 0
-500 -431 387 491 -405 -374 -378 433 461 -383 388 -380 386 -434 400 -408 396 435 -401 409 404 430 -379 -422 381 399 375 377 438 -384 -397 -483 -395 -385 376 451 -450 414 389 418 477 393 -392 394 0
500 -431 387 -491 -405 378 -433 461 -383 388 380 -386 434 -400 -408 396 -435 401 -409 -404 -430 -379 -422 -381 399 375 -377 -438 384 397 -483 395 -385 376 -451 450 -414 -389 -418 477 393 392 394 382 398 0
500 431 387 491 405 378 -433 461 383 -388 380 -386 434 -400 -408 396 435 -401 409 404 430 379 -422 381 399 -438 -384 397 483 -395 385 451 -450 414 -389 418 -477 393 -392 394 -382 -398 419 0
500 -431 387 -491 405 -378 -433 -461 -383 388 -380 386 434 400 408 396 -435 401 409 404 430 379 -422 381 399 375 377 438 384 397 -483 395 385 376 451 450 -414 -389 418 477 -393 392 -394 -382 -398 419 0
-500 -431 -371 387 -491 405 374 -378 433 461 383 -388 380 -386 -434 372 400 -408 396 435 -401 409 -404 430 379 -422 381 399 -375 377 -438 -384 -397 -483 -395 -385 376 -373 -451 450 -414 -389 418 -477 393 -392 394 382 -398 -419 -440 -445 0
-500 -431 387 491 -405 -433 -461 -383 388 386 434 400 -408 -396 -435 401 409 404 -430 422 -399 438 384 397 -483 395 385 451 450 -414 389 -418 477 393 392 -394 -382 -398 -419 -440 445 0
500 431 -387 -491 -405 374 378 433 -461 -383 388 380 -386 -434 400 -408 396 435 -401 409 404 -430 -379 -422 -381 399 -375 377 438 -384 397 -483 395 385 376 -373 -451 450 414 389 418 477 -393 392 -394 -382 -398 -419 -440 445 0
-500 431 387 -491 -405 433 461 -388 386 -434 -400 -408 396 -435 401 -409 -404 -430 -422 399 438 384 -397 483 395 385 -451 -450 414 389 -418 -477 -393 -392 394 -398 -419 -440 -445 391 -390 0
-500 431 -387 491 -405 433 461 388 434 -400 408 396 -435 -401 409 -404 -430 422 -399 438 397 -483 -395 -451 -450 -414 -389 -418 -477 393 392 394 -398 -419 440 445 391 390 -406 0
-500 431 -387 491 -405 374 378 -433 -461 -383 388 380 -386 434 400 408 -396 435 401 -409 -404 -430 379 -422 -381 -399 -375 -377 -438 384 397 483 395 -385 376 451 450 -414 -389 418 -477 -393 392 394 382 398 -419 440 -445 -391 390 -406 0
-500 431 387 -491 -405 433 461 -388 386 434 400 -408 -396 435 401 409 404 430 422 -399 438 -384 -397 -483 395 -385 451 -450 414 389 418 -477 -393 392 -394 -398 419 -440 445 391 -390 406 -454 0
500 431 -387 491 -405 -433 -461 -388 386 434 400 -408 -396 435 -401 409 404 -430 422 -399 438 397 -483 395 451 -450 414 389 -418 -477 -393 -392 394 -398 419 -440 445 391 390 406 454 0
500 -431 -387 491 -405 -433 461 388 -386 434 400 -408 -396 435 401 -409 -404 -430 422 399 -438 397 -483 -395 -451 450 414 -389 -418 -477 -393 392 394 -398 419 440 -445 -391 -390 -406 -454 0
500 431 -387 491 -405 433 -461 388 -386 -434 400 408 396 435 401 409 -404 -430 -422 399 438 -397 -483 -395 385 451 450 -414 -389 -418 477 -393 392 394 -398 -419 -440 445 -391 390 406 -454 -402 0
-500 -431 491 405 433 461 434 -400 -408 -396 435 401 409 404 -430 422 399 -438 397 483 -395 451 450 -414 389 -418 -477 -393 392 394 398 419 440 445 -391 -390 -406 -454 -402 -475 0
-500 431 -491 405 433 461 434 -400 408 396 -435 -401 -409 -404 -430 -422 399 438 397 483 -395 -451 450 414 389 -418 -477 -393 392 394 -398 -419 -440 445 -391 -390 -406 454 402 -475 0
500 431 387 -491 -405 433 -461 388 434 -400 408 396 435 -401 -409 404 430 422 -399 438 397 -483 -395 451 -450 414 -389 418 477 393 -392 394 -398 419 440 445 -391 390 406 -454 402 475 0
500 -431 387 -491 405 433 -461 -388 -386 434 400 -408 -396 -435 -401 409 404 430 422 -399 438 384 397 -483 -395 385 451 -450 414 389 -418 477 -393 -392 394 -398 419 -440 -445 391 -390 -406 454 402 475 424 0
500 431 -491 405 433 461 434 400 -408 396 435 -401 -409 -404 430 422 399 -438 397 -483 -395 -451 -450 414 -389 -418 477 393 -392 394 -398 -419 440 445 391 390 406 -454 402 475 424 0
500 -431 491 405 -433 -461 -434 400 408 -396 435 401 -409 404 430 422 -399 -438 -397 -483 -395 -451 -450 414 418 -477 398 -419 -440 445 406 454 -402 475 424 0
-500 431 491 -405 433 461 -434 400 -408 396 435 401 -409 404 430 -422 399 -438 397 -483 -395 -451 450 414 418 477 398 -419 -440 -445 406 454 402 475 424 0
-500 431 491 -405 433 461 434 400 408 -396 -435 401 -409 -404 430 -422 399 438 397 -483 -395 -451 -450 414 418 477 -398 419 440 445 -406 454 -402 475 -424 0
-500 431 491 405 433 461 -434 400 408 -396 435 401 409 -404 -430 -422 399 438 397 483 -395 451 -450 414 418 477 398 -419 -440 -445 406 -454 402 -475 424 436 413 0
500 -431 -491 405 -433 461 434 400 -408 396 435 -401 -409 404 -430 422 -399 -438 -397 483 -451 -450 414 418 -477 -398 -419 -440 445 -406 454 402 -475 -424 -436 413 423 -416 443 0
500 -431 -491 -405 433 -461 -434 -400 408 435 401 -409 -404 -430 422 399 -438 483 451 -450 -414 -418 -477 398 -419 440 445 406 -454 402 -475 424 436 -413 -423 416 443 421 0
-500 -431 491 405 433 461 -434 -400 -408 -435 401 -409 -404 -430 422 -399 -438 483 451 -450 414 -418 477 419 440 445 406 454 402 -475 -424 -436 413 -423 -416 -443 -421 410 0
-500 -431 -491 -405 433 -461 434 -400 -408 -435 -401 -409 404 -430 -422 438 -483 451 -450 414 418 -477 419 440 -445 406 -454 -402 475 424 -436 -413 423 -416 443 421 410 -412 466 -403 0
500 431 -491 405 -433 -461 434 -400 -408 -435 -401 -409 404 430 422 438 483 451 -450 -414 -418 -477 419 -440 445 406 -454 -402 475 424 436 413 -423 -416 -443 -421 410 -412 466 403 0
500 431 -491 405 433 461 -434 -408 -435 409 -404 430 422 -438 483 451 450 -414 418 477 -419 -440 445 406 -454 -475 -424 436 413 423 416 443 421 410 -412 466 -403 0
500 -431 -491 405 433 461 -434 -408 435 -409 404 -430 -422 438 483 -451 -450 -414 -418 -477 419 440 445 -406 454 475 -424 -436 -413 423 -416 -443 421 -410 412 466 0
500 -431 491 -405 433 461 434 408 -435 -409 -404 -430 422 -438 483 451 450 -414 -418 477 -419 440 445 406 454 -402 475 424 -436 -413 -423 -416 443 -421 -410 -412 -466 403 0
500 -431 491 -405 433 -461 434 -408 435 409 -430 -422 438 -483 451 -450 414 -418 477 419 -440 -445 -406 454 475 -424 436 -413 423 -416 -443 421 410 412 466 490 0
-500 431 -491 -433 461 -434 408 -435 409 430 422 438 -483 451 -450 -414 418 -477 419 440 -445 -406 454 475 424 -436 -413 423 -416 -443 421 -410 -412 466 -490 -407 -417 -415 -479 0
-500 431 491 433 -461 -434 408 435 409 -430 422 438 -483 -451 450 414 -418 -477 419 -440 -445 -406 454 -475 424 436 413 423 -416 443 -421 -410 412 -466 490 -407 -417 415 479 -460 -441 -429 -411 0
500 431 -491 433 -461 -434 -408 435 409 -430 422 -438 -483 451 -450 -414 418 477 -419 440 445 -454 475 -424 436 -413 423 -416 443 -421 -410 412 -466 -490 -417 -415 -479 -460 441 -429 -411 493 0
500 431 491 -405 -433 -461 434 408 -435 409 -430 -422 438 483 -451 -450 414 418 -477 -419 -440 445 406 -454 475 -424 436 -413 -423 416 443 421 -410 412 466 -490 407 417 415 -479 -460 -441 -429 411 493 426 0
500 -431 491 433 -461 -434 435 -409 430 422 -438 483 -451 -450 -414 418 -477 419 440 -445 -454 475 424 -436 413 -423 416 443 421 -410 -412 -466 490 417 -415 479 -460 -441 -429 -411 -493 -426 -444 -455 0
500 431 -491 433 -461 434 435 409 -430 422 -438 483 451 450 414 418 477 419 -440 445 454 475 -424 436 413 -423 416 443 421 410 412 -466 -490 -417 415 -479 460 -441 429 411 493 426 -444 455 427 485 0
-500 431 491 433 -461 434 408 435 409 -430 -422 -438 -483 -451 450 -414 -418 477 419 -440 445 -406 454 475 -424 -436 413 -423 -416 443 -421 -410 -412 -466 -490 407 417 415 -479 460 -441 -429 -411 -493 426 -444 -455 -427 -485 -420 0
-500 431 -491 -433 461 -434 -435 430 -422 -438 483 451 -450 418 -477 419 -440 -445 -454 475 424 436 423 443 421 466 490 417 479 -460 441 429 -493 426 444 -455 -427 -485 420 458 -425 0
-500 -431 -491 433 461 434 -435 430 422 -438 -483 -451 -450 418 -477 -419 -440 -445 454 -475 424 436 423 -443 -421 -466 -490 417 -479 -460 441 429 -493 -426 444 -455 427 485 -420 458 425 0
500 -431 -491 433 461 -434 -435 -430 -422 -438 483 451 450 -418 477 419 440 445 454 -475 424 436 423 -443 -421 -466 -490 -479 460 -441 429 -493 426 444 -455 -427 485 420 458 -425 0
-500 431 -491 -433 -461 -434 -435 430 422 438 483 451 450 477 -419 440 445 454 475 424 436 423 443 -421 -466 -490 479 460 441 -429 -493 426 444 455 427 485 -420 -458 -425 0
-500 -431 -491 -433 -461 -434 -435 430 -422 438 483 451 450 -477 419 440 -445 454 -475 -424 436 -423 443 -421 466 490 479 460 441 -429 493 -426 444 -455 -427 485 -420 458 -425 0
500 431 -491 433 461 434 435 -430 -422 -438 -483 -451 -450 477 -419 440 -445 454 -475 424 436 -423 443 421 -466 -490 -479 460 441 -429 493 426 444 455 -427 485 420 458 -425 -464 0
-500 431 491 -433 461 434 435 430 422 -438 -483 -451 -450 -477 440 445 -454 -475 424 -436 -423 443 466 -490 479 -460 441 -429 -493 426 444 -455 -427 -485 458 425 464 439 -428 0
-500 -431 491 -433 461 -434 435 430 422 -438 483 -451 450 -418 -477 419 440 445 -454 -475 -424 -436 -423 443 -421 466 -490 -479 -460 -441 429 -493 426 444 455 -427 485 -420 458 425 -464 -439 -428 0
500 431 -491 -433 -461 434 -435 -430 -422 -438 483 451 450 418 477 419 440 -445 454 475 -424 -436 423 -443 -421 -466 490 -479 -460 -441 -429 -493 426 444 -455 -427 485 420 458 -425 -464 -439 428 0
500 431 491 433 -461 -434 -435 -430 -438 483 451 450 -477 440 445 -454 475 424 436 -423 -443 466 490 -479 460 -441 429 -493 -426 -444 455 -427 485 -458 425 -464 -439 428 0
500 -431 -491 -433 -461 434 435 -430 438 483 451 450 -477 -440 -445 -454 -475 -424 -436 -423 443 -466 -490 -479 460 441 429 -493 426 -444 455 -427 -485 -458 -425 464 439 -428 0
-500 -431 491 433 461 434 435 -430 438 -483 -451 -450 -477 -440 -445 -454 475 424 436 423 -443 -466 -490 -479 460 -441 429 -493 -426 444 455 -427 485 -458 425 -464 439 428 -472 0
500 -431 491 433 461 434 -435 430 -438 -483 451 450 477 -440 445 454 475 -436 443 466 -490 -479 -460 441 429 493 426 444 455 427 485 458 425 464 -439 -428 -472 0
-500 431 -491 -433 461 434 435 -430 422 438 -483 451 -450 477 440 -445 454 -475 424 -436 -423 -443 466 -490 -479 460 -441 429 493 426 444 -455 -427 -485 458 425 464 439 428 -472 -442 -449 -471 0
-500 -431 -491 -433 461 434 -435 -430 422 -438 -483 -451 -450 477 -440 445 -454 475 -424 436 423 443 -466 -490 479 460 -441 429 -493 -426 444 455 427 485 458 -425 -464 439 -428 -472 442 449 -471 0
500 -431 491 -433 461 -434 435 430 -438 -483 -451 450 -477 -440 -445 -454 475 436 443 -466 490 479 -460 441 429 493 -426 -444 455 -427 485 458 425 -464 439 428 -472 442 449 -471 0
-500 -431 -491 433 -461 434 435 -430 438 483 451 -450 -477 440 445 454 -475 -436 -443 -466 490 479 -460 -441 429 -493 -444 455 427 485 -458 -464 439 428 472 -442 449 471 0
500 -431 491 433 461 -434 -435 -430 -438 483 451 -450 -477 440 -445 -454 -475 -436 -443 466 490 479 -460 441 -429 -493 444 -455 -485 458 -464 439 -472 442 449 471 437 432 0
500 -431 -491 433 461 -434 435 -430 -422 -438 -483 451 -450 -477 -440 445 -454 -475 424 -436 423 443 -421 466 490 -479 -460 -441 -429 493 426 -444 -455 427 -485 -420 -458 425 -464 -439 -428 -472 -442 -449 471 -437 -432 498 0
-500 431 -491 -433 461 -434 435 430 -422 438 483 -451 450 -477 440 -445 454 475 424 -436 -423 443 -421 -466 -490 479 -460 441 429 493 426 -444 -455 427 485 -420 458 425 464 -439 -428 472 -442 449 -471 -437 -432 -498 0
-500 431 491 433 -461 434 -435 -430 438 -483 451 450 477 -440 445 454 475 -436 443 -466 -490 479 460 441 429 493 -444 455 485 458 464 439 428 472 -442 449 -471 -437 432 498 -489 0
500 491 -433 461 -434 -435 438 483 451 -450 477 -440 445 454 -475 436 443 -466 -490 479 460 -441 -493 444 -455 485 -458 -464 439 -472 442 449 471 -437 -432 -498 -489 465 -469 457 0
-500 -491 461 434 -435 438 483 451 -450 477 440 445 -454 -475 -436 -443 466 490 -479 -460 441 -493 -444 -455 485 458 464 439 -472 -442 449 471 437 498 489 465 469 457 0
500 491 461 -435 -438 -483 451 -450 -477 440 445 454 475 -436 443 466 490 479 -460 441 -493 -444 455 485 458 464 -439 472 442 -449 471 -437 498 489 465 469 -457 -448 0
500 491 461 -438 -483 451 450 -477 -440 445 454 475 436 -443 -466 490 -479 460 441 -493 -444 -455 485 458 464 -439 -472 442 449 471 -437 498 489 465 469 -457 -448 0
-500 -491 461 -438 483 -451 -450 477 440 445 -454 475 -443 466 490 479 -460 -441 -493 -444 -455 -485 458 464 439 472 442 -449 -471 -498 -489 -465 469 -457 448 488 0
-500 491 461 483 -451 450 -477 -440 -445 -454 -475 -443 -466 -490 -479 460 -441 -493 -444 455 485 458 -464 472 -442 -449 -471 -498 -489 -465 -469 -457 448 488 -447 -446 0
-500 491 -461 -483 -451 450 477 -445 -454 -475 443 466 490 -479 460 441 -493 444 455 -485 -458 -464 -472 -442 -449 -471 498 489 -465 469 457 -448 -488 -447 446 0
-500 -491 -461 -483 -451 -450 -477 445 -454 -475 -443 -466 490 479 -460 -493 -444 455 -485 -458 -464 -472 442 -449 471 -498 -489 465 469 457 448 488 447 446 487 0
500 -491 461 483 -451 450 477 -445 -454 475 -466 490 479 460 -493 -444 -455 485 458 -464 472 -449 471 -498 -489 -465 -469 -457 -448 488 447 446 487 459 456 478 0
-500 -491 -461 -483 451 450 -477 445 454 -475 466 -490 -479 -460 -493 444 -455 -485 458 -464 472 449 471 -498 489 -465 -469 -457 448 -488 447 446 487 459 456 -478 -486 -481 -494 -453 0
-500 491 461 483 -451 -450 -477 454 -475 466 -490 479 -460 493 455 -485 -458 -464 -472 449 471 -498 -489 465 -469 457 -448 -488 487 -459 456 478 486 -481 494 453 467 0
-500 491 461 -483 451 450 -477 -454 -475 -466 -490 -479 -460 493 455 -485 458 -464 -472 449 -471 498 -489 -465 -469 457 488 -487 459 -456 478 486 481 -494 -453 -467 452 -495 -484 0
500 491 -461 -483 -451 450 -477 454 -475 466 490 -479 -460 493 -455 -485 -458 464 472 -449 -471 498 -489 -465 -469 457 -488 -487 -459 -456 -478 486 -481 -494 453 467 -452 -495 -484 497 0
-500 -491 -461 -483 -451 -450 -477 -454 475 466 -490 -479 460 -493 -455 485 458 -464 472 449 -471 498 489 -465 469 457 488 -487 459 -456 -478 486 481 494 453 -467 452 495 484 -497 0
500 -491 -461 483 -451 -450 477 -454 -475 466 490 479 460 493 -455 485 458 464 -472 471 498 -489 465 -469 457 -488 487 459 456 -478 -486 -481 -494 453 467 452 495 484 -497 0
-500 491 461 -483 451 -450 -477 454 -475 -466 -490 479 460 -493 455 -485 458 464 -472 471 -498 489 465 -469 -457 -488 -487 459 456 478 -486 -481 -494 -453 467 -452 495 -484 497 -496 0
-500 491 461 483 -477 -454 -475 -466 490 -479 -460 493 455 -485 458 -464 -472 471 -498 489 465 -469 -457 488 487 -459 456 -478 -486 481 494 453 467 -495 484 497 -496 463 -473 0
-500 -491 -461 -483 477 -475 -466 -490 -479 -460 -493 485 -458 464 -472 471 498 -489 465 -469 457 -488 -487 -459 478 486 -481 494 -467 495 -484 -497 -496 463 473 -474 -499 0
500 -491 -461 -483 477 475 -466 490 479 -460 493 -485 -458 464 -472 -471 498 489 -465 -469 -457 -488 487 459 -478 486 -481 494 467 495 484 -497 496 -463 473 474 -499 -480 0
500 -491 461 483 451 450 -477 454 -475 466 -490 479 -460 -493 -455 -485 -458 464 -472 -449 471 -498 489 -465 -469 -457 -448 488 -447 446 487 459 -456 -478 486 -481 494 -453 467 -452 -495 484 497 496 463 -473 -474 499 -480 0
-500 -491 461 -483 -477 454 475 466 -490 -479 -460 493 -455 -485 458 464 -472 -471 -498 -489 465 469 457 -488 487 459 456 478 -486 -481 -494 453 467 -495 484 497 -496 463 473 -474 -499 -480 0
500 491 -461 483 -451 450 477 -454 -475 -466 490 -479 -460 -493 455 -485 -458 -464 -472 -471 498 -489 -465 -469 457 488 487 -459 -456 -478 -486 -481 -494 453 -467 -452 -495 -484 497 496 -463 -473 -474 -499 480 482 0
500 491 -461 483 -477 475 -466 490 -479 -460 -493 485 458 464 472 -471 498 -489 -465 -469 -457 488 -487 -459 -456 -478 486 -481 -494 467 -495 484 -497 496 463 -473 -474 -499 480 -482 -470 -462 0
-500 491 -461 -483 477 475 466 -490 -479 -460 493 485 458 464 472 -471 -498 489 -465 -469 -457 488 487 459 -456 478 -486 481 494 467 -495 484 -497 496 -463 473 -474 -499 480 -482 -470 462 0
500 -491 461 -483 477 475 -466 -490 -479 -460 -493 485 458 -464 -472 471 498 -489 465 -469 -488 487 -459 478 -486 -481 -494 467 495 -484 497 -496 463 473 474 -499 480 -482 -470 -462 0
-500 -491 461 -483 477 475 466 -490 -479 493 -485 464 472 -471 -498 489 465 469 488 487 478 -486 481 -494 -467 495 484 497 -496 463 -473 474 499 480 482 -470 462 492 -476 0
500 -491 461 483 -477 475 466 490 479 -493 485 464 472 -471 498 489 465 469 488 -487 -478 486 -481 -494 -467 -495 484 -497 -496 -463 473 474 -499 480 -482 470 -462 492 -476 0
500 491 483 477 -475 -466 -490 479 -493 -485 464 472 -471 498 489 465 469 -488 -487 -478 -486 -481 494 -467 495 484 -497 -496 463 -473 -474 499 480 482 470 -492 -476 0
-500 -491 483 477 -475 466 490 -479 -493 485 464 -472 -471 -498 -489 -465 -469 488 487 -478 486 481 494 467 -495 -484 497 496 463 473 474 -499 -480 -482 470 492 -476 0
500 -491 -461 -483 -477 -475 466 490 479 -493 -485 -464 -472 -471 498 489 465 469 -488 -487 478 486 481 -494 -467 495 -484 -497 496 -463 -473 474 499 480 482 470 -462 -492 -476 0
500 -491 -483 477 -475 -466 -490 479 493 -485 -472 471 498 -489 469 488 -487 478 486 481 -494 467 -495 -484 497 496 473 474 499 480 -482 470 492 476 -468 0
500 -491 483 477 475 -466 490 479 -493 485 472 471 498 489 469 488 487 478 486 -481 -494 467 495 -484 497 -496 -473 -474 499 480 482 470 -492 -476 468 0
-500 -491 -483 -477 475 -466 -490 479 493 485 472 -471 -498 489 469 488 -487 -478 -486 481 494 -467 495 -484 497 496 -473 -474 -499 480 482 -470 492 -476 -468 0
-500 -491 483 477 475 -490 -479 493 485 472 471 -498 489 469 488 -487 -478 -486 481 494 495 -484 -497 -496 473 474 499 480 482 -470 -492 -476 -468 0
-500 -491 483 477 475 490 -479 -493 -485 472 -471 -498 489 -469 -488 487 -478 486 -481 494 -495 -484 -497 -496 -473 474 499 -480 -482 -470 -492 -476 -468 0
-500 491 -483 -477 -475 490 -479 -493 -485 -472 471 -498 489 -488 487 478 -486 -481 -494 495 484 497 -496 -473 -474 -499 -480 482 -470 -492 476 0
500 -491 -483 -477 475 -490 -479 493 -485 -472 471 498 489 -488 -487 478 -486 -481 494 -495 -484 497 -496 473 474 499 -480 -482 492 476 0
500 491 -483 477 -475 -490 479 -493 485 472 -471 -498 489 488 487 -478 -486 481 494 -495 484 -497 496 -473 474 -499 480 -482 -470 492 476 0
-500 -491 -483 477 475 -490 -479 -493 485 -472 471 498 489 -469 -488 487 -478 -486 481 -494 -495 484 -497 -496 473 474 499 -480 482 -470 492 476 0
500 -491 -483 -477 475 -490 -479 -493 -485 498 489 488 487 478 486 -481 -494 495 -484 -497 496 473 474 -499 -480 482 -492 -476 0
-500 -491 483 477 475 -490 -479 -493 485 -472 -471 498 489 -469 -488 487 -478 -486 -481 494 467 -495 -484 497 -496 473 -474 -499 -480 -482 470 492 -476 -468 0
-500 -491 483 477 475 -490 -479 -493 -485 -498 -489 488 487 -478 -486 -481 494 -495 484 -497 -496 473 474 499 480 482 492 -476 0
500 491 483 -477 475 490 -479 -493 485 498 489 -488 -487 -478 -486 481 -494 495 -484 497 -496 -499 -480 482 -492 -476 0
-500 491 483 477 -475 490 479 -493 -485 -472 -498 -489 488 487 -478 486 481 494 495 484 497 -496 473 474 499 -480 -482 -492 476 0
-500 -491 -483 -477 -475 490 -479 -493 485 472 498 489 -488 -487 -478 486 -481 494 -495 484 497 496 473 474 -499 -480 -482 492 476 0
500 491 483 -477 -475 490 -479 493 485 -498 489 -488 -487 -478 486 481 494 495 -484 -497 -496 499 480 482 -492 -476 0
500 -491 -483 477 -475 490 479 493 -485 472 -471 -498 489 -488 -487 -478 486 481 494 -495 484 -497 -496 473 474 -499 480 -482 -492 476 0
-500 491 483 -490 493 -485 498 -489 488 -487 486 -494 495 -484 497 -496 -499 -492 0
-500 491 -483 -490 493 485 498 489 -488 -487 -486 -494 495 -484 497 496 499 492 0
-500 -491 483 490 -493 485 -498 -489 488 -487 -486 494 495 484 -497 496 -499 492 0
-500 -491 493 -498 -494 495 497 496 -499 -492 0
-500 -491 -493 498 494 495 -497 496 499 -492 0
-500 -491 483 490 -493 -485 -498 -489 -488 487 -486 -494 -495 484 497 -496 499 -492 0
-500 -491 493 498 -494 495 497 -496 499 492 0
500 491 483 -490 493 485 498 -489 488 -487 -486 -494 495 -484 -497 496 -499 492 0
-500 -498 -499 0
500 -498 -499 0
-500 -499 0
500 491 490 -493 -498 -489 488 494 -495 497 496 499 -492 0
-500 -499 0
-500 -498 499 0
-500 491 490 493 485 -498 489 488 487 -486 494 495 484 497 -496 499 -492 0
