c Type 1: interval ordering (ordered), n=200, m=250
p cnf 200 185
-2 1 0
-5 0
7 13 -19 15 10 0
-7 13 -19 -15 -10 18 0
13 19 15 10 -18 -9 0
-13 -19 -15 10 -18 9 22 0
-22 25 23 0
-25 26 -35 27 29 -31 24 0
35 -27 -29 31 -30 28 -33 37 0
-35 -27 -29 -31 30 28 -33 -37 34 0
-35 33 37 -34 -36 38 0
35 33 37 34 -36 -38 -44 -45 0
35 33 37 34 -36 -38 -32 44 45 0
44 -45 -41 -39 0
-38 44 45 -41 39 46 40 0
44 -45 -41 39 -46 40 42 0
44 -45 -41 39 -46 -40 -42 0
44 45 46 42 0
37 -38 44 -45 41 39 -46 -40 -42 0
-44 -45 46 0
-44 45 -46 -43 0
44 45 46 -43 58 0
35 -29 31 -30 -33 37 34 36 38 32 -44 -45 41 -39 46 -40 42 -43 -58 47 0
58 47 -50 59 0
-58 -47 50 59 0
44 -45 41 46 42 43 -58 -47 50 59 48 0
58 -50 -59 0
44 -45 -46 -43 -58 -47 50 59 -48 51 -49 0
-58 -50 59 51 53 0
58 -47 -50 59 -48 -51 -49 -53 56 55 54 52 0
-58 -59 -51 53 -56 -55 54 -52 -65 0
-58 -59 56 -55 54 -65 -62 -57 60 0
46 -58 47 50 59 -48 51 49 -53 -56 55 -54 -52 -65 -62 -57 60 63 61 -64 0
58 59 53 -56 -55 54 65 -62 57 60 -63 -61 -64 0
-58 50 59 48 51 -49 -53 56 55 54 52 -65 -62 -57 60 63 61 64 -66 0
-58 -50 59 51 49 -53 -56 55 54 -52 65 -62 -57 60 -63 -61 -64 -66 67 -68 0
58 59 -51 -53 56 55 -54 52 65 -62 -57 -60 -63 61 64 66 -67 68 69 0
-65 63 -64 -66 67 -68 -69 0
44 -45 -46 58 47 50 59 -48 -51 49 -53 -56 55 -54 52 -65 62 -57 60 63 61 64 66 -67 -68 -69 71 0
65 -64 66 -67 68 -69 -71 70 0
-65 -62 60 -63 61 64 66 -67 68 -69 71 -70 0
-67 -68 -69 71 -70 0
71 -72 0
71 70 -72 0
44 -45 41 -46 -42 -43 58 -47 -50 59 48 -51 -49 -53 -56 55 -54 52 -65 -62 -57 -60 63 61 -64 -66 -67 -68 -69 71 -70 -72 -73 -75 -74 78 -76 0
-44 -45 41 39 -46 -40 -42 43 -58 -47 50 -59 -48 -51 49 53 56 55 -54 52 65 62 57 60 -63 -61 64 66 -67 -68 69 -71 70 -72 73 -75 74 78 -76 0
-58 59 -56 55 -65 -62 57 -60 -63 -61 64 66 67 -68 69 -71 -70 72 73 75 -74 -78 76 0
-73 75 74 78 -76 0
67 68 -69 -71 -70 -72 73 75 -74 -78 -76 77 -80 0
-44 45 -41 -46 -40 42 -43 -58 -47 -50 -59 -48 -51 -49 -53 -56 55 54 -52 -65 62 -57 60 -63 -61 64 -66 -67 68 69 -71 -70 -72 -73 75 74 78 76 77 80 0
-44 45 46 -43 58 47 50 59 48 51 -49 53 56 55 -54 52 -65 62 57 -60 63 -61 64 -66 -67 -68 -69 71 -70 72 -73 75 74 -78 -76 -77 80 0
-65 -62 63 -61 64 66 67 -68 69 71 70 -72 73 -75 -74 78 -76 -77 80 0
-58 -59 51 -53 56 55 54 -52 65 62 -57 -60 63 61 -64 66 -67 68 69 71 70 -72 73 75 -74 78 -76 77 -80 79 0
-80 0
71 -70 -72 -73 -75 -74 78 76 -77 -80 79 -82 81 83 85 0
66 67 68 -69 -71 -70 72 -73 -75 -74 -78 76 -77 80 79 82 -81 83 85 -84 0
-78 80 -79 82 81 83 85 84 0
85 84 -86 88 0
-66 67 -68 -69 -71 -70 72 -73 75 -74 -78 -76 77 -80 -79 82 81 83 85 -84 -86 88 0
-86 -88 -87 -90 89 0
90 89 0
-90 89 -91 -93 105 -100 -92 103 0
-90 -91 93 105 100 -92 103 -94 95 0
-73 75 -74 -78 -76 77 -80 79 82 -81 83 -85 84 86 -88 -87 90 -89 -91 93 105 -100 92 -103 -94 95 0
-80 82 81 83 85 84 86 -88 87 -90 89 91 93 105 100 92 103 -94 -95 -108 102 0
75 78 76 -77 -80 79 -82 81 -83 -85 84 86 -88 -87 90 -89 -91 -93 105 100 -92 -103 -94 95 108 102 -111 -96 0
58 -59 53 56 -55 54 52 65 -62 -57 -60 -63 -61 64 -66 67 -68 69 -71 70 72 -73 75 74 78 76 77 -80 79 82 81 83 85 -84 -86 -88 -87 90 89 91 -93 -105 -100 -92 -103 94 95 -108 -102 -111 -96 97 99 0
80 -79 -82 -81 -83 85 -84 -86 -88 87 90 -89 -91 93 105 100 92 -103 94 -95 -108 102 -111 -96 97 99 -98 0
80 82 81 83 85 84 -86 88 -87 -90 89 91 93 105 -100 92 -103 94 95 108 102 -111 -96 97 99 98 -107 0
105 -100 -103 108 -102 111 107 -104 -106 -109 -101 113 0
-105 -100 -103 -108 -102 111 -97 99 -98 107 -104 106 -109 101 -113 -110 0
85 84 86 -88 87 90 -89 91 93 105 100 92 -103 -94 95 108 102 -111 96 -97 -99 98 -107 -104 106 109 101 -113 110 0
-75 78 76 77 80 79 82 -81 -83 85 -84 86 88 -87 90 -89 91 93 -105 100 -92 -103 -94 -95 -108 -102 111 -96 97 -99 98 107 -104 -106 -109 101 113 110 -114 115 0
-58 59 -51 53 56 -55 -54 -52 -65 62 -57 -60 63 -61 -64 -66 -67 68 -69 -71 70 72 73 -75 -74 -78 76 77 -80 -79 -82 -81 83 -85 -84 86 -88 -87 -90 -89 91 93 105 100 92 -103 94 -95 108 -102 111 96 -97 99 98 107 104 106 109 101 113 110 -114 115 0
105 -100 103 -108 102 -111 -99 -107 104 -106 109 -101 -113 110 114 -115 0
83 -85 -84 -86 88 -87 -90 -89 91 -93 105 100 92 103 -94 -95 -108 -102 111 -96 97 99 98 107 104 -106 109 101 113 -110 114 115 116 112 0
108 -111 107 -109 113 110 -114 -115 -116 112 0
-115 116 0
-88 90 89 91 93 -105 -100 92 103 94 95 108 -102 111 -96 97 -99 98 -107 -104 106 -109 -101 -113 -110 -114 -115 116 112 0
105 -103 -108 102 -111 107 104 -106 -109 101 -113 110 114 -115 116 112 117 0
-105 -100 -103 -95 108 -102 111 -96 -97 -99 -98 107 104 106 109 101 113 110 114 -115 116 112 117 0
-117 0
88 90 89 -91 -93 105 100 92 -103 -94 -95 -108 -102 111 96 97 -99 98 -107 -104 -106 -109 -101 -113 -110 114 -115 116 112 -117 0
67 68 69 71 -70 72 73 75 74 78 -76 -77 80 -79 -82 -81 83 -85 -84 86 88 -87 -90 89 -91 -93 105 100 -92 -103 -94 -95 -108 -102 111 96 -97 99 98 107 104 -106 109 101 113 110 -114 -115 116 -112 117 118 120 0
86 88 87 -90 -89 -91 93 -105 -100 92 103 94 95 108 102 111 96 -97 -99 98 107 -104 -106 109 -101 113 110 -114 115 116 112 -117 -118 120 134 -126 0
111 113 114 -115 -116 -112 117 -118 120 -134 -126 127 130 0
-90 91 -93 105 -100 -92 -103 -94 -95 108 102 111 96 97 99 -98 -107 -104 106 109 -101 -113 110 114 115 116 112 -117 -118 120 134 -126 127 -130 -145 -135 119 0
120 -134 126 -127 -130 145 135 119 0
115 116 117 -118 -120 134 126 127 130 145 -135 -119 0
-118 -120 134 126 -127 -130 -145 135 119 0
105 -103 108 -102 111 107 104 106 109 -101 -113 -110 -114 -115 116 -112 -117 118 120 134 126 -127 130 -145 -135 119 138 0
105 -103 108 -102 111 -107 -104 -106 -109 -101 -113 -110 -114 -115 116 -112 -117 118 120 134 126 127 -130 -145 -135 119 -138 0
90 91 93 -105 100 -92 -103 -94 95 -108 102 111 96 97 -99 98 -107 -104 106 109 -101 -113 -110 114 -115 116 -112 -117 -118 -120 134 -126 127 -130 145 -135 119 138 0
-67 -68 69 71 70 72 -73 75 74 78 -76 77 -80 -79 -82 81 -83 85 84 86 -88 87 90 -89 91 93 105 100 92 -103 94 -95 108 -102 111 -96 -97 99 98 -107 104 -106 -109 -101 113 -110 114 115 -116 -112 -117 -118 -120 -134 126 -127 -130 145 -135 -119 138 0
105 -103 -108 102 111 107 104 -106 109 -101 -113 -110 114 -115 116 -112 -117 -118 120 -134 126 -127 130 145 135 -119 138 0
120 -134 126 127 130 145 135 -138 -132 -121 -124 123 122 131 0
72 -73 75 -74 -78 76 77 80 79 -82 81 -83 85 84 -86 -88 -87 90 -89 91 -93 -105 100 92 103 94 95 108 -102 -111 96 97 -99 -98 107 -104 106 109 101 -113 -110 114 -115 -116 -112 117 118 120 -134 126 -127 130 -145 -135 119 138 -132 121 124 -123 122 -131 0
115 116 -117 -118 -120 -134 126 127 -130 145 -135 -119 138 -132 -121 124 123 -122 131 0
-105 -103 108 -102 -111 107 104 106 109 -101 -113 110 -114 115 116 -112 -117 118 120 134 -126 127 -130 145 135 119 -138 -132 121 124 123 122 131 -133 0
134 -126 -127 130 -145 135 -138 132 121 124 -123 -122 131 -133 0
-72 -73 -75 -74 78 -76 -77 80 -79 -82 -81 83 85 -84 -86 88 -87 90 -89 -91 93 105 100 92 103 94 95 -108 -102 -111 -96 97 -99 -98 107 -104 106 -109 101 -113 110 -114 115 -116 112 117 118 120 -134 -126 -127 -130 -145 135 -119 138 132 -121 -124 -123 -122 131 133 0
134 -126 -127 -130 145 135 -138 -132 -121 -124 123 -122 131 -133 0
120 -134 126 -127 130 -145 135 138 132 121 124 -123 -122 131 -133 125 0
-134 126 127 -130 145 -135 138 132 124 -123 131 -133 125 -128 0
134 -126 127 130 145 -135 -138 132 -124 123 -131 -133 -125 128 129 -146 143 0
-134 130 -145 135 -138 132 -131 133 -129 -146 -143 -136 0
-134 130 145 -135 -138 132 131 -133 -129 146 143 136 0
114 -115 116 117 -118 120 -134 126 127 -130 -145 135 -119 -138 132 121 124 123 122 -131 -133 125 128 129 146 143 136 139 -140 0
-134 -130 -145 135 138 -132 131 -133 129 -146 143 -136 -139 -140 -144 -141 0
-134 126 127 -130 145 135 -138 132 131 -133 125 -128 129 -146 -143 -136 139 140 -144 141 -137 142 161 0
-134 -130 145 135 138 132 131 -133 -129 146 -143 136 -139 -140 -144 -141 -137 142 161 -155 148 0
145 146 -143 -144 -161 155 -148 0
65 62 -60 -63 61 -64 -66 -67 -68 69 -71 -70 -72 -73 75 74 78 -76 -77 80 79 -82 -81 -83 -85 -84 -86 88 -87 -90 -89 91 93 105 100 -92 103 -94 -95 108 102 -111 96 -97 -99 -98 107 104 -106 109 101 -113 -110 -114 115 116 112 117 -118 -120 -134 126 -127 -130 -145 135 119 -138 -132 121 -124 -123 -122 -131 -133 125 -128 -129 -146 143 136 139 140 -144 141 137 -142 161 -155 -148 0
-145 -146 -161 155 -148 149 -151 150 157 153 0
-71 70 -72 73 -75 -74 78 -76 -77 -80 -79 -82 81 -83 -85 84 -86 88 87 90 -89 -91 -93 -105 -100 -92 -103 -94 -95 -108 -102 -111 96 97 99 -98 -107 -104 -106 109 -101 113 110 -114 -115 116 112 117 118 -120 134 126 127 130 145 -135 -119 138 -132 -121 -124 -123 -122 -131 -133 -125 128 -129 -146 143 -136 139 -140 144 -141 -137 -142 -161 -155 148 149 151 -150 -157 -153 0
-145 146 -161 -155 148 -149 151 150 -157 -153 0
120 134 -126 -127 -130 145 -135 -138 132 -121 -124 -123 122 -131 133 125 -128 -129 146 143 136 139 -140 -144 141 -137 -142 -161 155 148 -149 -151 -150 157 153 0
161 155 -148 -149 151 -150 157 -153 0
161 155 -148 149 -151 150 -157 153 0
161 -155 148 149 151 150 157 -153 -147 0
88 -90 -89 91 93 105 -100 -92 -103 -94 -95 108 102 -111 96 -97 -99 -98 -107 -104 -106 -109 101 113 -110 -114 115 -116 -112 -117 -118 -120 134 -126 127 -130 -145 135 119 -138 -132 -121 -124 123 -122 131 -133 -125 -128 129 146 -143 136 -139 -140 144 141 137 -142 161 155 -148 -149 151 -150 -157 153 147 0
134 -126 -127 -130 -145 -135 138 -132 131 -133 125 -128 -129 146 143 -136 -139 140 -144 141 137 142 -161 155 -148 -149 -151 150 -157 -153 147 0
161 155 148 149 -151 -150 157 153 147 -154 152 -156 -160 0
161 -155 -148 -149 151 -150 -157 -153 147 -154 -152 156 -160 158 0
-161 157 -156 160 158 -159 0
145 146 -161 155 -148 -149 -151 -150 157 -153 147 -154 152 -156 160 -158 159 0
161 157 -160 -158 159 0
161 0
-145 -138 -146 -143 139 140 144 141 -142 -161 155 148 -149 -151 150 -157 -153 147 -154 -152 -156 -160 158 159 -162 166 0
-161 155 148 -149 -151 -150 157 -153 147 -154 152 -156 160 -158 159 -162 -166 0
-161 -157 -156 160 158 -159 -162 166 -164 163 0
162 166 -164 163 0
-161 -157 160 -158 159 -162 166 -164 -163 167 0
162 -166 164 -163 167 0
161 155 -148 149 -151 -150 -157 -153 147 -154 152 156 -160 -158 159 -162 -166 164 -163 -167 0
162 166 164 -163 167 0
-167 -171 -169 -168 -172 0
-161 157 -156 160 158 159 -162 166 164 -163 167 -171 -165 169 168 172 -170 0
-161 -160 -159 -162 -166 -164 -163 167 -171 165 -169 168 -172 -170 0
-161 -160 -162 -166 -164 -163 167 -171 165 -169 -168 -172 -170 0
-162 -166 -164 163 167 171 -165 169 168 -172 -170 200 0
161 162 166 -164 -163 167 -171 165 -169 -168 172 -170 -200 0
-200 -193 0
-171 -169 172 170 200 193 173 0
-171 172 -200 -193 173 175 0
200 -193 -173 175 183 0
-200 193 -173 175 183 199 -191 0
-200 193 173 175 -183 -199 -191 -174 0
200 -193 175 -183 199 -191 0
200 193 175 183 -199 -191 -178 187 176 0
172 200 -193 -173 175 183 199 191 174 178 -187 176 0
-200 193 -173 -175 183 -199 -191 174 178 187 -176 186 0
-200 -193 -175 183 -199 -191 -178 -187 -176 186 0
-200 193 175 183 199 191 -178 -187 176 -186 0
200 193 -175 183 -199 -191 -178 187 -176 -186 -177 -184 0
-200 193 183 199 -191 -178 187 186 184 179 195 -185 0
200 193 183 199 191 178 187 -186 184 179 195 185 -196 190 0
-200 193 175 183 199 191 -178 -187 176 186 177 184 -179 195 -185 -196 190 181 180 194 0
200 193 183 199 -191 178 187 176 186 177 184 -179 195 185 -196 -190 -181 -180 194 -188 182 0
200 193 183 199 191 -187 186 -184 179 195 -185 196 -190 -181 180 -194 -188 182 198 0
200 193 -199 -191 -187 186 195 185 -196 190 -194 -188 -198 189 -192 0
200 193 -183 -199 191 187 186 184 179 195 -185 196 190 -181 -180 194 -188 182 -198 -189 -192 -197 0
200 193 183 199 191 187 -186 -184 -179 -195 -185 196 -190 -181 180 -194 -188 182 -198 189 192 -197 0
200 -193 -199 191 187 186 -195 -185 196 190 194 188 -198 189 192 -197 0
200 -193 -183 199 191 178 187 186 -184 179 195 -185 -196 190 181 180 194 188 182 198 -189 192 197 0
200 193 -183 199 191 -187 -186 184 -179 -195 185 -196 -190 181 -180 194 -188 182 -198 -189 -192 197 0
200 -193 199 191 -195 196 194 198 192 -197 0
200 -193 -183 199 -191 -178 -187 186 -184 179 195 185 -196 190 -181 -180 -194 188 182 -198 -189 192 197 0
200 193 183 199 191 187 -186 184 -179 -195 -185 196 190 181 -180 -194 -188 -182 198 189 -192 -197 0
-200 -193 199 191 195 196 190 194 -188 -198 189 -192 -197 0
-200 199 195 196 -194 198 -197 0
200 193 -183 -199 -191 -187 -186 184 -179 -195 -185 -196 -190 -181 180 194 -188 182 -198 -189 192 197 0
200 -193 199 -191 -187 -186 -195 -185 196 -190 -194 188 -198 -189 -192 -197 0
200 -199 198 0
200 -199 -196 198 -197 0
200 0
-200 199 -195 196 -198 197 0
-200 -199 -198 197 0
200 193 -183 -199 191 -178 187 186 184 -179 195 185 -196 190 -181 -180 194 -188 -182 198 -189 192 197 0
200 -199 -198 0
-200 199 -195 196 -198 -197 0
-200 -193 183 -199 -191 187 -186 -184 179 -195 185 196 -190 -181 -180 -194 -188 182 198 -189 -192 197 0
200 199 198 197 0
200 193 -199 195 -196 194 -198 -197 0
-200 0
