c Type 1: interval ordering (permuted), n=20, m=25
p cnf 20 24
8 1 -7 0
-9 -11 17 20 -19 -2 -4 12 10 0
5 16 14 3 -6 -15 13 0
-7 5 0
5 16 0
-8 -1 7 5 0
9 -18 11 -17 0
6 15 13 -9 18 -11 17 0
15 13 9 18 0
15 13 9 -18 11 17 20 19 -2 4 12 -10 0
13 9 -18 -11 -17 20 19 -2 -4 -12 0
9 -18 -11 17 0
9 -11 -17 20 19 2 4 -12 10 0
-14 -3 6 15 13 9 -18 11 17 0
-9 -18 -11 17 0
14 -3 6 15 13 -9 -18 11 17 -20 19 2 4 -12 -10 0
14 -3 6 -15 13 -9 18 11 17 0
5 -16 0
6 -15 13 9 -18 -11 17 0
-6 15 -13 0
-7 5 16 0
9 -11 -17 -20 19 -2 -4 -12 10 0
-9 18 0
7 5 -16 -14 0
