c Type 1: interval ordering (ordered), n=150, m=180
p cnf 150 179
-1 -2 0
1 2 0
2 0
-2 0
-9 4 0
-9 4 8 5 0
-9 4 3 -8 -5 -7 -6 0
-9 -8 7 -6 -10 11 0
9 10 -11 0
-10 -11 0
10 -11 0
13 -12 0
-13 -12 -15 -14 16 0
-10 -11 13 12 15 14 -16 0
15 -14 16 0
15 -14 -16 0
-15 -14 -16 -17 -18 0
17 -18 0
-17 -18 0
16 17 -18 0
-15 -14 -16 -17 -18 0
20 0
-20 19 0
20 -19 0
-20 -19 0
-20 -19 -21 22 25 23 0
-20 19 21 -22 -25 -23 27 -24 26 0
-27 -26 0
-21 -22 25 23 -27 -24 26 0
-27 26 0
20 21 -22 -25 -23 -27 -24 -26 0
-25 -27 26 0
25 -27 -24 -26 -28 0
-29 0
-25 -27 -24 -26 28 29 0
-27 28 29 0
-27 -26 28 29 30 31 32 0
29 30 -31 -32 -33 -34 37 40 36 0
-33 -34 37 40 36 35 -38 0
20 19 -21 -22 -25 -23 -27 -24 26 28 -29 30 -31 -32 33 -34 37 40 -36 35 38 0
32 33 -34 37 40 -36 35 -38 0
34 37 -40 36 -35 38 0
-33 34 -37 -40 36 -35 -38 0
37 40 -36 35 -38 0
37 40 36 -35 38 0
-37 -40 -36 35 38 39 0
34 -37 40 -36 -35 38 39 0
-43 -42 -41 0
43 42 -41 0
-43 -42 41 0
-43 42 41 0
-29 30 31 -32 33 -34 -37 -40 36 -35 38 -39 43 -42 -41 0
-34 -37 40 -36 -35 38 -39 43 -42 41 -44 -50 0
-44 -50 0
44 -50 0
37 -40 -36 35 -38 -39 43 -42 41 44 50 0
43 42 41 -44 -50 45 0
-43 44 -50 45 47 0
-43 42 -41 44 50 -45 -47 0
50 -47 -54 0
-44 50 -45 -47 -54 46 -51 0
-50 -54 -51 -56 0
50 -54 -51 -49 56 0
-50 54 51 -56 0
-50 47 -54 51 48 -49 56 -52 58 0
50 -47 -54 51 48 -49 56 52 58 0
50 -54 -51 56 52 58 0
43 -42 -41 44 -50 -45 47 -54 46 -51 -48 -49 -56 -52 58 -53 0
54 56 58 -55 59 60 0
54 -56 58 53 -55 59 -60 109 -57 0
58 -59 60 109 -57 62 0
-58 -59 -60 109 57 62 -61 0
59 60 109 62 61 0
-109 62 -64 87 -67 0
-109 64 87 -67 65 66 -63 -81 0
109 64 87 -67 -65 66 -63 -81 -71 0
-109 -64 -87 67 -65 66 -81 -71 0
-109 87 -67 -65 -66 81 71 -69 -91 -80 -73 0
-109 -62 64 -87 67 65 66 -63 -81 71 -69 -91 -80 -73 -70 68 79 0
109 87 -81 -71 69 -91 -80 -73 -70 68 79 94 0
109 87 -67 -66 -81 -71 69 -91 -80 73 -70 -68 79 -94 0
109 -87 81 71 69 -91 -80 -73 70 79 94 76 72 -78 -77 0
-109 -87 -67 -65 -66 81 71 -69 91 80 -73 70 68 79 -94 -76 -72 78 -77 89 95 -97 85 -74 0
-109 -87 67 65 -66 81 -71 69 -91 -80 -73 -70 68 79 94 76 -72 78 77 -89 -95 -97 85 -74 0
109 87 -81 91 -80 73 -79 -94 -76 -78 -77 89 95 -97 85 -74 129 83 0
-109 -87 -81 91 -80 -73 79 -94 76 -78 -77 89 -95 -97 85 74 129 -83 75 127 0
-109 87 -67 65 -66 -81 71 69 91 80 -73 70 -68 79 94 76 72 78 77 -89 -95 -97 -85 -74 129 83 75 -127 -90 -116 118 0
-109 87 81 -91 80 -79 -94 -76 -78 -77 -89 95 -97 85 -129 -83 -127 90 116 -118 0
-109 87 -81 91 -80 79 94 76 78 77 -89 -95 97 85 74 -129 -83 75 127 90 -116 118 0
109 -87 81 -91 -80 73 79 -94 -76 72 -78 -77 89 -95 97 85 -74 129 -83 -75 127 -90 116 118 0
109 -87 81 91 80 -79 94 -76 78 77 89 95 -97 85 129 -83 75 127 90 -116 118 0
-109 87 81 -91 80 79 94 76 -78 77 89 -95 97 85 -129 83 -75 127 -90 116 118 88 -84 0
-109 87 -81 -91 -80 73 -79 94 -76 78 77 89 95 97 85 -74 -129 83 75 -127 -90 116 118 88 84 0
-109 87 81 71 -91 -80 73 79 -94 -76 72 -78 77 89 95 -97 -85 74 -129 -83 -75 127 -90 -116 118 88 -84 136 0
109 87 -81 -91 -80 79 -94 89 -95 97 -85 129 83 -127 90 116 118 -88 84 136 82 141 0
109 87 81 -91 -80 -79 -94 76 78 77 89 95 97 85 129 -83 75 -127 -90 -116 118 88 84 -136 82 141 0
109 87 -81 -91 -80 -94 89 -95 -97 -85 -129 -83 -127 90 116 -118 88 84 -136 -82 -141 0
109 87 -81 91 -80 94 -89 -95 97 -85 129 -83 -127 -90 116 -118 -88 84 136 -82 141 0
-109 87 -81 91 80 -94 89 95 -97 -85 129 -83 -127 -90 -116 118 -88 84 -136 82 -141 0
-109 87 -81 91 80 -73 -79 -94 -76 -78 77 -89 -95 -97 -85 74 -129 83 -75 127 90 -116 -118 88 84 136 -82 -141 0
109 -87 -81 -91 80 -94 -89 95 97 -85 129 83 127 -90 -116 118 88 -84 -136 -82 141 0
-109 87 81 -91 80 -94 89 95 97 85 129 -83 -127 90 116 -118 88 -84 -136 82 -141 0
109 -87 -81 91 -80 -73 -79 -94 76 -78 77 89 95 -97 85 -74 -129 83 75 127 -90 -116 -118 -88 84 136 -82 141 -86 0
109 -87 91 94 -89 95 97 -85 -129 -127 90 -116 -118 -88 -84 -136 141 86 -103 -96 105 0
-109 -87 81 71 -69 -91 80 -73 -70 79 94 -76 -72 -78 -77 89 -95 -97 85 -74 -129 83 -75 -127 90 116 -118 -88 -84 -136 82 141 86 -103 -96 105 -101 0
-109 -87 81 -91 80 94 89 95 97 85 -129 83 127 -90 -116 -118 88 84 -136 -82 141 -86 103 -96 -105 -101 -125 -114 92 0
109 -87 81 91 80 79 -94 -89 -95 97 -85 -129 83 127 -90 116 -118 -88 84 -136 -82 141 86 103 -96 105 101 125 114 92 0
109 -87 81 -71 -91 80 -73 -79 94 76 72 -78 -77 -89 -95 -97 -85 74 -129 -83 -75 -127 -90 116 118 88 84 -136 82 141 -86 -103 -96 105 101 125 114 -92 93 108 0
109 -87 -91 94 -89 -95 -97 129 -127 -90 116 118 88 136 -141 -86 103 -96 105 -101 -125 114 92 93 108 0
-109 87 -91 -94 -89 -95 97 85 129 83 127 -90 -116 118 88 -84 136 -82 -141 -86 -103 -96 -105 -101 -125 114 -92 93 -108 126 0
-109 -91 -94 -89 95 97 -129 -127 90 116 -118 -136 141 -103 -96 105 -101 125 114 -92 93 108 -126 0
-109 87 -91 -94 -89 -95 97 -129 127 -90 -116 118 -88 136 141 -86 -103 -96 105 101 -125 -114 -92 93 108 126 0
109 87 91 -94 89 95 -97 -129 -127 90 -116 -118 88 136 141 86 103 96 105 101 -125 -114 -92 -93 -108 126 0
109 -87 -81 91 80 73 79 -94 -76 -72 78 -77 89 -95 97 -85 -74 -129 -83 -75 -127 90 -116 118 88 84 136 -82 -141 86 -103 96 -105 101 125 114 -92 93 -108 126 -98 0
-109 91 -94 89 -95 -97 -129 127 -90 116 118 136 141 103 96 -105 101 -125 -114 92 93 -108 126 -98 99 121 0
109 94 95 97 -129 -127 -116 -118 136 141 103 96 105 101 125 -114 93 108 126 -98 99 -121 100 0
109 94 -95 97 129 127 -116 -118 136 141 -103 -96 -105 -101 -125 114 -93 -108 -126 -98 -99 121 100 -135 0
-109 87 81 91 -80 79 94 -78 -89 -95 -97 -85 -129 -83 127 -90 116 -118 -88 84 -136 -82 141 86 -103 96 105 -101 -125 -114 -92 -93 -108 126 -98 99 121 100 -135 0
-109 -95 -97 129 127 -116 -118 136 -141 103 96 105 -101 -125 -114 108 -126 -98 99 -121 100 -135 0
-109 -94 95 -97 -129 -127 -116 118 136 141 -103 96 105 -101 -125 114 93 -108 126 -98 -99 121 -100 -135 113 -107 102 -120 -106 0
-109 94 95 -97 -129 127 -116 118 -136 141 -103 -96 105 101 125 -114 -93 108 -126 -98 -99 121 -100 135 -113 -107 -102 -120 106 115 131 0
109 87 -91 94 89 95 -97 85 -129 -127 -90 -116 118 88 136 141 86 103 -96 105 -101 125 114 92 93 -108 -126 98 -99 -121 -100 -135 113 -107 102 -120 106 115 -131 104 0
-109 129 -127 -116 118 -136 -141 103 105 -125 114 108 126 -121 -135 -113 107 -120 -106 -115 131 104 0
-109 129 -127 -116 -118 -136 -141 -103 105 -125 114 108 -126 -121 -135 -113 107 120 -106 115 -131 -104 0
-109 -97 129 127 -116 118 -136 -141 103 105 -101 125 114 -108 126 -98 99 121 100 135 -113 -107 102 -120 -106 -115 131 -104 111 110 0
-109 -129 -127 116 118 136 -141 105 125 -114 -108 126 121 135 -113 -107 -120 -106 -115 131 -111 -110 0
109 -129 -127 -116 -118 -136 141 -105 125 114 108 -126 -121 -135 113 -107 -120 -106 115 -131 111 -110 112 -122 -132 0
-109 -129 -127 -116 -118 -136 141 -103 -105 -101 125 114 -108 -126 -98 -99 -121 100 -135 -113 -107 -102 120 -106 -115 131 104 111 110 -112 122 132 0
-129 -127 116 118 -136 141 -125 -114 -126 -121 -135 113 120 115 131 -111 -110 -112 -122 132 -119 -117 0
-109 129 -127 116 -118 136 141 -125 -114 -108 -126 -121 -135 -113 120 115 131 111 110 112 -122 132 -119 -117 0
-109 129 127 -116 118 136 141 -125 -114 108 126 -121 -135 -113 -107 120 115 131 111 -110 -112 -122 132 -119 117 0
-109 129 -127 -116 -118 136 -141 -125 -114 108 -126 121 135 -113 -107 -120 115 131 111 110 -112 122 132 -119 -117 -124 0
-109 129 127 116 118 136 141 105 -125 114 -108 126 121 135 -113 107 -120 -106 -115 -131 -104 111 110 -112 -122 -132 119 -117 124 0
109 -129 -127 116 118 -136 141 125 -114 -108 -126 -121 135 -113 -107 120 -106 -115 -131 111 -110 112 -122 -132 -119 -117 -124 0
109 -129 127 116 118 136 -141 -125 -114 -108 -126 121 -135 -113 107 120 -106 -115 131 -111 110 -112 -122 132 119 -117 -124 0
-109 -129 -127 -116 -118 -136 -141 125 -114 126 -121 135 -113 120 115 -131 111 110 -112 -122 -132 -119 -117 -124 -123 138 0
-109 129 -127 116 118 136 -141 -125 -114 -108 -126 -121 135 113 -107 -120 -115 -131 111 110 112 -122 -132 -119 117 124 123 -138 0
-109 -129 -127 116 -118 -136 141 103 105 -125 114 -108 -126 121 -135 113 107 102 -120 -106 -115 -131 104 -111 110 -112 -122 -132 119 -117 124 123 -138 0
129 -127 -136 141 125 126 -121 -135 -131 122 132 124 123 138 133 0
-109 129 127 116 118 -136 141 103 105 -101 -125 -114 108 -126 121 -100 -135 -113 -107 -102 -120 106 115 131 104 111 110 112 -122 132 -119 -117 124 123 -138 133 0
129 -127 -136 141 125 -126 121 135 131 -122 -132 124 -123 -138 133 0
-129 -127 136 -141 125 -126 -135 131 -122 -132 -124 123 -138 -133 0
-129 127 -136 141 -125 -126 -135 131 -132 124 138 -133 0
109 -91 94 89 -95 -97 -129 127 90 -116 118 136 -141 -103 96 -105 101 -125 114 92 93 -108 -126 -98 -99 121 -100 135 113 -107 102 120 106 115 131 -104 -111 110 112 122 -132 119 -117 124 -123 -138 133 0
129 -127 -116 -118 136 -141 -125 -114 -126 -121 -135 113 120 115 131 -122 -132 119 -117 -124 -123 -138 -133 130 -128 -134 0
129 127 136 -141 125 126 121 -135 131 122 132 124 -123 138 -133 -130 128 134 0
-129 -127 -136 141 126 135 131 132 -138 133 -130 -128 134 0
-129 -127 136 -141 -125 126 -135 -131 132 -138 133 -130 -128 134 0
129 127 136 141 -125 126 -121 135 131 -122 -132 -124 -123 -138 133 -130 128 134 0
-129 127 -116 -118 136 141 125 114 -126 121 135 113 120 115 131 -111 110 -112 -122 132 -119 -117 -124 123 138 133 -130 -128 -134 0
-129 -127 118 136 -141 -125 126 -121 135 -120 131 -122 -132 -119 -117 -124 123 -138 -133 130 -128 -134 0
109 129 -127 -116 -118 136 -141 125 -114 -108 -126 121 -135 113 -107 120 -106 -115 131 -111 110 112 122 -132 -119 -117 -124 123 -138 -133 130 128 134 137 -139 -145 0
129 -127 136 141 125 126 121 135 -131 122 -132 -124 123 -138 133 -130 -128 -134 137 -139 -145 -140 143 0
109 -129 127 116 -118 136 -141 -125 -114 -108 126 121 -135 -113 120 115 -131 111 -110 112 -122 -132 -119 -117 124 123 138 133 -130 128 -134 -137 -139 -145 140 143 0
-109 129 -127 116 -118 136 -141 125 114 -108 126 121 -135 -113 107 120 -106 -115 131 111 -110 -112 122 132 119 -117 -124 123 -138 -133 -130 128 -134 -137 -139 -145 -140 -143 0
-136 141 135 131 132 -138 133 -134 -137 139 145 -140 143 142 0
136 -141 135 -138 134 -137 139 -145 140 143 -142 -149 144 0
-141 -145 143 -142 149 144 0
129 -127 118 136 -141 125 126 121 -135 120 131 122 132 119 117 -124 123 -138 133 130 -128 -134 -137 -139 -145 -140 143 -142 149 144 0
-129 -127 -136 141 -125 126 -135 131 -122 -132 124 123 138 133 -130 -128 -134 -137 -139 145 140 143 142 -149 -144 0
-145 -143 -142 -149 -144 0
109 87 -91 94 -89 95 97 129 -127 90 116 118 88 -136 141 -103 96 105 101 -125 -114 -92 -93 108 -126 98 -99 121 100 -135 113 -107 -102 -120 106 -115 -131 104 -111 110 112 122 132 119 -117 124 -123 -138 133 -130 -128 134 -137 -139 145 -140 -143 142 149 -144 0
129 136 141 135 131 132 -138 -133 130 134 -137 -139 145 140 143 -142 -149 144 146 147 148 0
-109 129 -127 -116 118 136 -141 125 114 108 126 121 135 -113 120 115 131 111 110 -112 -122 132 -119 -117 124 123 138 -133 -130 128 134 137 -139 145 -140 -143 142 -149 144 146 -147 148 0
141 138 -139 -145 140 -143 142 -149 144 146 147 148 0
-129 -136 -141 -135 -131 -132 -138 133 130 -134 137 -139 145 -140 -143 -142 149 144 -146 147 -148 0
129 -127 -118 -136 141 -125 126 121 135 -120 -131 122 -132 -119 -117 124 -123 -138 -133 130 -128 -134 -137 139 -145 -140 143 -142 149 144 146 -147 -148 0
129 127 136 141 -126 135 131 132 138 -133 130 -128 -134 137 139 -145 140 -143 -142 149 -144 146 147 -148 0
-109 -129 127 116 -118 -136 -141 -125 114 -108 126 121 135 -113 120 115 131 -111 -110 -112 -122 132 119 -117 -124 123 138 133 -130 -128 -134 -137 -139 145 -140 -143 -142 -149 144 -146 147 148 150 0
-129 -127 -136 141 -125 126 -121 -135 -120 -131 122 -132 -119 124 -123 -138 -133 130 -128 134 -137 139 -145 -140 -143 142 -149 144 146 -147 148 150 0
109 -129 127 116 118 136 -141 -125 114 -108 126 121 -135 -113 -107 -120 -115 -131 -111 -110 -112 122 132 -119 117 124 -123 138 133 130 128 134 137 139 145 -140 -143 -142 -149 -144 146 147 148 -150 0
-136 141 135 -138 134 137 -139 -145 140 -143 -142 -149 144 -146 -147 -148 -150 0
-129 136 -141 135 131 -132 138 133 -130 134 -137 -139 -145 140 -143 142 -149 -144 146 147 148 150 0
136 -141 -135 131 132 138 133 -134 137 -139 145 140 143 142 -149 144 146 147 -148 150 0
-141 -138 139 -145 -140 143 -142 149 144 -146 147 -148 150 0
109 129 -127 116 118 136 141 -125 114 -108 -126 -121 -135 -113 -107 120 -106 -115 -131 111 -110 -112 122 132 -119 -117 124 -123 -138 133 -130 -128 134 137 139 145 -140 -143 -142 -149 144 146 -147 -148 150 0
-129 127 136 141 125 -126 -135 131 -132 124 138 -133 -130 -128 -134 137 139 -145 -140 143 -142 -149 -144 -146 147 -148 150 0
141 145 -143 -142 -149 -144 146 147 148 -150 0
109 -129 -127 -116 -118 -136 -141 125 114 108 126 121 135 -113 107 120 106 -115 131 111 110 -112 -122 132 -119 -117 124 123 138 -133 -130 -128 -134 137 139 -145 140 -143 142 -149 -144 -146 -147 148 150 0
