c Type 1: interval ordering (permuted), n=30, m=40
p cnf 30 27
-22 24 -25 -6 11 16 -21 -7 -1 28 0
17 -22 20 -15 -5 -9 2 -3 0
17 -22 -14 0
-17 -22 -14 -20 15 -5 9 2 0
17 -22 14 0
22 20 -15 3 8 -12 0
17 0
22 -24 25 -6 11 -23 16 21 7 -1 27 28 0
-28 0
-22 -24 -25 6 11 16 21 7 -1 28 0
-22 -15 -24 -25 6 -11 23 16 -21 -7 1 -27 0
19 17 0
22 15 8 12 -10 -18 13 4 24 25 6 -11 0
-22 -15 -8 -12 10 18 -13 4 -24 25 0
22 -15 -8 12 -10 -18 -13 0
22 15 -8 12 10 18 13 -4 -24 -25 -6 -11 -23 -16 -21 0
-17 22 14 20 0
22 15 12 24 25 -6 11 -23 16 -21 -7 1 -27 -28 0
17 -22 -14 0
-22 -20 15 -2 -3 29 8 0
-22 -15 24 -25 6 11 23 -16 -21 7 1 27 28 0
-22 -20 15 3 -29 8 26 0
-22 -24 -25 -6 -16 7 28 0
22 15 -24 25 6 -11 -23 16 21 -7 -1 -27 -28 0
-22 15 -12 -13 24 -25 6 -11 -23 0
22 20 15 -3 29 8 26 -12 0
-22 -15 -8 -12 -10 -18 -13 -4 24 25 6 -11 23 16 21 -7 -1 0
