c Type 1: interval ordering (permuted), n=50, m=60
p cnf 50 49
34 0
-38 -16 0
8 -49 -7 -41 -14 13 0
-15 20 37 -29 47 0
11 0
33 -43 -36 -4 -48 0
-20 -29 47 -44 26 27 -8 0
-13 -46 3 -12 -9 -45 6 0
-8 49 -7 0
-34 0
-33 -43 36 4 0
-22 19 0
-11 0
7 0
-41 -13 46 -3 12 0
20 0
38 -16 0
33 0
40 -35 0
13 -46 -3 12 -9 45 6 0
43 36 -17 10 -42 -24 0
-13 -46 -3 9 -6 0
-7 -41 -14 -13 -46 0
-13 -46 -3 9 45 -6 0
-13 46 3 -12 9 -45 -6 0
-13 -46 3 -9 -45 -6 0
11 38 0
33 -43 -36 -48 -17 -10 42 0
7 41 -14 -13 46 -3 -12 -9 45 6 0
43 36 -17 10 24 0
11 -50 0
-41 14 13 46 3 0
11 -32 0
47 -44 26 27 8 -49 7 41 -14 -13 46 0
-33 0
-8 -49 -7 41 -14 13 -46 3 -12 -9 -45 -6 0
-15 -20 -37 29 0
47 -44 -26 27 -8 -49 7 0
22 19 0
26 -27 8 49 7 -41 0
-11 -32 -38 -16 -15 20 -37 -29 0
-26 -27 0
20 -29 -47 44 -26 27 -8 -49 -7 0
13 -46 3 9 -45 -6 0
-26 8 49 7 0
-11 50 0
33 43 36 4 -48 -17 -10 42 0
-47 -44 26 0
47 44 -26 -27 -8 -49 -7 0
