c Type 1: interval ordering (ordered), n=30, m=40
p cnf 30 38
-3 -4 0
3 -4 0
1 -2 -3 4 5 0
-3 4 -5 -6 -7 0
-5 6 -7 0
-6 -7 0
-4 -5 6 -7 0
-2 3 4 -5 -6 7 17 0
5 -6 7 17 9 -10 -8 0
7 -17 -9 -10 -8 0
17 -9 -10 8 -11 0
-17 -9 -10 -11 -25 26 0
17 9 -10 -11 25 -26 0
-17 -9 10 -11 25 -26 28 15 0
-17 -9 -10 8 -11 25 26 -28 15 0
-17 9 10 11 25 -26 -28 -15 -19 -29 -13 0
-17 -10 11 -25 -26 28 15 19 -29 -13 0
17 9 10 -11 25 -26 -28 -15 19 29 -13 0
-17 -10 11 -25 26 28 -15 19 -29 13 -16 0
-17 11 25 26 -28 15 -19 29 13 -16 0
17 -10 11 25 -26 -28 15 19 29 13 -16 0
17 -11 25 26 -28 -15 19 -29 13 -16 -18 -12 14 0
17 -10 -11 -25 -26 -28 15 19 -29 13 -16 -18 -12 -14 0
-17 9 10 11 25 26 28 15 19 29 13 16 -18 -12 -14 23 0
-17 10 11 -25 -26 28 15 19 29 13 16 18 12 14 -23 21 30 0
-17 -25 26 28 15 -19 -29 -16 -18 14 -23 -21 30 -20 0
-17 -25 -26 28 -15 19 -29 16 18 -14 -23 -21 30 -20 0
17 25 26 28 -15 19 29 -13 -16 -18 -12 -14 -23 -21 -30 20 -27 24 22 0
17 -25 26 28 -15 -19 29 13 16 18 -14 23 -21 -30 -20 27 -24 22 0
17 25 26 -28 15 -19 29 16 -18 14 23 21 -30 20 -27 24 22 0
-17 -25 -26 28 15 -19 29 -16 -18 14 23 21 -30 -20 -27 24 22 0
-17 9 10 11 25 26 -28 15 19 29 -13 16 18 -12 -14 23 21 30 -20 -27 -24 22 0
17 -25 -26 -28 -15 19 29 13 16 -18 -12 -14 23 -21 -30 -20 27 -24 -22 0
17 -25 -26 28 -15 19 -29 13 -16 18 12 -14 -23 21 30 -20 -27 24 22 0
-17 -10 -11 -25 26 -28 -15 19 -29 13 -16 18 12 14 23 -21 30 -20 27 -24 22 0
-17 -25 -26 -28 -15 -19 29 13 16 -18 12 -14 -23 21 -30 20 27 24 -22 0
-17 25 -26 28 -15 -19 29 16 -18 14 23 -21 30 -20 -27 -24 22 0
17 -25 26 28 -15 19 29 -16 -18 23 21 -30 20 27 24 -22 0
