c Type 1: interval ordering (permuted), n=80, m=100
p cnf 80 93
73 -48 -3 -58 -8 -38 14 61 -71 -55 -65 -34 -32 17 -9 76 10 0
58 8 0
-18 -54 -49 -44 12 7 21 0
-30 -62 -60 -75 -6 37 -69 -63 47 0
-56 -70 41 0
-50 -74 64 -46 -51 23 18 -77 1 79 -53 -16 54 66 31 0
61 71 0
29 -22 28 0
71 55 -65 -34 -32 -17 -9 76 10 -59 -72 -78 0
29 -28 0
-23 18 54 66 -31 -49 44 12 7 0
72 78 -68 26 0
50 46 -51 23 18 1 -79 53 -16 54 0
45 -19 67 -52 27 73 0
-73 48 -3 58 0
-8 38 -14 61 -71 55 -65 34 -32 -17 9 76 0
-30 62 -75 37 -69 -63 -47 0
-71 55 -34 32 -17 0
-54 -7 0
-54 7 0
54 7 57 -39 -33 40 0
-19 -67 -52 -27 -73 48 0
19 67 -52 -27 -73 48 3 0
-29 0
13 0
80 25 -45 36 0
-30 62 75 37 69 0
50 15 2 -74 -5 0
42 0
50 -46 -51 -23 -18 -77 0
-71 55 -65 -34 32 -17 0
29 0
-80 25 0
54 44 -7 -57 0
45 19 -67 52 -27 73 -48 3 58 0
30 -62 60 0
-34 9 10 -59 0
42 -35 -50 0
30 -62 -60 -75 37 -69 63 47 0
-45 19 -67 -52 27 -73 48 -3 -58 0
19 67 -52 -27 73 48 -3 -58 -8 0
-54 -7 57 0
-50 74 -5 64 -46 0
61 71 -55 65 -34 32 17 9 0
-80 25 -45 -36 -19 -67 -52 0
-54 -7 33 0
45 19 -67 52 -27 73 0
30 62 -75 37 -69 -63 0
-51 23 -18 -54 -66 -31 49 -44 12 -7 0
-50 46 51 23 -18 77 -1 79 0
-46 -51 -23 -18 -53 -16 -54 66 31 49 44 12 -7 0
80 -25 45 -36 19 67 -52 -27 0
-19 -67 -27 0
75 -42 -35 -50 0
-29 22 -28 0
80 -25 -45 36 -19 67 52 0
-80 -25 -45 -36 0
42 -35 -50 0
34 9 -10 0
-30 -62 75 -37 -69 42 -35 50 -15 2 -74 5 0
23 -18 -54 49 -44 12 7 21 57 -39 33 40 0
-80 0
-13 0
-50 74 5 -64 0
-7 13 0
71 55 -34 32 -17 9 -76 -10 59 0
29 22 28 0
-29 28 0
48 -3 -58 -8 -38 -14 -61 71 -55 0
50 46 -51 23 -18 1 79 53 -16 0
26 30 0
-75 0
54 -7 57 -33 0
-50 74 5 -64 -46 51 0
-54 7 0
-54 -49 44 -12 7 0
-30 62 -75 37 69 0
18 54 -49 44 -12 -7 21 57 39 -33 40 0
-30 -62 -60 -75 37 -69 63 -47 0
-50 -74 5 0
50 46 51 -23 18 1 79 53 -16 -54 -66 -31 49 0
-50 -46 51 -23 -18 1 79 53 16 54 0
73 48 0
-56 70 0
61 -71 55 0
-54 -7 33 -40 0
-72 78 68 0
24 0
13 0
-50 -15 2 -74 -5 0
61 -71 55 65 34 32 17 9 -76 -10 -59 -72 -78 0
13 0
50 74 -64 0
