c Type 1: interval ordering (permuted), n=150, m=180
p cnf 150 152
-80 118 42 -108 -31 101 4 -146 -62 99 -84 136 125 -39 64 133 65 -71 -21 -7 -100 -59 132 0
-148 113 -81 124 11 -54 33 -92 38 -15 41 134 -50 147 -122 -66 112 12 -138 142 -5 -129 6 3 -139 10 149 -22 -72 55 90 -53 -88 -61 98 67 75 0
80 118 42 49 46 108 31 101 -4 0
-6 -90 -76 117 102 0
68 37 120 9 -26 13 86 43 123 114 28 0
80 118 -31 -136 -125 -39 -64 -133 -65 71 21 -7 -100 59 -132 -32 -130 -40 -111 -128 -69 115 -25 -35 77 56 103 -143 -60 -14 -29 18 -36 -57 -89 -137 104 -119 -24 -106 -79 91 -148 34 -47 44 -73 30 -48 113 -87 85 81 0
-54 -38 50 -147 -5 129 -6 3 -10 -22 72 90 -53 -88 -61 -67 75 126 110 -107 63 121 -23 0
-148 81 124 11 -54 -38 -15 -41 -134 50 147 -122 66 112 -12 138 -142 5 129 -6 3 -139 10 149 22 72 55 -90 53 -88 -61 -98 -67 75 -126 -110 107 -63 121 23 -76 -93 27 0
-54 -147 -6 90 -88 23 -76 -117 102 0
-68 -120 -9 123 -114 28 83 -80 116 51 -135 127 118 -144 42 49 -46 108 31 -101 4 -146 -62 -99 -84 136 125 -39 -64 -133 65 71 21 -7 100 -59 132 -32 -130 40 -111 0
-68 -120 -9 -123 -114 -28 -83 -80 -116 -51 0
54 -38 -50 -147 -112 12 5 -129 -6 -3 -139 -10 -22 -72 -55 90 -53 -88 61 98 67 75 -126 110 0
-54 -38 -50 147 -5 129 -6 -3 10 -22 -72 90 53 88 61 67 -75 126 -110 107 63 121 -23 76 93 27 -117 102 97 145 0
-1 95 -45 17 0
120 9 123 114 83 -80 -116 51 135 -127 118 144 -42 -49 -46 108 31 101 4 -146 62 -99 -84 -136 -125 -39 64 -133 65 71 21 -7 -100 -59 132 -32 130 40 111 128 69 115 -25 35 -77 56 -103 -143 60 -14 29 18 -36 -57 89 137 104 0
-148 -124 -11 -54 38 -15 -41 -134 50 147 122 -66 -112 12 142 -5 -129 6 -3 139 10 -149 22 72 55 -90 -53 88 -61 98 -67 -75 0
-80 118 42 49 -46 -108 31 101 -4 -146 -62 -99 84 -136 125 -39 64 -133 -65 71 21 7 -100 59 0
24 -79 -148 -34 47 -44 73 30 48 113 -87 -85 -81 0
-54 38 -50 -147 -5 -129 6 -3 -10 22 -72 90 53 88 61 67 75 126 110 -107 -63 0
-54 38 50 147 -112 -12 5 129 -6 -3 139 10 -22 72 -55 -90 -53 88 -61 98 -67 -75 126 0
14 -29 -18 -36 -57 137 -104 119 24 106 79 91 148 34 47 44 -73 -30 48 -113 -87 -85 0
120 -9 123 -114 -28 -83 80 -116 51 135 -127 -118 -144 -42 -49 -46 -108 -31 -101 -4 -146 -62 99 84 136 -125 -39 64 0
-130 40 -111 -128 69 -115 -25 35 77 56 103 -143 60 -14 -29 -18 0
148 -34 47 -73 113 87 -81 140 124 11 96 -109 -54 -33 -92 -58 -38 15 -41 134 -50 -147 122 -66 112 -12 -138 -142 -5 -129 -6 -3 139 10 149 22 72 -55 90 -53 88 -61 98 -67 -75 126 110 107 63 0
21 7 100 59 132 -32 130 40 111 -128 -69 -115 -25 -35 77 -56 103 -143 -60 0
-148 34 47 73 -113 87 81 -140 -124 -11 96 -109 54 -33 -92 -58 -38 0
21 0
-68 -120 -9 123 -114 -28 -83 -80 116 -51 0
-150 105 -74 0
68 -120 9 123 114 -28 83 -80 116 51 135 127 -118 144 42 -49 -46 -108 31 -101 4 146 62 -99 -84 -136 -125 39 64 0
-148 34 47 73 -113 87 81 -131 140 124 11 96 109 -54 33 -92 58 0
-148 -11 54 38 -41 134 -50 147 -122 112 -12 5 -129 6 -3 -139 10 149 -22 -72 -55 -90 53 88 -61 -98 67 75 -126 -110 -107 -63 121 -23 -76 -93 27 -117 102 -97 -145 16 0
54 50 147 129 -6 -3 -10 90 -53 -88 61 75 -110 -107 -63 -121 -23 76 -93 27 -117 102 -97 -145 -16 0
54 50 147 -129 -6 3 -10 -90 53 88 75 -110 -107 -63 121 23 -76 -93 -27 117 -102 97 145 -16 0
-11 54 -38 -41 -134 -50 -147 -112 12 -5 -129 6 3 -139 10 149 -22 -72 55 -90 -53 88 -61 -98 67 -75 126 -110 107 -63 -121 -23 -76 93 -27 117 -102 97 145 16 0
-120 114 83 80 127 -118 -144 -42 49 -46 108 0
136 71 -21 0
-148 34 47 44 -73 113 -87 85 81 131 0
-68 120 9 123 114 28 -83 -80 -116 -51 0
-7 100 59 -132 -32 -130 40 111 128 69 115 -25 -35 77 -56 103 -143 60 -14 29 -18 -36 57 0
-148 113 81 140 -124 -11 96 -54 -33 92 58 -38 -15 41 134 -50 147 122 0
-54 50 147 129 6 3 -90 88 110 -63 -121 23 -76 -93 27 -117 -102 97 -16 0
-54 -50 -147 -129 6 3 -90 53 88 110 -107 -63 121 -23 76 -93 -27 -117 -102 97 -16 0
148 -113 81 -140 124 11 54 33 -92 38 -15 -41 -134 -50 -147 122 -66 -112 12 -138 -142 -5 -129 6 3 139 -10 -149 22 -72 55 -90 -53 -88 0
-80 118 -42 31 4 146 -62 -99 136 -125 39 64 133 -65 -71 0
-120 -123 -114 83 -80 116 51 135 127 118 144 0
54 50 147 -129 -6 -3 -90 53 88 -110 -107 -63 -121 23 76 93 -27 -117 102 -97 16 0
148 -113 81 -140 -124 -11 -54 33 -92 38 15 41 -134 50 147 -122 66 -112 -12 -138 142 5 129 6 -3 -139 -10 -149 22 0
-54 147 -6 90 88 -23 76 117 102 0
80 -118 -42 49 -46 108 31 -101 4 146 -62 -99 84 -136 -125 39 64 133 -65 -71 0
-54 38 -50 147 -129 6 -3 -10 90 -53 -88 -61 -75 110 -107 -63 121 -23 76 -93 27 0
40 128 69 -115 25 35 -77 -56 103 143 60 -14 -29 18 -36 57 89 -137 104 -119 -24 106 79 -91 148 -34 47 44 73 30 -48 113 -87 0
-148 11 -54 38 15 41 -134 50 -147 -122 66 -112 12 -142 5 -129 -6 3 -139 -10 149 22 72 55 -90 -53 -88 61 98 -67 0
17 68 70 -37 -120 0
68 -37 120 9 0
14 -29 -18 36 57 -89 137 0
76 117 0
-54 38 50 -147 5 -129 -6 -3 -10 -72 90 -53 -88 -61 75 126 -110 107 -63 121 -23 76 93 -27 117 102 97 145 16 0
1 -95 -45 -17 68 2 -70 37 -120 -9 26 13 -86 43 0
54 147 6 90 -88 -23 76 -117 -102 0
95 -45 -17 0
-76 -117 0
80 118 31 4 -62 136 -125 39 64 -133 65 -71 -21 -7 100 59 132 32 -130 40 -111 -128 -69 -115 25 -35 -77 -56 -103 -143 60 -14 29 -18 36 -57 -89 0
-76 117 0
150 94 0
-80 118 -42 -31 -4 146 62 99 -84 136 125 -39 -64 0
-24 79 148 34 -47 -44 73 30 48 113 -87 -85 81 131 -140 -124 11 96 109 -54 33 0
148 -47 -113 81 140 124 11 -96 -54 -33 92 -58 -38 0
80 118 -42 -49 -46 108 -31 101 4 0
-54 -50 -147 129 -6 -90 -88 110 121 -23 -76 93 27 -117 -102 97 -16 0
120 9 -123 114 28 -83 -80 -116 51 135 127 118 144 42 -49 0
-95 45 -17 0
-148 -113 81 -140 124 11 96 54 33 92 -58 -38 -15 41 -134 50 -147 122 66 112 -12 138 -142 5 -129 6 3 -139 10 149 22 72 -55 -90 -53 88 -61 -98 -67 -75 -126 110 107 -63 121 23 76 93 27 117 0
150 -94 52 -8 0
136 133 65 71 21 7 -100 59 -132 -32 130 -40 -111 -128 -69 -115 25 -35 -77 -56 103 -143 60 14 29 -18 -36 57 89 137 0
95 45 17 0
7 -100 59 132 32 130 -40 111 -128 69 115 25 35 -77 -56 103 143 60 -14 -29 0
17 68 70 0
-80 -118 -144 42 49 -46 -108 31 -101 -4 -146 -62 99 0
-54 -38 50 147 -5 -129 -6 -3 -10 22 -72 90 -53 88 -61 98 -67 75 -126 -110 -107 -63 121 -23 0
148 -34 -47 44 73 30 48 -113 87 -85 81 131 140 -124 11 -96 -109 54 33 -92 58 0
68 -120 9 123 114 -28 -83 -80 -116 -51 0
148 34 47 44 -73 30 -48 -113 87 85 81 131 -140 -124 -11 -96 -109 54 33 -92 -58 38 15 -41 -134 -50 -147 -122 66 -112 12 -138 -142 -5 129 -6 -3 139 10 149 22 -72 -55 90 -53 -88 61 98 67 0
148 124 11 -54 38 15 -41 134 50 -147 -122 66 112 -12 138 -142 5 -129 6 -3 -139 10 149 22 72 55 -90 53 88 -61 98 -67 0
54 147 -129 6 90 -88 23 76 93 27 -117 -102 -97 16 0
-78 19 0
136 0
-21 7 100 -59 132 -32 130 40 111 -128 -69 115 25 35 -77 -56 103 -143 60 14 29 18 -36 57 89 137 -104 119 24 106 -79 -91 -148 -34 -47 -44 -73 -30 48 -113 -87 85 81 131 -140 124 -11 96 109 -54 -33 92 58 -38 0
-17 -68 2 0
-60 14 29 18 36 57 89 -137 -104 119 24 106 79 91 148 34 47 44 -73 -30 -48 113 87 85 -81 131 -140 124 -11 -96 -109 54 -33 92 58 -38 -15 41 -134 -50 147 122 66 -112 12 138 -142 -5 -129 -6 -3 -139 10 149 -22 -72 55 -90 -53 -88 0
-17 -68 -70 0
148 113 -81 140 124 11 54 -33 -92 38 -15 41 -134 -50 147 122 66 -112 -12 -138 142 5 0
-95 45 0
100 -132 -32 130 -40 111 128 -69 115 25 -35 -77 -56 103 -143 -60 0
-120 9 123 -114 28 83 80 -116 51 -135 127 -118 144 42 -49 46 108 -31 101 -4 -146 -62 0
-78 0
-54 38 50 147 5 129 6 -3 10 -72 -90 53 -88 -61 75 -126 110 107 -63 -121 23 -76 93 27 -117 -102 -97 0
-54 38 -50 -147 -5 -129 -6 3 -10 -72 -90 -53 -88 -61 -75 126 110 107 63 -121 -23 -76 -93 -27 117 -102 -97 145 16 0
-60 14 -29 -18 -36 57 -89 -137 -104 119 0
150 94 52 8 0
80 127 -118 -144 0
-78 0
-76 117 0
-120 -114 80 127 118 -144 -42 -49 -46 108 31 -101 4 -146 -62 -99 -84 136 -125 -39 -64 -133 65 -71 -21 -7 -100 -59 -132 0
136 -133 65 71 -21 7 100 -59 -132 -32 0
40 128 -69 115 -25 35 77 0
-80 -118 42 31 -101 -4 146 62 -99 -84 136 -125 -39 64 133 65 71 0
150 -94 -52 8 -141 0
-148 113 -81 -124 11 54 -33 92 38 15 41 134 50 -147 -122 66 112 12 -138 142 -5 129 -6 -3 -139 10 -149 -22 -72 55 90 53 88 61 98 67 -75 126 110 -107 -63 -121 0
120 -114 83 80 -135 127 -118 144 42 -49 46 108 -31 -101 4 146 62 -99 0
-21 7 100 59 -132 -32 130 -40 -111 -128 -69 -115 25 -35 77 56 -103 143 -60 14 -29 -18 -36 57 -89 137 104 -119 -24 106 79 -91 -148 -34 -47 44 73 -30 -48 -113 87 85 -81 -131 -140 -124 -11 -96 -109 54 -33 92 -58 -38 15 41 134 -50 -147 122 0
54 -50 -147 -129 6 -3 10 -90 -53 -88 -75 110 -107 -63 121 -23 -76 93 27 117 102 97 145 -16 0
90 76 -117 0
-148 -34 -47 -44 -73 30 48 -113 -87 85 81 131 -140 124 -11 96 -109 54 -33 92 -58 38 15 -41 134 -50 -147 -122 66 -112 -12 138 -142 -5 129 -6 3 -139 -10 149 -22 -72 -55 -90 0
36 24 106 79 -91 -148 34 47 -44 73 -30 48 -113 87 85 0
-54 50 -147 129 6 -3 10 -90 53 88 110 107 -63 121 -23 76 93 -27 -117 102 97 -145 16 0
68 37 -120 -9 -26 -13 -86 0
148 -34 47 73 113 87 81 131 140 -124 -11 96 109 54 -33 -92 -58 38 15 -41 -134 50 147 122 66 -112 12 138 -142 -5 -129 6 3 -139 10 -149 22 72 55 -90 53 -88 -61 -98 67 -75 -126 110 -107 0
136 65 71 21 -7 -100 59 132 32 -130 40 111 128 -69 -115 -25 35 -77 -56 103 143 60 14 -29 18 36 -57 -89 -137 104 -119 24 106 -79 -91 148 -34 47 -44 -73 -30 48 -113 -87 85 81 -131 -140 -124 11 96 109 54 -33 -92 -58 -38 0
-76 -117 0
150 -94 -20 105 0
148 11 54 38 15 41 -134 50 147 122 -66 -112 12 -142 -5 -129 -6 0
-148 -34 47 73 113 -87 -81 140 124 -11 96 109 54 -33 -92 0
-54 -38 50 -147 112 12 5 -129 6 3 -139 -10 22 72 55 -90 -53 -88 -61 -98 -67 -75 -126 110 107 -63 121 23 76 93 -27 -117 102 -97 145 16 0
148 -34 47 -44 -73 -30 48 -113 -87 -85 81 -131 -140 -124 11 96 -109 54 -33 92 58 -38 0
54 -50 -147 129 6 -90 88 -23 76 -93 -27 117 102 -97 -16 0
148 -34 -47 44 -73 30 -48 -113 -87 -85 81 -131 0
-6 -90 -76 117 102 0
-54 50 147 -129 6 -3 10 90 -53 -88 75 110 107 -63 121 -23 -76 93 27 -117 102 -97 -145 16 0
80 118 42 31 101 -4 -146 -62 -99 -84 -136 -125 -39 64 133 65 71 21 7 -100 59 132 -32 130 -40 -111 128 -69 -115 25 35 77 56 103 -143 -60 14 -29 -18 -36 57 89 -137 -104 -119 24 -106 79 -91 -148 34 -47 44 73 -30 48 -113 -87 -85 81 -131 140 124 11 -96 -109 -54 -33 -92 58 38 -15 41 -134 -50 -147 122 66 112 12 -138 142 5 -129 -6 3 -139 10 149 -22 -72 55 -90 -53 -88 -61 -98 67 -75 -126 -110 -107 63 121 23 -76 93 27 117 102 -97 -145 -16 0
60 14 29 18 36 57 -89 -137 -104 0
-80 118 -42 -31 -4 -146 -62 99 -84 -136 125 -39 64 -133 65 71 21 7 -100 59 -132 0
68 120 9 -123 -114 -28 -83 80 116 -51 -135 127 118 -144 -42 -49 46 -108 31 101 -4 -146 62 99 84 136 125 -39 64 0
-54 50 -147 -129 -6 3 10 90 -53 -88 -110 107 -63 121 23 -76 -93 -27 117 -102 97 145 16 0
148 11 -54 -38 -41 -134 -50 -147 112 12 5 129 -6 -3 -139 10 -149 22 -72 -55 90 0
68 70 -37 -120 -9 26 13 -86 43 123 114 28 83 -80 -116 51 135 -127 118 144 42 0
148 47 -73 -113 -87 81 140 124 -11 -96 54 33 0
148 -81 124 11 -54 38 -15 -41 134 -50 -147 122 -66 112 12 138 142 5 129 -6 3 139 -10 0
-31 -136 39 -133 -65 -71 0
-80 -118 42 108 31 101 -4 146 62 -99 -84 136 -125 39 -64 -133 65 71 -21 7 -100 -59 -132 -32 -130 -40 111 128 0
6 90 76 -117 -102 0
80 -118 -31 136 125 39 -64 -133 -65 71 21 0
54 -38 50 147 129 6 -3 -10 -90 53 88 61 -75 110 -107 63 121 -23 -76 -93 -27 0
-40 -111 -128 69 -115 -25 35 77 -56 -103 -143 -60 -14 29 18 36 57 -89 137 104 -119 -24 106 -79 91 -148 34 -47 44 73 30 48 113 -87 -85 -81 -131 140 -124 -11 -96 109 54 33 0
-54 -38 -50 147 -5 129 6 3 -10 -22 -72 -90 53 88 -61 67 75 126 110 -107 63 -121 -23 -76 93 0
150 -94 -52 -8 -141 0
80 118 -42 31 101 -4 146 62 99 -84 136 -125 0
-54 38 -50 147 -5 -129 -6 3 10 22 -72 90 53 88 61 67 75 126 -110 107 -63 121 -23 -76 93 -27 0
54 -50 147 -129 6 -3 90 53 -88 110 107 -63 121 23 76 93 -27 -117 -102 -97 16 0
148 -11 54 -38 41 -134 -50 147 -112 12 -5 -129 -6 -3 139 10 149 22 -72 -55 -90 53 -88 -61 -98 67 -75 -126 -110 -107 -63 121 23 -76 93 27 117 102 -97 145 16 0
-18 36 -119 -24 -106 79 91 -148 -34 -47 44 -73 30 48 -113 -87 85 0
-148 -113 -81 140 -124 -11 -54 33 -92 38 -15 41 -134 -50 147 122 -66 -112 -12 -138 -142 -5 129 -6 3 -139 -10 -149 -22 72 55 90 -53 88 -61 98 -67 75 126 -110 -107 63 -121 -23 0
