c Type 1: interval ordering (ordered), n=80, m=100
p cnf 80 99
1 3 -5 2 0
1 3 5 2 -4 -6 0
-1 -3 -5 -2 4 6 0
-3 5 -4 -6 0
-1 -3 5 -2 -4 6 -7 0
-6 -7 -8 -9 11 0
9 11 14 -10 0
-8 -9 11 -14 10 0
9 -11 14 -10 12 -16 0
1 3 5 2 -4 -6 -7 -8 -9 -11 -14 10 -12 -16 0
9 -11 14 -10 -12 16 0
11 -14 12 16 13 19 0
-14 16 -19 -15 20 17 0
14 16 19 -15 -20 17 -24 0
-14 16 13 -19 15 20 17 24 0
14 -16 13 -19 15 20 -17 24 21 -18 0
-14 16 13 19 -15 20 -17 24 -21 18 0
-19 20 24 -21 -18 0
19 20 -17 -24 -21 -18 0
-16 -19 20 17 -24 21 -18 -22 0
14 -16 -13 19 -15 -20 -17 -24 -21 18 -22 23 0
16 -19 -20 -17 -24 -21 -18 22 -23 0
-24 21 -22 23 0
14 -16 -19 15 -20 17 24 21 18 -22 -23 0
-24 23 0
-11 -14 12 -16 13 -19 15 20 17 24 -21 -18 22 -23 -25 26 0
-27 0
-27 0
14 -16 -19 15 20 17 -24 -21 -18 -22 -23 25 -26 27 0
-9 11 14 -10 12 16 13 -19 15 20 17 24 -21 -18 -22 -23 25 26 -27 28 0
-26 27 -28 29 -39 -30 0
-28 29 39 30 0
24 22 -23 25 26 -27 28 29 -39 -30 0
-28 -29 39 -30 45 0
-29 39 -30 45 0
28 -29 -39 -30 -45 0
28 -29 39 30 45 0
9 11 14 10 12 16 -13 19 15 -20 -17 24 21 -18 -22 -23 25 -26 27 -28 -29 -39 -30 -45 0
-24 -22 23 -25 26 -27 28 -29 39 -30 45 0
-14 12 -16 -13 19 -15 -20 -17 -24 -21 18 -22 -23 -25 26 -27 -28 -29 39 30 -45 0
-39 -30 45 -50 0
29 -39 30 -45 50 -32 0
39 -30 -45 -50 -32 31 0
-24 -21 22 -23 -25 -26 -27 28 -29 -39 30 45 50 32 -31 33 0
-19 -20 -24 -21 22 23 25 26 27 -28 -29 -39 30 -45 -50 32 -31 33 0
-39 -45 50 32 31 33 34 41 0
27 -28 29 39 -30 45 50 32 31 -33 -34 41 59 -35 0
39 45 50 32 -31 -33 -34 -41 59 35 36 0
-39 45 -50 -34 -41 59 35 36 0
39 45 50 -34 41 -59 35 -36 44 0
39 -45 -50 -34 41 59 -35 -36 44 0
39 45 50 41 59 36 44 55 38 63 74 -37 -40 0
25 26 -27 -28 -29 -39 -30 -45 -50 32 -31 33 34 -41 59 35 -36 -44 55 -38 63 74 -37 40 0
-39 -45 50 -33 -34 41 59 -35 36 -44 55 -38 -63 74 -37 -40 0
-39 45 -50 -41 59 35 -36 44 55 -38 -63 -74 -37 -40 -78 0
39 45 50 -41 59 -36 -44 -55 -38 -63 74 37 -40 -78 0
-14 16 -13 19 -15 -20 -17 24 21 -18 -22 23 25 -26 -27 -28 -29 -39 -30 -45 50 -32 -31 33 -34 41 -59 -35 36 -44 -55 38 -63 74 -37 40 78 0
-39 -45 50 34 -41 59 -35 36 44 55 -38 63 -74 -37 -40 -78 -43 0
39 -45 50 34 41 59 -35 -36 44 -55 -38 -63 -74 37 40 78 -43 0
28 29 -39 -30 45 -50 32 -31 -33 34 -41 -59 35 36 -44 -55 -38 63 74 37 -40 78 -43 0
24 -25 26 -27 -28 -29 39 30 45 -50 32 -31 33 -34 -41 59 -35 36 -44 -55 -38 63 74 -37 -40 78 43 0
39 -45 -50 34 -41 -59 35 -36 -44 -55 38 -63 -74 37 40 -78 -43 77 0
-39 30 45 -50 32 31 33 34 41 59 35 -36 44 -55 -38 -63 -74 37 -40 78 -43 77 0
-45 -50 59 44 -55 -63 -74 78 -43 77 42 0
-45 50 41 59 44 -55 -63 74 -78 43 -77 -42 -67 0
45 -50 -59 -44 -55 63 74 -78 -43 -77 -67 64 47 0
45 50 59 44 55 63 74 -78 43 -77 42 67 -64 47 52 0
-45 -50 59 55 63 -74 78 -77 67 -64 -47 52 -46 -51 -68 49 0
-50 59 -55 -63 74 78 -77 67 64 47 52 -51 68 -49 72 -48 57 54 60 -58 53 -80 -69 66 56 0
-50 -59 55 -63 -74 78 -77 67 64 -52 51 68 72 -57 54 60 -58 -53 -80 -69 -66 56 0
59 55 -63 -74 -78 77 67 -64 -52 -51 68 72 57 -54 60 58 53 80 69 66 56 0
50 -59 55 -63 74 78 77 -67 -64 -52 51 68 -72 -57 54 -60 58 -53 -80 -69 -66 -56 0
59 -55 63 -74 78 -77 67 -64 52 -68 72 57 -54 60 58 -53 80 -69 -66 56 -61 -65 -70 0
59 -55 63 74 -78 77 -67 -64 -68 -72 -57 -54 -60 58 53 -80 69 -66 -56 -61 -65 -70 75 -62 0
59 -55 -63 74 78 -77 67 -64 -68 -72 57 -54 60 -58 53 80 -69 66 56 61 65 70 75 -62 71 -79 -73 0
-59 55 -63 -74 -78 -77 -67 64 -68 72 -57 54 60 -58 80 -69 -66 56 -61 -65 -70 -75 62 -71 -79 -73 0
-59 -55 63 74 78 -77 67 64 -68 -72 -57 -60 -58 -80 69 -66 56 -61 65 70 75 -62 -71 -79 -73 0
59 -55 63 -74 -78 77 67 -64 -68 72 -57 60 -58 -80 -69 66 56 -61 65 70 -75 62 -71 79 -73 0
59 63 -74 78 -77 -67 -64 -68 -72 57 60 -58 -80 69 -66 56 61 65 -70 -75 -62 71 -79 -73 0
59 63 74 -78 -77 67 -64 -68 -72 57 -60 -58 80 -69 66 56 -61 65 70 75 -62 -71 79 73 76 0
-59 -63 74 78 77 67 -64 -68 72 57 -60 58 -80 69 66 -56 61 65 70 75 -62 71 -79 -73 -76 0
59 63 -74 78 -77 67 64 -68 72 -60 -58 -80 69 66 61 -65 70 75 -62 71 79 -73 -76 0
59 63 -74 -78 -77 67 64 -68 72 57 60 -58 -80 -69 -66 -61 -65 -70 75 62 -71 79 -73 -76 0
63 74 -78 77 67 -64 68 72 80 69 66 65 -70 -75 -62 -71 79 -73 -76 0
63 -74 78 77 67 64 68 -72 -80 69 66 -65 -70 -75 -62 -71 79 -73 -76 0
-59 -63 -74 78 77 -67 64 -68 72 57 60 58 -80 -69 -66 -61 -65 -70 -75 62 -71 -79 73 76 0
74 -78 -77 67 64 68 72 -80 69 -66 65 70 -75 -71 -79 -73 76 0
74 78 -77 67 68 -72 -80 -69 -66 70 -75 -71 79 -73 -76 0
-63 -74 -78 77 -67 64 -68 72 -80 69 66 -65 -70 -75 62 71 -79 -73 -76 0
-59 63 -74 78 -77 -67 -64 -68 -72 -60 -58 80 69 66 61 -65 70 75 -62 71 79 -73 76 0
-59 -63 74 -78 77 -67 64 -68 72 57 60 -58 -80 69 -66 61 -65 -70 75 -62 71 79 73 76 0
-74 78 -77 -67 -68 72 80 69 -66 70 -75 71 79 -73 76 0
59 -63 -74 78 -77 -67 -64 -68 72 -57 60 58 -80 69 66 61 -65 70 75 -62 71 -79 -73 -76 0
59 -63 74 78 77 67 -64 -68 72 -57 60 -58 -80 -69 -66 -61 -65 -70 75 -62 -71 79 73 76 0
-74 78 -77 67 68 72 -80 69 66 -70 75 71 79 73 76 0
74 78 77 -67 -68 72 -80 -69 -66 -70 -75 71 -79 73 76 0
74 -78 77 67 68 -72 -80 69 66 70 -75 -71 -79 -73 -76 0
74 78 -77 68 -72 -80 -69 70 75 71 79 -73 -76 0
63 -74 78 -77 67 64 68 -72 80 69 -66 -65 70 -75 -62 -71 -79 -73 76 0
