c Type 1: interval ordering (permuted), n=500, m=600
p cnf 500 558
67 -249 -20 -110 24 487 -377 -85 -374 -480 -280 371 -210 168 -383 -396 -417 197 -139 -123 238 178 -291 -484 105 439 324 491 -456 -331 91 310 -385 395 466 -479 53 -465 -419 346 406 329 0
8 307 448 -162 272 -325 -442 122 190 214 242 0
500 151 -133 -3 -282 -336 -132 -179 -117 -421 260 -84 -415 -275 -4 109 -293 288 108 0
1 234 -102 -414 71 195 229 100 -376 -469 341 0
34 405 -399 -332 0
308 -38 -472 -56 -120 13 -355 224 -7 -424 -300 0
394 -172 -145 -101 340 452 -181 -349 42 -185 -423 23 392 -387 61 267 0
119 451 -5 241 66 367 174 0
250 0
423 -23 392 387 61 267 489 -449 171 -416 -87 -60 486 12 217 75 0
406 -394 -172 -475 -137 0
68 -32 -63 -153 308 -317 -380 255 -270 86 127 38 -182 -472 56 -120 0
-17 339 -494 -335 -474 -386 418 -322 389 -388 -77 -245 285 -318 381 407 -114 -125 129 -135 -284 278 277 113 370 -268 304 146 -244 -342 0
-212 -306 226 438 -437 -78 -10 410 -208 354 -305 445 -176 152 467 -107 0
281 -313 -204 99 -495 230 379 2 -485 213 -408 289 188 -28 0
-8 -225 -11 -307 46 -448 162 -272 -325 442 122 -190 214 -242 184 0
-124 403 350 425 215 196 420 -142 0
212 -226 437 78 -354 -305 0
-462 -435 47 0
441 -413 73 -201 -68 -26 -32 97 149 160 -63 -360 153 232 -308 -317 380 255 -270 -86 -127 -38 182 -472 56 -120 -13 252 355 0
210 168 -383 396 417 197 123 -238 178 0
-492 -124 -404 403 -350 425 215 196 0
451 0
293 -288 76 228 209 -239 -55 382 -180 -72 141 -240 -89 -264 -14 148 -233 35 -29 330 -150 356 366 -446 -326 -441 413 -73 -201 68 26 -32 -97 -149 -160 63 360 -153 -232 -308 317 380 -255 270 -86 -127 -38 -182 -472 56 0
-374 -480 280 371 210 -168 383 396 417 197 -139 -123 -238 -178 291 484 -105 439 324 491 456 331 -91 -310 385 -395 466 -479 53 465 419 -346 -406 329 357 -19 -365 -428 -80 312 211 -394 172 475 -137 0
308 38 -472 -56 -120 13 -355 -7 424 -300 165 -82 -64 401 -40 303 455 0
-8 -307 46 -448 -162 272 -325 442 -122 190 214 -242 184 -157 -169 189 143 478 -17 493 199 -106 -222 0
308 38 -472 56 -13 355 -7 424 300 -165 82 -64 -401 40 303 -455 258 -461 8 -18 27 225 457 11 307 -46 0
-70 -269 -119 79 0
483 202 -246 265 88 440 0
248 348 206 -296 315 128 302 -397 -48 -477 323 -276 261 -155 0
485 -22 -16 463 -131 -429 482 0
8 307 -325 -442 122 190 214 0
-374 -480 0
82 -64 401 40 -303 -455 258 -461 -8 -18 -27 225 457 11 -307 46 448 0
-485 -408 454 -450 -259 22 -16 -112 463 -131 429 482 369 -254 -328 207 -488 -243 -90 147 -163 297 -262 -94 363 0
88 -440 0
431 -273 -93 -347 -121 319 -337 37 490 177 154 9 -140 -294 -372 279 -25 0
-436 -175 203 44 -54 434 -219 500 151 133 -3 -282 336 132 179 -117 421 260 84 -415 -275 4 109 -293 -288 -108 76 228 -209 -239 -55 382 180 72 141 240 -89 -264 -14 -148 -233 0
-107 50 192 -393 116 248 -58 348 -368 -206 -296 315 128 302 -397 -48 477 323 276 -261 155 351 187 -191 -271 69 496 462 476 -227 -464 -344 435 -235 -481 47 -422 -292 -453 52 -498 -198 -412 -200 299 -436 390 -236 0
-258 -8 -225 11 307 -46 -448 162 -272 325 442 -122 190 214 242 0
253 281 -444 313 -204 99 495 -230 -379 -2 485 -213 408 289 188 -28 218 0
-161 -166 0
1 234 -102 0
-212 306 226 438 437 -78 -10 -410 208 -354 -305 -445 176 -152 -467 107 -130 -50 -192 393 -116 -248 -58 -348 368 206 -296 315 0
293 -288 -108 -76 -228 209 -239 -55 382 180 -72 -141 -240 -89 -264 14 148 -233 35 -29 -330 150 356 366 446 -326 -441 -413 -73 -201 68 -26 32 -97 -149 160 -63 -360 -153 232 -308 -317 -380 -255 270 -86 -127 -38 182 472 -56 -120 0
-93 319 -337 -37 490 -177 154 -9 0
-17 493 286 183 -334 115 339 494 335 474 -468 386 -418 322 389 -388 -77 245 285 -318 -381 407 -114 -125 129 -135 284 278 277 -113 -370 -268 -304 146 244 342 0
221 67 -249 -20 43 -49 110 24 -156 487 0
2 -485 -408 -289 -188 -256 454 -450 -259 22 0
-68 -32 149 160 -63 -360 153 -232 -308 317 -380 -255 -270 -86 -127 38 182 472 56 120 -13 252 355 -224 7 -424 -300 165 82 64 401 40 0
403 -247 -298 111 384 167 -266 364 290 -274 -497 -409 -378 173 0
-226 437 -78 -354 305 -445 176 -152 467 107 -130 -50 192 -393 116 -248 58 -348 368 0
-198 200 -299 436 104 175 -203 44 -54 -434 -219 500 151 -133 -3 -282 336 -132 179 0
-455 258 461 -8 -18 0
-35 -29 -150 356 366 446 -326 -441 -413 -73 201 68 26 32 -97 -149 -160 -63 360 153 -232 -308 317 380 255 270 -86 127 38 -182 472 56 0
-455 0
-17 -493 343 286 471 0
113 268 -304 146 244 342 -309 345 283 -402 -295 0
5 241 66 367 174 -460 -95 -45 74 311 -373 492 -124 -404 -403 -350 425 0
-107 130 -50 192 393 -116 248 58 348 -368 206 -296 315 -128 302 397 -48 477 -323 -276 261 -155 351 -187 -191 -271 -69 -496 462 476 -227 464 344 -435 -235 0
-403 447 -353 247 298 -111 0
293 288 -76 228 -209 -239 -55 382 180 -72 141 240 -89 264 -14 -148 -233 35 29 -330 150 356 -366 446 -326 -441 -413 -73 -201 68 26 32 -97 0
-192 393 116 -248 58 -348 -368 -206 -296 315 128 302 -397 -48 -477 323 -276 261 -155 351 187 -191 -271 -69 496 462 -476 227 464 344 435 235 0
400 -98 411 -34 223 405 399 0
38 -355 -7 -424 300 -165 -82 -64 -401 -40 -303 -455 258 -461 -8 -18 27 225 457 -11 307 46 0
-82 -64 401 40 303 455 258 461 8 -18 -27 -225 -457 11 307 -46 448 162 -272 0
-173 30 -391 -15 -159 -21 -398 361 -333 -194 -216 -352 81 -231 338 -62 0
191 -462 464 344 -435 -235 -481 0
-90 147 -163 -297 -262 94 363 -263 362 -51 96 -36 41 65 -212 -430 -359 327 427 -432 -220 -470 -306 -314 226 158 438 -437 -78 10 410 208 354 -305 -445 176 -152 467 107 130 50 -192 -393 116 248 -58 348 368 -206 296 -315 128 302 -397 -48 477 323 276 261 0
455 -258 8 225 457 0
-485 408 -454 -450 -259 -22 16 112 -463 -131 -429 482 369 -254 -328 207 488 0
-20 -110 24 -374 480 280 -371 210 -168 383 -396 -417 -197 -139 123 -238 -178 291 -484 105 439 -324 491 -456 -331 91 310 -385 -395 466 479 -53 -465 -419 346 406 -329 0
-42 185 423 -23 392 -387 61 -267 489 0
-55 382 -180 72 -141 240 89 264 -14 -148 0
-173 138 30 -136 -391 31 0
67 -249 -20 43 110 -24 487 -377 85 374 -480 280 371 -210 168 383 396 -417 197 139 123 -238 -178 -291 484 105 -439 324 491 -456 -331 -91 0
-72 141 89 264 -14 -148 233 -35 29 330 150 -356 366 -446 326 -441 413 -73 201 68 26 -32 97 149 -160 -63 -360 153 232 308 317 -380 -255 270 -86 -127 -38 0
173 30 391 -31 15 159 375 126 -134 -21 398 361 333 -194 216 352 -81 -231 338 62 321 -301 -103 39 -257 -253 -459 0
118 0
-443 0
-316 -92 0
-431 0
257 253 -459 -458 57 -281 -444 -313 -204 99 495 230 -379 2 485 213 -408 -289 188 -28 0
-212 327 306 226 438 437 78 -10 -410 -208 354 305 -445 -176 152 467 -107 -130 50 192 -393 -116 248 58 348 368 206 -296 -315 128 0
-403 -170 -447 -353 144 287 -247 298 -111 -384 -167 266 364 -290 -274 497 409 -378 173 138 -30 -136 -391 -31 -15 159 375 0
71 -195 229 100 376 469 -341 -483 0
8 -307 448 -325 -442 -122 190 -214 -242 -184 -157 -169 0
-154 -83 164 -320 -205 -161 166 0
-113 268 304 -146 -244 -342 0
1 -234 102 414 0
173 30 391 31 15 159 375 126 134 21 -398 -361 -333 -194 -216 352 -81 231 338 -62 321 301 103 -39 -257 253 459 -458 -57 -281 444 -313 204 99 -495 -230 -379 -2 0
93 347 121 -319 -337 -37 490 0
436 203 44 -54 434 -219 500 151 133 -3 0
-366 -446 326 -441 -413 73 201 68 -26 0
-8 307 -448 272 325 -442 -122 190 214 242 184 0
-465 346 406 357 -19 -365 80 -312 211 -394 -172 475 137 -145 -101 -340 -452 -181 -349 42 -185 423 -23 392 -387 -61 267 -489 -449 -171 416 -87 -60 -486 12 217 -75 0
-383 396 -123 291 -484 -439 324 491 456 -331 91 310 385 395 -466 0
8 225 307 -46 -448 162 272 -325 -442 122 190 -214 0
-212 306 226 -438 -437 -78 -10 410 -208 -354 305 -445 -176 -152 467 -107 -130 -50 -192 -393 -116 -248 -58 -348 -368 -206 296 -315 128 302 -397 -48 -477 323 -276 261 -155 -351 -187 191 271 69 -496 462 -476 -227 464 344 435 -235 481 0
313 -204 -99 -495 0
423 23 -392 -387 -61 -267 -489 -449 171 -416 -87 -60 486 -12 217 -75 0
-374 -210 168 383 -396 -417 197 139 0
-67 -249 20 -43 49 -110 -24 -156 -487 -377 0
95 -45 74 311 373 0
494 335 -474 386 418 322 389 388 77 245 285 318 381 -407 -114 -125 -129 -135 284 278 277 -113 370 -268 -304 -146 0
-34 -405 -399 0
-111 -384 -167 266 364 290 -274 497 -409 -378 173 138 30 0
-500 -151 133 -3 -282 336 -132 179 117 -421 -260 -84 -415 -275 4 -109 293 -288 108 76 228 -209 239 -55 382 -180 72 -141 -240 -89 -264 14 -148 0
-436 -44 54 -434 219 500 151 -133 -3 282 336 -132 -179 -117 -421 -260 -84 415 -275 4 -109 293 288 0
165 82 -64 -401 -40 -303 -455 258 461 -8 18 -27 225 -457 11 -307 -46 0
-363 263 -362 51 0
394 172 -145 101 -340 -452 181 -349 -42 0
363 -263 -362 -51 -96 36 -41 65 212 430 -359 -327 -427 432 220 470 -306 314 -226 0
-267 449 -171 416 87 60 486 -12 0
-485 -408 -289 -188 -256 -454 -450 -259 -22 -16 -112 -463 131 -429 482 369 254 -328 -207 -488 -243 -90 147 -163 -297 262 -94 -363 263 -362 -51 -96 -36 -41 -65 -212 430 359 327 -427 -432 220 470 306 314 226 158 438 437 -78 10 0
-165 82 -64 -401 40 303 455 258 -461 -8 -18 27 -225 457 -11 307 -46 448 162 0
-145 -340 -452 181 349 42 0
-177 -154 -9 -372 25 186 83 -164 320 0
-195 -229 100 376 469 341 0
-119 451 5 241 0
319 337 -37 490 -177 -154 9 140 294 -372 279 -25 186 83 164 0
141 -264 14 -148 233 -35 29 -330 -150 356 -366 446 -326 -441 413 -73 201 68 26 -32 97 149 -160 -63 360 -153 232 0
-90 -147 -163 297 -262 -94 -363 263 -362 -51 96 -36 -41 -65 212 -430 -359 -327 427 432 220 470 306 314 226 158 438 437 -78 10 410 208 0
-316 -426 118 0
-68 -32 -63 360 153 -308 317 -380 255 270 -86 127 38 0
-293 288 108 76 -228 209 239 -55 382 180 72 -141 240 -89 264 14 148 -233 0
163 -94 363 263 -362 -51 -96 36 41 65 0
-422 52 498 198 412 -200 -299 0
-465 419 -346 406 -357 -19 -365 -428 -80 312 -211 394 0
-123 456 -331 -385 466 0
253 458 -281 -444 -313 204 99 495 230 -379 -2 -485 213 0
-495 -2 -485 -213 408 -289 -188 218 473 0
-374 210 168 -383 -396 417 -197 123 238 178 291 -484 -105 439 -324 491 456 331 -91 -310 -385 395 466 -479 53 465 419 -346 -406 329 -357 19 365 428 0
-403 -353 247 298 -111 384 -167 266 364 -290 274 0
-111 -384 167 266 -364 -290 274 497 0
321 301 -103 0
-494 386 418 322 -388 -245 -285 -318 -381 -407 114 125 -129 135 284 -278 277 113 370 268 0
273 0
-465 -346 406 -357 19 365 428 0
403 447 353 -247 -298 0
260 84 415 275 4 109 293 288 108 -76 228 209 239 55 382 -180 72 -141 -240 -89 -264 -14 -148 -233 -35 29 330 -150 -356 366 -446 -326 -441 413 -73 201 -68 -26 32 -97 149 160 -63 -360 0
246 -265 -88 440 0
-110 24 -374 480 -280 371 210 168 -383 396 417 -197 -139 -123 238 -178 -291 484 -105 -439 -324 -491 456 0
-316 -118 0
333 194 216 352 -81 -231 -338 -62 0
17 -493 115 339 -494 335 -474 -468 -386 418 0
-396 123 491 -456 331 -310 385 395 -466 0
-485 -408 454 -450 -259 -22 0
-383 -396 123 439 324 -491 456 -331 91 -310 -385 -395 -466 479 -53 465 -419 346 -406 329 -357 -19 365 -428 -80 312 0
-383 -396 123 291 -484 -439 -324 491 456 -331 -91 310 -385 395 466 -479 -53 465 -419 -346 406 -329 0
153 -308 255 86 -127 -38 182 -472 -56 -120 -13 252 355 224 7 -424 -300 -165 -82 -64 401 -40 303 -455 258 -461 -8 -18 27 -225 -457 11 307 46 448 -162 272 -325 -442 -122 -190 -214 -242 0
-260 -84 415 -275 -4 -109 -293 -288 108 76 228 209 -239 0
-34 -223 -405 -399 -332 -6 -221 67 -249 20 43 -49 110 -24 156 487 0
-40 303 455 258 -461 -8 -18 27 225 -457 0
-17 -493 -286 183 -115 -339 -494 -335 -474 -468 -386 -418 0
17 -493 343 286 471 183 334 -115 339 494 0
328 207 488 -243 0
363 263 362 -51 96 36 -41 65 -212 430 359 327 427 432 220 470 -306 -314 0
173 -30 391 15 -21 398 -361 -333 194 216 352 81 -231 338 62 321 301 103 39 -257 -253 -459 -458 -57 -281 444 -313 204 99 -495 -230 379 0
-465 -419 -346 -406 0
465 -346 -406 -357 19 -80 312 211 -394 172 475 137 -145 -101 -340 -452 -181 349 42 -185 423 23 -392 -387 61 -267 -489 449 171 -416 -87 -60 0
-383 -396 123 439 324 491 -456 -331 91 310 385 395 -466 479 53 465 0
-212 306 226 437 78 208 -354 305 445 -176 0
-257 -253 -459 458 -281 444 -313 -204 99 -495 -230 -379 2 -485 -213 408 289 -188 28 -218 473 -237 -499 -256 454 450 -259 -22 -16 112 -463 -131 -429 -482 369 -254 328 207 488 243 -90 -147 -163 -297 -262 94 363 263 -362 51 -96 -36 -41 -65 -212 -430 359 327 -427 432 220 -470 -306 -314 -226 158 -438 437 -78 -10 410 -208 -354 -305 -445 176 152 467 107 130 50 192 393 -116 248 58 -348 368 -206 -296 -315 128 -302 -397 -48 0
-212 -306 226 -438 437 78 10 410 -208 354 305 445 176 152 467 -107 130 -50 -192 393 116 -248 -58 348 -368 0
173 -138 -30 -136 -391 -31 -15 -159 -375 126 -134 21 -398 -361 333 0
383 -396 197 123 -238 -291 -484 105 -439 324 0
132 -179 117 -421 260 84 -415 -275 4 109 293 288 0
1 234 102 414 71 195 -229 100 376 469 -341 -483 -202 246 265 -88 440 0
-422 52 -498 -198 412 200 299 -436 390 236 104 175 203 -44 -54 0
-17 493 286 183 115 -339 -494 -335 474 468 -386 418 -322 389 -388 -77 245 285 0
168 -383 -396 197 -123 238 291 484 -105 -439 324 -491 0
-363 -96 36 -41 -65 -212 430 359 327 0
431 273 93 -347 121 -319 337 -37 490 177 154 9 140 -294 0
316 -92 426 118 -431 273 -93 -347 -121 -319 337 -37 490 -177 154 9 140 -294 372 -279 25 -186 83 164 0
68 63 153 -308 -380 255 -86 127 38 182 472 -56 -120 -13 252 -355 0
-436 44 54 219 500 151 -133 3 -282 -336 -132 179 117 -421 260 -84 -415 -275 -4 -109 293 288 -108 0
-2 485 213 408 289 -188 -237 -499 256 454 450 -259 -22 -16 -112 463 131 -429 -482 369 254 -328 207 488 243 90 147 163 297 262 -94 363 263 362 -51 -96 -36 -41 65 212 -430 -359 327 427 432 220 470 -306 -314 -226 -158 438 -437 -78 -10 410 -208 354 305 445 176 152 467 -107 -130 50 -192 393 -116 248 58 348 368 206 296 -315 128 302 -397 48 477 -323 -276 261 -155 -351 187 -191 271 -69 -496 0
153 308 -255 -86 -127 38 182 -472 56 -120 -13 -252 -355 -224 -7 -424 300 165 82 64 -401 -40 303 0
-477 -191 -69 496 -462 476 227 464 344 -435 -235 481 -47 422 -292 -453 52 -498 -198 -412 -200 299 -436 -390 236 -104 175 -203 -44 -54 434 219 500 151 133 -3 282 -336 -132 -179 -117 421 -260 84 415 -275 4 -109 -293 288 -108 -76 -228 -209 239 -55 382 -180 72 -141 240 89 264 -14 -148 233 35 29 330 -150 -356 -366 446 -326 -441 -413 -73 201 -68 26 32 97 -149 -160 -63 0
-8 307 46 448 0
-383 -396 -123 439 -324 491 -456 331 -91 -310 0
-6 -221 -67 -249 20 -43 49 110 24 -156 487 -377 85 374 0
-436 44 -54 -434 -219 500 151 -133 -3 282 336 -132 -179 117 -421 260 0
403 298 -111 -384 -167 -266 -364 290 -274 497 409 378 173 0
-35 -29 330 -150 -356 0
-253 -281 -444 313 -204 0
394 172 -475 137 145 101 -340 -452 181 -349 -42 185 0
-55 -180 72 141 240 89 264 14 148 -233 35 29 -330 -150 356 366 -446 326 441 413 -73 201 -68 26 32 -97 -149 160 -63 -360 153 -232 0
153 -308 -255 86 127 -38 182 -472 56 -120 13 -252 355 224 -7 -424 300 165 -82 64 401 0
-82 -401 -40 -303 455 258 -461 8 -18 -27 225 -457 0
-462 435 47 -422 292 -453 -52 -498 0
-191 462 -476 -464 344 -435 235 481 0
485 408 454 -450 259 -22 -16 -112 -463 -131 -429 -482 369 -254 -328 207 488 -243 -90 147 -163 -297 -262 94 -363 -263 -362 -51 -96 36 -41 -65 212 430 -359 -327 427 432 220 470 -306 -314 0
5 -241 -66 0
-8 -325 442 190 -214 -242 -184 0
495 2 485 -213 -408 -289 -188 0
-308 38 472 -56 120 -13 252 -355 224 7 424 300 -165 0
-68 32 -63 -153 308 -380 255 -86 -127 -38 -182 472 56 -120 0
-217 -75 0
35 29 150 -356 0
332 6 -221 -67 -249 -20 43 -49 110 -24 156 -487 377 -85 374 -480 280 371 210 168 383 396 -417 197 139 123 -238 178 0
-363 96 36 -41 65 212 -430 -359 -327 -427 432 -220 -470 -306 314 226 -158 -438 -437 -78 -10 -410 -208 -354 -305 -445 176 -152 -467 107 -130 50 -192 393 -116 -248 58 -348 -368 206 -296 0
-173 -138 -30 136 -391 0
116 248 -58 348 368 -206 -296 315 128 -302 -397 48 -477 -323 0
94 -363 -263 -362 51 -96 36 41 65 212 430 359 327 -427 432 -220 470 -306 314 226 158 438 -437 -78 10 -410 208 -354 305 445 -176 -152 -467 -107 130 50 192 0
147 163 297 -262 0
-422 -292 -453 -52 498 -198 -412 -200 299 436 -390 -236 -104 -175 203 -44 -54 434 -219 -500 -151 133 3 282 -336 -132 179 117 0
8 225 307 46 -448 162 272 325 -442 122 -190 214 242 0
-400 -98 411 34 -223 -405 399 332 6 221 -67 249 20 -43 49 -110 24 156 487 -377 85 -374 0
-477 191 69 496 462 -476 227 464 -344 435 -235 481 47 422 292 453 -52 -498 -198 412 -200 -299 436 390 -236 104 175 -203 -44 54 434 -219 -500 151 -133 -3 -282 -336 -132 179 -117 -421 -260 -84 -415 -275 -4 -109 -293 288 -108 76 228 209 -239 55 -382 180 72 -141 240 -89 0
-145 181 349 -42 -185 -423 23 392 387 61 267 -489 -449 -171 416 87 60 -486 -12 -217 75 0
-116 248 -58 -348 -368 206 -296 315 128 -302 397 -48 -477 323 -276 -261 155 351 -187 -191 -271 -69 -496 462 476 -227 -464 344 -435 -235 0
173 30 -391 -31 -15 -159 375 126 -134 -21 398 0
332 0
-243 -90 -147 -163 297 262 94 363 -263 362 -51 -96 -36 -41 -65 212 430 -359 -327 427 432 220 -470 -306 -314 0
-250 0
394 172 -145 101 -340 452 -181 -349 42 0
-465 346 406 -357 19 -365 -428 -80 -312 -211 -394 172 475 137 0
221 -67 249 20 -43 -49 -110 24 156 -487 -377 0
290 274 -409 378 0
-99 -495 230 379 2 485 213 408 289 188 28 -218 -473 -237 499 -256 454 450 -259 -22 -16 112 463 -131 -429 482 369 -254 -328 207 -488 -243 90 147 -163 -297 -262 -94 363 0
257 253 -459 458 57 281 -444 313 -204 99 495 -230 379 2 -485 -213 408 289 -188 -28 -218 -473 237 499 256 -454 -450 -259 22 -16 -112 -463 131 429 -482 -369 -254 -328 -207 -488 -243 90 147 -163 297 -262 94 363 -263 362 -51 0
-212 -306 226 -438 437 78 10 410 -208 0
403 247 298 -111 -384 -167 266 364 -290 -274 -497 409 -378 173 -138 -30 136 391 31 15 -159 -375 -126 -134 21 398 361 -333 194 -216 -352 -81 -231 338 62 321 -301 0
403 425 -196 -142 -433 -358 -170 0
366 446 326 -441 -413 73 -201 -68 26 32 97 -149 -160 -63 360 153 232 -308 -317 -380 -255 0
-332 -6 221 -67 -249 -20 -43 -49 -110 -24 156 -487 -377 -85 -374 -480 -280 371 210 168 -383 -396 417 -197 -139 123 -238 178 291 484 -105 439 324 -491 -456 331 -91 310 385 -395 -466 -479 53 465 419 346 406 -329 -357 19 -365 428 80 -312 211 394 -172 475 -137 -145 101 -340 0
-485 -408 -454 -450 -259 22 16 112 463 131 -429 482 369 254 328 207 488 243 90 -147 163 297 -262 -94 -363 -263 362 -51 -96 36 41 -65 -212 430 359 -327 -427 432 220 470 306 -314 -226 -158 -438 -437 -78 -10 -410 208 -354 305 445 -176 0
-66 0
-393 116 248 -58 348 368 -206 296 -315 128 -302 -397 48 477 323 276 -261 -155 -351 187 191 -271 69 -496 462 476 227 0
102 -414 0
321 -301 103 -39 -257 253 459 458 57 -281 -444 313 204 99 495 230 379 2 0
406 357 -394 -172 -475 137 -145 101 340 452 -181 349 -42 -185 -423 23 392 387 61 -267 489 449 -171 -416 -87 -60 -486 -12 -217 75 0
-366 446 -326 441 -413 73 -201 0
-173 138 -30 136 391 0
-145 -181 349 42 185 423 -23 0
173 -361 0
-1 234 -102 414 -71 -195 229 100 376 469 -341 0
299 -436 -104 -175 -203 44 54 434 219 500 -151 133 3 -282 -336 132 179 0
-250 0
2 485 408 -289 188 -237 256 -454 -450 259 22 16 112 463 131 429 -482 369 254 328 207 488 -243 -90 147 -163 -297 262 0
-145 340 -452 -181 -349 0
154 -83 164 -320 205 161 -166 0
-363 -96 36 -41 65 -212 430 -359 -327 427 -432 -220 470 -306 314 226 -158 -438 437 -78 10 410 -208 -354 0
-148 0
-124 403 350 425 -215 196 420 0
-378 -173 -138 0
485 -408 -454 -450 -259 -22 -16 112 463 131 429 482 369 -254 -328 207 -488 243 90 147 -163 297 -262 94 -363 -263 362 51 -96 -36 -41 -65 0
-41 212 -327 427 220 470 -306 314 226 158 438 437 78 -10 -410 -208 354 -305 445 176 152 -467 107 130 -50 -192 -393 116 -248 58 348 368 206 -296 -315 128 302 -397 48 -477 323 0
209 55 -382 -180 72 141 240 -89 -264 -14 -148 233 -35 -29 -330 150 -356 366 446 326 -441 -413 73 0
-202 246 -265 88 440 0
-316 -92 426 0
-383 -396 123 439 491 -456 331 91 310 -385 395 466 479 53 465 419 -346 406 -329 357 19 365 428 -80 -312 211 -394 172 475 -137 145 0
465 406 357 -19 80 312 -211 0
-400 -98 411 -34 0
-55 -180 -72 -141 -240 89 264 14 -148 -233 35 29 330 150 0
-198 -200 -299 436 104 -175 203 -44 54 -434 219 500 151 -133 -3 282 -336 -132 -179 117 -421 260 84 -415 275 0
-2 -485 213 408 289 188 237 -499 256 454 -450 259 22 -16 112 463 -131 0
-173 -361 333 194 216 -352 81 231 338 -62 321 -301 103 39 257 253 459 0
-248 206 296 315 -128 302 -397 48 477 -323 276 261 155 -351 -187 191 271 0
328 488 -243 -90 147 -163 -297 -262 -94 363 263 362 51 96 36 41 -65 -212 430 -359 327 427 -432 -220 470 306 314 -226 158 -438 437 78 10 410 -208 354 305 -445 -176 -152 -467 -107 -130 50 192 393 -116 248 -58 -348 368 -206 296 -315 128 -302 397 48 477 323 276 -261 155 351 -187 -191 -271 -69 496 -462 0
177 154 9 372 25 83 -164 -320 205 -161 166 0
-132 -179 117 421 -260 84 -415 275 4 109 293 -288 -108 -76 -228 209 239 55 0
-465 -406 357 -19 -80 312 -211 394 172 475 -137 145 101 -340 -452 181 349 0
8 -225 -307 46 448 162 272 0
-363 -96 -36 41 65 212 430 -359 -327 -427 432 220 470 306 -314 -226 158 438 437 -78 10 410 0
-4 -109 0
132 -179 -117 -421 -260 -84 415 275 0
325 157 -189 143 478 17 493 199 -106 -222 343 -286 -471 -183 334 115 -339 494 -335 -474 -468 386 -418 -322 0
67 -249 20 110 -24 -487 377 85 374 -480 280 -371 210 168 -383 396 417 -197 -139 123 -238 -178 291 0
-325 157 189 -143 -478 17 -493 -199 106 0
363 -263 -362 51 -96 -36 41 65 212 -430 -359 -327 427 -432 -220 470 306 314 226 158 438 -437 78 10 -410 -208 -354 -305 -445 176 152 -467 -107 -130 50 -192 0
132 -179 117 -421 -260 -84 -415 275 -4 -109 293 288 -108 -76 228 -209 239 55 -382 180 -72 141 -240 89 -264 -14 148 233 -35 29 330 150 0
-173 30 -391 31 -15 159 126 -134 -21 -398 0
328 -207 -488 243 -90 -147 163 297 262 94 363 -263 0
403 425 -196 433 -358 170 -447 59 -353 144 287 -247 298 -111 384 -167 -266 364 -290 274 -497 409 378 173 0
-315 -477 323 276 -261 -155 -351 -187 191 271 69 -496 -462 476 227 -464 -344 -435 235 -481 -47 422 -292 0
-132 -179 -117 421 -260 -84 -415 275 0
-383 -396 -123 291 -484 439 -324 -491 0
177 -154 9 372 25 186 83 164 0
-315 128 -302 0
248 -58 -348 368 -206 296 -315 0
-37 177 -154 9 140 -372 25 -186 -83 164 320 -205 -161 -166 400 98 -411 34 0
217 75 0
-443 -70 0
-374 280 -371 210 168 383 -396 417 197 139 123 -238 -178 291 -484 105 -439 324 491 -456 -331 -91 -310 -385 395 -466 479 -53 -465 419 346 -406 329 357 0
293 288 -108 -76 228 209 -239 -55 382 -180 72 -141 -240 -89 264 -14 -148 233 35 29 -330 -150 -356 366 446 -326 -441 -413 73 201 68 -26 -32 97 -149 160 -63 -360 153 -232 308 -317 380 255 -270 86 -127 -38 -182 0
443 -70 269 0
-204 -99 495 230 379 2 485 -213 408 289 188 -28 218 -473 237 -499 -256 -454 -450 -259 -22 -16 -112 -463 -131 429 -482 369 0
393 116 248 58 348 -368 0
70 269 -119 -79 -451 0
436 175 -203 44 54 -434 219 500 151 133 -3 -282 336 132 179 117 421 -260 -84 415 -275 4 -109 -293 -288 -108 -76 -228 -209 239 55 -382 -180 72 141 240 -89 264 14 148 -233 -35 -29 -330 -150 -356 -366 446 -326 441 413 73 201 68 -26 32 97 149 -160 63 -360 153 -232 0
67 249 -20 -110 24 -487 377 -85 374 480 -280 -371 210 168 383 396 -417 -197 -139 -123 -238 178 0
-68 32 -149 -160 63 -360 0
-309 345 -283 0
52 198 -412 200 299 436 390 -236 104 175 203 44 0
-392 -267 489 449 171 416 87 -60 486 12 -217 -75 0
403 -353 247 -298 111 0
-34 405 -332 -6 221 -67 -249 20 43 49 110 -24 156 487 -377 -85 374 -480 -280 -371 210 168 383 396 -417 -197 139 -123 238 178 -291 -484 -105 439 324 -491 -456 -331 91 310 -385 395 466 479 -53 -465 419 -346 -406 -329 -357 -19 365 -428 -80 -312 0
67 -249 20 43 -110 -24 156 487 -377 -85 -374 -480 -280 371 -210 168 383 -396 417 -197 -139 123 -238 -178 291 484 -105 439 -324 491 456 -331 -91 -310 -385 -395 466 0
-483 -202 246 265 -88 0
180 -72 141 240 -89 -264 14 148 233 35 -29 -330 -150 356 0
-392 267 489 0
153 308 255 86 -127 38 472 56 -120 13 252 355 -224 -7 -424 300 165 0
50 192 393 116 248 58 348 368 206 296 315 -128 302 0
5 241 -66 367 -174 460 95 -45 -74 0
40 -303 -455 258 461 -8 -18 -27 225 457 11 0
8 -307 -448 -272 325 -442 122 190 -214 242 0
-406 -357 -394 172 475 137 0
-363 263 362 51 96 -36 -41 65 -212 -430 -359 327 -427 -432 220 470 -306 314 -226 158 438 437 -78 -10 -410 -208 354 305 445 176 152 467 107 130 50 192 -393 0
321 301 103 39 -257 253 -459 -458 57 -281 444 313 -204 99 -495 230 -379 -2 485 -213 408 289 -188 28 -218 -473 -237 499 256 0
500 -282 336 -132 -179 0
411 34 -223 -405 399 0
-308 -38 472 -56 13 -355 7 424 300 165 0
492 124 -404 403 350 425 -215 196 -420 0
8 -307 -46 448 -162 272 -325 -442 122 -190 214 242 184 -157 169 -189 -143 -478 17 -493 -199 0
226 -437 354 445 -176 152 467 -107 130 50 192 393 -116 248 -58 348 -368 0
-446 -326 -441 0
-325 -190 -214 -242 -184 157 169 -189 0
374 -210 168 383 -396 -417 197 123 238 178 291 -484 105 439 324 0
-8 307 -448 162 272 325 -442 -122 -190 -214 -242 184 0
-248 -58 348 368 -206 -296 -315 128 302 -397 48 477 -323 276 261 -155 351 187 -191 -271 69 -496 -462 0
-67 249 -20 43 -110 -24 -487 377 85 -374 480 -280 371 -210 -168 -383 -396 -417 -197 139 -123 -238 -178 291 484 105 439 -324 0
-8 307 448 325 -442 -122 -190 -214 -242 -184 0
495 2 -485 -213 -408 -289 188 28 0
-293 288 -108 76 -228 -209 239 55 382 -180 -72 141 -240 -89 -264 14 148 233 -35 -29 -330 150 356 -366 446 326 441 413 73 -201 68 0
-35 29 -150 -356 -366 -446 -326 -441 -413 73 201 68 26 32 97 149 -160 63 360 -153 232 308 -317 -380 255 270 -86 127 38 182 472 56 -120 -13 252 -355 224 -7 424 300 -165 -82 64 401 -40 303 0
-110 24 374 -480 280 371 210 168 383 -396 -417 -197 139 123 -238 178 -291 484 105 -439 -324 -491 456 331 -91 310 -385 395 -466 479 -53 465 0
74 -373 0
-328 207 -488 -243 90 147 163 297 262 -94 363 -263 -362 -51 96 -36 -41 65 212 -430 359 327 427 432 -220 470 306 -314 226 158 438 437 -78 -10 -410 208 -354 -305 -445 176 -152 -467 107 -130 50 192 -393 116 248 58 348 368 -206 296 -315 -128 302 397 -48 477 -323 -276 -261 155 351 -187 0
-392 -387 267 489 -449 171 -416 -87 -60 486 -12 217 75 0
273 -93 347 121 -319 0
90 147 163 -297 -262 -94 363 -263 -362 51 96 -36 41 65 -212 430 -359 -327 -427 -432 -220 470 -306 -314 0
273 -93 -347 121 0
177 -154 9 -372 -25 186 83 164 320 -205 161 -166 -400 98 -411 -34 223 -405 -399 332 -6 221 67 249 -20 43 -49 110 24 156 -487 -377 85 374 -480 0
81 231 338 62 321 0
-173 -30 -391 -31 15 159 -126 134 21 -398 361 -333 -194 -216 352 -81 -231 -338 62 0
2 485 408 -289 -188 -237 -499 -256 454 0
-132 179 -117 421 260 84 -415 275 -4 -109 -293 288 -108 76 -228 -209 239 -55 -382 -180 72 141 -240 -89 -264 14 148 -233 -35 -29 -330 150 356 366 -446 -326 -441 413 0
-316 -92 426 118 0
363 -263 362 -51 96 -36 -41 65 212 -430 359 327 0
-111 -384 266 -364 -290 0
-465 -346 -406 357 19 365 -80 312 -211 394 -172 0
260 84 -415 -275 4 -109 293 -288 -108 76 228 -209 -239 -55 0
-90 147 163 -297 262 -94 363 263 362 -51 -96 36 41 65 -212 -430 359 327 0
96 -41 212 430 -327 -427 -220 -470 -306 314 0
-388 -114 -125 -129 -135 -284 -278 277 113 370 -268 -304 146 0
-363 -51 96 36 41 65 212 430 -359 327 427 432 220 470 306 314 -226 -158 438 -437 78 10 -410 -208 -354 0
462 -435 -481 -47 -422 292 -453 -52 -498 198 -412 -200 -299 436 -390 236 104 175 203 44 -54 434 -219 -500 -151 -133 3 282 -336 -132 -179 -117 -421 260 84 415 275 -4 -109 -293 -288 108 -76 0
-449 -171 -416 0
-147 163 297 262 94 -363 263 362 51 -96 -36 41 -65 212 430 -359 327 -427 432 -220 -470 306 314 -226 -158 438 437 -78 10 -410 208 354 305 -445 176 -152 -467 107 -130 -50 -192 393 116 248 58 348 -368 -206 -296 315 -128 302 0
35 -29 -150 356 366 446 -326 441 -413 -73 -201 -68 -26 32 97 -149 -160 -63 360 153 232 -308 -317 380 -255 270 86 -127 -38 -182 472 -56 120 -13 252 -355 224 -7 424 0
221 -67 -249 -20 43 49 110 -24 -156 -487 377 -85 374 480 -280 -371 210 -168 -383 -396 -417 -197 139 -123 -238 -178 291 484 -105 439 324 -491 456 331 -91 310 -385 395 466 -479 -53 -465 -419 346 -406 329 -357 -19 -365 -428 80 312 211 394 0
2 -485 408 289 188 -256 454 -450 259 -22 16 112 -463 131 -429 -482 -369 -254 328 207 -488 -243 0
406 357 -394 172 475 -137 145 101 -340 -452 -181 -349 -42 -185 423 -23 392 0
-436 175 -203 -44 -54 -434 -219 500 151 -133 0
-477 -276 -155 -351 187 -191 -271 69 -496 0
198 -200 -299 -436 -390 236 -104 175 -203 44 54 -434 219 500 -151 133 3 282 336 -132 179 -117 421 260 -84 415 275 4 -109 293 -288 -108 -76 -228 209 -239 55 382 180 -72 -141 -240 89 0
-338 62 321 301 -103 -39 -257 -253 459 -458 57 281 -444 313 204 -99 495 -230 379 2 -485 -213 -408 289 188 28 218 473 237 499 256 -454 -450 0
-71 -195 -229 -100 376 0
-411 -34 223 -405 399 0
67 249 20 43 49 -110 -24 -156 487 377 -85 0
-217 -75 0
177 -154 -9 372 -25 -83 -164 320 -205 -161 -166 -400 98 411 -34 -223 -405 -399 332 -6 221 -67 249 -20 -43 -49 110 -24 -156 -487 -377 -85 374 480 280 371 210 -168 383 396 -417 -197 -139 123 -238 178 291 484 105 439 -324 0
436 -203 -44 54 -434 -219 500 -151 -133 -3 -282 -336 -132 179 117 -421 -260 -84 415 275 4 -109 293 -288 -108 76 -228 0
333 -194 216 352 81 231 0
-485 -408 454 450 -259 22 0
161 166 400 -98 411 0
-333 194 216 -352 81 231 -338 -62 321 301 103 39 -257 -253 459 -458 -57 281 444 -313 -204 -99 -495 -230 -379 2 -485 -213 -408 -289 -188 -28 218 -473 237 -499 -256 -454 450 259 22 16 112 463 131 429 482 -369 -254 -328 -207 488 243 -90 147 163 297 -262 94 -363 -263 -362 -51 -96 36 41 65 212 430 -359 327 -427 432 220 -470 306 314 -226 0
-273 -93 347 -121 -319 -337 -37 -490 0
-477 276 -261 -155 -351 187 -191 271 69 -496 -462 -476 -227 464 344 435 -235 -481 -47 422 292 -453 52 498 -198 -412 200 -299 -436 390 236 -104 -175 203 -44 54 434 -219 -500 -151 133 -3 -282 -336 -132 179 -117 -421 -260 84 -415 275 -4 -109 -293 288 -108 -76 -228 209 239 55 382 180 72 -141 240 89 0
-290 -274 497 -409 -378 -173 138 30 136 391 -31 15 -159 375 -126 134 -21 398 -361 0
-119 0
332 -6 221 67 -249 -20 43 -49 110 24 -156 487 -377 -85 -374 -480 280 -371 -210 -168 383 396 -417 -197 139 -123 -238 -178 -291 0
38 -56 13 355 7 424 -300 -165 82 -64 401 40 -303 -455 -258 461 -8 -18 27 -225 -457 0
485 -408 289 -188 256 -454 -450 -259 -22 16 112 463 -131 429 -482 369 0
325 190 -214 242 -157 -169 -189 -143 478 -17 493 199 106 -222 -343 -286 -471 183 334 -115 339 494 -335 -474 468 -386 -418 322 -389 -388 77 245 -285 0
494 -386 -418 322 -388 285 -318 -381 407 -114 125 129 -135 284 278 277 -113 -370 268 -304 -146 0
-315 -128 -302 397 -48 477 323 276 -261 155 351 187 191 271 -69 496 462 476 -227 464 -344 435 -235 481 47 422 292 453 -52 -498 -198 -412 200 299 436 -390 -236 104 -175 -203 44 -54 -434 -219 500 151 133 -3 282 -336 -132 179 -117 421 260 84 -415 -275 -4 -109 293 288 -108 -76 228 209 -239 -55 382 -180 72 -141 -240 -89 264 -14 148 233 -35 -29 -330 150 0
103 -39 257 -253 -459 458 0
-403 -425 -433 -358 -170 447 59 0
-157 478 -17 -493 199 106 222 343 286 471 183 -334 -115 339 -494 335 474 -468 386 418 -322 389 388 -77 245 0
95 45 -74 -311 -373 -492 124 -404 -403 -350 -425 215 -196 -420 142 433 -358 -170 447 -59 -353 0
67 249 -20 -110 -24 487 -377 -85 374 -480 0
315 -397 48 477 -323 -276 261 155 351 -187 -191 271 -69 -496 -462 476 227 0
192 -393 -116 248 -58 348 368 0
-415 -275 -4 -109 -293 288 -108 -76 -228 -209 239 0
145 -181 -349 42 -185 423 23 -392 -387 61 -267 489 449 -171 -416 -87 -60 486 -12 0
392 387 -61 267 -489 -449 -171 0
145 -181 -349 0
-309 345 -283 -295 -316 92 426 0
8 307 448 -325 442 122 -190 0
87 60 486 12 217 75 0
39 257 253 -459 -458 57 281 -444 313 -204 -99 495 -230 -379 2 485 -213 0
50 192 -393 116 -248 58 348 -368 206 296 315 128 302 0
4 109 293 288 108 -76 -228 209 -239 -55 382 180 -72 141 -240 89 264 -14 148 233 -35 -29 330 150 356 0
8 -307 -46 448 -162 272 325 -442 122 190 214 -242 -184 0
253 -281 444 -313 0
-248 -206 -296 315 -128 302 397 -48 -477 323 276 -261 155 351 187 191 -271 69 496 0
403 -425 196 433 358 170 447 -59 -353 0
-145 181 -349 42 0
248 -58 348 -368 -206 296 315 -128 -302 397 48 -477 323 276 261 -155 -351 -187 -191 271 -69 496 462 476 227 -464 -344 -435 -235 -481 47 422 -292 -453 -52 -498 198 -412 -200 299 0
383 -396 -123 238 291 -484 439 324 -491 456 331 91 310 -385 395 -466 479 -53 465 419 -346 406 329 -357 19 -365 -428 80 -312 211 -394 172 -475 137 0
369 254 328 -207 488 243 90 147 -163 297 -262 -94 -363 263 362 51 -96 -36 41 -65 0
-333 194 -216 -352 81 231 338 -62 0
-441 -413 73 201 -68 26 32 97 -149 160 -63 -360 -153 -232 -308 -317 -380 255 -270 -86 127 38 -182 -472 56 -120 -13 0
191 462 -464 344 -435 235 0
90 147 163 297 262 0
191 462 -464 -344 435 -235 -481 -47 -422 292 -453 -52 -498 198 -412 200 299 -436 390 -236 104 -175 -203 -44 54 -434 -219 -500 151 -133 -3 282 -336 -132 -179 117 -421 -260 -84 415 275 4 -109 0
-71 0
273 93 347 0
383 396 -123 484 -439 -324 -491 456 -331 -91 310 -385 395 466 479 -53 -465 419 -346 406 -329 -357 -19 365 428 80 312 211 394 172 -475 -137 0
-462 -435 -47 422 -292 -453 -52 498 -198 -412 -200 299 436 -390 -236 104 -175 203 44 -54 -434 219 -500 151 -133 3 282 -336 132 179 117 421 -260 84 415 0
-198 200 -299 -436 390 -236 -104 175 -203 -44 54 0
-145 -181 349 -42 0
416 0
299 436 -104 175 203 -44 54 0
-363 362 -51 96 -36 41 65 212 430 -359 327 427 -432 220 -470 -306 -314 -226 -158 438 -437 -78 10 410 208 354 305 -445 176 -152 -467 -107 -130 -50 192 393 -116 248 58 348 368 206 296 315 -128 -302 -397 -48 -477 -323 276 261 -155 -351 187 191 271 -69 496 -462 0
-5 0
-403 -298 111 -384 -167 -266 -364 -290 274 -497 409 -378 -173 -138 -30 -136 -391 0
-173 30 391 31 15 159 375 126 -134 21 398 361 0
-82 -64 401 40 0
-465 -346 406 -357 0
226 437 354 152 467 107 -130 50 -192 393 0
321 301 103 -39 257 253 459 458 -57 -281 -444 313 204 99 -495 -230 -379 -2 485 -213 0
147 -163 -297 262 -94 363 -263 362 0
500 151 -133 282 -336 132 179 -117 421 260 -84 -415 275 -4 109 0
316 0
363 -96 36 41 65 212 430 359 -327 -427 -432 220 470 0
8 225 307 -46 -448 -162 272 325 442 122 190 -214 -242 -184 -157 169 -189 143 -478 -17 493 -199 106 -222 -343 0
403 425 -196 -142 -433 -358 -170 -447 -59 -353 144 287 -247 0
267 449 171 0
-465 419 346 406 357 19 -365 -428 -80 312 211 -394 -172 -475 137 -145 -101 -340 452 181 349 42 185 -423 23 -392 -387 -61 -267 -489 -449 -171 -416 87 60 486 -12 217 75 0
-331 479 -465 -419 346 406 329 -357 -19 -365 -428 -80 312 -211 -394 -172 475 137 145 -101 -340 -452 -181 349 0
212 -306 -226 -438 -437 -78 10 -410 208 354 -305 -445 176 -152 467 -107 -130 -50 -192 -393 -116 248 58 -348 368 206 -296 315 128 -302 -397 48 -477 -323 276 -261 155 351 187 191 271 0
-465 -346 406 357 19 365 -428 -80 312 -211 -394 172 475 -137 -145 -101 -340 -452 -181 349 42 -185 423 -23 392 387 61 267 -489 449 171 0
268 -304 -309 -345 283 -402 0
-441 73 -201 -68 26 32 97 -149 160 -63 360 153 232 308 317 380 -255 -270 86 -127 38 -182 -472 -56 -120 -13 252 355 -224 7 424 300 165 -82 -64 401 -40 -303 0
-273 -93 347 -121 -319 337 37 -490 177 154 9 -140 -294 372 279 25 0
191 462 476 464 -344 -435 235 481 -47 -422 -292 453 52 498 198 412 0
-366 -446 326 441 413 73 -201 68 26 0
-132 179 -117 -421 260 84 -415 275 4 109 -293 -288 108 76 228 209 -239 55 -382 -180 72 -141 -240 89 264 -14 -148 -233 -35 -29 330 -150 -356 366 446 326 -441 413 -73 -201 -68 26 -32 -97 -149 160 -63 360 153 232 -308 -317 -380 -255 -270 86 -127 38 -182 472 56 120 0
-455 258 -461 8 -18 27 225 0
383 -396 197 -123 238 -291 484 -105 439 -324 491 456 331 91 -310 385 395 -466 479 53 465 419 346 -406 -329 -357 -19 -365 428 80 -312 211 -394 -172 475 -137 145 101 -340 -452 -181 -349 -42 -185 -423 23 -392 -387 -61 -267 -489 0
124 -403 350 -425 -215 196 -420 0
-393 -116 -248 58 348 -368 -206 -296 -315 128 -302 397 -48 477 323 0
-229 -100 376 469 -341 0
254 0
-191 -462 464 344 -435 235 481 -47 422 292 -453 -52 498 198 -412 -200 -299 -436 390 -236 104 -175 0
-173 30 -391 31 15 159 -375 -126 -134 -21 -398 0
42 185 423 -23 -392 387 -61 267 -489 449 171 -416 0
403 -358 -170 -447 353 -144 -287 -247 -298 111 -384 -167 -266 364 290 -274 -497 -409 -378 173 -138 30 136 -391 31 -15 159 375 126 -134 -21 398 0
-173 -138 -30 -136 0
492 124 404 403 -350 -425 -215 196 -420 -142 -433 358 -170 447 59 353 0
-221 67 249 -20 -43 -49 -110 -24 0
465 346 406 -357 -19 -365 428 -80 -312 -211 394 172 475 137 145 101 0
-98 411 -34 223 -405 -399 0
465 346 -406 -357 19 80 -312 211 -394 -172 -475 -137 -145 -101 -340 452 181 -349 0
29 356 -366 -446 326 441 413 -73 0
-68 -32 160 -63 -360 -153 232 -308 -317 -380 -255 -270 86 -127 -38 182 0
113 -268 -304 -146 244 -342 309 -345 -283 -402 0
-2 -485 -213 408 289 -188 237 499 -256 0
436 -44 54 -219 -500 151 133 3 -282 336 132 -179 -117 421 -260 -84 -415 275 -4 -109 293 288 108 -76 -228 -209 -239 -55 382 -180 -72 141 -240 89 0
-204 99 -495 230 379 -2 485 213 408 -289 188 -28 -218 -473 -237 499 256 -454 -450 -259 -22 -16 -112 463 131 -429 -482 369 -254 -328 -207 -488 -243 -90 147 163 297 262 -94 -363 263 362 -51 96 -36 41 -65 212 -430 -359 327 -427 432 -220 -470 306 -314 -226 -158 -438 -437 -78 10 -410 -208 354 -305 -445 176 152 0
-173 -30 -391 15 -21 -398 361 -333 194 -216 -352 -81 -231 338 -62 321 0
161 -166 0
-99 495 -230 -379 2 485 -213 -408 -289 188 -28 -218 -473 -237 499 -256 454 0
494 474 -386 418 322 -388 77 -245 285 318 -381 -407 114 -125 -129 135 -284 -278 277 113 370 268 304 146 -244 -342 309 -345 283 402 -295 0
-8 307 -325 -442 -122 190 214 -242 0
-165 0
-248 -58 348 -368 206 296 -315 128 302 -397 48 477 0
-217 -75 0
-333 -194 216 -352 81 -231 -338 62 -321 -301 -103 -39 257 -253 459 0
-70 -269 -119 -79 -451 0
363 -96 41 65 212 -430 327 -427 -432 220 -470 -306 -314 226 158 -438 437 0
-2 -485 -213 -408 -289 -188 -473 -237 -499 -256 -454 450 259 22 -16 112 463 -131 -429 -482 -369 -254 328 -207 -488 243 -90 -147 -163 297 -262 -94 -363 -263 -362 51 -96 -36 41 -65 -212 -430 -359 327 0
494 474 386 -418 322 388 77 -245 285 318 381 407 -114 -125 129 -135 284 278 277 113 -370 268 -304 0
-341 483 202 246 -265 0
-40 303 -455 258 461 -8 -18 27 -225 0
-217 -75 0
-431 0
191 69 -462 476 464 -344 -435 -235 481 0
-333 194 216 -352 -81 231 0
33 -193 0
17 493 286 -471 183 -334 115 -339 -494 -335 474 -468 386 -418 -322 -389 388 77 245 -285 -318 -381 -407 -114 125 129 135 284 278 -277 -113 370 268 0
-495 -2 -485 -213 408 289 -188 -28 218 -473 -237 -499 -256 454 450 -259 -22 -16 -112 -463 131 429 482 369 -254 328 -207 488 -243 -90 147 -163 297 -262 -94 363 263 -362 -51 96 -36 -41 65 212 430 359 327 427 -432 220 -470 306 314 226 158 0
465 346 406 357 -19 -365 428 80 312 -211 0
494 -474 386 418 322 388 -77 245 -285 318 -381 407 0
495 -379 -2 -485 -213 0
68 32 63 153 -308 -317 -380 -255 -270 86 127 38 -182 0
68 32 63 -153 308 317 -380 -255 0
-383 -396 123 -238 -291 -484 -439 -324 491 456 0
374 -210 -168 383 396 417 197 139 123 -238 -178 291 0
-173 30 391 -31 15 159 126 134 -21 -398 0
-386 -388 -381 -114 125 -129 -135 284 0
-201 -68 -26 32 -97 -149 160 63 360 153 232 308 -317 380 255 270 -86 127 38 182 472 -56 -120 -13 252 -355 -224 7 -424 0
-462 435 481 47 -422 -292 453 52 -498 -198 -412 200 -299 0
22 16 463 131 429 482 -369 -254 328 207 -488 -243 -90 147 -163 297 -262 -94 -363 -263 362 51 96 -36 -41 65 -212 -430 359 -327 -427 432 220 -470 306 314 226 158 -438 437 78 -10 -410 -208 354 305 445 176 0
-154 -25 -83 -164 -320 -205 -161 0
-34 405 -399 332 6 -221 -67 -249 20 43 49 -110 -24 156 487 -377 -85 -374 -480 -280 -371 -210 168 -383 -396 417 -197 -139 0
-7 424 300 165 0
-406 357 -394 172 -475 137 0
118 0
-406 357 394 -172 -475 137 145 101 340 452 181 349 0
-111 -384 266 364 -290 274 -497 409 378 173 -138 -30 136 391 -31 -15 159 -375 126 -134 21 398 -361 -333 -194 216 352 81 -231 338 -62 321 -301 -103 -39 -257 253 459 -458 -57 281 -444 -313 204 99 495 -230 -379 -2 0
-42 -185 -423 -23 -392 387 61 267 0
316 -118 0
-68 -32 63 -153 308 317 380 255 86 -127 -38 -182 472 56 -120 -13 252 355 224 -7 -424 -300 -165 82 64 0
-40 -303 -455 258 461 8 18 27 225 -457 11 307 -46 -448 -162 -272 325 -442 -122 -190 214 242 0
485 -22 -16 -463 131 -429 482 369 -254 -328 -207 -488 -243 90 -147 163 -297 0
-333 0
-209 -239 -55 -382 180 -72 -141 240 -89 264 -14 -148 -233 0
-345 -295 0
153 -308 255 86 -127 38 472 56 120 -13 252 -355 -224 -7 424 300 165 82 64 -401 40 -303 455 258 461 -8 18 -27 -225 -457 11 -307 0
465 346 406 357 19 365 428 -80 -312 211 394 172 -475 137 145 101 -340 0
-154 25 -83 164 -320 -205 161 166 0
392 267 489 -449 -171 416 87 60 486 -12 -217 -75 0
250 0
406 357 394 172 475 -137 145 -101 0
-82 -64 -401 40 303 -455 258 -461 8 18 -27 225 -457 -11 -307 -46 -448 162 272 325 442 -122 -190 214 242 184 157 169 189 -143 478 0
-93 -347 121 -319 0
248 -206 -296 -315 128 -302 397 -48 477 323 -276 261 155 351 -187 -191 271 -69 496 462 -476 -227 464 344 435 -235 481 47 -422 -292 453 -52 -498 198 -412 200 299 436 -390 236 104 -175 203 44 -54 434 219 500 -151 133 -3 282 336 132 179 -117 -421 260 84 415 275 -4 109 -293 288 108 -76 228 209 -239 55 -382 -180 72 -141 240 89 264 -14 148 -233 -35 29 330 150 356 -366 -446 326 441 -413 73 -201 -68 -26 -32 97 149 160 -63 360 153 -232 -308 -317 -380 255 270 -86 127 38 182 472 -56 -120 -13 252 -355 224 0
148 -233 35 29 -330 150 -356 -366 -446 326 -441 413 -73 -201 68 26 32 97 149 160 -63 -360 153 -232 -308 317 380 255 0
-17 493 -286 471 -183 334 -115 -339 494 -335 474 -468 -386 -418 322 389 388 77 245 285 -318 381 407 0
67 -249 20 -43 110 24 487 377 85 -374 -480 -280 371 -210 168 -383 396 -417 197 139 123 0
-173 -30 -391 15 -159 21 398 361 -333 -194 -216 352 -81 -231 338 -62 -321 301 103 -39 257 -253 -459 -458 -57 -281 444 0
-300 165 82 64 401 -40 -303 -455 -258 461 8 18 -27 225 457 11 -307 46 448 162 0
226 -437 -354 445 176 152 467 -107 130 50 192 -393 -116 248 58 348 -368 206 296 -315 0
157 -478 -17 -493 199 -106 -222 -343 286 471 183 334 115 -339 494 -335 474 -468 -386 -418 322 389 388 77 245 285 318 381 407 -114 -125 129 135 284 -278 277 113 -370 268 0
-82 40 -303 -455 258 461 -8 0
161 166 -400 98 411 -34 223 -405 -399 332 6 221 67 249 -20 -43 49 -110 24 -156 -487 377 -85 374 -480 -280 -371 -210 168 -383 396 417 -197 -139 123 0
124 -403 -350 425 -215 -196 420 142 -433 0
-82 40 -303 -455 258 461 8 18 27 -225 0
-38 355 -7 424 0
-333 -194 -216 -352 0
-8 -307 448 -272 0
-34 405 399 332 0
-39 -257 -253 -459 458 -57 -281 -444 -313 -204 -99 -495 230 -379 -2 -485 213 408 289 -188 28 -218 473 -237 499 256 454 -450 0
363 -96 36 41 65 212 -430 359 -327 427 432 -220 -470 -306 -314 -226 -158 438 437 -78 10 410 208 -354 -305 -445 -176 -152 -467 0
177 -154 9 372 25 83 -164 320 -205 161 166 400 98 -411 34 0
173 -361 -333 194 216 -352 0
-386 -388 381 -114 125 129 -135 284 278 277 -113 -370 268 304 0
403 170 447 -353 -144 287 -247 0
-465 346 406 357 19 365 -80 312 211 -394 172 -475 137 0
437 467 0
113 -268 -304 146 -244 342 309 345 283 -402 -295 316 -92 -426 118 431 273 0
-217 -75 0
-68 -32 63 153 -308 317 380 -255 270 86 127 38 -182 0
35 29 -330 -150 0
257 -253 459 -458 57 281 -444 313 204 -99 495 -230 379 2 -485 -213 0
212 306 -226 438 -437 -78 -10 -410 208 354 -305 445 -176 152 -467 107 130 50 192 -393 -116 -248 58 348 368 206 296 -315 128 0
-147 163 297 -262 0
-2 -485 408 289 -188 237 256 -454 -450 -259 -22 -16 112 463 -131 429 -482 369 -254 -328 -207 -488 243 0
-363 -263 362 51 -96 36 41 65 -212 430 -359 327 427 432 -220 470 -306 314 226 158 438 437 78 10 410 208 -354 305 445 176 -152 467 107 130 50 192 393 -116 248 -58 348 -368 -206 -296 -315 -128 -302 -397 48 477 323 0
42 -185 0
-52 198 -200 299 0
