p cnf 660 2145
-1 -2 3 0
1 -3 0
2 -3 0
-4 -2 5 0
4 -5 0
2 -5 0
-1 -6 7 0
1 -7 0
6 -7 0
-5 -7 -8 0
5 7 -8 0
5 -7 8 0
-5 7 8 0
-5 -7 9 0
5 -9 0
7 -9 0
-10 -2 11 0
10 -11 0
2 -11 0
-4 -6 12 0
4 -12 0
6 -12 0
-11 -12 -13 0
11 12 -13 0
11 -12 13 0
-11 12 13 0
-13 -9 -14 0
13 9 -14 0
13 -9 14 0
-13 9 14 0
-13 -9 15 0
13 -15 0
9 -15 0
-11 -12 16 0
11 -16 0
12 -16 0
15 16 -17 0
-15 17 0
-16 17 0
-18 -2 19 0
18 -19 0
2 -19 0
-10 -6 20 0
10 -20 0
6 -20 0
-19 -20 -21 0
19 20 -21 0
19 -20 21 0
-19 20 21 0
-21 -17 -22 0
21 17 -22 0
21 -17 22 0
-21 17 22 0
-21 -17 23 0
21 -23 0
17 -23 0
-19 -20 24 0
19 -24 0
20 -24 0
23 24 -25 0
-23 25 0
-24 25 0
-26 -2 27 0
26 -27 0
2 -27 0
-18 -6 28 0
18 -28 0
6 -28 0
-27 -28 -29 0
27 28 -29 0
27 -28 29 0
-27 28 29 0
-29 -25 -30 0
29 25 -30 0
29 -25 30 0
-29 25 30 0
-29 -25 31 0
29 -31 0
25 -31 0
-27 -28 32 0
27 -32 0
28 -32 0
31 32 -33 0
-31 33 0
-32 33 0
-34 -2 35 0
34 -35 0
2 -35 0
-26 -6 36 0
26 -36 0
6 -36 0
-35 -36 -37 0
35 36 -37 0
35 -36 37 0
-35 36 37 0
-37 -33 -38 0
37 33 -38 0
37 -33 38 0
-37 33 38 0
-37 -33 39 0
37 -39 0
33 -39 0
-35 -36 40 0
35 -40 0
36 -40 0
39 40 -41 0
-39 41 0
-40 41 0
-42 -2 43 0
42 -43 0
2 -43 0
-34 -6 44 0
34 -44 0
6 -44 0
-43 -44 -45 0
43 44 -45 0
43 -44 45 0
-43 44 45 0
-45 -41 -46 0
45 41 -46 0
45 -41 46 0
-45 41 46 0
-45 -41 47 0
45 -47 0
41 -47 0
-43 -44 48 0
43 -48 0
44 -48 0
47 48 -49 0
-47 49 0
-48 49 0
-50 -2 51 0
50 -51 0
2 -51 0
-42 -6 52 0
42 -52 0
6 -52 0
-51 -52 -53 0
51 52 -53 0
51 -52 53 0
-51 52 53 0
-53 -49 -54 0
53 49 -54 0
53 -49 54 0
-53 49 54 0
-53 -49 55 0
53 -55 0
49 -55 0
-51 -52 56 0
51 -56 0
52 -56 0
55 56 -57 0
-55 57 0
-56 57 0
-58 -2 59 0
58 -59 0
2 -59 0
-50 -6 60 0
50 -60 0
6 -60 0
-59 -60 -61 0
59 60 -61 0
59 -60 61 0
-59 60 61 0
-61 -57 -62 0
61 57 -62 0
61 -57 62 0
-61 57 62 0
-61 -57 63 0
61 -63 0
57 -63 0
-59 -60 64 0
59 -64 0
60 -64 0
63 64 -65 0
-63 65 0
-64 65 0
-66 -2 67 0
66 -67 0
2 -67 0
-58 -6 68 0
58 -68 0
6 -68 0
-67 -68 -69 0
67 68 -69 0
67 -68 69 0
-67 68 69 0
-69 -65 -70 0
69 65 -70 0
69 -65 70 0
-69 65 70 0
-69 -65 71 0
69 -71 0
65 -71 0
-67 -68 72 0
67 -72 0
68 -72 0
71 72 -73 0
-71 73 0
-72 73 0
-74 -2 75 0
74 -75 0
2 -75 0
-66 -6 76 0
66 -76 0
6 -76 0
-75 -76 -77 0
75 76 -77 0
75 -76 77 0
-75 76 77 0
-77 -73 -78 0
77 73 -78 0
77 -73 78 0
-77 73 78 0
-77 -73 79 0
77 -79 0
73 -79 0
-75 -76 80 0
75 -80 0
76 -80 0
79 80 -81 0
-79 81 0
-80 81 0
-74 -6 82 0
74 -82 0
6 -82 0
-81 -82 -83 0
81 82 -83 0
81 -82 83 0
-81 82 83 0
-81 -82 84 0
81 -84 0
82 -84 0
-1 -85 86 0
1 -86 0
85 -86 0
-14 -86 -87 0
14 86 -87 0
14 -86 87 0
-14 86 87 0
-14 -86 88 0
14 -88 0
86 -88 0
-4 -85 89 0
4 -89 0
85 -89 0
-22 -89 -90 0
22 89 -90 0
22 -89 90 0
-22 89 90 0
-90 -88 -91 0
90 88 -91 0
90 -88 91 0
-90 88 91 0
-90 -88 92 0
90 -92 0
88 -92 0
-22 -89 93 0
22 -93 0
89 -93 0
92 93 -94 0
-92 94 0
-93 94 0
-10 -85 95 0
10 -95 0
85 -95 0
-30 -95 -96 0
30 95 -96 0
30 -95 96 0
-30 95 96 0
-96 -94 -97 0
96 94 -97 0
96 -94 97 0
-96 94 97 0
-96 -94 98 0
96 -98 0
94 -98 0
-30 -95 99 0
30 -99 0
95 -99 0
98 99 -100 0
-98 100 0
-99 100 0
-18 -85 101 0
18 -101 0
85 -101 0
-38 -101 -102 0
38 101 -102 0
38 -101 102 0
-38 101 102 0
-102 -100 -103 0
102 100 -103 0
102 -100 103 0
-102 100 103 0
-102 -100 104 0
102 -104 0
100 -104 0
-38 -101 105 0
38 -105 0
101 -105 0
104 105 -106 0
-104 106 0
-105 106 0
-26 -85 107 0
26 -107 0
85 -107 0
-46 -107 -108 0
46 107 -108 0
46 -107 108 0
-46 107 108 0
-108 -106 -109 0
108 106 -109 0
108 -106 109 0
-108 106 109 0
-108 -106 110 0
108 -110 0
106 -110 0
-46 -107 111 0
46 -111 0
107 -111 0
110 111 -112 0
-110 112 0
-111 112 0
-34 -85 113 0
34 -113 0
85 -113 0
-54 -113 -114 0
54 113 -114 0
54 -113 114 0
-54 113 114 0
-114 -112 -115 0
114 112 -115 0
114 -112 115 0
-114 112 115 0
-114 -112 116 0
114 -116 0
112 -116 0
-54 -113 117 0
54 -117 0
113 -117 0
116 117 -118 0
-116 118 0
-117 118 0
-42 -85 119 0
42 -119 0
85 -119 0
-62 -119 -120 0
62 119 -120 0
62 -119 120 0
-62 119 120 0
-120 -118 -121 0
120 118 -121 0
120 -118 121 0
-120 118 121 0
-120 -118 122 0
120 -122 0
118 -122 0
-62 -119 123 0
62 -123 0
119 -123 0
122 123 -124 0
-122 124 0
-123 124 0
-50 -85 125 0
50 -125 0
85 -125 0
-70 -125 -126 0
70 125 -126 0
70 -125 126 0
-70 125 126 0
-126 -124 -127 0
126 124 -127 0
126 -124 127 0
-126 124 127 0
-126 -124 128 0
126 -128 0
124 -128 0
-70 -125 129 0
70 -129 0
125 -129 0
128 129 -130 0
-128 130 0
-129 130 0
-58 -85 131 0
58 -131 0
85 -131 0
-78 -131 -132 0
78 131 -132 0
78 -131 132 0
-78 131 132 0
-132 -130 -133 0
132 130 -133 0
132 -130 133 0
-132 130 133 0
-132 -130 134 0
132 -134 0
130 -134 0
-78 -131 135 0
78 -135 0
131 -135 0
134 135 -136 0
-134 136 0
-135 136 0
-66 -85 137 0
66 -137 0
85 -137 0
-83 -137 -138 0
83 137 -138 0
83 -137 138 0
-83 137 138 0
-138 -136 -139 0
138 136 -139 0
138 -136 139 0
-138 136 139 0
-138 -136 140 0
138 -140 0
136 -140 0
-83 -137 141 0
83 -141 0
137 -141 0
140 141 -142 0
-140 142 0
-141 142 0
-74 -85 143 0
74 -143 0
85 -143 0
-84 -143 -144 0
84 143 -144 0
84 -143 144 0
-84 143 144 0
-144 -142 -145 0
144 142 -145 0
144 -142 145 0
-144 142 145 0
-144 -142 146 0
144 -146 0
142 -146 0
-84 -143 147 0
84 -147 0
143 -147 0
146 147 -148 0
-146 148 0
-147 148 0
-1 -149 150 0
1 -150 0
149 -150 0
-91 -150 -151 0
91 150 -151 0
91 -150 151 0
-91 150 151 0
-91 -150 152 0
91 -152 0
150 -152 0
-4 -149 153 0
4 -153 0
149 -153 0
-97 -153 -154 0
97 153 -154 0
97 -153 154 0
-97 153 154 0
-154 -152 -155 0
154 152 -155 0
154 -152 155 0
-154 152 155 0
-154 -152 156 0
154 -156 0
152 -156 0
-97 -153 157 0
97 -157 0
153 -157 0
156 157 -158 0
-156 158 0
-157 158 0
-10 -149 159 0
10 -159 0
149 -159 0
-103 -159 -160 0
103 159 -160 0
103 -159 160 0
-103 159 160 0
-160 -158 -161 0
160 158 -161 0
160 -158 161 0
-160 158 161 0
-160 -158 162 0
160 -162 0
158 -162 0
-103 -159 163 0
103 -163 0
159 -163 0
162 163 -164 0
-162 164 0
-163 164 0
-18 -149 165 0
18 -165 0
149 -165 0
-109 -165 -166 0
109 165 -166 0
109 -165 166 0
-109 165 166 0
-166 -164 -167 0
166 164 -167 0
166 -164 167 0
-166 164 167 0
-166 -164 168 0
166 -168 0
164 -168 0
-109 -165 169 0
109 -169 0
165 -169 0
168 169 -170 0
-168 170 0
-169 170 0
-26 -149 171 0
26 -171 0
149 -171 0
-115 -171 -172 0
115 171 -172 0
115 -171 172 0
-115 171 172 0
-172 -170 -173 0
172 170 -173 0
172 -170 173 0
-172 170 173 0
-172 -170 174 0
172 -174 0
170 -174 0
-115 -171 175 0
115 -175 0
171 -175 0
174 175 -176 0
-174 176 0
-175 176 0
-34 -149 177 0
34 -177 0
149 -177 0
-121 -177 -178 0
121 177 -178 0
121 -177 178 0
-121 177 178 0
-178 -176 -179 0
178 176 -179 0
178 -176 179 0
-178 176 179 0
-178 -176 180 0
178 -180 0
176 -180 0
-121 -177 181 0
121 -181 0
177 -181 0
180 181 -182 0
-180 182 0
-181 182 0
-42 -149 183 0
42 -183 0
149 -183 0
-127 -183 -184 0
127 183 -184 0
127 -183 184 0
-127 183 184 0
-184 -182 -185 0
184 182 -185 0
184 -182 185 0
-184 182 185 0
-184 -182 186 0
184 -186 0
182 -186 0
-127 -183 187 0
127 -187 0
183 -187 0
186 187 -188 0
-186 188 0
-187 188 0
-50 -149 189 0
50 -189 0
149 -189 0
-133 -189 -190 0
133 189 -190 0
133 -189 190 0
-133 189 190 0
-190 -188 -191 0
190 188 -191 0
190 -188 191 0
-190 188 191 0
-190 -188 192 0
190 -192 0
188 -192 0
-133 -189 193 0
133 -193 0
189 -193 0
192 193 -194 0
-192 194 0
-193 194 0
-58 -149 195 0
58 -195 0
149 -195 0
-139 -195 -196 0
139 195 -196 0
139 -195 196 0
-139 195 196 0
-196 -194 -197 0
196 194 -197 0
196 -194 197 0
-196 194 197 0
-196 -194 198 0
196 -198 0
194 -198 0
-139 -195 199 0
139 -199 0
195 -199 0
198 199 -200 0
-198 200 0
-199 200 0
-66 -149 201 0
66 -201 0
149 -201 0
-145 -201 -202 0
145 201 -202 0
145 -201 202 0
-145 201 202 0
-202 -200 -203 0
202 200 -203 0
202 -200 203 0
-202 200 203 0
-202 -200 204 0
202 -204 0
200 -204 0
-145 -201 205 0
145 -205 0
201 -205 0
204 205 -206 0
-204 206 0
-205 206 0
-74 -149 207 0
74 -207 0
149 -207 0
-148 -207 -208 0
148 207 -208 0
148 -207 208 0
-148 207 208 0
-208 -206 -209 0
208 206 -209 0
208 -206 209 0
-208 206 209 0
-208 -206 210 0
208 -210 0
206 -210 0
-148 -207 211 0
148 -211 0
207 -211 0
210 211 -212 0
-210 212 0
-211 212 0
-1 -213 214 0
1 -214 0
213 -214 0
-155 -214 -215 0
155 214 -215 0
155 -214 215 0
-155 214 215 0
-155 -214 216 0
155 -216 0
214 -216 0
-4 -213 217 0
4 -217 0
213 -217 0
-161 -217 -218 0
161 217 -218 0
161 -217 218 0
-161 217 218 0
-218 -216 -219 0
218 216 -219 0
218 -216 219 0
-218 216 219 0
-218 -216 220 0
218 -220 0
216 -220 0
-161 -217 221 0
161 -221 0
217 -221 0
220 221 -222 0
-220 222 0
-221 222 0
-10 -213 223 0
10 -223 0
213 -223 0
-167 -223 -224 0
167 223 -224 0
167 -223 224 0
-167 223 224 0
-224 -222 -225 0
224 222 -225 0
224 -222 225 0
-224 222 225 0
-224 -222 226 0
224 -226 0
222 -226 0
-167 -223 227 0
167 -227 0
223 -227 0
226 227 -228 0
-226 228 0
-227 228 0
-18 -213 229 0
18 -229 0
213 -229 0
-173 -229 -230 0
173 229 -230 0
173 -229 230 0
-173 229 230 0
-230 -228 -231 0
230 228 -231 0
230 -228 231 0
-230 228 231 0
-230 -228 232 0
230 -232 0
228 -232 0
-173 -229 233 0
173 -233 0
229 -233 0
232 233 -234 0
-232 234 0
-233 234 0
-26 -213 235 0
26 -235 0
213 -235 0
-179 -235 -236 0
179 235 -236 0
179 -235 236 0
-179 235 236 0
-236 -234 -237 0
236 234 -237 0
236 -234 237 0
-236 234 237 0
-236 -234 238 0
236 -238 0
234 -238 0
-179 -235 239 0
179 -239 0
235 -239 0
238 239 -240 0
-238 240 0
-239 240 0
-34 -213 241 0
34 -241 0
213 -241 0
-185 -241 -242 0
185 241 -242 0
185 -241 242 0
-185 241 242 0
-242 -240 -243 0
242 240 -243 0
242 -240 243 0
-242 240 243 0
-242 -240 244 0
242 -244 0
240 -244 0
-185 -241 245 0
185 -245 0
241 -245 0
244 245 -246 0
-244 246 0
-245 246 0
-42 -213 247 0
42 -247 0
213 -247 0
-191 -247 -248 0
191 247 -248 0
191 -247 248 0
-191 247 248 0
-248 -246 -249 0
248 246 -249 0
248 -246 249 0
-248 246 249 0
-248 -246 250 0
248 -250 0
246 -250 0
-191 -247 251 0
191 -251 0
247 -251 0
250 251 -252 0
-250 252 0
-251 252 0
-50 -213 253 0
50 -253 0
213 -253 0
-197 -253 -254 0
197 253 -254 0
197 -253 254 0
-197 253 254 0
-254 -252 -255 0
254 252 -255 0
254 -252 255 0
-254 252 255 0
-254 -252 256 0
254 -256 0
252 -256 0
-197 -253 257 0
197 -257 0
253 -257 0
256 257 -258 0
-256 258 0
-257 258 0
-58 -213 259 0
58 -259 0
213 -259 0
-203 -259 -260 0
203 259 -260 0
203 -259 260 0
-203 259 260 0
-260 -258 -261 0
260 258 -261 0
260 -258 261 0
-260 258 261 0
-260 -258 262 0
260 -262 0
258 -262 0
-203 -259 263 0
203 -263 0
259 -263 0
262 263 -264 0
-262 264 0
-263 264 0
-66 -213 265 0
66 -265 0
213 -265 0
-209 -265 -266 0
209 265 -266 0
209 -265 266 0
-209 265 266 0
-266 -264 -267 0
266 264 -267 0
266 -264 267 0
-266 264 267 0
-266 -264 268 0
266 -268 0
264 -268 0
-209 -265 269 0
209 -269 0
265 -269 0
268 269 -270 0
-268 270 0
-269 270 0
-74 -213 271 0
74 -271 0
213 -271 0
-212 -271 -272 0
212 271 -272 0
212 -271 272 0
-212 271 272 0
-272 -270 -273 0
272 270 -273 0
272 -270 273 0
-272 270 273 0
-272 -270 274 0
272 -274 0
270 -274 0
-212 -271 275 0
212 -275 0
271 -275 0
274 275 -276 0
-274 276 0
-275 276 0
-1 -277 278 0
1 -278 0
277 -278 0
-219 -278 -279 0
219 278 -279 0
219 -278 279 0
-219 278 279 0
-219 -278 280 0
219 -280 0
278 -280 0
-4 -277 281 0
4 -281 0
277 -281 0
-225 -281 -282 0
225 281 -282 0
225 -281 282 0
-225 281 282 0
-282 -280 -283 0
282 280 -283 0
282 -280 283 0
-282 280 283 0
-282 -280 284 0
282 -284 0
280 -284 0
-225 -281 285 0
225 -285 0
281 -285 0
284 285 -286 0
-284 286 0
-285 286 0
-10 -277 287 0
10 -287 0
277 -287 0
-231 -287 -288 0
231 287 -288 0
231 -287 288 0
-231 287 288 0
-288 -286 -289 0
288 286 -289 0
288 -286 289 0
-288 286 289 0
-288 -286 290 0
288 -290 0
286 -290 0
-231 -287 291 0
231 -291 0
287 -291 0
290 291 -292 0
-290 292 0
-291 292 0
-18 -277 293 0
18 -293 0
277 -293 0
-237 -293 -294 0
237 293 -294 0
237 -293 294 0
-237 293 294 0
-294 -292 -295 0
294 292 -295 0
294 -292 295 0
-294 292 295 0
-294 -292 296 0
294 -296 0
292 -296 0
-237 -293 297 0
237 -297 0
293 -297 0
296 297 -298 0
-296 298 0
-297 298 0
-26 -277 299 0
26 -299 0
277 -299 0
-243 -299 -300 0
243 299 -300 0
243 -299 300 0
-243 299 300 0
-300 -298 -301 0
300 298 -301 0
300 -298 301 0
-300 298 301 0
-300 -298 302 0
300 -302 0
298 -302 0
-243 -299 303 0
243 -303 0
299 -303 0
302 303 -304 0
-302 304 0
-303 304 0
-34 -277 305 0
34 -305 0
277 -305 0
-249 -305 -306 0
249 305 -306 0
249 -305 306 0
-249 305 306 0
-306 -304 -307 0
306 304 -307 0
306 -304 307 0
-306 304 307 0
-306 -304 308 0
306 -308 0
304 -308 0
-249 -305 309 0
249 -309 0
305 -309 0
308 309 -310 0
-308 310 0
-309 310 0
-42 -277 311 0
42 -311 0
277 -311 0
-255 -311 -312 0
255 311 -312 0
255 -311 312 0
-255 311 312 0
-312 -310 -313 0
312 310 -313 0
312 -310 313 0
-312 310 313 0
-312 -310 314 0
312 -314 0
310 -314 0
-255 -311 315 0
255 -315 0
311 -315 0
314 315 -316 0
-314 316 0
-315 316 0
-50 -277 317 0
50 -317 0
277 -317 0
-261 -317 -318 0
261 317 -318 0
261 -317 318 0
-261 317 318 0
-318 -316 -319 0
318 316 -319 0
318 -316 319 0
-318 316 319 0
-318 -316 320 0
318 -320 0
316 -320 0
-261 -317 321 0
261 -321 0
317 -321 0
320 321 -322 0
-320 322 0
-321 322 0
-58 -277 323 0
58 -323 0
277 -323 0
-267 -323 -324 0
267 323 -324 0
267 -323 324 0
-267 323 324 0
-324 -322 -325 0
324 322 -325 0
324 -322 325 0
-324 322 325 0
-324 -322 326 0
324 -326 0
322 -326 0
-267 -323 327 0
267 -327 0
323 -327 0
326 327 -328 0
-326 328 0
-327 328 0
-66 -277 329 0
66 -329 0
277 -329 0
-273 -329 -330 0
273 329 -330 0
273 -329 330 0
-273 329 330 0
-330 -328 -331 0
330 328 -331 0
330 -328 331 0
-330 328 331 0
-330 -328 332 0
330 -332 0
328 -332 0
-273 -329 333 0
273 -333 0
329 -333 0
332 333 -334 0
-332 334 0
-333 334 0
-74 -277 335 0
74 -335 0
277 -335 0
-276 -335 -336 0
276 335 -336 0
276 -335 336 0
-276 335 336 0
-336 -334 -337 0
336 334 -337 0
336 -334 337 0
-336 334 337 0
-336 -334 338 0
336 -338 0
334 -338 0
-276 -335 339 0
276 -339 0
335 -339 0
338 339 -340 0
-338 340 0
-339 340 0
-1 -341 342 0
1 -342 0
341 -342 0
-283 -342 -343 0
283 342 -343 0
283 -342 343 0
-283 342 343 0
-283 -342 344 0
283 -344 0
342 -344 0
-4 -341 345 0
4 -345 0
341 -345 0
-289 -345 -346 0
289 345 -346 0
289 -345 346 0
-289 345 346 0
-346 -344 -347 0
346 344 -347 0
346 -344 347 0
-346 344 347 0
-346 -344 348 0
346 -348 0
344 -348 0
-289 -345 349 0
289 -349 0
345 -349 0
348 349 -350 0
-348 350 0
-349 350 0
-10 -341 351 0
10 -351 0
341 -351 0
-295 -351 -352 0
295 351 -352 0
295 -351 352 0
-295 351 352 0
-352 -350 -353 0
352 350 -353 0
352 -350 353 0
-352 350 353 0
-352 -350 354 0
352 -354 0
350 -354 0
-295 -351 355 0
295 -355 0
351 -355 0
354 355 -356 0
-354 356 0
-355 356 0
-18 -341 357 0
18 -357 0
341 -357 0
-301 -357 -358 0
301 357 -358 0
301 -357 358 0
-301 357 358 0
-358 -356 -359 0
358 356 -359 0
358 -356 359 0
-358 356 359 0
-358 -356 360 0
358 -360 0
356 -360 0
-301 -357 361 0
301 -361 0
357 -361 0
360 361 -362 0
-360 362 0
-361 362 0
-26 -341 363 0
26 -363 0
341 -363 0
-307 -363 -364 0
307 363 -364 0
307 -363 364 0
-307 363 364 0
-364 -362 -365 0
364 362 -365 0
364 -362 365 0
-364 362 365 0
-364 -362 366 0
364 -366 0
362 -366 0
-307 -363 367 0
307 -367 0
363 -367 0
366 367 -368 0
-366 368 0
-367 368 0
-34 -341 369 0
34 -369 0
341 -369 0
-313 -369 -370 0
313 369 -370 0
313 -369 370 0
-313 369 370 0
-370 -368 -371 0
370 368 -371 0
370 -368 371 0
-370 368 371 0
-370 -368 372 0
370 -372 0
368 -372 0
-313 -369 373 0
313 -373 0
369 -373 0
372 373 -374 0
-372 374 0
-373 374 0
-42 -341 375 0
42 -375 0
341 -375 0
-319 -375 -376 0
319 375 -376 0
319 -375 376 0
-319 375 376 0
-376 -374 -377 0
376 374 -377 0
376 -374 377 0
-376 374 377 0
-376 -374 378 0
376 -378 0
374 -378 0
-319 -375 379 0
319 -379 0
375 -379 0
378 379 -380 0
-378 380 0
-379 380 0
-50 -341 381 0
50 -381 0
341 -381 0
-325 -381 -382 0
325 381 -382 0
325 -381 382 0
-325 381 382 0
-382 -380 -383 0
382 380 -383 0
382 -380 383 0
-382 380 383 0
-382 -380 384 0
382 -384 0
380 -384 0
-325 -381 385 0
325 -385 0
381 -385 0
384 385 -386 0
-384 386 0
-385 386 0
-58 -341 387 0
58 -387 0
341 -387 0
-331 -387 -388 0
331 387 -388 0
331 -387 388 0
-331 387 388 0
-388 -386 -389 0
388 386 -389 0
388 -386 389 0
-388 386 389 0
-388 -386 390 0
388 -390 0
386 -390 0
-331 -387 391 0
331 -391 0
387 -391 0
390 391 -392 0
-390 392 0
-391 392 0
-66 -341 393 0
66 -393 0
341 -393 0
-337 -393 -394 0
337 393 -394 0
337 -393 394 0
-337 393 394 0
-394 -392 -395 0
394 392 -395 0
394 -392 395 0
-394 392 395 0
-394 -392 396 0
394 -396 0
392 -396 0
-337 -393 397 0
337 -397 0
393 -397 0
396 397 -398 0
-396 398 0
-397 398 0
-74 -341 399 0
74 -399 0
341 -399 0
-340 -399 -400 0
340 399 -400 0
340 -399 400 0
-340 399 400 0
-400 -398 -401 0
400 398 -401 0
400 -398 401 0
-400 398 401 0
-400 -398 402 0
400 -402 0
398 -402 0
-340 -399 403 0
340 -403 0
399 -403 0
402 403 -404 0
-402 404 0
-403 404 0
-1 -405 406 0
1 -406 0
405 -406 0
-347 -406 -407 0
347 406 -407 0
347 -406 407 0
-347 406 407 0
-347 -406 408 0
347 -408 0
406 -408 0
-4 -405 409 0
4 -409 0
405 -409 0
-353 -409 -410 0
353 409 -410 0
353 -409 410 0
-353 409 410 0
-410 -408 -411 0
410 408 -411 0
410 -408 411 0
-410 408 411 0
-410 -408 412 0
410 -412 0
408 -412 0
-353 -409 413 0
353 -413 0
409 -413 0
412 413 -414 0
-412 414 0
-413 414 0
-10 -405 415 0
10 -415 0
405 -415 0
-359 -415 -416 0
359 415 -416 0
359 -415 416 0
-359 415 416 0
-416 -414 -417 0
416 414 -417 0
416 -414 417 0
-416 414 417 0
-416 -414 418 0
416 -418 0
414 -418 0
-359 -415 419 0
359 -419 0
415 -419 0
418 419 -420 0
-418 420 0
-419 420 0
-18 -405 421 0
18 -421 0
405 -421 0
-365 -421 -422 0
365 421 -422 0
365 -421 422 0
-365 421 422 0
-422 -420 -423 0
422 420 -423 0
422 -420 423 0
-422 420 423 0
-422 -420 424 0
422 -424 0
420 -424 0
-365 -421 425 0
365 -425 0
421 -425 0
424 425 -426 0
-424 426 0
-425 426 0
-26 -405 427 0
26 -427 0
405 -427 0
-371 -427 -428 0
371 427 -428 0
371 -427 428 0
-371 427 428 0
-428 -426 -429 0
428 426 -429 0
428 -426 429 0
-428 426 429 0
-428 -426 430 0
428 -430 0
426 -430 0
-371 -427 431 0
371 -431 0
427 -431 0
430 431 -432 0
-430 432 0
-431 432 0
-34 -405 433 0
34 -433 0
405 -433 0
-377 -433 -434 0
377 433 -434 0
377 -433 434 0
-377 433 434 0
-434 -432 -435 0
434 432 -435 0
434 -432 435 0
-434 432 435 0
-434 -432 436 0
434 -436 0
432 -436 0
-377 -433 437 0
377 -437 0
433 -437 0
436 437 -438 0
-436 438 0
-437 438 0
-42 -405 439 0
42 -439 0
405 -439 0
-383 -439 -440 0
383 439 -440 0
383 -439 440 0
-383 439 440 0
-440 -438 -441 0
440 438 -441 0
440 -438 441 0
-440 438 441 0
-440 -438 442 0
440 -442 0
438 -442 0
-383 -439 443 0
383 -443 0
439 -443 0
442 443 -444 0
-442 444 0
-443 444 0
-50 -405 445 0
50 -445 0
405 -445 0
-389 -445 -446 0
389 445 -446 0
389 -445 446 0
-389 445 446 0
-446 -444 -447 0
446 444 -447 0
446 -444 447 0
-446 444 447 0
-446 -444 448 0
446 -448 0
444 -448 0
-389 -445 449 0
389 -449 0
445 -449 0
448 449 -450 0
-448 450 0
-449 450 0
-58 -405 451 0
58 -451 0
405 -451 0
-395 -451 -452 0
395 451 -452 0
395 -451 452 0
-395 451 452 0
-452 -450 -453 0
452 450 -453 0
452 -450 453 0
-452 450 453 0
-452 -450 454 0
452 -454 0
450 -454 0
-395 -451 455 0
395 -455 0
451 -455 0
454 455 -456 0
-454 456 0
-455 456 0
-66 -405 457 0
66 -457 0
405 -457 0
-401 -457 -458 0
401 457 -458 0
401 -457 458 0
-401 457 458 0
-458 -456 -459 0
458 456 -459 0
458 -456 459 0
-458 456 459 0
-458 -456 460 0
458 -460 0
456 -460 0
-401 -457 461 0
401 -461 0
457 -461 0
460 461 -462 0
-460 462 0
-461 462 0
-74 -405 463 0
74 -463 0
405 -463 0
-404 -463 -464 0
404 463 -464 0
404 -463 464 0
-404 463 464 0
-464 -462 -465 0
464 462 -465 0
464 -462 465 0
-464 462 465 0
-464 -462 466 0
464 -466 0
462 -466 0
-404 -463 467 0
404 -467 0
463 -467 0
466 467 -468 0
-466 468 0
-467 468 0
-1 -469 470 0
1 -470 0
469 -470 0
-411 -470 -471 0
411 470 -471 0
411 -470 471 0
-411 470 471 0
-411 -470 472 0
411 -472 0
470 -472 0
-4 -469 473 0
4 -473 0
469 -473 0
-417 -473 -474 0
417 473 -474 0
417 -473 474 0
-417 473 474 0
-474 -472 -475 0
474 472 -475 0
474 -472 475 0
-474 472 475 0
-474 -472 476 0
474 -476 0
472 -476 0
-417 -473 477 0
417 -477 0
473 -477 0
476 477 -478 0
-476 478 0
-477 478 0
-10 -469 479 0
10 -479 0
469 -479 0
-423 -479 -480 0
423 479 -480 0
423 -479 480 0
-423 479 480 0
-480 -478 -481 0
480 478 -481 0
480 -478 481 0
-480 478 481 0
-480 -478 482 0
480 -482 0
478 -482 0
-423 -479 483 0
423 -483 0
479 -483 0
482 483 -484 0
-482 484 0
-483 484 0
-18 -469 485 0
18 -485 0
469 -485 0
-429 -485 -486 0
429 485 -486 0
429 -485 486 0
-429 485 486 0
-486 -484 -487 0
486 484 -487 0
486 -484 487 0
-486 484 487 0
-486 -484 488 0
486 -488 0
484 -488 0
-429 -485 489 0
429 -489 0
485 -489 0
488 489 -490 0
-488 490 0
-489 490 0
-26 -469 491 0
26 -491 0
469 -491 0
-435 -491 -492 0
435 491 -492 0
435 -491 492 0
-435 491 492 0
-492 -490 -493 0
492 490 -493 0
492 -490 493 0
-492 490 493 0
-492 -490 494 0
492 -494 0
490 -494 0
-435 -491 495 0
435 -495 0
491 -495 0
494 495 -496 0
-494 496 0
-495 496 0
-34 -469 497 0
34 -497 0
469 -497 0
-441 -497 -498 0
441 497 -498 0
441 -497 498 0
-441 497 498 0
-498 -496 -499 0
498 496 -499 0
498 -496 499 0
-498 496 499 0
-498 -496 500 0
498 -500 0
496 -500 0
-441 -497 501 0
441 -501 0
497 -501 0
500 501 -502 0
-500 502 0
-501 502 0
-42 -469 503 0
42 -503 0
469 -503 0
-447 -503 -504 0
447 503 -504 0
447 -503 504 0
-447 503 504 0
-504 -502 -505 0
504 502 -505 0
504 -502 505 0
-504 502 505 0
-504 -502 506 0
504 -506 0
502 -506 0
-447 -503 507 0
447 -507 0
503 -507 0
506 507 -508 0
-506 508 0
-507 508 0
-50 -469 509 0
50 -509 0
469 -509 0
-453 -509 -510 0
453 509 -510 0
453 -509 510 0
-453 509 510 0
-510 -508 -511 0
510 508 -511 0
510 -508 511 0
-510 508 511 0
-510 -508 512 0
510 -512 0
508 -512 0
-453 -509 513 0
453 -513 0
509 -513 0
512 513 -514 0
-512 514 0
-513 514 0
-58 -469 515 0
58 -515 0
469 -515 0
-459 -515 -516 0
459 515 -516 0
459 -515 516 0
-459 515 516 0
-516 -514 -517 0
516 514 -517 0
516 -514 517 0
-516 514 517 0
-516 -514 518 0
516 -518 0
514 -518 0
-459 -515 519 0
459 -519 0
515 -519 0
518 519 -520 0
-518 520 0
-519 520 0
-66 -469 521 0
66 -521 0
469 -521 0
-465 -521 -522 0
465 521 -522 0
465 -521 522 0
-465 521 522 0
-522 -520 -523 0
522 520 -523 0
522 -520 523 0
-522 520 523 0
-522 -520 524 0
522 -524 0
520 -524 0
-465 -521 525 0
465 -525 0
521 -525 0
524 525 -526 0
-524 526 0
-525 526 0
-74 -469 527 0
74 -527 0
469 -527 0
-468 -527 -528 0
468 527 -528 0
468 -527 528 0
-468 527 528 0
-528 -526 -529 0
528 526 -529 0
528 -526 529 0
-528 526 529 0
-528 -526 530 0
528 -530 0
526 -530 0
-468 -527 531 0
468 -531 0
527 -531 0
530 531 -532 0
-530 532 0
-531 532 0
-1 -533 534 0
1 -534 0
533 -534 0
-475 -534 -535 0
475 534 -535 0
475 -534 535 0
-475 534 535 0
-475 -534 536 0
475 -536 0
534 -536 0
-4 -533 537 0
4 -537 0
533 -537 0
-481 -537 -538 0
481 537 -538 0
481 -537 538 0
-481 537 538 0
-538 -536 -539 0
538 536 -539 0
538 -536 539 0
-538 536 539 0
-538 -536 540 0
538 -540 0
536 -540 0
-481 -537 541 0
481 -541 0
537 -541 0
540 541 -542 0
-540 542 0
-541 542 0
-10 -533 543 0
10 -543 0
533 -543 0
-487 -543 -544 0
487 543 -544 0
487 -543 544 0
-487 543 544 0
-544 -542 -545 0
544 542 -545 0
544 -542 545 0
-544 542 545 0
-544 -542 546 0
544 -546 0
542 -546 0
-487 -543 547 0
487 -547 0
543 -547 0
546 547 -548 0
-546 548 0
-547 548 0
-18 -533 549 0
18 -549 0
533 -549 0
-493 -549 -550 0
493 549 -550 0
493 -549 550 0
-493 549 550 0
-550 -548 -551 0
550 548 -551 0
550 -548 551 0
-550 548 551 0
-550 -548 552 0
550 -552 0
548 -552 0
-493 -549 553 0
493 -553 0
549 -553 0
552 553 -554 0
-552 554 0
-553 554 0
-26 -533 555 0
26 -555 0
533 -555 0
-499 -555 -556 0
499 555 -556 0
499 -555 556 0
-499 555 556 0
-556 -554 -557 0
556 554 -557 0
556 -554 557 0
-556 554 557 0
-556 -554 558 0
556 -558 0
554 -558 0
-499 -555 559 0
499 -559 0
555 -559 0
558 559 -560 0
-558 560 0
-559 560 0
-34 -533 561 0
34 -561 0
533 -561 0
-505 -561 -562 0
505 561 -562 0
505 -561 562 0
-505 561 562 0
-562 -560 -563 0
562 560 -563 0
562 -560 563 0
-562 560 563 0
-562 -560 564 0
562 -564 0
560 -564 0
-505 -561 565 0
505 -565 0
561 -565 0
564 565 -566 0
-564 566 0
-565 566 0
-42 -533 567 0
42 -567 0
533 -567 0
-511 -567 -568 0
511 567 -568 0
511 -567 568 0
-511 567 568 0
-568 -566 -569 0
568 566 -569 0
568 -566 569 0
-568 566 569 0
-568 -566 570 0
568 -570 0
566 -570 0
-511 -567 571 0
511 -571 0
567 -571 0
570 571 -572 0
-570 572 0
-571 572 0
-50 -533 573 0
50 -573 0
533 -573 0
-517 -573 -574 0
517 573 -574 0
517 -573 574 0
-517 573 574 0
-574 -572 -575 0
574 572 -575 0
574 -572 575 0
-574 572 575 0
-574 -572 576 0
574 -576 0
572 -576 0
-517 -573 577 0
517 -577 0
573 -577 0
576 577 -578 0
-576 578 0
-577 578 0
-58 -533 579 0
58 -579 0
533 -579 0
-523 -579 -580 0
523 579 -580 0
523 -579 580 0
-523 579 580 0
-580 -578 -581 0
580 578 -581 0
580 -578 581 0
-580 578 581 0
-580 -578 582 0
580 -582 0
578 -582 0
-523 -579 583 0
523 -583 0
579 -583 0
582 583 -584 0
-582 584 0
-583 584 0
-66 -533 585 0
66 -585 0
533 -585 0
-529 -585 -586 0
529 585 -586 0
529 -585 586 0
-529 585 586 0
-586 -584 -587 0
586 584 -587 0
586 -584 587 0
-586 584 587 0
-586 -584 588 0
586 -588 0
584 -588 0
-529 -585 589 0
529 -589 0
585 -589 0
588 589 -590 0
-588 590 0
-589 590 0
-74 -533 591 0
74 -591 0
533 -591 0
-532 -591 -592 0
532 591 -592 0
532 -591 592 0
-532 591 592 0
-592 -590 -593 0
592 590 -593 0
592 -590 593 0
-592 590 593 0
-592 -590 594 0
592 -594 0
590 -594 0
-532 -591 595 0
532 -595 0
591 -595 0
594 595 -596 0
-594 596 0
-595 596 0
-1 -597 598 0
1 -598 0
597 -598 0
-539 -598 -599 0
539 598 -599 0
539 -598 599 0
-539 598 599 0
-539 -598 600 0
539 -600 0
598 -600 0
-4 -597 601 0
4 -601 0
597 -601 0
-545 -601 -602 0
545 601 -602 0
545 -601 602 0
-545 601 602 0
-602 -600 -603 0
602 600 -603 0
602 -600 603 0
-602 600 603 0
-602 -600 604 0
602 -604 0
600 -604 0
-545 -601 605 0
545 -605 0
601 -605 0
604 605 -606 0
-604 606 0
-605 606 0
-10 -597 607 0
10 -607 0
597 -607 0
-551 -607 -608 0
551 607 -608 0
551 -607 608 0
-551 607 608 0
-608 -606 -609 0
608 606 -609 0
608 -606 609 0
-608 606 609 0
-608 -606 610 0
608 -610 0
606 -610 0
-551 -607 611 0
551 -611 0
607 -611 0
610 611 -612 0
-610 612 0
-611 612 0
-18 -597 613 0
18 -613 0
597 -613 0
-557 -613 -614 0
557 613 -614 0
557 -613 614 0
-557 613 614 0
-614 -612 -615 0
614 612 -615 0
614 -612 615 0
-614 612 615 0
-614 -612 616 0
614 -616 0
612 -616 0
-557 -613 617 0
557 -617 0
613 -617 0
616 617 -618 0
-616 618 0
-617 618 0
-26 -597 619 0
26 -619 0
597 -619 0
-563 -619 -620 0
563 619 -620 0
563 -619 620 0
-563 619 620 0
-620 -618 -621 0
620 618 -621 0
620 -618 621 0
-620 618 621 0
-620 -618 622 0
620 -622 0
618 -622 0
-563 -619 623 0
563 -623 0
619 -623 0
622 623 -624 0
-622 624 0
-623 624 0
-34 -597 625 0
34 -625 0
597 -625 0
-569 -625 -626 0
569 625 -626 0
569 -625 626 0
-569 625 626 0
-626 -624 -627 0
626 624 -627 0
626 -624 627 0
-626 624 627 0
-626 -624 628 0
626 -628 0
624 -628 0
-569 -625 629 0
569 -629 0
625 -629 0
628 629 -630 0
-628 630 0
-629 630 0
-42 -597 631 0
42 -631 0
597 -631 0
-575 -631 -632 0
575 631 -632 0
575 -631 632 0
-575 631 632 0
-632 -630 -633 0
632 630 -633 0
632 -630 633 0
-632 630 633 0
-632 -630 634 0
632 -634 0
630 -634 0
-575 -631 635 0
575 -635 0
631 -635 0
634 635 -636 0
-634 636 0
-635 636 0
-50 -597 637 0
50 -637 0
597 -637 0
-581 -637 -638 0
581 637 -638 0
581 -637 638 0
-581 637 638 0
-638 -636 -639 0
638 636 -639 0
638 -636 639 0
-638 636 639 0
-638 -636 640 0
638 -640 0
636 -640 0
-581 -637 641 0
581 -641 0
637 -641 0
640 641 -642 0
-640 642 0
-641 642 0
-58 -597 643 0
58 -643 0
597 -643 0
-587 -643 -644 0
587 643 -644 0
587 -643 644 0
-587 643 644 0
-644 -642 -645 0
644 642 -645 0
644 -642 645 0
-644 642 645 0
-644 -642 646 0
644 -646 0
642 -646 0
-587 -643 647 0
587 -647 0
643 -647 0
646 647 -648 0
-646 648 0
-647 648 0
-66 -597 649 0
66 -649 0
597 -649 0
-593 -649 -650 0
593 649 -650 0
593 -649 650 0
-593 649 650 0
-650 -648 -651 0
650 648 -651 0
650 -648 651 0
-650 648 651 0
-650 -648 652 0
650 -652 0
648 -652 0
-593 -649 653 0
593 -653 0
649 -653 0
652 653 -654 0
-652 654 0
-653 654 0
-74 -597 655 0
74 -655 0
597 -655 0
-596 -655 -656 0
596 655 -656 0
596 -655 656 0
-596 655 656 0
-656 -654 -657 0
656 654 -657 0
656 -654 657 0
-656 654 657 0
-656 -654 658 0
656 -658 0
654 -658 0
-596 -655 659 0
596 -659 0
655 -659 0
658 659 -660 0
-658 660 0
-659 660 0
3 0
8 0
87 0
151 0
215 0
279 0
-343 0
-407 0
-471 0
-535 0
-599 0
-603 0
-609 0
-615 0
621 0
-627 0
-633 0
-639 0
-645 0
-651 0
657 0
-660 0
