p cnf 936 3055
-1 -2 3 0
1 -3 0
2 -3 0
-4 -2 5 0
4 -5 0
2 -5 0
-1 -6 7 0
1 -7 0
6 -7 0
-5 -7 -8 0
5 7 -8 0
5 -7 8 0
-5 7 8 0
-5 -7 9 0
5 -9 0
7 -9 0
-10 -2 11 0
10 -11 0
2 -11 0
-4 -6 12 0
4 -12 0
6 -12 0
-11 -12 -13 0
11 12 -13 0
11 -12 13 0
-11 12 13 0
-13 -9 -14 0
13 9 -14 0
13 -9 14 0
-13 9 14 0
-13 -9 15 0
13 -15 0
9 -15 0
-11 -12 16 0
11 -16 0
12 -16 0
15 16 -17 0
-15 17 0
-16 17 0
-18 -2 19 0
18 -19 0
2 -19 0
-10 -6 20 0
10 -20 0
6 -20 0
-19 -20 -21 0
19 20 -21 0
19 -20 21 0
-19 20 21 0
-21 -17 -22 0
21 17 -22 0
21 -17 22 0
-21 17 22 0
-21 -17 23 0
21 -23 0
17 -23 0
-19 -20 24 0
19 -24 0
20 -24 0
23 24 -25 0
-23 25 0
-24 25 0
-26 -2 27 0
26 -27 0
2 -27 0
-18 -6 28 0
18 -28 0
6 -28 0
-27 -28 -29 0
27 28 -29 0
27 -28 29 0
-27 28 29 0
-29 -25 -30 0
29 25 -30 0
29 -25 30 0
-29 25 30 0
-29 -25 31 0
29 -31 0
25 -31 0
-27 -28 32 0
27 -32 0
28 -32 0
31 32 -33 0
-31 33 0
-32 33 0
-34 -2 35 0
34 -35 0
2 -35 0
-26 -6 36 0
26 -36 0
6 -36 0
-35 -36 -37 0
35 36 -37 0
35 -36 37 0
-35 36 37 0
-37 -33 -38 0
37 33 -38 0
37 -33 38 0
-37 33 38 0
-37 -33 39 0
37 -39 0
33 -39 0
-35 -36 40 0
35 -40 0
36 -40 0
39 40 -41 0
-39 41 0
-40 41 0
-42 -2 43 0
42 -43 0
2 -43 0
-34 -6 44 0
34 -44 0
6 -44 0
-43 -44 -45 0
43 44 -45 0
43 -44 45 0
-43 44 45 0
-45 -41 -46 0
45 41 -46 0
45 -41 46 0
-45 41 46 0
-45 -41 47 0
45 -47 0
41 -47 0
-43 -44 48 0
43 -48 0
44 -48 0
47 48 -49 0
-47 49 0
-48 49 0
-50 -2 51 0
50 -51 0
2 -51 0
-42 -6 52 0
42 -52 0
6 -52 0
-51 -52 -53 0
51 52 -53 0
51 -52 53 0
-51 52 53 0
-53 -49 -54 0
53 49 -54 0
53 -49 54 0
-53 49 54 0
-53 -49 55 0
53 -55 0
49 -55 0
-51 -52 56 0
51 -56 0
52 -56 0
55 56 -57 0
-55 57 0
-56 57 0
-58 -2 59 0
58 -59 0
2 -59 0
-50 -6 60 0
50 -60 0
6 -60 0
-59 -60 -61 0
59 60 -61 0
59 -60 61 0
-59 60 61 0
-61 -57 -62 0
61 57 -62 0
61 -57 62 0
-61 57 62 0
-61 -57 63 0
61 -63 0
57 -63 0
-59 -60 64 0
59 -64 0
60 -64 0
63 64 -65 0
-63 65 0
-64 65 0
-66 -2 67 0
66 -67 0
2 -67 0
-58 -6 68 0
58 -68 0
6 -68 0
-67 -68 -69 0
67 68 -69 0
67 -68 69 0
-67 68 69 0
-69 -65 -70 0
69 65 -70 0
69 -65 70 0
-69 65 70 0
-69 -65 71 0
69 -71 0
65 -71 0
-67 -68 72 0
67 -72 0
68 -72 0
71 72 -73 0
-71 73 0
-72 73 0
-74 -2 75 0
74 -75 0
2 -75 0
-66 -6 76 0
66 -76 0
6 -76 0
-75 -76 -77 0
75 76 -77 0
75 -76 77 0
-75 76 77 0
-77 -73 -78 0
77 73 -78 0
77 -73 78 0
-77 73 78 0
-77 -73 79 0
77 -79 0
73 -79 0
-75 -76 80 0
75 -80 0
76 -80 0
79 80 -81 0
-79 81 0
-80 81 0
-82 -2 83 0
82 -83 0
2 -83 0
-74 -6 84 0
74 -84 0
6 -84 0
-83 -84 -85 0
83 84 -85 0
83 -84 85 0
-83 84 85 0
-85 -81 -86 0
85 81 -86 0
85 -81 86 0
-85 81 86 0
-85 -81 87 0
85 -87 0
81 -87 0
-83 -84 88 0
83 -88 0
84 -88 0
87 88 -89 0
-87 89 0
-88 89 0
-90 -2 91 0
90 -91 0
2 -91 0
-82 -6 92 0
82 -92 0
6 -92 0
-91 -92 -93 0
91 92 -93 0
91 -92 93 0
-91 92 93 0
-93 -89 -94 0
93 89 -94 0
93 -89 94 0
-93 89 94 0
-93 -89 95 0
93 -95 0
89 -95 0
-91 -92 96 0
91 -96 0
92 -96 0
95 96 -97 0
-95 97 0
-96 97 0
-90 -6 98 0
90 -98 0
6 -98 0
-97 -98 -99 0
97 98 -99 0
97 -98 99 0
-97 98 99 0
-97 -98 100 0
97 -100 0
98 -100 0
-1 -101 102 0
1 -102 0
101 -102 0
-14 -102 -103 0
14 102 -103 0
14 -102 103 0
-14 102 103 0
-14 -102 104 0
14 -104 0
102 -104 0
-4 -101 105 0
4 -105 0
101 -105 0
-22 -105 -106 0
22 105 -106 0
22 -105 106 0
-22 105 106 0
-106 -104 -107 0
106 104 -107 0
106 -104 107 0
-106 104 107 0
-106 -104 108 0
106 -108 0
104 -108 0
-22 -105 109 0
22 -109 0
105 -109 0
108 109 -110 0
-108 110 0
-109 110 0
-10 -101 111 0
10 -111 0
101 -111 0
-30 -111 -112 0
30 111 -112 0
30 -111 112 0
-30 111 112 0
-112 -110 -113 0
112 110 -113 0
112 -110 113 0
-112 110 113 0
-112 -110 114 0
112 -114 0
110 -114 0
-30 -111 115 0
30 -115 0
111 -115 0
114 115 -116 0
-114 116 0
-115 116 0
-18 -101 117 0
18 -117 0
101 -117 0
-38 -117 -118 0
38 117 -118 0
38 -117 118 0
-38 117 118 0
-118 -116 -119 0
118 116 -119 0
118 -116 119 0
-118 116 119 0
-118 -116 120 0
118 -120 0
116 -120 0
-38 -117 121 0
38 -121 0
117 -121 0
120 121 -122 0
-120 122 0
-121 122 0
-26 -101 123 0
26 -123 0
101 -123 0
-46 -123 -124 0
46 123 -124 0
46 -123 124 0
-46 123 124 0
-124 -122 -125 0
124 122 -125 0
124 -122 125 0
-124 122 125 0
-124 -122 126 0
124 -126 0
122 -126 0
-46 -123 127 0
46 -127 0
123 -127 0
126 127 -128 0
-126 128 0
-127 128 0
-34 -101 129 0
34 -129 0
101 -129 0
-54 -129 -130 0
54 129 -130 0
54 -129 130 0
-54 129 130 0
-130 -128 -131 0
130 128 -131 0
130 -128 131 0
-130 128 131 0
-130 -128 132 0
130 -132 0
128 -132 0
-54 -129 133 0
54 -133 0
129 -133 0
132 133 -134 0
-132 134 0
-133 134 0
-42 -101 135 0
42 -135 0
101 -135 0
-62 -135 -136 0
62 135 -136 0
62 -135 136 0
-62 135 136 0
-136 -134 -137 0
136 134 -137 0
136 -134 137 0
-136 134 137 0
-136 -134 138 0
136 -138 0
134 -138 0
-62 -135 139 0
62 -139 0
135 -139 0
138 139 -140 0
-138 140 0
-139 140 0
-50 -101 141 0
50 -141 0
101 -141 0
-70 -141 -142 0
70 141 -142 0
70 -141 142 0
-70 141 142 0
-142 -140 -143 0
142 140 -143 0
142 -140 143 0
-142 140 143 0
-142 -140 144 0
142 -144 0
140 -144 0
-70 -141 145 0
70 -145 0
141 -145 0
144 145 -146 0
-144 146 0
-145 146 0
-58 -101 147 0
58 -147 0
101 -147 0
-78 -147 -148 0
78 147 -148 0
78 -147 148 0
-78 147 148 0
-148 -146 -149 0
148 146 -149 0
148 -146 149 0
-148 146 149 0
-148 -146 150 0
148 -150 0
146 -150 0
-78 -147 151 0
78 -151 0
147 -151 0
150 151 -152 0
-150 152 0
-151 152 0
-66 -101 153 0
66 -153 0
101 -153 0
-86 -153 -154 0
86 153 -154 0
86 -153 154 0
-86 153 154 0
-154 -152 -155 0
154 152 -155 0
154 -152 155 0
-154 152 155 0
-154 -152 156 0
154 -156 0
152 -156 0
-86 -153 157 0
86 -157 0
153 -157 0
156 157 -158 0
-156 158 0
-157 158 0
-74 -101 159 0
74 -159 0
101 -159 0
-94 -159 -160 0
94 159 -160 0
94 -159 160 0
-94 159 160 0
-160 -158 -161 0
160 158 -161 0
160 -158 161 0
-160 158 161 0
-160 -158 162 0
160 -162 0
158 -162 0
-94 -159 163 0
94 -163 0
159 -163 0
162 163 -164 0
-162 164 0
-163 164 0
-82 -101 165 0
82 -165 0
101 -165 0
-99 -165 -166 0
99 165 -166 0
99 -165 166 0
-99 165 166 0
-166 -164 -167 0
166 164 -167 0
166 -164 167 0
-166 164 167 0
-166 -164 168 0
166 -168 0
164 -168 0
-99 -165 169 0
99 -169 0
165 -169 0
168 169 -170 0
-168 170 0
-169 170 0
-90 -101 171 0
90 -171 0
101 -171 0
-100 -171 -172 0
100 171 -172 0
100 -171 172 0
-100 171 172 0
-172 -170 -173 0
172 170 -173 0
172 -170 173 0
-172 170 173 0
-172 -170 174 0
172 -174 0
170 -174 0
-100 -171 175 0
100 -175 0
171 -175 0
174 175 -176 0
-174 176 0
-175 176 0
-1 -177 178 0
1 -178 0
177 -178 0
-107 -178 -179 0
107 178 -179 0
107 -178 179 0
-107 178 179 0
-107 -178 180 0
107 -180 0
178 -180 0
-4 -177 181 0
4 -181 0
177 -181 0
-113 -181 -182 0
113 181 -182 0
113 -181 182 0
-113 181 182 0
-182 -180 -183 0
182 180 -183 0
182 -180 183 0
-182 180 183 0
-182 -180 184 0
182 -184 0
180 -184 0
-113 -181 185 0
113 -185 0
181 -185 0
184 185 -186 0
-184 186 0
-185 186 0
-10 -177 187 0
10 -187 0
177 -187 0
-119 -187 -188 0
119 187 -188 0
119 -187 188 0
-119 187 188 0
-188 -186 -189 0
188 186 -189 0
188 -186 189 0
-188 186 189 0
-188 -186 190 0
188 -190 0
186 -190 0
-119 -187 191 0
119 -191 0
187 -191 0
190 191 -192 0
-190 192 0
-191 192 0
-18 -177 193 0
18 -193 0
177 -193 0
-125 -193 -194 0
125 193 -194 0
125 -193 194 0
-125 193 194 0
-194 -192 -195 0
194 192 -195 0
194 -192 195 0
-194 192 195 0
-194 -192 196 0
194 -196 0
192 -196 0
-125 -193 197 0
125 -197 0
193 -197 0
196 197 -198 0
-196 198 0
-197 198 0
-26 -177 199 0
26 -199 0
177 -199 0
-131 -199 -200 0
131 199 -200 0
131 -199 200 0
-131 199 200 0
-200 -198 -201 0
200 198 -201 0
200 -198 201 0
-200 198 201 0
-200 -198 202 0
200 -202 0
198 -202 0
-131 -199 203 0
131 -203 0
199 -203 0
202 203 -204 0
-202 204 0
-203 204 0
-34 -177 205 0
34 -205 0
177 -205 0
-137 -205 -206 0
137 205 -206 0
137 -205 206 0
-137 205 206 0
-206 -204 -207 0
206 204 -207 0
206 -204 207 0
-206 204 207 0
-206 -204 208 0
206 -208 0
204 -208 0
-137 -205 209 0
137 -209 0
205 -209 0
208 209 -210 0
-208 210 0
-209 210 0
-42 -177 211 0
42 -211 0
177 -211 0
-143 -211 -212 0
143 211 -212 0
143 -211 212 0
-143 211 212 0
-212 -210 -213 0
212 210 -213 0
212 -210 213 0
-212 210 213 0
-212 -210 214 0
212 -214 0
210 -214 0
-143 -211 215 0
143 -215 0
211 -215 0
214 215 -216 0
-214 216 0
-215 216 0
-50 -177 217 0
50 -217 0
177 -217 0
-149 -217 -218 0
149 217 -218 0
149 -217 218 0
-149 217 218 0
-218 -216 -219 0
218 216 -219 0
218 -216 219 0
-218 216 219 0
-218 -216 220 0
218 -220 0
216 -220 0
-149 -217 221 0
149 -221 0
217 -221 0
220 221 -222 0
-220 222 0
-221 222 0
-58 -177 223 0
58 -223 0
177 -223 0
-155 -223 -224 0
155 223 -224 0
155 -223 224 0
-155 223 224 0
-224 -222 -225 0
224 222 -225 0
224 -222 225 0
-224 222 225 0
-224 -222 226 0
224 -226 0
222 -226 0
-155 -223 227 0
155 -227 0
223 -227 0
226 227 -228 0
-226 228 0
-227 228 0
-66 -177 229 0
66 -229 0
177 -229 0
-161 -229 -230 0
161 229 -230 0
161 -229 230 0
-161 229 230 0
-230 -228 -231 0
230 228 -231 0
230 -228 231 0
-230 228 231 0
-230 -228 232 0
230 -232 0
228 -232 0
-161 -229 233 0
161 -233 0
229 -233 0
232 233 -234 0
-232 234 0
-233 234 0
-74 -177 235 0
74 -235 0
177 -235 0
-167 -235 -236 0
167 235 -236 0
167 -235 236 0
-167 235 236 0
-236 -234 -237 0
236 234 -237 0
236 -234 237 0
-236 234 237 0
-236 -234 238 0
236 -238 0
234 -238 0
-167 -235 239 0
167 -239 0
235 -239 0
238 239 -240 0
-238 240 0
-239 240 0
-82 -177 241 0
82 -241 0
177 -241 0
-173 -241 -242 0
173 241 -242 0
173 -241 242 0
-173 241 242 0
-242 -240 -243 0
242 240 -243 0
242 -240 243 0
-242 240 243 0
-242 -240 244 0
242 -244 0
240 -244 0
-173 -241 245 0
173 -245 0
241 -245 0
244 245 -246 0
-244 246 0
-245 246 0
-90 -177 247 0
90 -247 0
177 -247 0
-176 -247 -248 0
176 247 -248 0
176 -247 248 0
-176 247 248 0
-248 -246 -249 0
248 246 -249 0
248 -246 249 0
-248 246 249 0
-248 -246 250 0
248 -250 0
246 -250 0
-176 -247 251 0
176 -251 0
247 -251 0
250 251 -252 0
-250 252 0
-251 252 0
-1 -253 254 0
1 -254 0
253 -254 0
-183 -254 -255 0
183 254 -255 0
183 -254 255 0
-183 254 255 0
-183 -254 256 0
183 -256 0
254 -256 0
-4 -253 257 0
4 -257 0
253 -257 0
-189 -257 -258 0
189 257 -258 0
189 -257 258 0
-189 257 258 0
-258 -256 -259 0
258 256 -259 0
258 -256 259 0
-258 256 259 0
-258 -256 260 0
258 -260 0
256 -260 0
-189 -257 261 0
189 -261 0
257 -261 0
260 261 -262 0
-260 262 0
-261 262 0
-10 -253 263 0
10 -263 0
253 -263 0
-195 -263 -264 0
195 263 -264 0
195 -263 264 0
-195 263 264 0
-264 -262 -265 0
264 262 -265 0
264 -262 265 0
-264 262 265 0
-264 -262 266 0
264 -266 0
262 -266 0
-195 -263 267 0
195 -267 0
263 -267 0
266 267 -268 0
-266 268 0
-267 268 0
-18 -253 269 0
18 -269 0
253 -269 0
-201 -269 -270 0
201 269 -270 0
201 -269 270 0
-201 269 270 0
-270 -268 -271 0
270 268 -271 0
270 -268 271 0
-270 268 271 0
-270 -268 272 0
270 -272 0
268 -272 0
-201 -269 273 0
201 -273 0
269 -273 0
272 273 -274 0
-272 274 0
-273 274 0
-26 -253 275 0
26 -275 0
253 -275 0
-207 -275 -276 0
207 275 -276 0
207 -275 276 0
-207 275 276 0
-276 -274 -277 0
276 274 -277 0
276 -274 277 0
-276 274 277 0
-276 -274 278 0
276 -278 0
274 -278 0
-207 -275 279 0
207 -279 0
275 -279 0
278 279 -280 0
-278 280 0
-279 280 0
-34 -253 281 0
34 -281 0
253 -281 0
-213 -281 -282 0
213 281 -282 0
213 -281 282 0
-213 281 282 0
-282 -280 -283 0
282 280 -283 0
282 -280 283 0
-282 280 283 0
-282 -280 284 0
282 -284 0
280 -284 0
-213 -281 285 0
213 -285 0
281 -285 0
284 285 -286 0
-284 286 0
-285 286 0
-42 -253 287 0
42 -287 0
253 -287 0
-219 -287 -288 0
219 287 -288 0
219 -287 288 0
-219 287 288 0
-288 -286 -289 0
288 286 -289 0
288 -286 289 0
-288 286 289 0
-288 -286 290 0
288 -290 0
286 -290 0
-219 -287 291 0
219 -291 0
287 -291 0
290 291 -292 0
-290 292 0
-291 292 0
-50 -253 293 0
50 -293 0
253 -293 0
-225 -293 -294 0
225 293 -294 0
225 -293 294 0
-225 293 294 0
-294 -292 -295 0
294 292 -295 0
294 -292 295 0
-294 292 295 0
-294 -292 296 0
294 -296 0
292 -296 0
-225 -293 297 0
225 -297 0
293 -297 0
296 297 -298 0
-296 298 0
-297 298 0
-58 -253 299 0
58 -299 0
253 -299 0
-231 -299 -300 0
231 299 -300 0
231 -299 300 0
-231 299 300 0
-300 -298 -301 0
300 298 -301 0
300 -298 301 0
-300 298 301 0
-300 -298 302 0
300 -302 0
298 -302 0
-231 -299 303 0
231 -303 0
299 -303 0
302 303 -304 0
-302 304 0
-303 304 0
-66 -253 305 0
66 -305 0
253 -305 0
-237 -305 -306 0
237 305 -306 0
237 -305 306 0
-237 305 306 0
-306 -304 -307 0
306 304 -307 0
306 -304 307 0
-306 304 307 0
-306 -304 308 0
306 -308 0
304 -308 0
-237 -305 309 0
237 -309 0
305 -309 0
308 309 -310 0
-308 310 0
-309 310 0
-74 -253 311 0
74 -311 0
253 -311 0
-243 -311 -312 0
243 311 -312 0
243 -311 312 0
-243 311 312 0
-312 -310 -313 0
312 310 -313 0
312 -310 313 0
-312 310 313 0
-312 -310 314 0
312 -314 0
310 -314 0
-243 -311 315 0
243 -315 0
311 -315 0
314 315 -316 0
-314 316 0
-315 316 0
-82 -253 317 0
82 -317 0
253 -317 0
-249 -317 -318 0
249 317 -318 0
249 -317 318 0
-249 317 318 0
-318 -316 -319 0
318 316 -319 0
318 -316 319 0
-318 316 319 0
-318 -316 320 0
318 -320 0
316 -320 0
-249 -317 321 0
249 -321 0
317 -321 0
320 321 -322 0
-320 322 0
-321 322 0
-90 -253 323 0
90 -323 0
253 -323 0
-252 -323 -324 0
252 323 -324 0
252 -323 324 0
-252 323 324 0
-324 -322 -325 0
324 322 -325 0
324 -322 325 0
-324 322 325 0
-324 -322 326 0
324 -326 0
322 -326 0
-252 -323 327 0
252 -327 0
323 -327 0
326 327 -328 0
-326 328 0
-327 328 0
-1 -329 330 0
1 -330 0
329 -330 0
-259 -330 -331 0
259 330 -331 0
259 -330 331 0
-259 330 331 0
-259 -330 332 0
259 -332 0
330 -332 0
-4 -329 333 0
4 -333 0
329 -333 0
-265 -333 -334 0
265 333 -334 0
265 -333 334 0
-265 333 334 0
-334 -332 -335 0
334 332 -335 0
334 -332 335 0
-334 332 335 0
-334 -332 336 0
334 -336 0
332 -336 0
-265 -333 337 0
265 -337 0
333 -337 0
336 337 -338 0
-336 338 0
-337 338 0
-10 -329 339 0
10 -339 0
329 -339 0
-271 -339 -340 0
271 339 -340 0
271 -339 340 0
-271 339 340 0
-340 -338 -341 0
340 338 -341 0
340 -338 341 0
-340 338 341 0
-340 -338 342 0
340 -342 0
338 -342 0
-271 -339 343 0
271 -343 0
339 -343 0
342 343 -344 0
-342 344 0
-343 344 0
-18 -329 345 0
18 -345 0
329 -345 0
-277 -345 -346 0
277 345 -346 0
277 -345 346 0
-277 345 346 0
-346 -344 -347 0
346 344 -347 0
346 -344 347 0
-346 344 347 0
-346 -344 348 0
346 -348 0
344 -348 0
-277 -345 349 0
277 -349 0
345 -349 0
348 349 -350 0
-348 350 0
-349 350 0
-26 -329 351 0
26 -351 0
329 -351 0
-283 -351 -352 0
283 351 -352 0
283 -351 352 0
-283 351 352 0
-352 -350 -353 0
352 350 -353 0
352 -350 353 0
-352 350 353 0
-352 -350 354 0
352 -354 0
350 -354 0
-283 -351 355 0
283 -355 0
351 -355 0
354 355 -356 0
-354 356 0
-355 356 0
-34 -329 357 0
34 -357 0
329 -357 0
-289 -357 -358 0
289 357 -358 0
289 -357 358 0
-289 357 358 0
-358 -356 -359 0
358 356 -359 0
358 -356 359 0
-358 356 359 0
-358 -356 360 0
358 -360 0
356 -360 0
-289 -357 361 0
289 -361 0
357 -361 0
360 361 -362 0
-360 362 0
-361 362 0
-42 -329 363 0
42 -363 0
329 -363 0
-295 -363 -364 0
295 363 -364 0
295 -363 364 0
-295 363 364 0
-364 -362 -365 0
364 362 -365 0
364 -362 365 0
-364 362 365 0
-364 -362 366 0
364 -366 0
362 -366 0
-295 -363 367 0
295 -367 0
363 -367 0
366 367 -368 0
-366 368 0
-367 368 0
-50 -329 369 0
50 -369 0
329 -369 0
-301 -369 -370 0
301 369 -370 0
301 -369 370 0
-301 369 370 0
-370 -368 -371 0
370 368 -371 0
370 -368 371 0
-370 368 371 0
-370 -368 372 0
370 -372 0
368 -372 0
-301 -369 373 0
301 -373 0
369 -373 0
372 373 -374 0
-372 374 0
-373 374 0
-58 -329 375 0
58 -375 0
329 -375 0
-307 -375 -376 0
307 375 -376 0
307 -375 376 0
-307 375 376 0
-376 -374 -377 0
376 374 -377 0
376 -374 377 0
-376 374 377 0
-376 -374 378 0
376 -378 0
374 -378 0
-307 -375 379 0
307 -379 0
375 -379 0
378 379 -380 0
-378 380 0
-379 380 0
-66 -329 381 0
66 -381 0
329 -381 0
-313 -381 -382 0
313 381 -382 0
313 -381 382 0
-313 381 382 0
-382 -380 -383 0
382 380 -383 0
382 -380 383 0
-382 380 383 0
-382 -380 384 0
382 -384 0
380 -384 0
-313 -381 385 0
313 -385 0
381 -385 0
384 385 -386 0
-384 386 0
-385 386 0
-74 -329 387 0
74 -387 0
329 -387 0
-319 -387 -388 0
319 387 -388 0
319 -387 388 0
-319 387 388 0
-388 -386 -389 0
388 386 -389 0
388 -386 389 0
-388 386 389 0
-388 -386 390 0
388 -390 0
386 -390 0
-319 -387 391 0
319 -391 0
387 -391 0
390 391 -392 0
-390 392 0
-391 392 0
-82 -329 393 0
82 -393 0
329 -393 0
-325 -393 -394 0
325 393 -394 0
325 -393 394 0
-325 393 394 0
-394 -392 -395 0
394 392 -395 0
394 -392 395 0
-394 392 395 0
-394 -392 396 0
394 -396 0
392 -396 0
-325 -393 397 0
325 -397 0
393 -397 0
396 397 -398 0
-396 398 0
-397 398 0
-90 -329 399 0
90 -399 0
329 -399 0
-328 -399 -400 0
328 399 -400 0
328 -399 400 0
-328 399 400 0
-400 -398 -401 0
400 398 -401 0
400 -398 401 0
-400 398 401 0
-400 -398 402 0
400 -402 0
398 -402 0
-328 -399 403 0
328 -403 0
399 -403 0
402 403 -404 0
-402 404 0
-403 404 0
-1 -405 406 0
1 -406 0
405 -406 0
-335 -406 -407 0
335 406 -407 0
335 -406 407 0
-335 406 407 0
-335 -406 408 0
335 -408 0
406 -408 0
-4 -405 409 0
4 -409 0
405 -409 0
-341 -409 -410 0
341 409 -410 0
341 -409 410 0
-341 409 410 0
-410 -408 -411 0
410 408 -411 0
410 -408 411 0
-410 408 411 0
-410 -408 412 0
410 -412 0
408 -412 0
-341 -409 413 0
341 -413 0
409 -413 0
412 413 -414 0
-412 414 0
-413 414 0
-10 -405 415 0
10 -415 0
405 -415 0
-347 -415 -416 0
347 415 -416 0
347 -415 416 0
-347 415 416 0
-416 -414 -417 0
416 414 -417 0
416 -414 417 0
-416 414 417 0
-416 -414 418 0
416 -418 0
414 -418 0
-347 -415 419 0
347 -419 0
415 -419 0
418 419 -420 0
-418 420 0
-419 420 0
-18 -405 421 0
18 -421 0
405 -421 0
-353 -421 -422 0
353 421 -422 0
353 -421 422 0
-353 421 422 0
-422 -420 -423 0
422 420 -423 0
422 -420 423 0
-422 420 423 0
-422 -420 424 0
422 -424 0
420 -424 0
-353 -421 425 0
353 -425 0
421 -425 0
424 425 -426 0
-424 426 0
-425 426 0
-26 -405 427 0
26 -427 0
405 -427 0
-359 -427 -428 0
359 427 -428 0
359 -427 428 0
-359 427 428 0
-428 -426 -429 0
428 426 -429 0
428 -426 429 0
-428 426 429 0
-428 -426 430 0
428 -430 0
426 -430 0
-359 -427 431 0
359 -431 0
427 -431 0
430 431 -432 0
-430 432 0
-431 432 0
-34 -405 433 0
34 -433 0
405 -433 0
-365 -433 -434 0
365 433 -434 0
365 -433 434 0
-365 433 434 0
-434 -432 -435 0
434 432 -435 0
434 -432 435 0
-434 432 435 0
-434 -432 436 0
434 -436 0
432 -436 0
-365 -433 437 0
365 -437 0
433 -437 0
436 437 -438 0
-436 438 0
-437 438 0
-42 -405 439 0
42 -439 0
405 -439 0
-371 -439 -440 0
371 439 -440 0
371 -439 440 0
-371 439 440 0
-440 -438 -441 0
440 438 -441 0
440 -438 441 0
-440 438 441 0
-440 -438 442 0
440 -442 0
438 -442 0
-371 -439 443 0
371 -443 0
439 -443 0
442 443 -444 0
-442 444 0
-443 444 0
-50 -405 445 0
50 -445 0
405 -445 0
-377 -445 -446 0
377 445 -446 0
377 -445 446 0
-377 445 446 0
-446 -444 -447 0
446 444 -447 0
446 -444 447 0
-446 444 447 0
-446 -444 448 0
446 -448 0
444 -448 0
-377 -445 449 0
377 -449 0
445 -449 0
448 449 -450 0
-448 450 0
-449 450 0
-58 -405 451 0
58 -451 0
405 -451 0
-383 -451 -452 0
383 451 -452 0
383 -451 452 0
-383 451 452 0
-452 -450 -453 0
452 450 -453 0
452 -450 453 0
-452 450 453 0
-452 -450 454 0
452 -454 0
450 -454 0
-383 -451 455 0
383 -455 0
451 -455 0
454 455 -456 0
-454 456 0
-455 456 0
-66 -405 457 0
66 -457 0
405 -457 0
-389 -457 -458 0
389 457 -458 0
389 -457 458 0
-389 457 458 0
-458 -456 -459 0
458 456 -459 0
458 -456 459 0
-458 456 459 0
-458 -456 460 0
458 -460 0
456 -460 0
-389 -457 461 0
389 -461 0
457 -461 0
460 461 -462 0
-460 462 0
-461 462 0
-74 -405 463 0
74 -463 0
405 -463 0
-395 -463 -464 0
395 463 -464 0
395 -463 464 0
-395 463 464 0
-464 -462 -465 0
464 462 -465 0
464 -462 465 0
-464 462 465 0
-464 -462 466 0
464 -466 0
462 -466 0
-395 -463 467 0
395 -467 0
463 -467 0
466 467 -468 0
-466 468 0
-467 468 0
-82 -405 469 0
82 -469 0
405 -469 0
-401 -469 -470 0
401 469 -470 0
401 -469 470 0
-401 469 470 0
-470 -468 -471 0
470 468 -471 0
470 -468 471 0
-470 468 471 0
-470 -468 472 0
470 -472 0
468 -472 0
-401 -469 473 0
401 -473 0
469 -473 0
472 473 -474 0
-472 474 0
-473 474 0
-90 -405 475 0
90 -475 0
405 -475 0
-404 -475 -476 0
404 475 -476 0
404 -475 476 0
-404 475 476 0
-476 -474 -477 0
476 474 -477 0
476 -474 477 0
-476 474 477 0
-476 -474 478 0
476 -478 0
474 -478 0
-404 -475 479 0
404 -479 0
475 -479 0
478 479 -480 0
-478 480 0
-479 480 0
-1 -481 482 0
1 -482 0
481 -482 0
-411 -482 -483 0
411 482 -483 0
411 -482 483 0
-411 482 483 0
-411 -482 484 0
411 -484 0
482 -484 0
-4 -481 485 0
4 -485 0
481 -485 0
-417 -485 -486 0
417 485 -486 0
417 -485 486 0
-417 485 486 0
-486 -484 -487 0
486 484 -487 0
486 -484 487 0
-486 484 487 0
-486 -484 488 0
486 -488 0
484 -488 0
-417 -485 489 0
417 -489 0
485 -489 0
488 489 -490 0
-488 490 0
-489 490 0
-10 -481 491 0
10 -491 0
481 -491 0
-423 -491 -492 0
423 491 -492 0
423 -491 492 0
-423 491 492 0
-492 -490 -493 0
492 490 -493 0
492 -490 493 0
-492 490 493 0
-492 -490 494 0
492 -494 0
490 -494 0
-423 -491 495 0
423 -495 0
491 -495 0
494 495 -496 0
-494 496 0
-495 496 0
-18 -481 497 0
18 -497 0
481 -497 0
-429 -497 -498 0
429 497 -498 0
429 -497 498 0
-429 497 498 0
-498 -496 -499 0
498 496 -499 0
498 -496 499 0
-498 496 499 0
-498 -496 500 0
498 -500 0
496 -500 0
-429 -497 501 0
429 -501 0
497 -501 0
500 501 -502 0
-500 502 0
-501 502 0
-26 -481 503 0
26 -503 0
481 -503 0
-435 -503 -504 0
435 503 -504 0
435 -503 504 0
-435 503 504 0
-504 -502 -505 0
504 502 -505 0
504 -502 505 0
-504 502 505 0
-504 -502 506 0
504 -506 0
502 -506 0
-435 -503 507 0
435 -507 0
503 -507 0
506 507 -508 0
-506 508 0
-507 508 0
-34 -481 509 0
34 -509 0
481 -509 0
-441 -509 -510 0
441 509 -510 0
441 -509 510 0
-441 509 510 0
-510 -508 -511 0
510 508 -511 0
510 -508 511 0
-510 508 511 0
-510 -508 512 0
510 -512 0
508 -512 0
-441 -509 513 0
441 -513 0
509 -513 0
512 513 -514 0
-512 514 0
-513 514 0
-42 -481 515 0
42 -515 0
481 -515 0
-447 -515 -516 0
447 515 -516 0
447 -515 516 0
-447 515 516 0
-516 -514 -517 0
516 514 -517 0
516 -514 517 0
-516 514 517 0
-516 -514 518 0
516 -518 0
514 -518 0
-447 -515 519 0
447 -519 0
515 -519 0
518 519 -520 0
-518 520 0
-519 520 0
-50 -481 521 0
50 -521 0
481 -521 0
-453 -521 -522 0
453 521 -522 0
453 -521 522 0
-453 521 522 0
-522 -520 -523 0
522 520 -523 0
522 -520 523 0
-522 520 523 0
-522 -520 524 0
522 -524 0
520 -524 0
-453 -521 525 0
453 -525 0
521 -525 0
524 525 -526 0
-524 526 0
-525 526 0
-58 -481 527 0
58 -527 0
481 -527 0
-459 -527 -528 0
459 527 -528 0
459 -527 528 0
-459 527 528 0
-528 -526 -529 0
528 526 -529 0
528 -526 529 0
-528 526 529 0
-528 -526 530 0
528 -530 0
526 -530 0
-459 -527 531 0
459 -531 0
527 -531 0
530 531 -532 0
-530 532 0
-531 532 0
-66 -481 533 0
66 -533 0
481 -533 0
-465 -533 -534 0
465 533 -534 0
465 -533 534 0
-465 533 534 0
-534 -532 -535 0
534 532 -535 0
534 -532 535 0
-534 532 535 0
-534 -532 536 0
534 -536 0
532 -536 0
-465 -533 537 0
465 -537 0
533 -537 0
536 537 -538 0
-536 538 0
-537 538 0
-74 -481 539 0
74 -539 0
481 -539 0
-471 -539 -540 0
471 539 -540 0
471 -539 540 0
-471 539 540 0
-540 -538 -541 0
540 538 -541 0
540 -538 541 0
-540 538 541 0
-540 -538 542 0
540 -542 0
538 -542 0
-471 -539 543 0
471 -543 0
539 -543 0
542 543 -544 0
-542 544 0
-543 544 0
-82 -481 545 0
82 -545 0
481 -545 0
-477 -545 -546 0
477 545 -546 0
477 -545 546 0
-477 545 546 0
-546 -544 -547 0
546 544 -547 0
546 -544 547 0
-546 544 547 0
-546 -544 548 0
546 -548 0
544 -548 0
-477 -545 549 0
477 -549 0
545 -549 0
548 549 -550 0
-548 550 0
-549 550 0
-90 -481 551 0
90 -551 0
481 -551 0
-480 -551 -552 0
480 551 -552 0
480 -551 552 0
-480 551 552 0
-552 -550 -553 0
552 550 -553 0
552 -550 553 0
-552 550 553 0
-552 -550 554 0
552 -554 0
550 -554 0
-480 -551 555 0
480 -555 0
551 -555 0
554 555 -556 0
-554 556 0
-555 556 0
-1 -557 558 0
1 -558 0
557 -558 0
-487 -558 -559 0
487 558 -559 0
487 -558 559 0
-487 558 559 0
-487 -558 560 0
487 -560 0
558 -560 0
-4 -557 561 0
4 -561 0
557 -561 0
-493 -561 -562 0
493 561 -562 0
493 -561 562 0
-493 561 562 0
-562 -560 -563 0
562 560 -563 0
562 -560 563 0
-562 560 563 0
-562 -560 564 0
562 -564 0
560 -564 0
-493 -561 565 0
493 -565 0
561 -565 0
564 565 -566 0
-564 566 0
-565 566 0
-10 -557 567 0
10 -567 0
557 -567 0
-499 -567 -568 0
499 567 -568 0
499 -567 568 0
-499 567 568 0
-568 -566 -569 0
568 566 -569 0
568 -566 569 0
-568 566 569 0
-568 -566 570 0
568 -570 0
566 -570 0
-499 -567 571 0
499 -571 0
567 -571 0
570 571 -572 0
-570 572 0
-571 572 0
-18 -557 573 0
18 -573 0
557 -573 0
-505 -573 -574 0
505 573 -574 0
505 -573 574 0
-505 573 574 0
-574 -572 -575 0
574 572 -575 0
574 -572 575 0
-574 572 575 0
-574 -572 576 0
574 -576 0
572 -576 0
-505 -573 577 0
505 -577 0
573 -577 0
576 577 -578 0
-576 578 0
-577 578 0
-26 -557 579 0
26 -579 0
557 -579 0
-511 -579 -580 0
511 579 -580 0
511 -579 580 0
-511 579 580 0
-580 -578 -581 0
580 578 -581 0
580 -578 581 0
-580 578 581 0
-580 -578 582 0
580 -582 0
578 -582 0
-511 -579 583 0
511 -583 0
579 -583 0
582 583 -584 0
-582 584 0
-583 584 0
-34 -557 585 0
34 -585 0
557 -585 0
-517 -585 -586 0
517 585 -586 0
517 -585 586 0
-517 585 586 0
-586 -584 -587 0
586 584 -587 0
586 -584 587 0
-586 584 587 0
-586 -584 588 0
586 -588 0
584 -588 0
-517 -585 589 0
517 -589 0
585 -589 0
588 589 -590 0
-588 590 0
-589 590 0
-42 -557 591 0
42 -591 0
557 -591 0
-523 -591 -592 0
523 591 -592 0
523 -591 592 0
-523 591 592 0
-592 -590 -593 0
592 590 -593 0
592 -590 593 0
-592 590 593 0
-592 -590 594 0
592 -594 0
590 -594 0
-523 -591 595 0
523 -595 0
591 -595 0
594 595 -596 0
-594 596 0
-595 596 0
-50 -557 597 0
50 -597 0
557 -597 0
-529 -597 -598 0
529 597 -598 0
529 -597 598 0
-529 597 598 0
-598 -596 -599 0
598 596 -599 0
598 -596 599 0
-598 596 599 0
-598 -596 600 0
598 -600 0
596 -600 0
-529 -597 601 0
529 -601 0
597 -601 0
600 601 -602 0
-600 602 0
-601 602 0
-58 -557 603 0
58 -603 0
557 -603 0
-535 -603 -604 0
535 603 -604 0
535 -603 604 0
-535 603 604 0
-604 -602 -605 0
604 602 -605 0
604 -602 605 0
-604 602 605 0
-604 -602 606 0
604 -606 0
602 -606 0
-535 -603 607 0
535 -607 0
603 -607 0
606 607 -608 0
-606 608 0
-607 608 0
-66 -557 609 0
66 -609 0
557 -609 0
-541 -609 -610 0
541 609 -610 0
541 -609 610 0
-541 609 610 0
-610 -608 -611 0
610 608 -611 0
610 -608 611 0
-610 608 611 0
-610 -608 612 0
610 -612 0
608 -612 0
-541 -609 613 0
541 -613 0
609 -613 0
612 613 -614 0
-612 614 0
-613 614 0
-74 -557 615 0
74 -615 0
557 -615 0
-547 -615 -616 0
547 615 -616 0
547 -615 616 0
-547 615 616 0
-616 -614 -617 0
616 614 -617 0
616 -614 617 0
-616 614 617 0
-616 -614 618 0
616 -618 0
614 -618 0
-547 -615 619 0
547 -619 0
615 -619 0
618 619 -620 0
-618 620 0
-619 620 0
-82 -557 621 0
82 -621 0
557 -621 0
-553 -621 -622 0
553 621 -622 0
553 -621 622 0
-553 621 622 0
-622 -620 -623 0
622 620 -623 0
622 -620 623 0
-622 620 623 0
-622 -620 624 0
622 -624 0
620 -624 0
-553 -621 625 0
553 -625 0
621 -625 0
624 625 -626 0
-624 626 0
-625 626 0
-90 -557 627 0
90 -627 0
557 -627 0
-556 -627 -628 0
556 627 -628 0
556 -627 628 0
-556 627 628 0
-628 -626 -629 0
628 626 -629 0
628 -626 629 0
-628 626 629 0
-628 -626 630 0
628 -630 0
626 -630 0
-556 -627 631 0
556 -631 0
627 -631 0
630 631 -632 0
-630 632 0
-631 632 0
-1 -633 634 0
1 -634 0
633 -634 0
-563 -634 -635 0
563 634 -635 0
563 -634 635 0
-563 634 635 0
-563 -634 636 0
563 -636 0
634 -636 0
-4 -633 637 0
4 -637 0
633 -637 0
-569 -637 -638 0
569 637 -638 0
569 -637 638 0
-569 637 638 0
-638 -636 -639 0
638 636 -639 0
638 -636 639 0
-638 636 639 0
-638 -636 640 0
638 -640 0
636 -640 0
-569 -637 641 0
569 -641 0
637 -641 0
640 641 -642 0
-640 642 0
-641 642 0
-10 -633 643 0
10 -643 0
633 -643 0
-575 -643 -644 0
575 643 -644 0
575 -643 644 0
-575 643 644 0
-644 -642 -645 0
644 642 -645 0
644 -642 645 0
-644 642 645 0
-644 -642 646 0
644 -646 0
642 -646 0
-575 -643 647 0
575 -647 0
643 -647 0
646 647 -648 0
-646 648 0
-647 648 0
-18 -633 649 0
18 -649 0
633 -649 0
-581 -649 -650 0
581 649 -650 0
581 -649 650 0
-581 649 650 0
-650 -648 -651 0
650 648 -651 0
650 -648 651 0
-650 648 651 0
-650 -648 652 0
650 -652 0
648 -652 0
-581 -649 653 0
581 -653 0
649 -653 0
652 653 -654 0
-652 654 0
-653 654 0
-26 -633 655 0
26 -655 0
633 -655 0
-587 -655 -656 0
587 655 -656 0
587 -655 656 0
-587 655 656 0
-656 -654 -657 0
656 654 -657 0
656 -654 657 0
-656 654 657 0
-656 -654 658 0
656 -658 0
654 -658 0
-587 -655 659 0
587 -659 0
655 -659 0
658 659 -660 0
-658 660 0
-659 660 0
-34 -633 661 0
34 -661 0
633 -661 0
-593 -661 -662 0
593 661 -662 0
593 -661 662 0
-593 661 662 0
-662 -660 -663 0
662 660 -663 0
662 -660 663 0
-662 660 663 0
-662 -660 664 0
662 -664 0
660 -664 0
-593 -661 665 0
593 -665 0
661 -665 0
664 665 -666 0
-664 666 0
-665 666 0
-42 -633 667 0
42 -667 0
633 -667 0
-599 -667 -668 0
599 667 -668 0
599 -667 668 0
-599 667 668 0
-668 -666 -669 0
668 666 -669 0
668 -666 669 0
-668 666 669 0
-668 -666 670 0
668 -670 0
666 -670 0
-599 -667 671 0
599 -671 0
667 -671 0
670 671 -672 0
-670 672 0
-671 672 0
-50 -633 673 0
50 -673 0
633 -673 0
-605 -673 -674 0
605 673 -674 0
605 -673 674 0
-605 673 674 0
-674 -672 -675 0
674 672 -675 0
674 -672 675 0
-674 672 675 0
-674 -672 676 0
674 -676 0
672 -676 0
-605 -673 677 0
605 -677 0
673 -677 0
676 677 -678 0
-676 678 0
-677 678 0
-58 -633 679 0
58 -679 0
633 -679 0
-611 -679 -680 0
611 679 -680 0
611 -679 680 0
-611 679 680 0
-680 -678 -681 0
680 678 -681 0
680 -678 681 0
-680 678 681 0
-680 -678 682 0
680 -682 0
678 -682 0
-611 -679 683 0
611 -683 0
679 -683 0
682 683 -684 0
-682 684 0
-683 684 0
-66 -633 685 0
66 -685 0
633 -685 0
-617 -685 -686 0
617 685 -686 0
617 -685 686 0
-617 685 686 0
-686 -684 -687 0
686 684 -687 0
686 -684 687 0
-686 684 687 0
-686 -684 688 0
686 -688 0
684 -688 0
-617 -685 689 0
617 -689 0
685 -689 0
688 689 -690 0
-688 690 0
-689 690 0
-74 -633 691 0
74 -691 0
633 -691 0
-623 -691 -692 0
623 691 -692 0
623 -691 692 0
-623 691 692 0
-692 -690 -693 0
692 690 -693 0
692 -690 693 0
-692 690 693 0
-692 -690 694 0
692 -694 0
690 -694 0
-623 -691 695 0
623 -695 0
691 -695 0
694 695 -696 0
-694 696 0
-695 696 0
-82 -633 697 0
82 -697 0
633 -697 0
-629 -697 -698 0
629 697 -698 0
629 -697 698 0
-629 697 698 0
-698 -696 -699 0
698 696 -699 0
698 -696 699 0
-698 696 699 0
-698 -696 700 0
698 -700 0
696 -700 0
-629 -697 701 0
629 -701 0
697 -701 0
700 701 -702 0
-700 702 0
-701 702 0
-90 -633 703 0
90 -703 0
633 -703 0
-632 -703 -704 0
632 703 -704 0
632 -703 704 0
-632 703 704 0
-704 -702 -705 0
704 702 -705 0
704 -702 705 0
-704 702 705 0
-704 -702 706 0
704 -706 0
702 -706 0
-632 -703 707 0
632 -707 0
703 -707 0
706 707 -708 0
-706 708 0
-707 708 0
-1 -709 710 0
1 -710 0
709 -710 0
-639 -710 -711 0
639 710 -711 0
639 -710 711 0
-639 710 711 0
-639 -710 712 0
639 -712 0
710 -712 0
-4 -709 713 0
4 -713 0
709 -713 0
-645 -713 -714 0
645 713 -714 0
645 -713 714 0
-645 713 714 0
-714 -712 -715 0
714 712 -715 0
714 -712 715 0
-714 712 715 0
-714 -712 716 0
714 -716 0
712 -716 0
-645 -713 717 0
645 -717 0
713 -717 0
716 717 -718 0
-716 718 0
-717 718 0
-10 -709 719 0
10 -719 0
709 -719 0
-651 -719 -720 0
651 719 -720 0
651 -719 720 0
-651 719 720 0
-720 -718 -721 0
720 718 -721 0
720 -718 721 0
-720 718 721 0
-720 -718 722 0
720 -722 0
718 -722 0
-651 -719 723 0
651 -723 0
719 -723 0
722 723 -724 0
-722 724 0
-723 724 0
-18 -709 725 0
18 -725 0
709 -725 0
-657 -725 -726 0
657 725 -726 0
657 -725 726 0
-657 725 726 0
-726 -724 -727 0
726 724 -727 0
726 -724 727 0
-726 724 727 0
-726 -724 728 0
726 -728 0
724 -728 0
-657 -725 729 0
657 -729 0
725 -729 0
728 729 -730 0
-728 730 0
-729 730 0
-26 -709 731 0
26 -731 0
709 -731 0
-663 -731 -732 0
663 731 -732 0
663 -731 732 0
-663 731 732 0
-732 -730 -733 0
732 730 -733 0
732 -730 733 0
-732 730 733 0
-732 -730 734 0
732 -734 0
730 -734 0
-663 -731 735 0
663 -735 0
731 -735 0
734 735 -736 0
-734 736 0
-735 736 0
-34 -709 737 0
34 -737 0
709 -737 0
-669 -737 -738 0
669 737 -738 0
669 -737 738 0
-669 737 738 0
-738 -736 -739 0
738 736 -739 0
738 -736 739 0
-738 736 739 0
-738 -736 740 0
738 -740 0
736 -740 0
-669 -737 741 0
669 -741 0
737 -741 0
740 741 -742 0
-740 742 0
-741 742 0
-42 -709 743 0
42 -743 0
709 -743 0
-675 -743 -744 0
675 743 -744 0
675 -743 744 0
-675 743 744 0
-744 -742 -745 0
744 742 -745 0
744 -742 745 0
-744 742 745 0
-744 -742 746 0
744 -746 0
742 -746 0
-675 -743 747 0
675 -747 0
743 -747 0
746 747 -748 0
-746 748 0
-747 748 0
-50 -709 749 0
50 -749 0
709 -749 0
-681 -749 -750 0
681 749 -750 0
681 -749 750 0
-681 749 750 0
-750 -748 -751 0
750 748 -751 0
750 -748 751 0
-750 748 751 0
-750 -748 752 0
750 -752 0
748 -752 0
-681 -749 753 0
681 -753 0
749 -753 0
752 753 -754 0
-752 754 0
-753 754 0
-58 -709 755 0
58 -755 0
709 -755 0
-687 -755 -756 0
687 755 -756 0
687 -755 756 0
-687 755 756 0
-756 -754 -757 0
756 754 -757 0
756 -754 757 0
-756 754 757 0
-756 -754 758 0
756 -758 0
754 -758 0
-687 -755 759 0
687 -759 0
755 -759 0
758 759 -760 0
-758 760 0
-759 760 0
-66 -709 761 0
66 -761 0
709 -761 0
-693 -761 -762 0
693 761 -762 0
693 -761 762 0
-693 761 762 0
-762 -760 -763 0
762 760 -763 0
762 -760 763 0
-762 760 763 0
-762 -760 764 0
762 -764 0
760 -764 0
-693 -761 765 0
693 -765 0
761 -765 0
764 765 -766 0
-764 766 0
-765 766 0
-74 -709 767 0
74 -767 0
709 -767 0
-699 -767 -768 0
699 767 -768 0
699 -767 768 0
-699 767 768 0
-768 -766 -769 0
768 766 -769 0
768 -766 769 0
-768 766 769 0
-768 -766 770 0
768 -770 0
766 -770 0
-699 -767 771 0
699 -771 0
767 -771 0
770 771 -772 0
-770 772 0
-771 772 0
-82 -709 773 0
82 -773 0
709 -773 0
-705 -773 -774 0
705 773 -774 0
705 -773 774 0
-705 773 774 0
-774 -772 -775 0
774 772 -775 0
774 -772 775 0
-774 772 775 0
-774 -772 776 0
774 -776 0
772 -776 0
-705 -773 777 0
705 -777 0
773 -777 0
776 777 -778 0
-776 778 0
-777 778 0
-90 -709 779 0
90 -779 0
709 -779 0
-708 -779 -780 0
708 779 -780 0
708 -779 780 0
-708 779 780 0
-780 -778 -781 0
780 778 -781 0
780 -778 781 0
-780 778 781 0
-780 -778 782 0
780 -782 0
778 -782 0
-708 -779 783 0
708 -783 0
779 -783 0
782 783 -784 0
-782 784 0
-783 784 0
-1 -785 786 0
1 -786 0
785 -786 0
-715 -786 -787 0
715 786 -787 0
715 -786 787 0
-715 786 787 0
-715 -786 788 0
715 -788 0
786 -788 0
-4 -785 789 0
4 -789 0
785 -789 0
-721 -789 -790 0
721 789 -790 0
721 -789 790 0
-721 789 790 0
-790 -788 -791 0
790 788 -791 0
790 -788 791 0
-790 788 791 0
-790 -788 792 0
790 -792 0
788 -792 0
-721 -789 793 0
721 -793 0
789 -793 0
792 793 -794 0
-792 794 0
-793 794 0
-10 -785 795 0
10 -795 0
785 -795 0
-727 -795 -796 0
727 795 -796 0
727 -795 796 0
-727 795 796 0
-796 -794 -797 0
796 794 -797 0
796 -794 797 0
-796 794 797 0
-796 -794 798 0
796 -798 0
794 -798 0
-727 -795 799 0
727 -799 0
795 -799 0
798 799 -800 0
-798 800 0
-799 800 0
-18 -785 801 0
18 -801 0
785 -801 0
-733 -801 -802 0
733 801 -802 0
733 -801 802 0
-733 801 802 0
-802 -800 -803 0
802 800 -803 0
802 -800 803 0
-802 800 803 0
-802 -800 804 0
802 -804 0
800 -804 0
-733 -801 805 0
733 -805 0
801 -805 0
804 805 -806 0
-804 806 0
-805 806 0
-26 -785 807 0
26 -807 0
785 -807 0
-739 -807 -808 0
739 807 -808 0
739 -807 808 0
-739 807 808 0
-808 -806 -809 0
808 806 -809 0
808 -806 809 0
-808 806 809 0
-808 -806 810 0
808 -810 0
806 -810 0
-739 -807 811 0
739 -811 0
807 -811 0
810 811 -812 0
-810 812 0
-811 812 0
-34 -785 813 0
34 -813 0
785 -813 0
-745 -813 -814 0
745 813 -814 0
745 -813 814 0
-745 813 814 0
-814 -812 -815 0
814 812 -815 0
814 -812 815 0
-814 812 815 0
-814 -812 816 0
814 -816 0
812 -816 0
-745 -813 817 0
745 -817 0
813 -817 0
816 817 -818 0
-816 818 0
-817 818 0
-42 -785 819 0
42 -819 0
785 -819 0
-751 -819 -820 0
751 819 -820 0
751 -819 820 0
-751 819 820 0
-820 -818 -821 0
820 818 -821 0
820 -818 821 0
-820 818 821 0
-820 -818 822 0
820 -822 0
818 -822 0
-751 -819 823 0
751 -823 0
819 -823 0
822 823 -824 0
-822 824 0
-823 824 0
-50 -785 825 0
50 -825 0
785 -825 0
-757 -825 -826 0
757 825 -826 0
757 -825 826 0
-757 825 826 0
-826 -824 -827 0
826 824 -827 0
826 -824 827 0
-826 824 827 0
-826 -824 828 0
826 -828 0
824 -828 0
-757 -825 829 0
757 -829 0
825 -829 0
828 829 -830 0
-828 830 0
-829 830 0
-58 -785 831 0
58 -831 0
785 -831 0
-763 -831 -832 0
763 831 -832 0
763 -831 832 0
-763 831 832 0
-832 -830 -833 0
832 830 -833 0
832 -830 833 0
-832 830 833 0
-832 -830 834 0
832 -834 0
830 -834 0
-763 -831 835 0
763 -835 0
831 -835 0
834 835 -836 0
-834 836 0
-835 836 0
-66 -785 837 0
66 -837 0
785 -837 0
-769 -837 -838 0
769 837 -838 0
769 -837 838 0
-769 837 838 0
-838 -836 -839 0
838 836 -839 0
838 -836 839 0
-838 836 839 0
-838 -836 840 0
838 -840 0
836 -840 0
-769 -837 841 0
769 -841 0
837 -841 0
840 841 -842 0
-840 842 0
-841 842 0
-74 -785 843 0
74 -843 0
785 -843 0
-775 -843 -844 0
775 843 -844 0
775 -843 844 0
-775 843 844 0
-844 -842 -845 0
844 842 -845 0
844 -842 845 0
-844 842 845 0
-844 -842 846 0
844 -846 0
842 -846 0
-775 -843 847 0
775 -847 0
843 -847 0
846 847 -848 0
-846 848 0
-847 848 0
-82 -785 849 0
82 -849 0
785 -849 0
-781 -849 -850 0
781 849 -850 0
781 -849 850 0
-781 849 850 0
-850 -848 -851 0
850 848 -851 0
850 -848 851 0
-850 848 851 0
-850 -848 852 0
850 -852 0
848 -852 0
-781 -849 853 0
781 -853 0
849 -853 0
852 853 -854 0
-852 854 0
-853 854 0
-90 -785 855 0
90 -855 0
785 -855 0
-784 -855 -856 0
784 855 -856 0
784 -855 856 0
-784 855 856 0
-856 -854 -857 0
856 854 -857 0
856 -854 857 0
-856 854 857 0
-856 -854 858 0
856 -858 0
854 -858 0
-784 -855 859 0
784 -859 0
855 -859 0
858 859 -860 0
-858 860 0
-859 860 0
-1 -861 862 0
1 -862 0
861 -862 0
-791 -862 -863 0
791 862 -863 0
791 -862 863 0
-791 862 863 0
-791 -862 864 0
791 -864 0
862 -864 0
-4 -861 865 0
4 -865 0
861 -865 0
-797 -865 -866 0
797 865 -866 0
797 -865 866 0
-797 865 866 0
-866 -864 -867 0
866 864 -867 0
866 -864 867 0
-866 864 867 0
-866 -864 868 0
866 -868 0
864 -868 0
-797 -865 869 0
797 -869 0
865 -869 0
868 869 -870 0
-868 870 0
-869 870 0
-10 -861 871 0
10 -871 0
861 -871 0
-803 -871 -872 0
803 871 -872 0
803 -871 872 0
-803 871 872 0
-872 -870 -873 0
872 870 -873 0
872 -870 873 0
-872 870 873 0
-872 -870 874 0
872 -874 0
870 -874 0
-803 -871 875 0
803 -875 0
871 -875 0
874 875 -876 0
-874 876 0
-875 876 0
-18 -861 877 0
18 -877 0
861 -877 0
-809 -877 -878 0
809 877 -878 0
809 -877 878 0
-809 877 878 0
-878 -876 -879 0
878 876 -879 0
878 -876 879 0
-878 876 879 0
-878 -876 880 0
878 -880 0
876 -880 0
-809 -877 881 0
809 -881 0
877 -881 0
880 881 -882 0
-880 882 0
-881 882 0
-26 -861 883 0
26 -883 0
861 -883 0
-815 -883 -884 0
815 883 -884 0
815 -883 884 0
-815 883 884 0
-884 -882 -885 0
884 882 -885 0
884 -882 885 0
-884 882 885 0
-884 -882 886 0
884 -886 0
882 -886 0
-815 -883 887 0
815 -887 0
883 -887 0
886 887 -888 0
-886 888 0
-887 888 0
-34 -861 889 0
34 -889 0
861 -889 0
-821 -889 -890 0
821 889 -890 0
821 -889 890 0
-821 889 890 0
-890 -888 -891 0
890 888 -891 0
890 -888 891 0
-890 888 891 0
-890 -888 892 0
890 -892 0
888 -892 0
-821 -889 893 0
821 -893 0
889 -893 0
892 893 -894 0
-892 894 0
-893 894 0
-42 -861 895 0
42 -895 0
861 -895 0
-827 -895 -896 0
827 895 -896 0
827 -895 896 0
-827 895 896 0
-896 -894 -897 0
896 894 -897 0
896 -894 897 0
-896 894 897 0
-896 -894 898 0
896 -898 0
894 -898 0
-827 -895 899 0
827 -899 0
895 -899 0
898 899 -900 0
-898 900 0
-899 900 0
-50 -861 901 0
50 -901 0
861 -901 0
-833 -901 -902 0
833 901 -902 0
833 -901 902 0
-833 901 902 0
-902 -900 -903 0
902 900 -903 0
902 -900 903 0
-902 900 903 0
-902 -900 904 0
902 -904 0
900 -904 0
-833 -901 905 0
833 -905 0
901 -905 0
904 905 -906 0
-904 906 0
-905 906 0
-58 -861 907 0
58 -907 0
861 -907 0
-839 -907 -908 0
839 907 -908 0
839 -907 908 0
-839 907 908 0
-908 -906 -909 0
908 906 -909 0
908 -906 909 0
-908 906 909 0
-908 -906 910 0
908 -910 0
906 -910 0
-839 -907 911 0
839 -911 0
907 -911 0
910 911 -912 0
-910 912 0
-911 912 0
-66 -861 913 0
66 -913 0
861 -913 0
-845 -913 -914 0
845 913 -914 0
845 -913 914 0
-845 913 914 0
-914 -912 -915 0
914 912 -915 0
914 -912 915 0
-914 912 915 0
-914 -912 916 0
914 -916 0
912 -916 0
-845 -913 917 0
845 -917 0
913 -917 0
916 917 -918 0
-916 918 0
-917 918 0
-74 -861 919 0
74 -919 0
861 -919 0
-851 -919 -920 0
851 919 -920 0
851 -919 920 0
-851 919 920 0
-920 -918 -921 0
920 918 -921 0
920 -918 921 0
-920 918 921 0
-920 -918 922 0
920 -922 0
918 -922 0
-851 -919 923 0
851 -923 0
919 -923 0
922 923 -924 0
-922 924 0
-923 924 0
-82 -861 925 0
82 -925 0
861 -925 0
-857 -925 -926 0
857 925 -926 0
857 -925 926 0
-857 925 926 0
-926 -924 -927 0
926 924 -927 0
926 -924 927 0
-926 924 927 0
-926 -924 928 0
926 -928 0
924 -928 0
-857 -925 929 0
857 -929 0
925 -929 0
928 929 -930 0
-928 930 0
-929 930 0
-90 -861 931 0
90 -931 0
861 -931 0
-860 -931 -932 0
860 931 -932 0
860 -931 932 0
-860 931 932 0
-932 -930 -933 0
932 930 -933 0
932 -930 933 0
-932 930 933 0
-932 -930 934 0
932 -934 0
930 -934 0
-860 -931 935 0
860 -935 0
931 -935 0
934 935 -936 0
-934 936 0
-935 936 0
3 0
-8 0
103 0
179 0
-255 0
331 0
-407 0
-483 0
-559 0
-635 0
-711 0
-787 0
-863 0
867 0
-873 0
-879 0
885 0
-891 0
-897 0
-903 0
-909 0
-915 0
-921 0
-927 0
933 0
-936 0
