p cnf 1092 3570
-1 -2 3 0
1 -3 0
2 -3 0
-4 -2 5 0
4 -5 0
2 -5 0
-1 -6 7 0
1 -7 0
6 -7 0
-5 -7 -8 0
5 7 -8 0
5 -7 8 0
-5 7 8 0
-5 -7 9 0
5 -9 0
7 -9 0
-10 -2 11 0
10 -11 0
2 -11 0
-4 -6 12 0
4 -12 0
6 -12 0
-11 -12 -13 0
11 12 -13 0
11 -12 13 0
-11 12 13 0
-13 -9 -14 0
13 9 -14 0
13 -9 14 0
-13 9 14 0
-13 -9 15 0
13 -15 0
9 -15 0
-11 -12 16 0
11 -16 0
12 -16 0
15 16 -17 0
-15 17 0
-16 17 0
-18 -2 19 0
18 -19 0
2 -19 0
-10 -6 20 0
10 -20 0
6 -20 0
-19 -20 -21 0
19 20 -21 0
19 -20 21 0
-19 20 21 0
-21 -17 -22 0
21 17 -22 0
21 -17 22 0
-21 17 22 0
-21 -17 23 0
21 -23 0
17 -23 0
-19 -20 24 0
19 -24 0
20 -24 0
23 24 -25 0
-23 25 0
-24 25 0
-26 -2 27 0
26 -27 0
2 -27 0
-18 -6 28 0
18 -28 0
6 -28 0
-27 -28 -29 0
27 28 -29 0
27 -28 29 0
-27 28 29 0
-29 -25 -30 0
29 25 -30 0
29 -25 30 0
-29 25 30 0
-29 -25 31 0
29 -31 0
25 -31 0
-27 -28 32 0
27 -32 0
28 -32 0
31 32 -33 0
-31 33 0
-32 33 0
-34 -2 35 0
34 -35 0
2 -35 0
-26 -6 36 0
26 -36 0
6 -36 0
-35 -36 -37 0
35 36 -37 0
35 -36 37 0
-35 36 37 0
-37 -33 -38 0
37 33 -38 0
37 -33 38 0
-37 33 38 0
-37 -33 39 0
37 -39 0
33 -39 0
-35 -36 40 0
35 -40 0
36 -40 0
39 40 -41 0
-39 41 0
-40 41 0
-42 -2 43 0
42 -43 0
2 -43 0
-34 -6 44 0
34 -44 0
6 -44 0
-43 -44 -45 0
43 44 -45 0
43 -44 45 0
-43 44 45 0
-45 -41 -46 0
45 41 -46 0
45 -41 46 0
-45 41 46 0
-45 -41 47 0
45 -47 0
41 -47 0
-43 -44 48 0
43 -48 0
44 -48 0
47 48 -49 0
-47 49 0
-48 49 0
-50 -2 51 0
50 -51 0
2 -51 0
-42 -6 52 0
42 -52 0
6 -52 0
-51 -52 -53 0
51 52 -53 0
51 -52 53 0
-51 52 53 0
-53 -49 -54 0
53 49 -54 0
53 -49 54 0
-53 49 54 0
-53 -49 55 0
53 -55 0
49 -55 0
-51 -52 56 0
51 -56 0
52 -56 0
55 56 -57 0
-55 57 0
-56 57 0
-58 -2 59 0
58 -59 0
2 -59 0
-50 -6 60 0
50 -60 0
6 -60 0
-59 -60 -61 0
59 60 -61 0
59 -60 61 0
-59 60 61 0
-61 -57 -62 0
61 57 -62 0
61 -57 62 0
-61 57 62 0
-61 -57 63 0
61 -63 0
57 -63 0
-59 -60 64 0
59 -64 0
60 -64 0
63 64 -65 0
-63 65 0
-64 65 0
-66 -2 67 0
66 -67 0
2 -67 0
-58 -6 68 0
58 -68 0
6 -68 0
-67 -68 -69 0
67 68 -69 0
67 -68 69 0
-67 68 69 0
-69 -65 -70 0
69 65 -70 0
69 -65 70 0
-69 65 70 0
-69 -65 71 0
69 -71 0
65 -71 0
-67 -68 72 0
67 -72 0
68 -72 0
71 72 -73 0
-71 73 0
-72 73 0
-74 -2 75 0
74 -75 0
2 -75 0
-66 -6 76 0
66 -76 0
6 -76 0
-75 -76 -77 0
75 76 -77 0
75 -76 77 0
-75 76 77 0
-77 -73 -78 0
77 73 -78 0
77 -73 78 0
-77 73 78 0
-77 -73 79 0
77 -79 0
73 -79 0
-75 -76 80 0
75 -80 0
76 -80 0
79 80 -81 0
-79 81 0
-80 81 0
-82 -2 83 0
82 -83 0
2 -83 0
-74 -6 84 0
74 -84 0
6 -84 0
-83 -84 -85 0
83 84 -85 0
83 -84 85 0
-83 84 85 0
-85 -81 -86 0
85 81 -86 0
85 -81 86 0
-85 81 86 0
-85 -81 87 0
85 -87 0
81 -87 0
-83 -84 88 0
83 -88 0
84 -88 0
87 88 -89 0
-87 89 0
-88 89 0
-90 -2 91 0
90 -91 0
2 -91 0
-82 -6 92 0
82 -92 0
6 -92 0
-91 -92 -93 0
91 92 -93 0
91 -92 93 0
-91 92 93 0
-93 -89 -94 0
93 89 -94 0
93 -89 94 0
-93 89 94 0
-93 -89 95 0
93 -95 0
89 -95 0
-91 -92 96 0
91 -96 0
92 -96 0
95 96 -97 0
-95 97 0
-96 97 0
-98 -2 99 0
98 -99 0
2 -99 0
-90 -6 100 0
90 -100 0
6 -100 0
-99 -100 -101 0
99 100 -101 0
99 -100 101 0
-99 100 101 0
-101 -97 -102 0
101 97 -102 0
101 -97 102 0
-101 97 102 0
-101 -97 103 0
101 -103 0
97 -103 0
-99 -100 104 0
99 -104 0
100 -104 0
103 104 -105 0
-103 105 0
-104 105 0
-98 -6 106 0
98 -106 0
6 -106 0
-105 -106 -107 0
105 106 -107 0
105 -106 107 0
-105 106 107 0
-105 -106 108 0
105 -108 0
106 -108 0
-1 -109 110 0
1 -110 0
109 -110 0
-14 -110 -111 0
14 110 -111 0
14 -110 111 0
-14 110 111 0
-14 -110 112 0
14 -112 0
110 -112 0
-4 -109 113 0
4 -113 0
109 -113 0
-22 -113 -114 0
22 113 -114 0
22 -113 114 0
-22 113 114 0
-114 -112 -115 0
114 112 -115 0
114 -112 115 0
-114 112 115 0
-114 -112 116 0
114 -116 0
112 -116 0
-22 -113 117 0
22 -117 0
113 -117 0
116 117 -118 0
-116 118 0
-117 118 0
-10 -109 119 0
10 -119 0
109 -119 0
-30 -119 -120 0
30 119 -120 0
30 -119 120 0
-30 119 120 0
-120 -118 -121 0
120 118 -121 0
120 -118 121 0
-120 118 121 0
-120 -118 122 0
120 -122 0
118 -122 0
-30 -119 123 0
30 -123 0
119 -123 0
122 123 -124 0
-122 124 0
-123 124 0
-18 -109 125 0
18 -125 0
109 -125 0
-38 -125 -126 0
38 125 -126 0
38 -125 126 0
-38 125 126 0
-126 -124 -127 0
126 124 -127 0
126 -124 127 0
-126 124 127 0
-126 -124 128 0
126 -128 0
124 -128 0
-38 -125 129 0
38 -129 0
125 -129 0
128 129 -130 0
-128 130 0
-129 130 0
-26 -109 131 0
26 -131 0
109 -131 0
-46 -131 -132 0
46 131 -132 0
46 -131 132 0
-46 131 132 0
-132 -130 -133 0
132 130 -133 0
132 -130 133 0
-132 130 133 0
-132 -130 134 0
132 -134 0
130 -134 0
-46 -131 135 0
46 -135 0
131 -135 0
134 135 -136 0
-134 136 0
-135 136 0
-34 -109 137 0
34 -137 0
109 -137 0
-54 -137 -138 0
54 137 -138 0
54 -137 138 0
-54 137 138 0
-138 -136 -139 0
138 136 -139 0
138 -136 139 0
-138 136 139 0
-138 -136 140 0
138 -140 0
136 -140 0
-54 -137 141 0
54 -141 0
137 -141 0
140 141 -142 0
-140 142 0
-141 142 0
-42 -109 143 0
42 -143 0
109 -143 0
-62 -143 -144 0
62 143 -144 0
62 -143 144 0
-62 143 144 0
-144 -142 -145 0
144 142 -145 0
144 -142 145 0
-144 142 145 0
-144 -142 146 0
144 -146 0
142 -146 0
-62 -143 147 0
62 -147 0
143 -147 0
146 147 -148 0
-146 148 0
-147 148 0
-50 -109 149 0
50 -149 0
109 -149 0
-70 -149 -150 0
70 149 -150 0
70 -149 150 0
-70 149 150 0
-150 -148 -151 0
150 148 -151 0
150 -148 151 0
-150 148 151 0
-150 -148 152 0
150 -152 0
148 -152 0
-70 -149 153 0
70 -153 0
149 -153 0
152 153 -154 0
-152 154 0
-153 154 0
-58 -109 155 0
58 -155 0
109 -155 0
-78 -155 -156 0
78 155 -156 0
78 -155 156 0
-78 155 156 0
-156 -154 -157 0
156 154 -157 0
156 -154 157 0
-156 154 157 0
-156 -154 158 0
156 -158 0
154 -158 0
-78 -155 159 0
78 -159 0
155 -159 0
158 159 -160 0
-158 160 0
-159 160 0
-66 -109 161 0
66 -161 0
109 -161 0
-86 -161 -162 0
86 161 -162 0
86 -161 162 0
-86 161 162 0
-162 -160 -163 0
162 160 -163 0
162 -160 163 0
-162 160 163 0
-162 -160 164 0
162 -164 0
160 -164 0
-86 -161 165 0
86 -165 0
161 -165 0
164 165 -166 0
-164 166 0
-165 166 0
-74 -109 167 0
74 -167 0
109 -167 0
-94 -167 -168 0
94 167 -168 0
94 -167 168 0
-94 167 168 0
-168 -166 -169 0
168 166 -169 0
168 -166 169 0
-168 166 169 0
-168 -166 170 0
168 -170 0
166 -170 0
-94 -167 171 0
94 -171 0
167 -171 0
170 171 -172 0
-170 172 0
-171 172 0
-82 -109 173 0
82 -173 0
109 -173 0
-102 -173 -174 0
102 173 -174 0
102 -173 174 0
-102 173 174 0
-174 -172 -175 0
174 172 -175 0
174 -172 175 0
-174 172 175 0
-174 -172 176 0
174 -176 0
172 -176 0
-102 -173 177 0
102 -177 0
173 -177 0
176 177 -178 0
-176 178 0
-177 178 0
-90 -109 179 0
90 -179 0
109 -179 0
-107 -179 -180 0
107 179 -180 0
107 -179 180 0
-107 179 180 0
-180 -178 -181 0
180 178 -181 0
180 -178 181 0
-180 178 181 0
-180 -178 182 0
180 -182 0
178 -182 0
-107 -179 183 0
107 -183 0
179 -183 0
182 183 -184 0
-182 184 0
-183 184 0
-98 -109 185 0
98 -185 0
109 -185 0
-108 -185 -186 0
108 185 -186 0
108 -185 186 0
-108 185 186 0
-186 -184 -187 0
186 184 -187 0
186 -184 187 0
-186 184 187 0
-186 -184 188 0
186 -188 0
184 -188 0
-108 -185 189 0
108 -189 0
185 -189 0
188 189 -190 0
-188 190 0
-189 190 0
-1 -191 192 0
1 -192 0
191 -192 0
-115 -192 -193 0
115 192 -193 0
115 -192 193 0
-115 192 193 0
-115 -192 194 0
115 -194 0
192 -194 0
-4 -191 195 0
4 -195 0
191 -195 0
-121 -195 -196 0
121 195 -196 0
121 -195 196 0
-121 195 196 0
-196 -194 -197 0
196 194 -197 0
196 -194 197 0
-196 194 197 0
-196 -194 198 0
196 -198 0
194 -198 0
-121 -195 199 0
121 -199 0
195 -199 0
198 199 -200 0
-198 200 0
-199 200 0
-10 -191 201 0
10 -201 0
191 -201 0
-127 -201 -202 0
127 201 -202 0
127 -201 202 0
-127 201 202 0
-202 -200 -203 0
202 200 -203 0
202 -200 203 0
-202 200 203 0
-202 -200 204 0
202 -204 0
200 -204 0
-127 -201 205 0
127 -205 0
201 -205 0
204 205 -206 0
-204 206 0
-205 206 0
-18 -191 207 0
18 -207 0
191 -207 0
-133 -207 -208 0
133 207 -208 0
133 -207 208 0
-133 207 208 0
-208 -206 -209 0
208 206 -209 0
208 -206 209 0
-208 206 209 0
-208 -206 210 0
208 -210 0
206 -210 0
-133 -207 211 0
133 -211 0
207 -211 0
210 211 -212 0
-210 212 0
-211 212 0
-26 -191 213 0
26 -213 0
191 -213 0
-139 -213 -214 0
139 213 -214 0
139 -213 214 0
-139 213 214 0
-214 -212 -215 0
214 212 -215 0
214 -212 215 0
-214 212 215 0
-214 -212 216 0
214 -216 0
212 -216 0
-139 -213 217 0
139 -217 0
213 -217 0
216 217 -218 0
-216 218 0
-217 218 0
-34 -191 219 0
34 -219 0
191 -219 0
-145 -219 -220 0
145 219 -220 0
145 -219 220 0
-145 219 220 0
-220 -218 -221 0
220 218 -221 0
220 -218 221 0
-220 218 221 0
-220 -218 222 0
220 -222 0
218 -222 0
-145 -219 223 0
145 -223 0
219 -223 0
222 223 -224 0
-222 224 0
-223 224 0
-42 -191 225 0
42 -225 0
191 -225 0
-151 -225 -226 0
151 225 -226 0
151 -225 226 0
-151 225 226 0
-226 -224 -227 0
226 224 -227 0
226 -224 227 0
-226 224 227 0
-226 -224 228 0
226 -228 0
224 -228 0
-151 -225 229 0
151 -229 0
225 -229 0
228 229 -230 0
-228 230 0
-229 230 0
-50 -191 231 0
50 -231 0
191 -231 0
-157 -231 -232 0
157 231 -232 0
157 -231 232 0
-157 231 232 0
-232 -230 -233 0
232 230 -233 0
232 -230 233 0
-232 230 233 0
-232 -230 234 0
232 -234 0
230 -234 0
-157 -231 235 0
157 -235 0
231 -235 0
234 235 -236 0
-234 236 0
-235 236 0
-58 -191 237 0
58 -237 0
191 -237 0
-163 -237 -238 0
163 237 -238 0
163 -237 238 0
-163 237 238 0
-238 -236 -239 0
238 236 -239 0
238 -236 239 0
-238 236 239 0
-238 -236 240 0
238 -240 0
236 -240 0
-163 -237 241 0
163 -241 0
237 -241 0
240 241 -242 0
-240 242 0
-241 242 0
-66 -191 243 0
66 -243 0
191 -243 0
-169 -243 -244 0
169 243 -244 0
169 -243 244 0
-169 243 244 0
-244 -242 -245 0
244 242 -245 0
244 -242 245 0
-244 242 245 0
-244 -242 246 0
244 -246 0
242 -246 0
-169 -243 247 0
169 -247 0
243 -247 0
246 247 -248 0
-246 248 0
-247 248 0
-74 -191 249 0
74 -249 0
191 -249 0
-175 -249 -250 0
175 249 -250 0
175 -249 250 0
-175 249 250 0
-250 -248 -251 0
250 248 -251 0
250 -248 251 0
-250 248 251 0
-250 -248 252 0
250 -252 0
248 -252 0
-175 -249 253 0
175 -253 0
249 -253 0
252 253 -254 0
-252 254 0
-253 254 0
-82 -191 255 0
82 -255 0
191 -255 0
-181 -255 -256 0
181 255 -256 0
181 -255 256 0
-181 255 256 0
-256 -254 -257 0
256 254 -257 0
256 -254 257 0
-256 254 257 0
-256 -254 258 0
256 -258 0
254 -258 0
-181 -255 259 0
181 -259 0
255 -259 0
258 259 -260 0
-258 260 0
-259 260 0
-90 -191 261 0
90 -261 0
191 -261 0
-187 -261 -262 0
187 261 -262 0
187 -261 262 0
-187 261 262 0
-262 -260 -263 0
262 260 -263 0
262 -260 263 0
-262 260 263 0
-262 -260 264 0
262 -264 0
260 -264 0
-187 -261 265 0
187 -265 0
261 -265 0
264 265 -266 0
-264 266 0
-265 266 0
-98 -191 267 0
98 -267 0
191 -267 0
-190 -267 -268 0
190 267 -268 0
190 -267 268 0
-190 267 268 0
-268 -266 -269 0
268 266 -269 0
268 -266 269 0
-268 266 269 0
-268 -266 270 0
268 -270 0
266 -270 0
-190 -267 271 0
190 -271 0
267 -271 0
270 271 -272 0
-270 272 0
-271 272 0
-1 -273 274 0
1 -274 0
273 -274 0
-197 -274 -275 0
197 274 -275 0
197 -274 275 0
-197 274 275 0
-197 -274 276 0
197 -276 0
274 -276 0
-4 -273 277 0
4 -277 0
273 -277 0
-203 -277 -278 0
203 277 -278 0
203 -277 278 0
-203 277 278 0
-278 -276 -279 0
278 276 -279 0
278 -276 279 0
-278 276 279 0
-278 -276 280 0
278 -280 0
276 -280 0
-203 -277 281 0
203 -281 0
277 -281 0
280 281 -282 0
-280 282 0
-281 282 0
-10 -273 283 0
10 -283 0
273 -283 0
-209 -283 -284 0
209 283 -284 0
209 -283 284 0
-209 283 284 0
-284 -282 -285 0
284 282 -285 0
284 -282 285 0
-284 282 285 0
-284 -282 286 0
284 -286 0
282 -286 0
-209 -283 287 0
209 -287 0
283 -287 0
286 287 -288 0
-286 288 0
-287 288 0
-18 -273 289 0
18 -289 0
273 -289 0
-215 -289 -290 0
215 289 -290 0
215 -289 290 0
-215 289 290 0
-290 -288 -291 0
290 288 -291 0
290 -288 291 0
-290 288 291 0
-290 -288 292 0
290 -292 0
288 -292 0
-215 -289 293 0
215 -293 0
289 -293 0
292 293 -294 0
-292 294 0
-293 294 0
-26 -273 295 0
26 -295 0
273 -295 0
-221 -295 -296 0
221 295 -296 0
221 -295 296 0
-221 295 296 0
-296 -294 -297 0
296 294 -297 0
296 -294 297 0
-296 294 297 0
-296 -294 298 0
296 -298 0
294 -298 0
-221 -295 299 0
221 -299 0
295 -299 0
298 299 -300 0
-298 300 0
-299 300 0
-34 -273 301 0
34 -301 0
273 -301 0
-227 -301 -302 0
227 301 -302 0
227 -301 302 0
-227 301 302 0
-302 -300 -303 0
302 300 -303 0
302 -300 303 0
-302 300 303 0
-302 -300 304 0
302 -304 0
300 -304 0
-227 -301 305 0
227 -305 0
301 -305 0
304 305 -306 0
-304 306 0
-305 306 0
-42 -273 307 0
42 -307 0
273 -307 0
-233 -307 -308 0
233 307 -308 0
233 -307 308 0
-233 307 308 0
-308 -306 -309 0
308 306 -309 0
308 -306 309 0
-308 306 309 0
-308 -306 310 0
308 -310 0
306 -310 0
-233 -307 311 0
233 -311 0
307 -311 0
310 311 -312 0
-310 312 0
-311 312 0
-50 -273 313 0
50 -313 0
273 -313 0
-239 -313 -314 0
239 313 -314 0
239 -313 314 0
-239 313 314 0
-314 -312 -315 0
314 312 -315 0
314 -312 315 0
-314 312 315 0
-314 -312 316 0
314 -316 0
312 -316 0
-239 -313 317 0
239 -317 0
313 -317 0
316 317 -318 0
-316 318 0
-317 318 0
-58 -273 319 0
58 -319 0
273 -319 0
-245 -319 -320 0
245 319 -320 0
245 -319 320 0
-245 319 320 0
-320 -318 -321 0
320 318 -321 0
320 -318 321 0
-320 318 321 0
-320 -318 322 0
320 -322 0
318 -322 0
-245 -319 323 0
245 -323 0
319 -323 0
322 323 -324 0
-322 324 0
-323 324 0
-66 -273 325 0
66 -325 0
273 -325 0
-251 -325 -326 0
251 325 -326 0
251 -325 326 0
-251 325 326 0
-326 -324 -327 0
326 324 -327 0
326 -324 327 0
-326 324 327 0
-326 -324 328 0
326 -328 0
324 -328 0
-251 -325 329 0
251 -329 0
325 -329 0
328 329 -330 0
-328 330 0
-329 330 0
-74 -273 331 0
74 -331 0
273 -331 0
-257 -331 -332 0
257 331 -332 0
257 -331 332 0
-257 331 332 0
-332 -330 -333 0
332 330 -333 0
332 -330 333 0
-332 330 333 0
-332 -330 334 0
332 -334 0
330 -334 0
-257 -331 335 0
257 -335 0
331 -335 0
334 335 -336 0
-334 336 0
-335 336 0
-82 -273 337 0
82 -337 0
273 -337 0
-263 -337 -338 0
263 337 -338 0
263 -337 338 0
-263 337 338 0
-338 -336 -339 0
338 336 -339 0
338 -336 339 0
-338 336 339 0
-338 -336 340 0
338 -340 0
336 -340 0
-263 -337 341 0
263 -341 0
337 -341 0
340 341 -342 0
-340 342 0
-341 342 0
-90 -273 343 0
90 -343 0
273 -343 0
-269 -343 -344 0
269 343 -344 0
269 -343 344 0
-269 343 344 0
-344 -342 -345 0
344 342 -345 0
344 -342 345 0
-344 342 345 0
-344 -342 346 0
344 -346 0
342 -346 0
-269 -343 347 0
269 -347 0
343 -347 0
346 347 -348 0
-346 348 0
-347 348 0
-98 -273 349 0
98 -349 0
273 -349 0
-272 -349 -350 0
272 349 -350 0
272 -349 350 0
-272 349 350 0
-350 -348 -351 0
350 348 -351 0
350 -348 351 0
-350 348 351 0
-350 -348 352 0
350 -352 0
348 -352 0
-272 -349 353 0
272 -353 0
349 -353 0
352 353 -354 0
-352 354 0
-353 354 0
-1 -355 356 0
1 -356 0
355 -356 0
-279 -356 -357 0
279 356 -357 0
279 -356 357 0
-279 356 357 0
-279 -356 358 0
279 -358 0
356 -358 0
-4 -355 359 0
4 -359 0
355 -359 0
-285 -359 -360 0
285 359 -360 0
285 -359 360 0
-285 359 360 0
-360 -358 -361 0
360 358 -361 0
360 -358 361 0
-360 358 361 0
-360 -358 362 0
360 -362 0
358 -362 0
-285 -359 363 0
285 -363 0
359 -363 0
362 363 -364 0
-362 364 0
-363 364 0
-10 -355 365 0
10 -365 0
355 -365 0
-291 -365 -366 0
291 365 -366 0
291 -365 366 0
-291 365 366 0
-366 -364 -367 0
366 364 -367 0
366 -364 367 0
-366 364 367 0
-366 -364 368 0
366 -368 0
364 -368 0
-291 -365 369 0
291 -369 0
365 -369 0
368 369 -370 0
-368 370 0
-369 370 0
-18 -355 371 0
18 -371 0
355 -371 0
-297 -371 -372 0
297 371 -372 0
297 -371 372 0
-297 371 372 0
-372 -370 -373 0
372 370 -373 0
372 -370 373 0
-372 370 373 0
-372 -370 374 0
372 -374 0
370 -374 0
-297 -371 375 0
297 -375 0
371 -375 0
374 375 -376 0
-374 376 0
-375 376 0
-26 -355 377 0
26 -377 0
355 -377 0
-303 -377 -378 0
303 377 -378 0
303 -377 378 0
-303 377 378 0
-378 -376 -379 0
378 376 -379 0
378 -376 379 0
-378 376 379 0
-378 -376 380 0
378 -380 0
376 -380 0
-303 -377 381 0
303 -381 0
377 -381 0
380 381 -382 0
-380 382 0
-381 382 0
-34 -355 383 0
34 -383 0
355 -383 0
-309 -383 -384 0
309 383 -384 0
309 -383 384 0
-309 383 384 0
-384 -382 -385 0
384 382 -385 0
384 -382 385 0
-384 382 385 0
-384 -382 386 0
384 -386 0
382 -386 0
-309 -383 387 0
309 -387 0
383 -387 0
386 387 -388 0
-386 388 0
-387 388 0
-42 -355 389 0
42 -389 0
355 -389 0
-315 -389 -390 0
315 389 -390 0
315 -389 390 0
-315 389 390 0
-390 -388 -391 0
390 388 -391 0
390 -388 391 0
-390 388 391 0
-390 -388 392 0
390 -392 0
388 -392 0
-315 -389 393 0
315 -393 0
389 -393 0
392 393 -394 0
-392 394 0
-393 394 0
-50 -355 395 0
50 -395 0
355 -395 0
-321 -395 -396 0
321 395 -396 0
321 -395 396 0
-321 395 396 0
-396 -394 -397 0
396 394 -397 0
396 -394 397 0
-396 394 397 0
-396 -394 398 0
396 -398 0
394 -398 0
-321 -395 399 0
321 -399 0
395 -399 0
398 399 -400 0
-398 400 0
-399 400 0
-58 -355 401 0
58 -401 0
355 -401 0
-327 -401 -402 0
327 401 -402 0
327 -401 402 0
-327 401 402 0
-402 -400 -403 0
402 400 -403 0
402 -400 403 0
-402 400 403 0
-402 -400 404 0
402 -404 0
400 -404 0
-327 -401 405 0
327 -405 0
401 -405 0
404 405 -406 0
-404 406 0
-405 406 0
-66 -355 407 0
66 -407 0
355 -407 0
-333 -407 -408 0
333 407 -408 0
333 -407 408 0
-333 407 408 0
-408 -406 -409 0
408 406 -409 0
408 -406 409 0
-408 406 409 0
-408 -406 410 0
408 -410 0
406 -410 0
-333 -407 411 0
333 -411 0
407 -411 0
410 411 -412 0
-410 412 0
-411 412 0
-74 -355 413 0
74 -413 0
355 -413 0
-339 -413 -414 0
339 413 -414 0
339 -413 414 0
-339 413 414 0
-414 -412 -415 0
414 412 -415 0
414 -412 415 0
-414 412 415 0
-414 -412 416 0
414 -416 0
412 -416 0
-339 -413 417 0
339 -417 0
413 -417 0
416 417 -418 0
-416 418 0
-417 418 0
-82 -355 419 0
82 -419 0
355 -419 0
-345 -419 -420 0
345 419 -420 0
345 -419 420 0
-345 419 420 0
-420 -418 -421 0
420 418 -421 0
420 -418 421 0
-420 418 421 0
-420 -418 422 0
420 -422 0
418 -422 0
-345 -419 423 0
345 -423 0
419 -423 0
422 423 -424 0
-422 424 0
-423 424 0
-90 -355 425 0
90 -425 0
355 -425 0
-351 -425 -426 0
351 425 -426 0
351 -425 426 0
-351 425 426 0
-426 -424 -427 0
426 424 -427 0
426 -424 427 0
-426 424 427 0
-426 -424 428 0
426 -428 0
424 -428 0
-351 -425 429 0
351 -429 0
425 -429 0
428 429 -430 0
-428 430 0
-429 430 0
-98 -355 431 0
98 -431 0
355 -431 0
-354 -431 -432 0
354 431 -432 0
354 -431 432 0
-354 431 432 0
-432 -430 -433 0
432 430 -433 0
432 -430 433 0
-432 430 433 0
-432 -430 434 0
432 -434 0
430 -434 0
-354 -431 435 0
354 -435 0
431 -435 0
434 435 -436 0
-434 436 0
-435 436 0
-1 -437 438 0
1 -438 0
437 -438 0
-361 -438 -439 0
361 438 -439 0
361 -438 439 0
-361 438 439 0
-361 -438 440 0
361 -440 0
438 -440 0
-4 -437 441 0
4 -441 0
437 -441 0
-367 -441 -442 0
367 441 -442 0
367 -441 442 0
-367 441 442 0
-442 -440 -443 0
442 440 -443 0
442 -440 443 0
-442 440 443 0
-442 -440 444 0
442 -444 0
440 -444 0
-367 -441 445 0
367 -445 0
441 -445 0
444 445 -446 0
-444 446 0
-445 446 0
-10 -437 447 0
10 -447 0
437 -447 0
-373 -447 -448 0
373 447 -448 0
373 -447 448 0
-373 447 448 0
-448 -446 -449 0
448 446 -449 0
448 -446 449 0
-448 446 449 0
-448 -446 450 0
448 -450 0
446 -450 0
-373 -447 451 0
373 -451 0
447 -451 0
450 451 -452 0
-450 452 0
-451 452 0
-18 -437 453 0
18 -453 0
437 -453 0
-379 -453 -454 0
379 453 -454 0
379 -453 454 0
-379 453 454 0
-454 -452 -455 0
454 452 -455 0
454 -452 455 0
-454 452 455 0
-454 -452 456 0
454 -456 0
452 -456 0
-379 -453 457 0
379 -457 0
453 -457 0
456 457 -458 0
-456 458 0
-457 458 0
-26 -437 459 0
26 -459 0
437 -459 0
-385 -459 -460 0
385 459 -460 0
385 -459 460 0
-385 459 460 0
-460 -458 -461 0
460 458 -461 0
460 -458 461 0
-460 458 461 0
-460 -458 462 0
460 -462 0
458 -462 0
-385 -459 463 0
385 -463 0
459 -463 0
462 463 -464 0
-462 464 0
-463 464 0
-34 -437 465 0
34 -465 0
437 -465 0
-391 -465 -466 0
391 465 -466 0
391 -465 466 0
-391 465 466 0
-466 -464 -467 0
466 464 -467 0
466 -464 467 0
-466 464 467 0
-466 -464 468 0
466 -468 0
464 -468 0
-391 -465 469 0
391 -469 0
465 -469 0
468 469 -470 0
-468 470 0
-469 470 0
-42 -437 471 0
42 -471 0
437 -471 0
-397 -471 -472 0
397 471 -472 0
397 -471 472 0
-397 471 472 0
-472 -470 -473 0
472 470 -473 0
472 -470 473 0
-472 470 473 0
-472 -470 474 0
472 -474 0
470 -474 0
-397 -471 475 0
397 -475 0
471 -475 0
474 475 -476 0
-474 476 0
-475 476 0
-50 -437 477 0
50 -477 0
437 -477 0
-403 -477 -478 0
403 477 -478 0
403 -477 478 0
-403 477 478 0
-478 -476 -479 0
478 476 -479 0
478 -476 479 0
-478 476 479 0
-478 -476 480 0
478 -480 0
476 -480 0
-403 -477 481 0
403 -481 0
477 -481 0
480 481 -482 0
-480 482 0
-481 482 0
-58 -437 483 0
58 -483 0
437 -483 0
-409 -483 -484 0
409 483 -484 0
409 -483 484 0
-409 483 484 0
-484 -482 -485 0
484 482 -485 0
484 -482 485 0
-484 482 485 0
-484 -482 486 0
484 -486 0
482 -486 0
-409 -483 487 0
409 -487 0
483 -487 0
486 487 -488 0
-486 488 0
-487 488 0
-66 -437 489 0
66 -489 0
437 -489 0
-415 -489 -490 0
415 489 -490 0
415 -489 490 0
-415 489 490 0
-490 -488 -491 0
490 488 -491 0
490 -488 491 0
-490 488 491 0
-490 -488 492 0
490 -492 0
488 -492 0
-415 -489 493 0
415 -493 0
489 -493 0
492 493 -494 0
-492 494 0
-493 494 0
-74 -437 495 0
74 -495 0
437 -495 0
-421 -495 -496 0
421 495 -496 0
421 -495 496 0
-421 495 496 0
-496 -494 -497 0
496 494 -497 0
496 -494 497 0
-496 494 497 0
-496 -494 498 0
496 -498 0
494 -498 0
-421 -495 499 0
421 -499 0
495 -499 0
498 499 -500 0
-498 500 0
-499 500 0
-82 -437 501 0
82 -501 0
437 -501 0
-427 -501 -502 0
427 501 -502 0
427 -501 502 0
-427 501 502 0
-502 -500 -503 0
502 500 -503 0
502 -500 503 0
-502 500 503 0
-502 -500 504 0
502 -504 0
500 -504 0
-427 -501 505 0
427 -505 0
501 -505 0
504 505 -506 0
-504 506 0
-505 506 0
-90 -437 507 0
90 -507 0
437 -507 0
-433 -507 -508 0
433 507 -508 0
433 -507 508 0
-433 507 508 0
-508 -506 -509 0
508 506 -509 0
508 -506 509 0
-508 506 509 0
-508 -506 510 0
508 -510 0
506 -510 0
-433 -507 511 0
433 -511 0
507 -511 0
510 511 -512 0
-510 512 0
-511 512 0
-98 -437 513 0
98 -513 0
437 -513 0
-436 -513 -514 0
436 513 -514 0
436 -513 514 0
-436 513 514 0
-514 -512 -515 0
514 512 -515 0
514 -512 515 0
-514 512 515 0
-514 -512 516 0
514 -516 0
512 -516 0
-436 -513 517 0
436 -517 0
513 -517 0
516 517 -518 0
-516 518 0
-517 518 0
-1 -519 520 0
1 -520 0
519 -520 0
-443 -520 -521 0
443 520 -521 0
443 -520 521 0
-443 520 521 0
-443 -520 522 0
443 -522 0
520 -522 0
-4 -519 523 0
4 -523 0
519 -523 0
-449 -523 -524 0
449 523 -524 0
449 -523 524 0
-449 523 524 0
-524 -522 -525 0
524 522 -525 0
524 -522 525 0
-524 522 525 0
-524 -522 526 0
524 -526 0
522 -526 0
-449 -523 527 0
449 -527 0
523 -527 0
526 527 -528 0
-526 528 0
-527 528 0
-10 -519 529 0
10 -529 0
519 -529 0
-455 -529 -530 0
455 529 -530 0
455 -529 530 0
-455 529 530 0
-530 -528 -531 0
530 528 -531 0
530 -528 531 0
-530 528 531 0
-530 -528 532 0
530 -532 0
528 -532 0
-455 -529 533 0
455 -533 0
529 -533 0
532 533 -534 0
-532 534 0
-533 534 0
-18 -519 535 0
18 -535 0
519 -535 0
-461 -535 -536 0
461 535 -536 0
461 -535 536 0
-461 535 536 0
-536 -534 -537 0
536 534 -537 0
536 -534 537 0
-536 534 537 0
-536 -534 538 0
536 -538 0
534 -538 0
-461 -535 539 0
461 -539 0
535 -539 0
538 539 -540 0
-538 540 0
-539 540 0
-26 -519 541 0
26 -541 0
519 -541 0
-467 -541 -542 0
467 541 -542 0
467 -541 542 0
-467 541 542 0
-542 -540 -543 0
542 540 -543 0
542 -540 543 0
-542 540 543 0
-542 -540 544 0
542 -544 0
540 -544 0
-467 -541 545 0
467 -545 0
541 -545 0
544 545 -546 0
-544 546 0
-545 546 0
-34 -519 547 0
34 -547 0
519 -547 0
-473 -547 -548 0
473 547 -548 0
473 -547 548 0
-473 547 548 0
-548 -546 -549 0
548 546 -549 0
548 -546 549 0
-548 546 549 0
-548 -546 550 0
548 -550 0
546 -550 0
-473 -547 551 0
473 -551 0
547 -551 0
550 551 -552 0
-550 552 0
-551 552 0
-42 -519 553 0
42 -553 0
519 -553 0
-479 -553 -554 0
479 553 -554 0
479 -553 554 0
-479 553 554 0
-554 -552 -555 0
554 552 -555 0
554 -552 555 0
-554 552 555 0
-554 -552 556 0
554 -556 0
552 -556 0
-479 -553 557 0
479 -557 0
553 -557 0
556 557 -558 0
-556 558 0
-557 558 0
-50 -519 559 0
50 -559 0
519 -559 0
-485 -559 -560 0
485 559 -560 0
485 -559 560 0
-485 559 560 0
-560 -558 -561 0
560 558 -561 0
560 -558 561 0
-560 558 561 0
-560 -558 562 0
560 -562 0
558 -562 0
-485 -559 563 0
485 -563 0
559 -563 0
562 563 -564 0
-562 564 0
-563 564 0
-58 -519 565 0
58 -565 0
519 -565 0
-491 -565 -566 0
491 565 -566 0
491 -565 566 0
-491 565 566 0
-566 -564 -567 0
566 564 -567 0
566 -564 567 0
-566 564 567 0
-566 -564 568 0
566 -568 0
564 -568 0
-491 -565 569 0
491 -569 0
565 -569 0
568 569 -570 0
-568 570 0
-569 570 0
-66 -519 571 0
66 -571 0
519 -571 0
-497 -571 -572 0
497 571 -572 0
497 -571 572 0
-497 571 572 0
-572 -570 -573 0
572 570 -573 0
572 -570 573 0
-572 570 573 0
-572 -570 574 0
572 -574 0
570 -574 0
-497 -571 575 0
497 -575 0
571 -575 0
574 575 -576 0
-574 576 0
-575 576 0
-74 -519 577 0
74 -577 0
519 -577 0
-503 -577 -578 0
503 577 -578 0
503 -577 578 0
-503 577 578 0
-578 -576 -579 0
578 576 -579 0
578 -576 579 0
-578 576 579 0
-578 -576 580 0
578 -580 0
576 -580 0
-503 -577 581 0
503 -581 0
577 -581 0
580 581 -582 0
-580 582 0
-581 582 0
-82 -519 583 0
82 -583 0
519 -583 0
-509 -583 -584 0
509 583 -584 0
509 -583 584 0
-509 583 584 0
-584 -582 -585 0
584 582 -585 0
584 -582 585 0
-584 582 585 0
-584 -582 586 0
584 -586 0
582 -586 0
-509 -583 587 0
509 -587 0
583 -587 0
586 587 -588 0
-586 588 0
-587 588 0
-90 -519 589 0
90 -589 0
519 -589 0
-515 -589 -590 0
515 589 -590 0
515 -589 590 0
-515 589 590 0
-590 -588 -591 0
590 588 -591 0
590 -588 591 0
-590 588 591 0
-590 -588 592 0
590 -592 0
588 -592 0
-515 -589 593 0
515 -593 0
589 -593 0
592 593 -594 0
-592 594 0
-593 594 0
-98 -519 595 0
98 -595 0
519 -595 0
-518 -595 -596 0
518 595 -596 0
518 -595 596 0
-518 595 596 0
-596 -594 -597 0
596 594 -597 0
596 -594 597 0
-596 594 597 0
-596 -594 598 0
596 -598 0
594 -598 0
-518 -595 599 0
518 -599 0
595 -599 0
598 599 -600 0
-598 600 0
-599 600 0
-1 -601 602 0
1 -602 0
601 -602 0
-525 -602 -603 0
525 602 -603 0
525 -602 603 0
-525 602 603 0
-525 -602 604 0
525 -604 0
602 -604 0
-4 -601 605 0
4 -605 0
601 -605 0
-531 -605 -606 0
531 605 -606 0
531 -605 606 0
-531 605 606 0
-606 -604 -607 0
606 604 -607 0
606 -604 607 0
-606 604 607 0
-606 -604 608 0
606 -608 0
604 -608 0
-531 -605 609 0
531 -609 0
605 -609 0
608 609 -610 0
-608 610 0
-609 610 0
-10 -601 611 0
10 -611 0
601 -611 0
-537 -611 -612 0
537 611 -612 0
537 -611 612 0
-537 611 612 0
-612 -610 -613 0
612 610 -613 0
612 -610 613 0
-612 610 613 0
-612 -610 614 0
612 -614 0
610 -614 0
-537 -611 615 0
537 -615 0
611 -615 0
614 615 -616 0
-614 616 0
-615 616 0
-18 -601 617 0
18 -617 0
601 -617 0
-543 -617 -618 0
543 617 -618 0
543 -617 618 0
-543 617 618 0
-618 -616 -619 0
618 616 -619 0
618 -616 619 0
-618 616 619 0
-618 -616 620 0
618 -620 0
616 -620 0
-543 -617 621 0
543 -621 0
617 -621 0
620 621 -622 0
-620 622 0
-621 622 0
-26 -601 623 0
26 -623 0
601 -623 0
-549 -623 -624 0
549 623 -624 0
549 -623 624 0
-549 623 624 0
-624 -622 -625 0
624 622 -625 0
624 -622 625 0
-624 622 625 0
-624 -622 626 0
624 -626 0
622 -626 0
-549 -623 627 0
549 -627 0
623 -627 0
626 627 -628 0
-626 628 0
-627 628 0
-34 -601 629 0
34 -629 0
601 -629 0
-555 -629 -630 0
555 629 -630 0
555 -629 630 0
-555 629 630 0
-630 -628 -631 0
630 628 -631 0
630 -628 631 0
-630 628 631 0
-630 -628 632 0
630 -632 0
628 -632 0
-555 -629 633 0
555 -633 0
629 -633 0
632 633 -634 0
-632 634 0
-633 634 0
-42 -601 635 0
42 -635 0
601 -635 0
-561 -635 -636 0
561 635 -636 0
561 -635 636 0
-561 635 636 0
-636 -634 -637 0
636 634 -637 0
636 -634 637 0
-636 634 637 0
-636 -634 638 0
636 -638 0
634 -638 0
-561 -635 639 0
561 -639 0
635 -639 0
638 639 -640 0
-638 640 0
-639 640 0
-50 -601 641 0
50 -641 0
601 -641 0
-567 -641 -642 0
567 641 -642 0
567 -641 642 0
-567 641 642 0
-642 -640 -643 0
642 640 -643 0
642 -640 643 0
-642 640 643 0
-642 -640 644 0
642 -644 0
640 -644 0
-567 -641 645 0
567 -645 0
641 -645 0
644 645 -646 0
-644 646 0
-645 646 0
-58 -601 647 0
58 -647 0
601 -647 0
-573 -647 -648 0
573 647 -648 0
573 -647 648 0
-573 647 648 0
-648 -646 -649 0
648 646 -649 0
648 -646 649 0
-648 646 649 0
-648 -646 650 0
648 -650 0
646 -650 0
-573 -647 651 0
573 -651 0
647 -651 0
650 651 -652 0
-650 652 0
-651 652 0
-66 -601 653 0
66 -653 0
601 -653 0
-579 -653 -654 0
579 653 -654 0
579 -653 654 0
-579 653 654 0
-654 -652 -655 0
654 652 -655 0
654 -652 655 0
-654 652 655 0
-654 -652 656 0
654 -656 0
652 -656 0
-579 -653 657 0
579 -657 0
653 -657 0
656 657 -658 0
-656 658 0
-657 658 0
-74 -601 659 0
74 -659 0
601 -659 0
-585 -659 -660 0
585 659 -660 0
585 -659 660 0
-585 659 660 0
-660 -658 -661 0
660 658 -661 0
660 -658 661 0
-660 658 661 0
-660 -658 662 0
660 -662 0
658 -662 0
-585 -659 663 0
585 -663 0
659 -663 0
662 663 -664 0
-662 664 0
-663 664 0
-82 -601 665 0
82 -665 0
601 -665 0
-591 -665 -666 0
591 665 -666 0
591 -665 666 0
-591 665 666 0
-666 -664 -667 0
666 664 -667 0
666 -664 667 0
-666 664 667 0
-666 -664 668 0
666 -668 0
664 -668 0
-591 -665 669 0
591 -669 0
665 -669 0
668 669 -670 0
-668 670 0
-669 670 0
-90 -601 671 0
90 -671 0
601 -671 0
-597 -671 -672 0
597 671 -672 0
597 -671 672 0
-597 671 672 0
-672 -670 -673 0
672 670 -673 0
672 -670 673 0
-672 670 673 0
-672 -670 674 0
672 -674 0
670 -674 0
-597 -671 675 0
597 -675 0
671 -675 0
674 675 -676 0
-674 676 0
-675 676 0
-98 -601 677 0
98 -677 0
601 -677 0
-600 -677 -678 0
600 677 -678 0
600 -677 678 0
-600 677 678 0
-678 -676 -679 0
678 676 -679 0
678 -676 679 0
-678 676 679 0
-678 -676 680 0
678 -680 0
676 -680 0
-600 -677 681 0
600 -681 0
677 -681 0
680 681 -682 0
-680 682 0
-681 682 0
-1 -683 684 0
1 -684 0
683 -684 0
-607 -684 -685 0
607 684 -685 0
607 -684 685 0
-607 684 685 0
-607 -684 686 0
607 -686 0
684 -686 0
-4 -683 687 0
4 -687 0
683 -687 0
-613 -687 -688 0
613 687 -688 0
613 -687 688 0
-613 687 688 0
-688 -686 -689 0
688 686 -689 0
688 -686 689 0
-688 686 689 0
-688 -686 690 0
688 -690 0
686 -690 0
-613 -687 691 0
613 -691 0
687 -691 0
690 691 -692 0
-690 692 0
-691 692 0
-10 -683 693 0
10 -693 0
683 -693 0
-619 -693 -694 0
619 693 -694 0
619 -693 694 0
-619 693 694 0
-694 -692 -695 0
694 692 -695 0
694 -692 695 0
-694 692 695 0
-694 -692 696 0
694 -696 0
692 -696 0
-619 -693 697 0
619 -697 0
693 -697 0
696 697 -698 0
-696 698 0
-697 698 0
-18 -683 699 0
18 -699 0
683 -699 0
-625 -699 -700 0
625 699 -700 0
625 -699 700 0
-625 699 700 0
-700 -698 -701 0
700 698 -701 0
700 -698 701 0
-700 698 701 0
-700 -698 702 0
700 -702 0
698 -702 0
-625 -699 703 0
625 -703 0
699 -703 0
702 703 -704 0
-702 704 0
-703 704 0
-26 -683 705 0
26 -705 0
683 -705 0
-631 -705 -706 0
631 705 -706 0
631 -705 706 0
-631 705 706 0
-706 -704 -707 0
706 704 -707 0
706 -704 707 0
-706 704 707 0
-706 -704 708 0
706 -708 0
704 -708 0
-631 -705 709 0
631 -709 0
705 -709 0
708 709 -710 0
-708 710 0
-709 710 0
-34 -683 711 0
34 -711 0
683 -711 0
-637 -711 -712 0
637 711 -712 0
637 -711 712 0
-637 711 712 0
-712 -710 -713 0
712 710 -713 0
712 -710 713 0
-712 710 713 0
-712 -710 714 0
712 -714 0
710 -714 0
-637 -711 715 0
637 -715 0
711 -715 0
714 715 -716 0
-714 716 0
-715 716 0
-42 -683 717 0
42 -717 0
683 -717 0
-643 -717 -718 0
643 717 -718 0
643 -717 718 0
-643 717 718 0
-718 -716 -719 0
718 716 -719 0
718 -716 719 0
-718 716 719 0
-718 -716 720 0
718 -720 0
716 -720 0
-643 -717 721 0
643 -721 0
717 -721 0
720 721 -722 0
-720 722 0
-721 722 0
-50 -683 723 0
50 -723 0
683 -723 0
-649 -723 -724 0
649 723 -724 0
649 -723 724 0
-649 723 724 0
-724 -722 -725 0
724 722 -725 0
724 -722 725 0
-724 722 725 0
-724 -722 726 0
724 -726 0
722 -726 0
-649 -723 727 0
649 -727 0
723 -727 0
726 727 -728 0
-726 728 0
-727 728 0
-58 -683 729 0
58 -729 0
683 -729 0
-655 -729 -730 0
655 729 -730 0
655 -729 730 0
-655 729 730 0
-730 -728 -731 0
730 728 -731 0
730 -728 731 0
-730 728 731 0
-730 -728 732 0
730 -732 0
728 -732 0
-655 -729 733 0
655 -733 0
729 -733 0
732 733 -734 0
-732 734 0
-733 734 0
-66 -683 735 0
66 -735 0
683 -735 0
-661 -735 -736 0
661 735 -736 0
661 -735 736 0
-661 735 736 0
-736 -734 -737 0
736 734 -737 0
736 -734 737 0
-736 734 737 0
-736 -734 738 0
736 -738 0
734 -738 0
-661 -735 739 0
661 -739 0
735 -739 0
738 739 -740 0
-738 740 0
-739 740 0
-74 -683 741 0
74 -741 0
683 -741 0
-667 -741 -742 0
667 741 -742 0
667 -741 742 0
-667 741 742 0
-742 -740 -743 0
742 740 -743 0
742 -740 743 0
-742 740 743 0
-742 -740 744 0
742 -744 0
740 -744 0
-667 -741 745 0
667 -745 0
741 -745 0
744 745 -746 0
-744 746 0
-745 746 0
-82 -683 747 0
82 -747 0
683 -747 0
-673 -747 -748 0
673 747 -748 0
673 -747 748 0
-673 747 748 0
-748 -746 -749 0
748 746 -749 0
748 -746 749 0
-748 746 749 0
-748 -746 750 0
748 -750 0
746 -750 0
-673 -747 751 0
673 -751 0
747 -751 0
750 751 -752 0
-750 752 0
-751 752 0
-90 -683 753 0
90 -753 0
683 -753 0
-679 -753 -754 0
679 753 -754 0
679 -753 754 0
-679 753 754 0
-754 -752 -755 0
754 752 -755 0
754 -752 755 0
-754 752 755 0
-754 -752 756 0
754 -756 0
752 -756 0
-679 -753 757 0
679 -757 0
753 -757 0
756 757 -758 0
-756 758 0
-757 758 0
-98 -683 759 0
98 -759 0
683 -759 0
-682 -759 -760 0
682 759 -760 0
682 -759 760 0
-682 759 760 0
-760 -758 -761 0
760 758 -761 0
760 -758 761 0
-760 758 761 0
-760 -758 762 0
760 -762 0
758 -762 0
-682 -759 763 0
682 -763 0
759 -763 0
762 763 -764 0
-762 764 0
-763 764 0
-1 -765 766 0
1 -766 0
765 -766 0
-689 -766 -767 0
689 766 -767 0
689 -766 767 0
-689 766 767 0
-689 -766 768 0
689 -768 0
766 -768 0
-4 -765 769 0
4 -769 0
765 -769 0
-695 -769 -770 0
695 769 -770 0
695 -769 770 0
-695 769 770 0
-770 -768 -771 0
770 768 -771 0
770 -768 771 0
-770 768 771 0
-770 -768 772 0
770 -772 0
768 -772 0
-695 -769 773 0
695 -773 0
769 -773 0
772 773 -774 0
-772 774 0
-773 774 0
-10 -765 775 0
10 -775 0
765 -775 0
-701 -775 -776 0
701 775 -776 0
701 -775 776 0
-701 775 776 0
-776 -774 -777 0
776 774 -777 0
776 -774 777 0
-776 774 777 0
-776 -774 778 0
776 -778 0
774 -778 0
-701 -775 779 0
701 -779 0
775 -779 0
778 779 -780 0
-778 780 0
-779 780 0
-18 -765 781 0
18 -781 0
765 -781 0
-707 -781 -782 0
707 781 -782 0
707 -781 782 0
-707 781 782 0
-782 -780 -783 0
782 780 -783 0
782 -780 783 0
-782 780 783 0
-782 -780 784 0
782 -784 0
780 -784 0
-707 -781 785 0
707 -785 0
781 -785 0
784 785 -786 0
-784 786 0
-785 786 0
-26 -765 787 0
26 -787 0
765 -787 0
-713 -787 -788 0
713 787 -788 0
713 -787 788 0
-713 787 788 0
-788 -786 -789 0
788 786 -789 0
788 -786 789 0
-788 786 789 0
-788 -786 790 0
788 -790 0
786 -790 0
-713 -787 791 0
713 -791 0
787 -791 0
790 791 -792 0
-790 792 0
-791 792 0
-34 -765 793 0
34 -793 0
765 -793 0
-719 -793 -794 0
719 793 -794 0
719 -793 794 0
-719 793 794 0
-794 -792 -795 0
794 792 -795 0
794 -792 795 0
-794 792 795 0
-794 -792 796 0
794 -796 0
792 -796 0
-719 -793 797 0
719 -797 0
793 -797 0
796 797 -798 0
-796 798 0
-797 798 0
-42 -765 799 0
42 -799 0
765 -799 0
-725 -799 -800 0
725 799 -800 0
725 -799 800 0
-725 799 800 0
-800 -798 -801 0
800 798 -801 0
800 -798 801 0
-800 798 801 0
-800 -798 802 0
800 -802 0
798 -802 0
-725 -799 803 0
725 -803 0
799 -803 0
802 803 -804 0
-802 804 0
-803 804 0
-50 -765 805 0
50 -805 0
765 -805 0
-731 -805 -806 0
731 805 -806 0
731 -805 806 0
-731 805 806 0
-806 -804 -807 0
806 804 -807 0
806 -804 807 0
-806 804 807 0
-806 -804 808 0
806 -808 0
804 -808 0
-731 -805 809 0
731 -809 0
805 -809 0
808 809 -810 0
-808 810 0
-809 810 0
-58 -765 811 0
58 -811 0
765 -811 0
-737 -811 -812 0
737 811 -812 0
737 -811 812 0
-737 811 812 0
-812 -810 -813 0
812 810 -813 0
812 -810 813 0
-812 810 813 0
-812 -810 814 0
812 -814 0
810 -814 0
-737 -811 815 0
737 -815 0
811 -815 0
814 815 -816 0
-814 816 0
-815 816 0
-66 -765 817 0
66 -817 0
765 -817 0
-743 -817 -818 0
743 817 -818 0
743 -817 818 0
-743 817 818 0
-818 -816 -819 0
818 816 -819 0
818 -816 819 0
-818 816 819 0
-818 -816 820 0
818 -820 0
816 -820 0
-743 -817 821 0
743 -821 0
817 -821 0
820 821 -822 0
-820 822 0
-821 822 0
-74 -765 823 0
74 -823 0
765 -823 0
-749 -823 -824 0
749 823 -824 0
749 -823 824 0
-749 823 824 0
-824 -822 -825 0
824 822 -825 0
824 -822 825 0
-824 822 825 0
-824 -822 826 0
824 -826 0
822 -826 0
-749 -823 827 0
749 -827 0
823 -827 0
826 827 -828 0
-826 828 0
-827 828 0
-82 -765 829 0
82 -829 0
765 -829 0
-755 -829 -830 0
755 829 -830 0
755 -829 830 0
-755 829 830 0
-830 -828 -831 0
830 828 -831 0
830 -828 831 0
-830 828 831 0
-830 -828 832 0
830 -832 0
828 -832 0
-755 -829 833 0
755 -833 0
829 -833 0
832 833 -834 0
-832 834 0
-833 834 0
-90 -765 835 0
90 -835 0
765 -835 0
-761 -835 -836 0
761 835 -836 0
761 -835 836 0
-761 835 836 0
-836 -834 -837 0
836 834 -837 0
836 -834 837 0
-836 834 837 0
-836 -834 838 0
836 -838 0
834 -838 0
-761 -835 839 0
761 -839 0
835 -839 0
838 839 -840 0
-838 840 0
-839 840 0
-98 -765 841 0
98 -841 0
765 -841 0
-764 -841 -842 0
764 841 -842 0
764 -841 842 0
-764 841 842 0
-842 -840 -843 0
842 840 -843 0
842 -840 843 0
-842 840 843 0
-842 -840 844 0
842 -844 0
840 -844 0
-764 -841 845 0
764 -845 0
841 -845 0
844 845 -846 0
-844 846 0
-845 846 0
-1 -847 848 0
1 -848 0
847 -848 0
-771 -848 -849 0
771 848 -849 0
771 -848 849 0
-771 848 849 0
-771 -848 850 0
771 -850 0
848 -850 0
-4 -847 851 0
4 -851 0
847 -851 0
-777 -851 -852 0
777 851 -852 0
777 -851 852 0
-777 851 852 0
-852 -850 -853 0
852 850 -853 0
852 -850 853 0
-852 850 853 0
-852 -850 854 0
852 -854 0
850 -854 0
-777 -851 855 0
777 -855 0
851 -855 0
854 855 -856 0
-854 856 0
-855 856 0
-10 -847 857 0
10 -857 0
847 -857 0
-783 -857 -858 0
783 857 -858 0
783 -857 858 0
-783 857 858 0
-858 -856 -859 0
858 856 -859 0
858 -856 859 0
-858 856 859 0
-858 -856 860 0
858 -860 0
856 -860 0
-783 -857 861 0
783 -861 0
857 -861 0
860 861 -862 0
-860 862 0
-861 862 0
-18 -847 863 0
18 -863 0
847 -863 0
-789 -863 -864 0
789 863 -864 0
789 -863 864 0
-789 863 864 0
-864 -862 -865 0
864 862 -865 0
864 -862 865 0
-864 862 865 0
-864 -862 866 0
864 -866 0
862 -866 0
-789 -863 867 0
789 -867 0
863 -867 0
866 867 -868 0
-866 868 0
-867 868 0
-26 -847 869 0
26 -869 0
847 -869 0
-795 -869 -870 0
795 869 -870 0
795 -869 870 0
-795 869 870 0
-870 -868 -871 0
870 868 -871 0
870 -868 871 0
-870 868 871 0
-870 -868 872 0
870 -872 0
868 -872 0
-795 -869 873 0
795 -873 0
869 -873 0
872 873 -874 0
-872 874 0
-873 874 0
-34 -847 875 0
34 -875 0
847 -875 0
-801 -875 -876 0
801 875 -876 0
801 -875 876 0
-801 875 876 0
-876 -874 -877 0
876 874 -877 0
876 -874 877 0
-876 874 877 0
-876 -874 878 0
876 -878 0
874 -878 0
-801 -875 879 0
801 -879 0
875 -879 0
878 879 -880 0
-878 880 0
-879 880 0
-42 -847 881 0
42 -881 0
847 -881 0
-807 -881 -882 0
807 881 -882 0
807 -881 882 0
-807 881 882 0
-882 -880 -883 0
882 880 -883 0
882 -880 883 0
-882 880 883 0
-882 -880 884 0
882 -884 0
880 -884 0
-807 -881 885 0
807 -885 0
881 -885 0
884 885 -886 0
-884 886 0
-885 886 0
-50 -847 887 0
50 -887 0
847 -887 0
-813 -887 -888 0
813 887 -888 0
813 -887 888 0
-813 887 888 0
-888 -886 -889 0
888 886 -889 0
888 -886 889 0
-888 886 889 0
-888 -886 890 0
888 -890 0
886 -890 0
-813 -887 891 0
813 -891 0
887 -891 0
890 891 -892 0
-890 892 0
-891 892 0
-58 -847 893 0
58 -893 0
847 -893 0
-819 -893 -894 0
819 893 -894 0
819 -893 894 0
-819 893 894 0
-894 -892 -895 0
894 892 -895 0
894 -892 895 0
-894 892 895 0
-894 -892 896 0
894 -896 0
892 -896 0
-819 -893 897 0
819 -897 0
893 -897 0
896 897 -898 0
-896 898 0
-897 898 0
-66 -847 899 0
66 -899 0
847 -899 0
-825 -899 -900 0
825 899 -900 0
825 -899 900 0
-825 899 900 0
-900 -898 -901 0
900 898 -901 0
900 -898 901 0
-900 898 901 0
-900 -898 902 0
900 -902 0
898 -902 0
-825 -899 903 0
825 -903 0
899 -903 0
902 903 -904 0
-902 904 0
-903 904 0
-74 -847 905 0
74 -905 0
847 -905 0
-831 -905 -906 0
831 905 -906 0
831 -905 906 0
-831 905 906 0
-906 -904 -907 0
906 904 -907 0
906 -904 907 0
-906 904 907 0
-906 -904 908 0
906 -908 0
904 -908 0
-831 -905 909 0
831 -909 0
905 -909 0
908 909 -910 0
-908 910 0
-909 910 0
-82 -847 911 0
82 -911 0
847 -911 0
-837 -911 -912 0
837 911 -912 0
837 -911 912 0
-837 911 912 0
-912 -910 -913 0
912 910 -913 0
912 -910 913 0
-912 910 913 0
-912 -910 914 0
912 -914 0
910 -914 0
-837 -911 915 0
837 -915 0
911 -915 0
914 915 -916 0
-914 916 0
-915 916 0
-90 -847 917 0
90 -917 0
847 -917 0
-843 -917 -918 0
843 917 -918 0
843 -917 918 0
-843 917 918 0
-918 -916 -919 0
918 916 -919 0
918 -916 919 0
-918 916 919 0
-918 -916 920 0
918 -920 0
916 -920 0
-843 -917 921 0
843 -921 0
917 -921 0
920 921 -922 0
-920 922 0
-921 922 0
-98 -847 923 0
98 -923 0
847 -923 0
-846 -923 -924 0
846 923 -924 0
846 -923 924 0
-846 923 924 0
-924 -922 -925 0
924 922 -925 0
924 -922 925 0
-924 922 925 0
-924 -922 926 0
924 -926 0
922 -926 0
-846 -923 927 0
846 -927 0
923 -927 0
926 927 -928 0
-926 928 0
-927 928 0
-1 -929 930 0
1 -930 0
929 -930 0
-853 -930 -931 0
853 930 -931 0
853 -930 931 0
-853 930 931 0
-853 -930 932 0
853 -932 0
930 -932 0
-4 -929 933 0
4 -933 0
929 -933 0
-859 -933 -934 0
859 933 -934 0
859 -933 934 0
-859 933 934 0
-934 -932 -935 0
934 932 -935 0
934 -932 935 0
-934 932 935 0
-934 -932 936 0
934 -936 0
932 -936 0
-859 -933 937 0
859 -937 0
933 -937 0
936 937 -938 0
-936 938 0
-937 938 0
-10 -929 939 0
10 -939 0
929 -939 0
-865 -939 -940 0
865 939 -940 0
865 -939 940 0
-865 939 940 0
-940 -938 -941 0
940 938 -941 0
940 -938 941 0
-940 938 941 0
-940 -938 942 0
940 -942 0
938 -942 0
-865 -939 943 0
865 -943 0
939 -943 0
942 943 -944 0
-942 944 0
-943 944 0
-18 -929 945 0
18 -945 0
929 -945 0
-871 -945 -946 0
871 945 -946 0
871 -945 946 0
-871 945 946 0
-946 -944 -947 0
946 944 -947 0
946 -944 947 0
-946 944 947 0
-946 -944 948 0
946 -948 0
944 -948 0
-871 -945 949 0
871 -949 0
945 -949 0
948 949 -950 0
-948 950 0
-949 950 0
-26 -929 951 0
26 -951 0
929 -951 0
-877 -951 -952 0
877 951 -952 0
877 -951 952 0
-877 951 952 0
-952 -950 -953 0
952 950 -953 0
952 -950 953 0
-952 950 953 0
-952 -950 954 0
952 -954 0
950 -954 0
-877 -951 955 0
877 -955 0
951 -955 0
954 955 -956 0
-954 956 0
-955 956 0
-34 -929 957 0
34 -957 0
929 -957 0
-883 -957 -958 0
883 957 -958 0
883 -957 958 0
-883 957 958 0
-958 -956 -959 0
958 956 -959 0
958 -956 959 0
-958 956 959 0
-958 -956 960 0
958 -960 0
956 -960 0
-883 -957 961 0
883 -961 0
957 -961 0
960 961 -962 0
-960 962 0
-961 962 0
-42 -929 963 0
42 -963 0
929 -963 0
-889 -963 -964 0
889 963 -964 0
889 -963 964 0
-889 963 964 0
-964 -962 -965 0
964 962 -965 0
964 -962 965 0
-964 962 965 0
-964 -962 966 0
964 -966 0
962 -966 0
-889 -963 967 0
889 -967 0
963 -967 0
966 967 -968 0
-966 968 0
-967 968 0
-50 -929 969 0
50 -969 0
929 -969 0
-895 -969 -970 0
895 969 -970 0
895 -969 970 0
-895 969 970 0
-970 -968 -971 0
970 968 -971 0
970 -968 971 0
-970 968 971 0
-970 -968 972 0
970 -972 0
968 -972 0
-895 -969 973 0
895 -973 0
969 -973 0
972 973 -974 0
-972 974 0
-973 974 0
-58 -929 975 0
58 -975 0
929 -975 0
-901 -975 -976 0
901 975 -976 0
901 -975 976 0
-901 975 976 0
-976 -974 -977 0
976 974 -977 0
976 -974 977 0
-976 974 977 0
-976 -974 978 0
976 -978 0
974 -978 0
-901 -975 979 0
901 -979 0
975 -979 0
978 979 -980 0
-978 980 0
-979 980 0
-66 -929 981 0
66 -981 0
929 -981 0
-907 -981 -982 0
907 981 -982 0
907 -981 982 0
-907 981 982 0
-982 -980 -983 0
982 980 -983 0
982 -980 983 0
-982 980 983 0
-982 -980 984 0
982 -984 0
980 -984 0
-907 -981 985 0
907 -985 0
981 -985 0
984 985 -986 0
-984 986 0
-985 986 0
-74 -929 987 0
74 -987 0
929 -987 0
-913 -987 -988 0
913 987 -988 0
913 -987 988 0
-913 987 988 0
-988 -986 -989 0
988 986 -989 0
988 -986 989 0
-988 986 989 0
-988 -986 990 0
988 -990 0
986 -990 0
-913 -987 991 0
913 -991 0
987 -991 0
990 991 -992 0
-990 992 0
-991 992 0
-82 -929 993 0
82 -993 0
929 -993 0
-919 -993 -994 0
919 993 -994 0
919 -993 994 0
-919 993 994 0
-994 -992 -995 0
994 992 -995 0
994 -992 995 0
-994 992 995 0
-994 -992 996 0
994 -996 0
992 -996 0
-919 -993 997 0
919 -997 0
993 -997 0
996 997 -998 0
-996 998 0
-997 998 0
-90 -929 999 0
90 -999 0
929 -999 0
-925 -999 -1000 0
925 999 -1000 0
925 -999 1000 0
-925 999 1000 0
-1000 -998 -1001 0
1000 998 -1001 0
1000 -998 1001 0
-1000 998 1001 0
-1000 -998 1002 0
1000 -1002 0
998 -1002 0
-925 -999 1003 0
925 -1003 0
999 -1003 0
1002 1003 -1004 0
-1002 1004 0
-1003 1004 0
-98 -929 1005 0
98 -1005 0
929 -1005 0
-928 -1005 -1006 0
928 1005 -1006 0
928 -1005 1006 0
-928 1005 1006 0
-1006 -1004 -1007 0
1006 1004 -1007 0
1006 -1004 1007 0
-1006 1004 1007 0
-1006 -1004 1008 0
1006 -1008 0
1004 -1008 0
-928 -1005 1009 0
928 -1009 0
1005 -1009 0
1008 1009 -1010 0
-1008 1010 0
-1009 1010 0
-1 -1011 1012 0
1 -1012 0
1011 -1012 0
-935 -1012 -1013 0
935 1012 -1013 0
935 -1012 1013 0
-935 1012 1013 0
-935 -1012 1014 0
935 -1014 0
1012 -1014 0
-4 -1011 1015 0
4 -1015 0
1011 -1015 0
-941 -1015 -1016 0
941 1015 -1016 0
941 -1015 1016 0
-941 1015 1016 0
-1016 -1014 -1017 0
1016 1014 -1017 0
1016 -1014 1017 0
-1016 1014 1017 0
-1016 -1014 1018 0
1016 -1018 0
1014 -1018 0
-941 -1015 1019 0
941 -1019 0
1015 -1019 0
1018 1019 -1020 0
-1018 1020 0
-1019 1020 0
-10 -1011 1021 0
10 -1021 0
1011 -1021 0
-947 -1021 -1022 0
947 1021 -1022 0
947 -1021 1022 0
-947 1021 1022 0
-1022 -1020 -1023 0
1022 1020 -1023 0
1022 -1020 1023 0
-1022 1020 1023 0
-1022 -1020 1024 0
1022 -1024 0
1020 -1024 0
-947 -1021 1025 0
947 -1025 0
1021 -1025 0
1024 1025 -1026 0
-1024 1026 0
-1025 1026 0
-18 -1011 1027 0
18 -1027 0
1011 -1027 0
-953 -1027 -1028 0
953 1027 -1028 0
953 -1027 1028 0
-953 1027 1028 0
-1028 -1026 -1029 0
1028 1026 -1029 0
1028 -1026 1029 0
-1028 1026 1029 0
-1028 -1026 1030 0
1028 -1030 0
1026 -1030 0
-953 -1027 1031 0
953 -1031 0
1027 -1031 0
1030 1031 -1032 0
-1030 1032 0
-1031 1032 0
-26 -1011 1033 0
26 -1033 0
1011 -1033 0
-959 -1033 -1034 0
959 1033 -1034 0
959 -1033 1034 0
-959 1033 1034 0
-1034 -1032 -1035 0
1034 1032 -1035 0
1034 -1032 1035 0
-1034 1032 1035 0
-1034 -1032 1036 0
1034 -1036 0
1032 -1036 0
-959 -1033 1037 0
959 -1037 0
1033 -1037 0
1036 1037 -1038 0
-1036 1038 0
-1037 1038 0
-34 -1011 1039 0
34 -1039 0
1011 -1039 0
-965 -1039 -1040 0
965 1039 -1040 0
965 -1039 1040 0
-965 1039 1040 0
-1040 -1038 -1041 0
1040 1038 -1041 0
1040 -1038 1041 0
-1040 1038 1041 0
-1040 -1038 1042 0
1040 -1042 0
1038 -1042 0
-965 -1039 1043 0
965 -1043 0
1039 -1043 0
1042 1043 -1044 0
-1042 1044 0
-1043 1044 0
-42 -1011 1045 0
42 -1045 0
1011 -1045 0
-971 -1045 -1046 0
971 1045 -1046 0
971 -1045 1046 0
-971 1045 1046 0
-1046 -1044 -1047 0
1046 1044 -1047 0
1046 -1044 1047 0
-1046 1044 1047 0
-1046 -1044 1048 0
1046 -1048 0
1044 -1048 0
-971 -1045 1049 0
971 -1049 0
1045 -1049 0
1048 1049 -1050 0
-1048 1050 0
-1049 1050 0
-50 -1011 1051 0
50 -1051 0
1011 -1051 0
-977 -1051 -1052 0
977 1051 -1052 0
977 -1051 1052 0
-977 1051 1052 0
-1052 -1050 -1053 0
1052 1050 -1053 0
1052 -1050 1053 0
-1052 1050 1053 0
-1052 -1050 1054 0
1052 -1054 0
1050 -1054 0
-977 -1051 1055 0
977 -1055 0
1051 -1055 0
1054 1055 -1056 0
-1054 1056 0
-1055 1056 0
-58 -1011 1057 0
58 -1057 0
1011 -1057 0
-983 -1057 -1058 0
983 1057 -1058 0
983 -1057 1058 0
-983 1057 1058 0
-1058 -1056 -1059 0
1058 1056 -1059 0
1058 -1056 1059 0
-1058 1056 1059 0
-1058 -1056 1060 0
1058 -1060 0
1056 -1060 0
-983 -1057 1061 0
983 -1061 0
1057 -1061 0
1060 1061 -1062 0
-1060 1062 0
-1061 1062 0
-66 -1011 1063 0
66 -1063 0
1011 -1063 0
-989 -1063 -1064 0
989 1063 -1064 0
989 -1063 1064 0
-989 1063 1064 0
-1064 -1062 -1065 0
1064 1062 -1065 0
1064 -1062 1065 0
-1064 1062 1065 0
-1064 -1062 1066 0
1064 -1066 0
1062 -1066 0
-989 -1063 1067 0
989 -1067 0
1063 -1067 0
1066 1067 -1068 0
-1066 1068 0
-1067 1068 0
-74 -1011 1069 0
74 -1069 0
1011 -1069 0
-995 -1069 -1070 0
995 1069 -1070 0
995 -1069 1070 0
-995 1069 1070 0
-1070 -1068 -1071 0
1070 1068 -1071 0
1070 -1068 1071 0
-1070 1068 1071 0
-1070 -1068 1072 0
1070 -1072 0
1068 -1072 0
-995 -1069 1073 0
995 -1073 0
1069 -1073 0
1072 1073 -1074 0
-1072 1074 0
-1073 1074 0
-82 -1011 1075 0
82 -1075 0
1011 -1075 0
-1001 -1075 -1076 0
1001 1075 -1076 0
1001 -1075 1076 0
-1001 1075 1076 0
-1076 -1074 -1077 0
1076 1074 -1077 0
1076 -1074 1077 0
-1076 1074 1077 0
-1076 -1074 1078 0
1076 -1078 0
1074 -1078 0
-1001 -1075 1079 0
1001 -1079 0
1075 -1079 0
1078 1079 -1080 0
-1078 1080 0
-1079 1080 0
-90 -1011 1081 0
90 -1081 0
1011 -1081 0
-1007 -1081 -1082 0
1007 1081 -1082 0
1007 -1081 1082 0
-1007 1081 1082 0
-1082 -1080 -1083 0
1082 1080 -1083 0
1082 -1080 1083 0
-1082 1080 1083 0
-1082 -1080 1084 0
1082 -1084 0
1080 -1084 0
-1007 -1081 1085 0
1007 -1085 0
1081 -1085 0
1084 1085 -1086 0
-1084 1086 0
-1085 1086 0
-98 -1011 1087 0
98 -1087 0
1011 -1087 0
-1010 -1087 -1088 0
1010 1087 -1088 0
1010 -1087 1088 0
-1010 1087 1088 0
-1088 -1086 -1089 0
1088 1086 -1089 0
1088 -1086 1089 0
-1088 1086 1089 0
-1088 -1086 1090 0
1088 -1090 0
1086 -1090 0
-1010 -1087 1091 0
1010 -1091 0
1087 -1091 0
1090 1091 -1092 0
-1090 1092 0
-1091 1092 0
3 0
8 0
-111 0
193 0
-275 0
-357 0
439 0
521 0
603 0
-685 0
-767 0
-849 0
-931 0
-1013 0
-1017 0
1023 0
1029 0
-1035 0
1041 0
-1047 0
-1053 0
-1059 0
-1065 0
-1071 0
-1077 0
-1083 0
1089 0
-1092 0
