p cnf 3600 11875
-1 -2 3 0
1 -3 0
2 -3 0
-4 -2 5 0
4 -5 0
2 -5 0
-1 -6 7 0
1 -7 0
6 -7 0
-5 -7 -8 0
5 7 -8 0
5 -7 8 0
-5 7 8 0
-5 -7 9 0
5 -9 0
7 -9 0
-10 -2 11 0
10 -11 0
2 -11 0
-4 -6 12 0
4 -12 0
6 -12 0
-11 -12 -13 0
11 12 -13 0
11 -12 13 0
-11 12 13 0
-13 -9 -14 0
13 9 -14 0
13 -9 14 0
-13 9 14 0
-13 -9 15 0
13 -15 0
9 -15 0
-11 -12 16 0
11 -16 0
12 -16 0
15 16 -17 0
-15 17 0
-16 17 0
-18 -2 19 0
18 -19 0
2 -19 0
-10 -6 20 0
10 -20 0
6 -20 0
-19 -20 -21 0
19 20 -21 0
19 -20 21 0
-19 20 21 0
-21 -17 -22 0
21 17 -22 0
21 -17 22 0
-21 17 22 0
-21 -17 23 0
21 -23 0
17 -23 0
-19 -20 24 0
19 -24 0
20 -24 0
23 24 -25 0
-23 25 0
-24 25 0
-26 -2 27 0
26 -27 0
2 -27 0
-18 -6 28 0
18 -28 0
6 -28 0
-27 -28 -29 0
27 28 -29 0
27 -28 29 0
-27 28 29 0
-29 -25 -30 0
29 25 -30 0
29 -25 30 0
-29 25 30 0
-29 -25 31 0
29 -31 0
25 -31 0
-27 -28 32 0
27 -32 0
28 -32 0
31 32 -33 0
-31 33 0
-32 33 0
-34 -2 35 0
34 -35 0
2 -35 0
-26 -6 36 0
26 -36 0
6 -36 0
-35 -36 -37 0
35 36 -37 0
35 -36 37 0
-35 36 37 0
-37 -33 -38 0
37 33 -38 0
37 -33 38 0
-37 33 38 0
-37 -33 39 0
37 -39 0
33 -39 0
-35 -36 40 0
35 -40 0
36 -40 0
39 40 -41 0
-39 41 0
-40 41 0
-42 -2 43 0
42 -43 0
2 -43 0
-34 -6 44 0
34 -44 0
6 -44 0
-43 -44 -45 0
43 44 -45 0
43 -44 45 0
-43 44 45 0
-45 -41 -46 0
45 41 -46 0
45 -41 46 0
-45 41 46 0
-45 -41 47 0
45 -47 0
41 -47 0
-43 -44 48 0
43 -48 0
44 -48 0
47 48 -49 0
-47 49 0
-48 49 0
-50 -2 51 0
50 -51 0
2 -51 0
-42 -6 52 0
42 -52 0
6 -52 0
-51 -52 -53 0
51 52 -53 0
51 -52 53 0
-51 52 53 0
-53 -49 -54 0
53 49 -54 0
53 -49 54 0
-53 49 54 0
-53 -49 55 0
53 -55 0
49 -55 0
-51 -52 56 0
51 -56 0
52 -56 0
55 56 -57 0
-55 57 0
-56 57 0
-58 -2 59 0
58 -59 0
2 -59 0
-50 -6 60 0
50 -60 0
6 -60 0
-59 -60 -61 0
59 60 -61 0
59 -60 61 0
-59 60 61 0
-61 -57 -62 0
61 57 -62 0
61 -57 62 0
-61 57 62 0
-61 -57 63 0
61 -63 0
57 -63 0
-59 -60 64 0
59 -64 0
60 -64 0
63 64 -65 0
-63 65 0
-64 65 0
-66 -2 67 0
66 -67 0
2 -67 0
-58 -6 68 0
58 -68 0
6 -68 0
-67 -68 -69 0
67 68 -69 0
67 -68 69 0
-67 68 69 0
-69 -65 -70 0
69 65 -70 0
69 -65 70 0
-69 65 70 0
-69 -65 71 0
69 -71 0
65 -71 0
-67 -68 72 0
67 -72 0
68 -72 0
71 72 -73 0
-71 73 0
-72 73 0
-74 -2 75 0
74 -75 0
2 -75 0
-66 -6 76 0
66 -76 0
6 -76 0
-75 -76 -77 0
75 76 -77 0
75 -76 77 0
-75 76 77 0
-77 -73 -78 0
77 73 -78 0
77 -73 78 0
-77 73 78 0
-77 -73 79 0
77 -79 0
73 -79 0
-75 -76 80 0
75 -80 0
76 -80 0
79 80 -81 0
-79 81 0
-80 81 0
-82 -2 83 0
82 -83 0
2 -83 0
-74 -6 84 0
74 -84 0
6 -84 0
-83 -84 -85 0
83 84 -85 0
83 -84 85 0
-83 84 85 0
-85 -81 -86 0
85 81 -86 0
85 -81 86 0
-85 81 86 0
-85 -81 87 0
85 -87 0
81 -87 0
-83 -84 88 0
83 -88 0
84 -88 0
87 88 -89 0
-87 89 0
-88 89 0
-90 -2 91 0
90 -91 0
2 -91 0
-82 -6 92 0
82 -92 0
6 -92 0
-91 -92 -93 0
91 92 -93 0
91 -92 93 0
-91 92 93 0
-93 -89 -94 0
93 89 -94 0
93 -89 94 0
-93 89 94 0
-93 -89 95 0
93 -95 0
89 -95 0
-91 -92 96 0
91 -96 0
92 -96 0
95 96 -97 0
-95 97 0
-96 97 0
-98 -2 99 0
98 -99 0
2 -99 0
-90 -6 100 0
90 -100 0
6 -100 0
-99 -100 -101 0
99 100 -101 0
99 -100 101 0
-99 100 101 0
-101 -97 -102 0
101 97 -102 0
101 -97 102 0
-101 97 102 0
-101 -97 103 0
101 -103 0
97 -103 0
-99 -100 104 0
99 -104 0
100 -104 0
103 104 -105 0
-103 105 0
-104 105 0
-106 -2 107 0
106 -107 0
2 -107 0
-98 -6 108 0
98 -108 0
6 -108 0
-107 -108 -109 0
107 108 -109 0
107 -108 109 0
-107 108 109 0
-109 -105 -110 0
109 105 -110 0
109 -105 110 0
-109 105 110 0
-109 -105 111 0
109 -111 0
105 -111 0
-107 -108 112 0
107 -112 0
108 -112 0
111 112 -113 0
-111 113 0
-112 113 0
-114 -2 115 0
114 -115 0
2 -115 0
-106 -6 116 0
106 -116 0
6 -116 0
-115 -116 -117 0
115 116 -117 0
115 -116 117 0
-115 116 117 0
-117 -113 -118 0
117 113 -118 0
117 -113 118 0
-117 113 118 0
-117 -113 119 0
117 -119 0
113 -119 0
-115 -116 120 0
115 -120 0
116 -120 0
119 120 -121 0
-119 121 0
-120 121 0
-122 -2 123 0
122 -123 0
2 -123 0
-114 -6 124 0
114 -124 0
6 -124 0
-123 -124 -125 0
123 124 -125 0
123 -124 125 0
-123 124 125 0
-125 -121 -126 0
125 121 -126 0
125 -121 126 0
-125 121 126 0
-125 -121 127 0
125 -127 0
121 -127 0
-123 -124 128 0
123 -128 0
124 -128 0
127 128 -129 0
-127 129 0
-128 129 0
-130 -2 131 0
130 -131 0
2 -131 0
-122 -6 132 0
122 -132 0
6 -132 0
-131 -132 -133 0
131 132 -133 0
131 -132 133 0
-131 132 133 0
-133 -129 -134 0
133 129 -134 0
133 -129 134 0
-133 129 134 0
-133 -129 135 0
133 -135 0
129 -135 0
-131 -132 136 0
131 -136 0
132 -136 0
135 136 -137 0
-135 137 0
-136 137 0
-138 -2 139 0
138 -139 0
2 -139 0
-130 -6 140 0
130 -140 0
6 -140 0
-139 -140 -141 0
139 140 -141 0
139 -140 141 0
-139 140 141 0
-141 -137 -142 0
141 137 -142 0
141 -137 142 0
-141 137 142 0
-141 -137 143 0
141 -143 0
137 -143 0
-139 -140 144 0
139 -144 0
140 -144 0
143 144 -145 0
-143 145 0
-144 145 0
-146 -2 147 0
146 -147 0
2 -147 0
-138 -6 148 0
138 -148 0
6 -148 0
-147 -148 -149 0
147 148 -149 0
147 -148 149 0
-147 148 149 0
-149 -145 -150 0
149 145 -150 0
149 -145 150 0
-149 145 150 0
-149 -145 151 0
149 -151 0
145 -151 0
-147 -148 152 0
147 -152 0
148 -152 0
151 152 -153 0
-151 153 0
-152 153 0
-154 -2 155 0
154 -155 0
2 -155 0
-146 -6 156 0
146 -156 0
6 -156 0
-155 -156 -157 0
155 156 -157 0
155 -156 157 0
-155 156 157 0
-157 -153 -158 0
157 153 -158 0
157 -153 158 0
-157 153 158 0
-157 -153 159 0
157 -159 0
153 -159 0
-155 -156 160 0
155 -160 0
156 -160 0
159 160 -161 0
-159 161 0
-160 161 0
-162 -2 163 0
162 -163 0
2 -163 0
-154 -6 164 0
154 -164 0
6 -164 0
-163 -164 -165 0
163 164 -165 0
163 -164 165 0
-163 164 165 0
-165 -161 -166 0
165 161 -166 0
165 -161 166 0
-165 161 166 0
-165 -161 167 0
165 -167 0
161 -167 0
-163 -164 168 0
163 -168 0
164 -168 0
167 168 -169 0
-167 169 0
-168 169 0
-170 -2 171 0
170 -171 0
2 -171 0
-162 -6 172 0
162 -172 0
6 -172 0
-171 -172 -173 0
171 172 -173 0
171 -172 173 0
-171 172 173 0
-173 -169 -174 0
173 169 -174 0
173 -169 174 0
-173 169 174 0
-173 -169 175 0
173 -175 0
169 -175 0
-171 -172 176 0
171 -176 0
172 -176 0
175 176 -177 0
-175 177 0
-176 177 0
-178 -2 179 0
178 -179 0
2 -179 0
-170 -6 180 0
170 -180 0
6 -180 0
-179 -180 -181 0
179 180 -181 0
179 -180 181 0
-179 180 181 0
-181 -177 -182 0
181 177 -182 0
181 -177 182 0
-181 177 182 0
-181 -177 183 0
181 -183 0
177 -183 0
-179 -180 184 0
179 -184 0
180 -184 0
183 184 -185 0
-183 185 0
-184 185 0
-186 -2 187 0
186 -187 0
2 -187 0
-178 -6 188 0
178 -188 0
6 -188 0
-187 -188 -189 0
187 188 -189 0
187 -188 189 0
-187 188 189 0
-189 -185 -190 0
189 185 -190 0
189 -185 190 0
-189 185 190 0
-189 -185 191 0
189 -191 0
185 -191 0
-187 -188 192 0
187 -192 0
188 -192 0
191 192 -193 0
-191 193 0
-192 193 0
-186 -6 194 0
186 -194 0
6 -194 0
-193 -194 -195 0
193 194 -195 0
193 -194 195 0
-193 194 195 0
-193 -194 196 0
193 -196 0
194 -196 0
-1 -197 198 0
1 -198 0
197 -198 0
-14 -198 -199 0
14 198 -199 0
14 -198 199 0
-14 198 199 0
-14 -198 200 0
14 -200 0
198 -200 0
-4 -197 201 0
4 -201 0
197 -201 0
-22 -201 -202 0
22 201 -202 0
22 -201 202 0
-22 201 202 0
-202 -200 -203 0
202 200 -203 0
202 -200 203 0
-202 200 203 0
-202 -200 204 0
202 -204 0
200 -204 0
-22 -201 205 0
22 -205 0
201 -205 0
204 205 -206 0
-204 206 0
-205 206 0
-10 -197 207 0
10 -207 0
197 -207 0
-30 -207 -208 0
30 207 -208 0
30 -207 208 0
-30 207 208 0
-208 -206 -209 0
208 206 -209 0
208 -206 209 0
-208 206 209 0
-208 -206 210 0
208 -210 0
206 -210 0
-30 -207 211 0
30 -211 0
207 -211 0
210 211 -212 0
-210 212 0
-211 212 0
-18 -197 213 0
18 -213 0
197 -213 0
-38 -213 -214 0
38 213 -214 0
38 -213 214 0
-38 213 214 0
-214 -212 -215 0
214 212 -215 0
214 -212 215 0
-214 212 215 0
-214 -212 216 0
214 -216 0
212 -216 0
-38 -213 217 0
38 -217 0
213 -217 0
216 217 -218 0
-216 218 0
-217 218 0
-26 -197 219 0
26 -219 0
197 -219 0
-46 -219 -220 0
46 219 -220 0
46 -219 220 0
-46 219 220 0
-220 -218 -221 0
220 218 -221 0
220 -218 221 0
-220 218 221 0
-220 -218 222 0
220 -222 0
218 -222 0
-46 -219 223 0
46 -223 0
219 -223 0
222 223 -224 0
-222 224 0
-223 224 0
-34 -197 225 0
34 -225 0
197 -225 0
-54 -225 -226 0
54 225 -226 0
54 -225 226 0
-54 225 226 0
-226 -224 -227 0
226 224 -227 0
226 -224 227 0
-226 224 227 0
-226 -224 228 0
226 -228 0
224 -228 0
-54 -225 229 0
54 -229 0
225 -229 0
228 229 -230 0
-228 230 0
-229 230 0
-42 -197 231 0
42 -231 0
197 -231 0
-62 -231 -232 0
62 231 -232 0
62 -231 232 0
-62 231 232 0
-232 -230 -233 0
232 230 -233 0
232 -230 233 0
-232 230 233 0
-232 -230 234 0
232 -234 0
230 -234 0
-62 -231 235 0
62 -235 0
231 -235 0
234 235 -236 0
-234 236 0
-235 236 0
-50 -197 237 0
50 -237 0
197 -237 0
-70 -237 -238 0
70 237 -238 0
70 -237 238 0
-70 237 238 0
-238 -236 -239 0
238 236 -239 0
238 -236 239 0
-238 236 239 0
-238 -236 240 0
238 -240 0
236 -240 0
-70 -237 241 0
70 -241 0
237 -241 0
240 241 -242 0
-240 242 0
-241 242 0
-58 -197 243 0
58 -243 0
197 -243 0
-78 -243 -244 0
78 243 -244 0
78 -243 244 0
-78 243 244 0
-244 -242 -245 0
244 242 -245 0
244 -242 245 0
-244 242 245 0
-244 -242 246 0
244 -246 0
242 -246 0
-78 -243 247 0
78 -247 0
243 -247 0
246 247 -248 0
-246 248 0
-247 248 0
-66 -197 249 0
66 -249 0
197 -249 0
-86 -249 -250 0
86 249 -250 0
86 -249 250 0
-86 249 250 0
-250 -248 -251 0
250 248 -251 0
250 -248 251 0
-250 248 251 0
-250 -248 252 0
250 -252 0
248 -252 0
-86 -249 253 0
86 -253 0
249 -253 0
252 253 -254 0
-252 254 0
-253 254 0
-74 -197 255 0
74 -255 0
197 -255 0
-94 -255 -256 0
94 255 -256 0
94 -255 256 0
-94 255 256 0
-256 -254 -257 0
256 254 -257 0
256 -254 257 0
-256 254 257 0
-256 -254 258 0
256 -258 0
254 -258 0
-94 -255 259 0
94 -259 0
255 -259 0
258 259 -260 0
-258 260 0
-259 260 0
-82 -197 261 0
82 -261 0
197 -261 0
-102 -261 -262 0
102 261 -262 0
102 -261 262 0
-102 261 262 0
-262 -260 -263 0
262 260 -263 0
262 -260 263 0
-262 260 263 0
-262 -260 264 0
262 -264 0
260 -264 0
-102 -261 265 0
102 -265 0
261 -265 0
264 265 -266 0
-264 266 0
-265 266 0
-90 -197 267 0
90 -267 0
197 -267 0
-110 -267 -268 0
110 267 -268 0
110 -267 268 0
-110 267 268 0
-268 -266 -269 0
268 266 -269 0
268 -266 269 0
-268 266 269 0
-268 -266 270 0
268 -270 0
266 -270 0
-110 -267 271 0
110 -271 0
267 -271 0
270 271 -272 0
-270 272 0
-271 272 0
-98 -197 273 0
98 -273 0
197 -273 0
-118 -273 -274 0
118 273 -274 0
118 -273 274 0
-118 273 274 0
-274 -272 -275 0
274 272 -275 0
274 -272 275 0
-274 272 275 0
-274 -272 276 0
274 -276 0
272 -276 0
-118 -273 277 0
118 -277 0
273 -277 0
276 277 -278 0
-276 278 0
-277 278 0
-106 -197 279 0
106 -279 0
197 -279 0
-126 -279 -280 0
126 279 -280 0
126 -279 280 0
-126 279 280 0
-280 -278 -281 0
280 278 -281 0
280 -278 281 0
-280 278 281 0
-280 -278 282 0
280 -282 0
278 -282 0
-126 -279 283 0
126 -283 0
279 -283 0
282 283 -284 0
-282 284 0
-283 284 0
-114 -197 285 0
114 -285 0
197 -285 0
-134 -285 -286 0
134 285 -286 0
134 -285 286 0
-134 285 286 0
-286 -284 -287 0
286 284 -287 0
286 -284 287 0
-286 284 287 0
-286 -284 288 0
286 -288 0
284 -288 0
-134 -285 289 0
134 -289 0
285 -289 0
288 289 -290 0
-288 290 0
-289 290 0
-122 -197 291 0
122 -291 0
197 -291 0
-142 -291 -292 0
142 291 -292 0
142 -291 292 0
-142 291 292 0
-292 -290 -293 0
292 290 -293 0
292 -290 293 0
-292 290 293 0
-292 -290 294 0
292 -294 0
290 -294 0
-142 -291 295 0
142 -295 0
291 -295 0
294 295 -296 0
-294 296 0
-295 296 0
-130 -197 297 0
130 -297 0
197 -297 0
-150 -297 -298 0
150 297 -298 0
150 -297 298 0
-150 297 298 0
-298 -296 -299 0
298 296 -299 0
298 -296 299 0
-298 296 299 0
-298 -296 300 0
298 -300 0
296 -300 0
-150 -297 301 0
150 -301 0
297 -301 0
300 301 -302 0
-300 302 0
-301 302 0
-138 -197 303 0
138 -303 0
197 -303 0
-158 -303 -304 0
158 303 -304 0
158 -303 304 0
-158 303 304 0
-304 -302 -305 0
304 302 -305 0
304 -302 305 0
-304 302 305 0
-304 -302 306 0
304 -306 0
302 -306 0
-158 -303 307 0
158 -307 0
303 -307 0
306 307 -308 0
-306 308 0
-307 308 0
-146 -197 309 0
146 -309 0
197 -309 0
-166 -309 -310 0
166 309 -310 0
166 -309 310 0
-166 309 310 0
-310 -308 -311 0
310 308 -311 0
310 -308 311 0
-310 308 311 0
-310 -308 312 0
310 -312 0
308 -312 0
-166 -309 313 0
166 -313 0
309 -313 0
312 313 -314 0
-312 314 0
-313 314 0
-154 -197 315 0
154 -315 0
197 -315 0
-174 -315 -316 0
174 315 -316 0
174 -315 316 0
-174 315 316 0
-316 -314 -317 0
316 314 -317 0
316 -314 317 0
-316 314 317 0
-316 -314 318 0
316 -318 0
314 -318 0
-174 -315 319 0
174 -319 0
315 -319 0
318 319 -320 0
-318 320 0
-319 320 0
-162 -197 321 0
162 -321 0
197 -321 0
-182 -321 -322 0
182 321 -322 0
182 -321 322 0
-182 321 322 0
-322 -320 -323 0
322 320 -323 0
322 -320 323 0
-322 320 323 0
-322 -320 324 0
322 -324 0
320 -324 0
-182 -321 325 0
182 -325 0
321 -325 0
324 325 -326 0
-324 326 0
-325 326 0
-170 -197 327 0
170 -327 0
197 -327 0
-190 -327 -328 0
190 327 -328 0
190 -327 328 0
-190 327 328 0
-328 -326 -329 0
328 326 -329 0
328 -326 329 0
-328 326 329 0
-328 -326 330 0
328 -330 0
326 -330 0
-190 -327 331 0
190 -331 0
327 -331 0
330 331 -332 0
-330 332 0
-331 332 0
-178 -197 333 0
178 -333 0
197 -333 0
-195 -333 -334 0
195 333 -334 0
195 -333 334 0
-195 333 334 0
-334 -332 -335 0
334 332 -335 0
334 -332 335 0
-334 332 335 0
-334 -332 336 0
334 -336 0
332 -336 0
-195 -333 337 0
195 -337 0
333 -337 0
336 337 -338 0
-336 338 0
-337 338 0
-186 -197 339 0
186 -339 0
197 -339 0
-196 -339 -340 0
196 339 -340 0
196 -339 340 0
-196 339 340 0
-340 -338 -341 0
340 338 -341 0
340 -338 341 0
-340 338 341 0
-340 -338 342 0
340 -342 0
338 -342 0
-196 -339 343 0
196 -343 0
339 -343 0
342 343 -344 0
-342 344 0
-343 344 0
-1 -345 346 0
1 -346 0
345 -346 0
-203 -346 -347 0
203 346 -347 0
203 -346 347 0
-203 346 347 0
-203 -346 348 0
203 -348 0
346 -348 0
-4 -345 349 0
4 -349 0
345 -349 0
-209 -349 -350 0
209 349 -350 0
209 -349 350 0
-209 349 350 0
-350 -348 -351 0
350 348 -351 0
350 -348 351 0
-350 348 351 0
-350 -348 352 0
350 -352 0
348 -352 0
-209 -349 353 0
209 -353 0
349 -353 0
352 353 -354 0
-352 354 0
-353 354 0
-10 -345 355 0
10 -355 0
345 -355 0
-215 -355 -356 0
215 355 -356 0
215 -355 356 0
-215 355 356 0
-356 -354 -357 0
356 354 -357 0
356 -354 357 0
-356 354 357 0
-356 -354 358 0
356 -358 0
354 -358 0
-215 -355 359 0
215 -359 0
355 -359 0
358 359 -360 0
-358 360 0
-359 360 0
-18 -345 361 0
18 -361 0
345 -361 0
-221 -361 -362 0
221 361 -362 0
221 -361 362 0
-221 361 362 0
-362 -360 -363 0
362 360 -363 0
362 -360 363 0
-362 360 363 0
-362 -360 364 0
362 -364 0
360 -364 0
-221 -361 365 0
221 -365 0
361 -365 0
364 365 -366 0
-364 366 0
-365 366 0
-26 -345 367 0
26 -367 0
345 -367 0
-227 -367 -368 0
227 367 -368 0
227 -367 368 0
-227 367 368 0
-368 -366 -369 0
368 366 -369 0
368 -366 369 0
-368 366 369 0
-368 -366 370 0
368 -370 0
366 -370 0
-227 -367 371 0
227 -371 0
367 -371 0
370 371 -372 0
-370 372 0
-371 372 0
-34 -345 373 0
34 -373 0
345 -373 0
-233 -373 -374 0
233 373 -374 0
233 -373 374 0
-233 373 374 0
-374 -372 -375 0
374 372 -375 0
374 -372 375 0
-374 372 375 0
-374 -372 376 0
374 -376 0
372 -376 0
-233 -373 377 0
233 -377 0
373 -377 0
376 377 -378 0
-376 378 0
-377 378 0
-42 -345 379 0
42 -379 0
345 -379 0
-239 -379 -380 0
239 379 -380 0
239 -379 380 0
-239 379 380 0
-380 -378 -381 0
380 378 -381 0
380 -378 381 0
-380 378 381 0
-380 -378 382 0
380 -382 0
378 -382 0
-239 -379 383 0
239 -383 0
379 -383 0
382 383 -384 0
-382 384 0
-383 384 0
-50 -345 385 0
50 -385 0
345 -385 0
-245 -385 -386 0
245 385 -386 0
245 -385 386 0
-245 385 386 0
-386 -384 -387 0
386 384 -387 0
386 -384 387 0
-386 384 387 0
-386 -384 388 0
386 -388 0
384 -388 0
-245 -385 389 0
245 -389 0
385 -389 0
388 389 -390 0
-388 390 0
-389 390 0
-58 -345 391 0
58 -391 0
345 -391 0
-251 -391 -392 0
251 391 -392 0
251 -391 392 0
-251 391 392 0
-392 -390 -393 0
392 390 -393 0
392 -390 393 0
-392 390 393 0
-392 -390 394 0
392 -394 0
390 -394 0
-251 -391 395 0
251 -395 0
391 -395 0
394 395 -396 0
-394 396 0
-395 396 0
-66 -345 397 0
66 -397 0
345 -397 0
-257 -397 -398 0
257 397 -398 0
257 -397 398 0
-257 397 398 0
-398 -396 -399 0
398 396 -399 0
398 -396 399 0
-398 396 399 0
-398 -396 400 0
398 -400 0
396 -400 0
-257 -397 401 0
257 -401 0
397 -401 0
400 401 -402 0
-400 402 0
-401 402 0
-74 -345 403 0
74 -403 0
345 -403 0
-263 -403 -404 0
263 403 -404 0
263 -403 404 0
-263 403 404 0
-404 -402 -405 0
404 402 -405 0
404 -402 405 0
-404 402 405 0
-404 -402 406 0
404 -406 0
402 -406 0
-263 -403 407 0
263 -407 0
403 -407 0
406 407 -408 0
-406 408 0
-407 408 0
-82 -345 409 0
82 -409 0
345 -409 0
-269 -409 -410 0
269 409 -410 0
269 -409 410 0
-269 409 410 0
-410 -408 -411 0
410 408 -411 0
410 -408 411 0
-410 408 411 0
-410 -408 412 0
410 -412 0
408 -412 0
-269 -409 413 0
269 -413 0
409 -413 0
412 413 -414 0
-412 414 0
-413 414 0
-90 -345 415 0
90 -415 0
345 -415 0
-275 -415 -416 0
275 415 -416 0
275 -415 416 0
-275 415 416 0
-416 -414 -417 0
416 414 -417 0
416 -414 417 0
-416 414 417 0
-416 -414 418 0
416 -418 0
414 -418 0
-275 -415 419 0
275 -419 0
415 -419 0
418 419 -420 0
-418 420 0
-419 420 0
-98 -345 421 0
98 -421 0
345 -421 0
-281 -421 -422 0
281 421 -422 0
281 -421 422 0
-281 421 422 0
-422 -420 -423 0
422 420 -423 0
422 -420 423 0
-422 420 423 0
-422 -420 424 0
422 -424 0
420 -424 0
-281 -421 425 0
281 -425 0
421 -425 0
424 425 -426 0
-424 426 0
-425 426 0
-106 -345 427 0
106 -427 0
345 -427 0
-287 -427 -428 0
287 427 -428 0
287 -427 428 0
-287 427 428 0
-428 -426 -429 0
428 426 -429 0
428 -426 429 0
-428 426 429 0
-428 -426 430 0
428 -430 0
426 -430 0
-287 -427 431 0
287 -431 0
427 -431 0
430 431 -432 0
-430 432 0
-431 432 0
-114 -345 433 0
114 -433 0
345 -433 0
-293 -433 -434 0
293 433 -434 0
293 -433 434 0
-293 433 434 0
-434 -432 -435 0
434 432 -435 0
434 -432 435 0
-434 432 435 0
-434 -432 436 0
434 -436 0
432 -436 0
-293 -433 437 0
293 -437 0
433 -437 0
436 437 -438 0
-436 438 0
-437 438 0
-122 -345 439 0
122 -439 0
345 -439 0
-299 -439 -440 0
299 439 -440 0
299 -439 440 0
-299 439 440 0
-440 -438 -441 0
440 438 -441 0
440 -438 441 0
-440 438 441 0
-440 -438 442 0
440 -442 0
438 -442 0
-299 -439 443 0
299 -443 0
439 -443 0
442 443 -444 0
-442 444 0
-443 444 0
-130 -345 445 0
130 -445 0
345 -445 0
-305 -445 -446 0
305 445 -446 0
305 -445 446 0
-305 445 446 0
-446 -444 -447 0
446 444 -447 0
446 -444 447 0
-446 444 447 0
-446 -444 448 0
446 -448 0
444 -448 0
-305 -445 449 0
305 -449 0
445 -449 0
448 449 -450 0
-448 450 0
-449 450 0
-138 -345 451 0
138 -451 0
345 -451 0
-311 -451 -452 0
311 451 -452 0
311 -451 452 0
-311 451 452 0
-452 -450 -453 0
452 450 -453 0
452 -450 453 0
-452 450 453 0
-452 -450 454 0
452 -454 0
450 -454 0
-311 -451 455 0
311 -455 0
451 -455 0
454 455 -456 0
-454 456 0
-455 456 0
-146 -345 457 0
146 -457 0
345 -457 0
-317 -457 -458 0
317 457 -458 0
317 -457 458 0
-317 457 458 0
-458 -456 -459 0
458 456 -459 0
458 -456 459 0
-458 456 459 0
-458 -456 460 0
458 -460 0
456 -460 0
-317 -457 461 0
317 -461 0
457 -461 0
460 461 -462 0
-460 462 0
-461 462 0
-154 -345 463 0
154 -463 0
345 -463 0
-323 -463 -464 0
323 463 -464 0
323 -463 464 0
-323 463 464 0
-464 -462 -465 0
464 462 -465 0
464 -462 465 0
-464 462 465 0
-464 -462 466 0
464 -466 0
462 -466 0
-323 -463 467 0
323 -467 0
463 -467 0
466 467 -468 0
-466 468 0
-467 468 0
-162 -345 469 0
162 -469 0
345 -469 0
-329 -469 -470 0
329 469 -470 0
329 -469 470 0
-329 469 470 0
-470 -468 -471 0
470 468 -471 0
470 -468 471 0
-470 468 471 0
-470 -468 472 0
470 -472 0
468 -472 0
-329 -469 473 0
329 -473 0
469 -473 0
472 473 -474 0
-472 474 0
-473 474 0
-170 -345 475 0
170 -475 0
345 -475 0
-335 -475 -476 0
335 475 -476 0
335 -475 476 0
-335 475 476 0
-476 -474 -477 0
476 474 -477 0
476 -474 477 0
-476 474 477 0
-476 -474 478 0
476 -478 0
474 -478 0
-335 -475 479 0
335 -479 0
475 -479 0
478 479 -480 0
-478 480 0
-479 480 0
-178 -345 481 0
178 -481 0
345 -481 0
-341 -481 -482 0
341 481 -482 0
341 -481 482 0
-341 481 482 0
-482 -480 -483 0
482 480 -483 0
482 -480 483 0
-482 480 483 0
-482 -480 484 0
482 -484 0
480 -484 0
-341 -481 485 0
341 -485 0
481 -485 0
484 485 -486 0
-484 486 0
-485 486 0
-186 -345 487 0
186 -487 0
345 -487 0
-344 -487 -488 0
344 487 -488 0
344 -487 488 0
-344 487 488 0
-488 -486 -489 0
488 486 -489 0
488 -486 489 0
-488 486 489 0
-488 -486 490 0
488 -490 0
486 -490 0
-344 -487 491 0
344 -491 0
487 -491 0
490 491 -492 0
-490 492 0
-491 492 0
-1 -493 494 0
1 -494 0
493 -494 0
-351 -494 -495 0
351 494 -495 0
351 -494 495 0
-351 494 495 0
-351 -494 496 0
351 -496 0
494 -496 0
-4 -493 497 0
4 -497 0
493 -497 0
-357 -497 -498 0
357 497 -498 0
357 -497 498 0
-357 497 498 0
-498 -496 -499 0
498 496 -499 0
498 -496 499 0
-498 496 499 0
-498 -496 500 0
498 -500 0
496 -500 0
-357 -497 501 0
357 -501 0
497 -501 0
500 501 -502 0
-500 502 0
-501 502 0
-10 -493 503 0
10 -503 0
493 -503 0
-363 -503 -504 0
363 503 -504 0
363 -503 504 0
-363 503 504 0
-504 -502 -505 0
504 502 -505 0
504 -502 505 0
-504 502 505 0
-504 -502 506 0
504 -506 0
502 -506 0
-363 -503 507 0
363 -507 0
503 -507 0
506 507 -508 0
-506 508 0
-507 508 0
-18 -493 509 0
18 -509 0
493 -509 0
-369 -509 -510 0
369 509 -510 0
369 -509 510 0
-369 509 510 0
-510 -508 -511 0
510 508 -511 0
510 -508 511 0
-510 508 511 0
-510 -508 512 0
510 -512 0
508 -512 0
-369 -509 513 0
369 -513 0
509 -513 0
512 513 -514 0
-512 514 0
-513 514 0
-26 -493 515 0
26 -515 0
493 -515 0
-375 -515 -516 0
375 515 -516 0
375 -515 516 0
-375 515 516 0
-516 -514 -517 0
516 514 -517 0
516 -514 517 0
-516 514 517 0
-516 -514 518 0
516 -518 0
514 -518 0
-375 -515 519 0
375 -519 0
515 -519 0
518 519 -520 0
-518 520 0
-519 520 0
-34 -493 521 0
34 -521 0
493 -521 0
-381 -521 -522 0
381 521 -522 0
381 -521 522 0
-381 521 522 0
-522 -520 -523 0
522 520 -523 0
522 -520 523 0
-522 520 523 0
-522 -520 524 0
522 -524 0
520 -524 0
-381 -521 525 0
381 -525 0
521 -525 0
524 525 -526 0
-524 526 0
-525 526 0
-42 -493 527 0
42 -527 0
493 -527 0
-387 -527 -528 0
387 527 -528 0
387 -527 528 0
-387 527 528 0
-528 -526 -529 0
528 526 -529 0
528 -526 529 0
-528 526 529 0
-528 -526 530 0
528 -530 0
526 -530 0
-387 -527 531 0
387 -531 0
527 -531 0
530 531 -532 0
-530 532 0
-531 532 0
-50 -493 533 0
50 -533 0
493 -533 0
-393 -533 -534 0
393 533 -534 0
393 -533 534 0
-393 533 534 0
-534 -532 -535 0
534 532 -535 0
534 -532 535 0
-534 532 535 0
-534 -532 536 0
534 -536 0
532 -536 0
-393 -533 537 0
393 -537 0
533 -537 0
536 537 -538 0
-536 538 0
-537 538 0
-58 -493 539 0
58 -539 0
493 -539 0
-399 -539 -540 0
399 539 -540 0
399 -539 540 0
-399 539 540 0
-540 -538 -541 0
540 538 -541 0
540 -538 541 0
-540 538 541 0
-540 -538 542 0
540 -542 0
538 -542 0
-399 -539 543 0
399 -543 0
539 -543 0
542 543 -544 0
-542 544 0
-543 544 0
-66 -493 545 0
66 -545 0
493 -545 0
-405 -545 -546 0
405 545 -546 0
405 -545 546 0
-405 545 546 0
-546 -544 -547 0
546 544 -547 0
546 -544 547 0
-546 544 547 0
-546 -544 548 0
546 -548 0
544 -548 0
-405 -545 549 0
405 -549 0
545 -549 0
548 549 -550 0
-548 550 0
-549 550 0
-74 -493 551 0
74 -551 0
493 -551 0
-411 -551 -552 0
411 551 -552 0
411 -551 552 0
-411 551 552 0
-552 -550 -553 0
552 550 -553 0
552 -550 553 0
-552 550 553 0
-552 -550 554 0
552 -554 0
550 -554 0
-411 -551 555 0
411 -555 0
551 -555 0
554 555 -556 0
-554 556 0
-555 556 0
-82 -493 557 0
82 -557 0
493 -557 0
-417 -557 -558 0
417 557 -558 0
417 -557 558 0
-417 557 558 0
-558 -556 -559 0
558 556 -559 0
558 -556 559 0
-558 556 559 0
-558 -556 560 0
558 -560 0
556 -560 0
-417 -557 561 0
417 -561 0
557 -561 0
560 561 -562 0
-560 562 0
-561 562 0
-90 -493 563 0
90 -563 0
493 -563 0
-423 -563 -564 0
423 563 -564 0
423 -563 564 0
-423 563 564 0
-564 -562 -565 0
564 562 -565 0
564 -562 565 0
-564 562 565 0
-564 -562 566 0
564 -566 0
562 -566 0
-423 -563 567 0
423 -567 0
563 -567 0
566 567 -568 0
-566 568 0
-567 568 0
-98 -493 569 0
98 -569 0
493 -569 0
-429 -569 -570 0
429 569 -570 0
429 -569 570 0
-429 569 570 0
-570 -568 -571 0
570 568 -571 0
570 -568 571 0
-570 568 571 0
-570 -568 572 0
570 -572 0
568 -572 0
-429 -569 573 0
429 -573 0
569 -573 0
572 573 -574 0
-572 574 0
-573 574 0
-106 -493 575 0
106 -575 0
493 -575 0
-435 -575 -576 0
435 575 -576 0
435 -575 576 0
-435 575 576 0
-576 -574 -577 0
576 574 -577 0
576 -574 577 0
-576 574 577 0
-576 -574 578 0
576 -578 0
574 -578 0
-435 -575 579 0
435 -579 0
575 -579 0
578 579 -580 0
-578 580 0
-579 580 0
-114 -493 581 0
114 -581 0
493 -581 0
-441 -581 -582 0
441 581 -582 0
441 -581 582 0
-441 581 582 0
-582 -580 -583 0
582 580 -583 0
582 -580 583 0
-582 580 583 0
-582 -580 584 0
582 -584 0
580 -584 0
-441 -581 585 0
441 -585 0
581 -585 0
584 585 -586 0
-584 586 0
-585 586 0
-122 -493 587 0
122 -587 0
493 -587 0
-447 -587 -588 0
447 587 -588 0
447 -587 588 0
-447 587 588 0
-588 -586 -589 0
588 586 -589 0
588 -586 589 0
-588 586 589 0
-588 -586 590 0
588 -590 0
586 -590 0
-447 -587 591 0
447 -591 0
587 -591 0
590 591 -592 0
-590 592 0
-591 592 0
-130 -493 593 0
130 -593 0
493 -593 0
-453 -593 -594 0
453 593 -594 0
453 -593 594 0
-453 593 594 0
-594 -592 -595 0
594 592 -595 0
594 -592 595 0
-594 592 595 0
-594 -592 596 0
594 -596 0
592 -596 0
-453 -593 597 0
453 -597 0
593 -597 0
596 597 -598 0
-596 598 0
-597 598 0
-138 -493 599 0
138 -599 0
493 -599 0
-459 -599 -600 0
459 599 -600 0
459 -599 600 0
-459 599 600 0
-600 -598 -601 0
600 598 -601 0
600 -598 601 0
-600 598 601 0
-600 -598 602 0
600 -602 0
598 -602 0
-459 -599 603 0
459 -603 0
599 -603 0
602 603 -604 0
-602 604 0
-603 604 0
-146 -493 605 0
146 -605 0
493 -605 0
-465 -605 -606 0
465 605 -606 0
465 -605 606 0
-465 605 606 0
-606 -604 -607 0
606 604 -607 0
606 -604 607 0
-606 604 607 0
-606 -604 608 0
606 -608 0
604 -608 0
-465 -605 609 0
465 -609 0
605 -609 0
608 609 -610 0
-608 610 0
-609 610 0
-154 -493 611 0
154 -611 0
493 -611 0
-471 -611 -612 0
471 611 -612 0
471 -611 612 0
-471 611 612 0
-612 -610 -613 0
612 610 -613 0
612 -610 613 0
-612 610 613 0
-612 -610 614 0
612 -614 0
610 -614 0
-471 -611 615 0
471 -615 0
611 -615 0
614 615 -616 0
-614 616 0
-615 616 0
-162 -493 617 0
162 -617 0
493 -617 0
-477 -617 -618 0
477 617 -618 0
477 -617 618 0
-477 617 618 0
-618 -616 -619 0
618 616 -619 0
618 -616 619 0
-618 616 619 0
-618 -616 620 0
618 -620 0
616 -620 0
-477 -617 621 0
477 -621 0
617 -621 0
620 621 -622 0
-620 622 0
-621 622 0
-170 -493 623 0
170 -623 0
493 -623 0
-483 -623 -624 0
483 623 -624 0
483 -623 624 0
-483 623 624 0
-624 -622 -625 0
624 622 -625 0
624 -622 625 0
-624 622 625 0
-624 -622 626 0
624 -626 0
622 -626 0
-483 -623 627 0
483 -627 0
623 -627 0
626 627 -628 0
-626 628 0
-627 628 0
-178 -493 629 0
178 -629 0
493 -629 0
-489 -629 -630 0
489 629 -630 0
489 -629 630 0
-489 629 630 0
-630 -628 -631 0
630 628 -631 0
630 -628 631 0
-630 628 631 0
-630 -628 632 0
630 -632 0
628 -632 0
-489 -629 633 0
489 -633 0
629 -633 0
632 633 -634 0
-632 634 0
-633 634 0
-186 -493 635 0
186 -635 0
493 -635 0
-492 -635 -636 0
492 635 -636 0
492 -635 636 0
-492 635 636 0
-636 -634 -637 0
636 634 -637 0
636 -634 637 0
-636 634 637 0
-636 -634 638 0
636 -638 0
634 -638 0
-492 -635 639 0
492 -639 0
635 -639 0
638 639 -640 0
-638 640 0
-639 640 0
-1 -641 642 0
1 -642 0
641 -642 0
-499 -642 -643 0
499 642 -643 0
499 -642 643 0
-499 642 643 0
-499 -642 644 0
499 -644 0
642 -644 0
-4 -641 645 0
4 -645 0
641 -645 0
-505 -645 -646 0
505 645 -646 0
505 -645 646 0
-505 645 646 0
-646 -644 -647 0
646 644 -647 0
646 -644 647 0
-646 644 647 0
-646 -644 648 0
646 -648 0
644 -648 0
-505 -645 649 0
505 -649 0
645 -649 0
648 649 -650 0
-648 650 0
-649 650 0
-10 -641 651 0
10 -651 0
641 -651 0
-511 -651 -652 0
511 651 -652 0
511 -651 652 0
-511 651 652 0
-652 -650 -653 0
652 650 -653 0
652 -650 653 0
-652 650 653 0
-652 -650 654 0
652 -654 0
650 -654 0
-511 -651 655 0
511 -655 0
651 -655 0
654 655 -656 0
-654 656 0
-655 656 0
-18 -641 657 0
18 -657 0
641 -657 0
-517 -657 -658 0
517 657 -658 0
517 -657 658 0
-517 657 658 0
-658 -656 -659 0
658 656 -659 0
658 -656 659 0
-658 656 659 0
-658 -656 660 0
658 -660 0
656 -660 0
-517 -657 661 0
517 -661 0
657 -661 0
660 661 -662 0
-660 662 0
-661 662 0
-26 -641 663 0
26 -663 0
641 -663 0
-523 -663 -664 0
523 663 -664 0
523 -663 664 0
-523 663 664 0
-664 -662 -665 0
664 662 -665 0
664 -662 665 0
-664 662 665 0
-664 -662 666 0
664 -666 0
662 -666 0
-523 -663 667 0
523 -667 0
663 -667 0
666 667 -668 0
-666 668 0
-667 668 0
-34 -641 669 0
34 -669 0
641 -669 0
-529 -669 -670 0
529 669 -670 0
529 -669 670 0
-529 669 670 0
-670 -668 -671 0
670 668 -671 0
670 -668 671 0
-670 668 671 0
-670 -668 672 0
670 -672 0
668 -672 0
-529 -669 673 0
529 -673 0
669 -673 0
672 673 -674 0
-672 674 0
-673 674 0
-42 -641 675 0
42 -675 0
641 -675 0
-535 -675 -676 0
535 675 -676 0
535 -675 676 0
-535 675 676 0
-676 -674 -677 0
676 674 -677 0
676 -674 677 0
-676 674 677 0
-676 -674 678 0
676 -678 0
674 -678 0
-535 -675 679 0
535 -679 0
675 -679 0
678 679 -680 0
-678 680 0
-679 680 0
-50 -641 681 0
50 -681 0
641 -681 0
-541 -681 -682 0
541 681 -682 0
541 -681 682 0
-541 681 682 0
-682 -680 -683 0
682 680 -683 0
682 -680 683 0
-682 680 683 0
-682 -680 684 0
682 -684 0
680 -684 0
-541 -681 685 0
541 -685 0
681 -685 0
684 685 -686 0
-684 686 0
-685 686 0
-58 -641 687 0
58 -687 0
641 -687 0
-547 -687 -688 0
547 687 -688 0
547 -687 688 0
-547 687 688 0
-688 -686 -689 0
688 686 -689 0
688 -686 689 0
-688 686 689 0
-688 -686 690 0
688 -690 0
686 -690 0
-547 -687 691 0
547 -691 0
687 -691 0
690 691 -692 0
-690 692 0
-691 692 0
-66 -641 693 0
66 -693 0
641 -693 0
-553 -693 -694 0
553 693 -694 0
553 -693 694 0
-553 693 694 0
-694 -692 -695 0
694 692 -695 0
694 -692 695 0
-694 692 695 0
-694 -692 696 0
694 -696 0
692 -696 0
-553 -693 697 0
553 -697 0
693 -697 0
696 697 -698 0
-696 698 0
-697 698 0
-74 -641 699 0
74 -699 0
641 -699 0
-559 -699 -700 0
559 699 -700 0
559 -699 700 0
-559 699 700 0
-700 -698 -701 0
700 698 -701 0
700 -698 701 0
-700 698 701 0
-700 -698 702 0
700 -702 0
698 -702 0
-559 -699 703 0
559 -703 0
699 -703 0
702 703 -704 0
-702 704 0
-703 704 0
-82 -641 705 0
82 -705 0
641 -705 0
-565 -705 -706 0
565 705 -706 0
565 -705 706 0
-565 705 706 0
-706 -704 -707 0
706 704 -707 0
706 -704 707 0
-706 704 707 0
-706 -704 708 0
706 -708 0
704 -708 0
-565 -705 709 0
565 -709 0
705 -709 0
708 709 -710 0
-708 710 0
-709 710 0
-90 -641 711 0
90 -711 0
641 -711 0
-571 -711 -712 0
571 711 -712 0
571 -711 712 0
-571 711 712 0
-712 -710 -713 0
712 710 -713 0
712 -710 713 0
-712 710 713 0
-712 -710 714 0
712 -714 0
710 -714 0
-571 -711 715 0
571 -715 0
711 -715 0
714 715 -716 0
-714 716 0
-715 716 0
-98 -641 717 0
98 -717 0
641 -717 0
-577 -717 -718 0
577 717 -718 0
577 -717 718 0
-577 717 718 0
-718 -716 -719 0
718 716 -719 0
718 -716 719 0
-718 716 719 0
-718 -716 720 0
718 -720 0
716 -720 0
-577 -717 721 0
577 -721 0
717 -721 0
720 721 -722 0
-720 722 0
-721 722 0
-106 -641 723 0
106 -723 0
641 -723 0
-583 -723 -724 0
583 723 -724 0
583 -723 724 0
-583 723 724 0
-724 -722 -725 0
724 722 -725 0
724 -722 725 0
-724 722 725 0
-724 -722 726 0
724 -726 0
722 -726 0
-583 -723 727 0
583 -727 0
723 -727 0
726 727 -728 0
-726 728 0
-727 728 0
-114 -641 729 0
114 -729 0
641 -729 0
-589 -729 -730 0
589 729 -730 0
589 -729 730 0
-589 729 730 0
-730 -728 -731 0
730 728 -731 0
730 -728 731 0
-730 728 731 0
-730 -728 732 0
730 -732 0
728 -732 0
-589 -729 733 0
589 -733 0
729 -733 0
732 733 -734 0
-732 734 0
-733 734 0
-122 -641 735 0
122 -735 0
641 -735 0
-595 -735 -736 0
595 735 -736 0
595 -735 736 0
-595 735 736 0
-736 -734 -737 0
736 734 -737 0
736 -734 737 0
-736 734 737 0
-736 -734 738 0
736 -738 0
734 -738 0
-595 -735 739 0
595 -739 0
735 -739 0
738 739 -740 0
-738 740 0
-739 740 0
-130 -641 741 0
130 -741 0
641 -741 0
-601 -741 -742 0
601 741 -742 0
601 -741 742 0
-601 741 742 0
-742 -740 -743 0
742 740 -743 0
742 -740 743 0
-742 740 743 0
-742 -740 744 0
742 -744 0
740 -744 0
-601 -741 745 0
601 -745 0
741 -745 0
744 745 -746 0
-744 746 0
-745 746 0
-138 -641 747 0
138 -747 0
641 -747 0
-607 -747 -748 0
607 747 -748 0
607 -747 748 0
-607 747 748 0
-748 -746 -749 0
748 746 -749 0
748 -746 749 0
-748 746 749 0
-748 -746 750 0
748 -750 0
746 -750 0
-607 -747 751 0
607 -751 0
747 -751 0
750 751 -752 0
-750 752 0
-751 752 0
-146 -641 753 0
146 -753 0
641 -753 0
-613 -753 -754 0
613 753 -754 0
613 -753 754 0
-613 753 754 0
-754 -752 -755 0
754 752 -755 0
754 -752 755 0
-754 752 755 0
-754 -752 756 0
754 -756 0
752 -756 0
-613 -753 757 0
613 -757 0
753 -757 0
756 757 -758 0
-756 758 0
-757 758 0
-154 -641 759 0
154 -759 0
641 -759 0
-619 -759 -760 0
619 759 -760 0
619 -759 760 0
-619 759 760 0
-760 -758 -761 0
760 758 -761 0
760 -758 761 0
-760 758 761 0
-760 -758 762 0
760 -762 0
758 -762 0
-619 -759 763 0
619 -763 0
759 -763 0
762 763 -764 0
-762 764 0
-763 764 0
-162 -641 765 0
162 -765 0
641 -765 0
-625 -765 -766 0
625 765 -766 0
625 -765 766 0
-625 765 766 0
-766 -764 -767 0
766 764 -767 0
766 -764 767 0
-766 764 767 0
-766 -764 768 0
766 -768 0
764 -768 0
-625 -765 769 0
625 -769 0
765 -769 0
768 769 -770 0
-768 770 0
-769 770 0
-170 -641 771 0
170 -771 0
641 -771 0
-631 -771 -772 0
631 771 -772 0
631 -771 772 0
-631 771 772 0
-772 -770 -773 0
772 770 -773 0
772 -770 773 0
-772 770 773 0
-772 -770 774 0
772 -774 0
770 -774 0
-631 -771 775 0
631 -775 0
771 -775 0
774 775 -776 0
-774 776 0
-775 776 0
-178 -641 777 0
178 -777 0
641 -777 0
-637 -777 -778 0
637 777 -778 0
637 -777 778 0
-637 777 778 0
-778 -776 -779 0
778 776 -779 0
778 -776 779 0
-778 776 779 0
-778 -776 780 0
778 -780 0
776 -780 0
-637 -777 781 0
637 -781 0
777 -781 0
780 781 -782 0
-780 782 0
-781 782 0
-186 -641 783 0
186 -783 0
641 -783 0
-640 -783 -784 0
640 783 -784 0
640 -783 784 0
-640 783 784 0
-784 -782 -785 0
784 782 -785 0
784 -782 785 0
-784 782 785 0
-784 -782 786 0
784 -786 0
782 -786 0
-640 -783 787 0
640 -787 0
783 -787 0
786 787 -788 0
-786 788 0
-787 788 0
-1 -789 790 0
1 -790 0
789 -790 0
-647 -790 -791 0
647 790 -791 0
647 -790 791 0
-647 790 791 0
-647 -790 792 0
647 -792 0
790 -792 0
-4 -789 793 0
4 -793 0
789 -793 0
-653 -793 -794 0
653 793 -794 0
653 -793 794 0
-653 793 794 0
-794 -792 -795 0
794 792 -795 0
794 -792 795 0
-794 792 795 0
-794 -792 796 0
794 -796 0
792 -796 0
-653 -793 797 0
653 -797 0
793 -797 0
796 797 -798 0
-796 798 0
-797 798 0
-10 -789 799 0
10 -799 0
789 -799 0
-659 -799 -800 0
659 799 -800 0
659 -799 800 0
-659 799 800 0
-800 -798 -801 0
800 798 -801 0
800 -798 801 0
-800 798 801 0
-800 -798 802 0
800 -802 0
798 -802 0
-659 -799 803 0
659 -803 0
799 -803 0
802 803 -804 0
-802 804 0
-803 804 0
-18 -789 805 0
18 -805 0
789 -805 0
-665 -805 -806 0
665 805 -806 0
665 -805 806 0
-665 805 806 0
-806 -804 -807 0
806 804 -807 0
806 -804 807 0
-806 804 807 0
-806 -804 808 0
806 -808 0
804 -808 0
-665 -805 809 0
665 -809 0
805 -809 0
808 809 -810 0
-808 810 0
-809 810 0
-26 -789 811 0
26 -811 0
789 -811 0
-671 -811 -812 0
671 811 -812 0
671 -811 812 0
-671 811 812 0
-812 -810 -813 0
812 810 -813 0
812 -810 813 0
-812 810 813 0
-812 -810 814 0
812 -814 0
810 -814 0
-671 -811 815 0
671 -815 0
811 -815 0
814 815 -816 0
-814 816 0
-815 816 0
-34 -789 817 0
34 -817 0
789 -817 0
-677 -817 -818 0
677 817 -818 0
677 -817 818 0
-677 817 818 0
-818 -816 -819 0
818 816 -819 0
818 -816 819 0
-818 816 819 0
-818 -816 820 0
818 -820 0
816 -820 0
-677 -817 821 0
677 -821 0
817 -821 0
820 821 -822 0
-820 822 0
-821 822 0
-42 -789 823 0
42 -823 0
789 -823 0
-683 -823 -824 0
683 823 -824 0
683 -823 824 0
-683 823 824 0
-824 -822 -825 0
824 822 -825 0
824 -822 825 0
-824 822 825 0
-824 -822 826 0
824 -826 0
822 -826 0
-683 -823 827 0
683 -827 0
823 -827 0
826 827 -828 0
-826 828 0
-827 828 0
-50 -789 829 0
50 -829 0
789 -829 0
-689 -829 -830 0
689 829 -830 0
689 -829 830 0
-689 829 830 0
-830 -828 -831 0
830 828 -831 0
830 -828 831 0
-830 828 831 0
-830 -828 832 0
830 -832 0
828 -832 0
-689 -829 833 0
689 -833 0
829 -833 0
832 833 -834 0
-832 834 0
-833 834 0
-58 -789 835 0
58 -835 0
789 -835 0
-695 -835 -836 0
695 835 -836 0
695 -835 836 0
-695 835 836 0
-836 -834 -837 0
836 834 -837 0
836 -834 837 0
-836 834 837 0
-836 -834 838 0
836 -838 0
834 -838 0
-695 -835 839 0
695 -839 0
835 -839 0
838 839 -840 0
-838 840 0
-839 840 0
-66 -789 841 0
66 -841 0
789 -841 0
-701 -841 -842 0
701 841 -842 0
701 -841 842 0
-701 841 842 0
-842 -840 -843 0
842 840 -843 0
842 -840 843 0
-842 840 843 0
-842 -840 844 0
842 -844 0
840 -844 0
-701 -841 845 0
701 -845 0
841 -845 0
844 845 -846 0
-844 846 0
-845 846 0
-74 -789 847 0
74 -847 0
789 -847 0
-707 -847 -848 0
707 847 -848 0
707 -847 848 0
-707 847 848 0
-848 -846 -849 0
848 846 -849 0
848 -846 849 0
-848 846 849 0
-848 -846 850 0
848 -850 0
846 -850 0
-707 -847 851 0
707 -851 0
847 -851 0
850 851 -852 0
-850 852 0
-851 852 0
-82 -789 853 0
82 -853 0
789 -853 0
-713 -853 -854 0
713 853 -854 0
713 -853 854 0
-713 853 854 0
-854 -852 -855 0
854 852 -855 0
854 -852 855 0
-854 852 855 0
-854 -852 856 0
854 -856 0
852 -856 0
-713 -853 857 0
713 -857 0
853 -857 0
856 857 -858 0
-856 858 0
-857 858 0
-90 -789 859 0
90 -859 0
789 -859 0
-719 -859 -860 0
719 859 -860 0
719 -859 860 0
-719 859 860 0
-860 -858 -861 0
860 858 -861 0
860 -858 861 0
-860 858 861 0
-860 -858 862 0
860 -862 0
858 -862 0
-719 -859 863 0
719 -863 0
859 -863 0
862 863 -864 0
-862 864 0
-863 864 0
-98 -789 865 0
98 -865 0
789 -865 0
-725 -865 -866 0
725 865 -866 0
725 -865 866 0
-725 865 866 0
-866 -864 -867 0
866 864 -867 0
866 -864 867 0
-866 864 867 0
-866 -864 868 0
866 -868 0
864 -868 0
-725 -865 869 0
725 -869 0
865 -869 0
868 869 -870 0
-868 870 0
-869 870 0
-106 -789 871 0
106 -871 0
789 -871 0
-731 -871 -872 0
731 871 -872 0
731 -871 872 0
-731 871 872 0
-872 -870 -873 0
872 870 -873 0
872 -870 873 0
-872 870 873 0
-872 -870 874 0
872 -874 0
870 -874 0
-731 -871 875 0
731 -875 0
871 -875 0
874 875 -876 0
-874 876 0
-875 876 0
-114 -789 877 0
114 -877 0
789 -877 0
-737 -877 -878 0
737 877 -878 0
737 -877 878 0
-737 877 878 0
-878 -876 -879 0
878 876 -879 0
878 -876 879 0
-878 876 879 0
-878 -876 880 0
878 -880 0
876 -880 0
-737 -877 881 0
737 -881 0
877 -881 0
880 881 -882 0
-880 882 0
-881 882 0
-122 -789 883 0
122 -883 0
789 -883 0
-743 -883 -884 0
743 883 -884 0
743 -883 884 0
-743 883 884 0
-884 -882 -885 0
884 882 -885 0
884 -882 885 0
-884 882 885 0
-884 -882 886 0
884 -886 0
882 -886 0
-743 -883 887 0
743 -887 0
883 -887 0
886 887 -888 0
-886 888 0
-887 888 0
-130 -789 889 0
130 -889 0
789 -889 0
-749 -889 -890 0
749 889 -890 0
749 -889 890 0
-749 889 890 0
-890 -888 -891 0
890 888 -891 0
890 -888 891 0
-890 888 891 0
-890 -888 892 0
890 -892 0
888 -892 0
-749 -889 893 0
749 -893 0
889 -893 0
892 893 -894 0
-892 894 0
-893 894 0
-138 -789 895 0
138 -895 0
789 -895 0
-755 -895 -896 0
755 895 -896 0
755 -895 896 0
-755 895 896 0
-896 -894 -897 0
896 894 -897 0
896 -894 897 0
-896 894 897 0
-896 -894 898 0
896 -898 0
894 -898 0
-755 -895 899 0
755 -899 0
895 -899 0
898 899 -900 0
-898 900 0
-899 900 0
-146 -789 901 0
146 -901 0
789 -901 0
-761 -901 -902 0
761 901 -902 0
761 -901 902 0
-761 901 902 0
-902 -900 -903 0
902 900 -903 0
902 -900 903 0
-902 900 903 0
-902 -900 904 0
902 -904 0
900 -904 0
-761 -901 905 0
761 -905 0
901 -905 0
904 905 -906 0
-904 906 0
-905 906 0
-154 -789 907 0
154 -907 0
789 -907 0
-767 -907 -908 0
767 907 -908 0
767 -907 908 0
-767 907 908 0
-908 -906 -909 0
908 906 -909 0
908 -906 909 0
-908 906 909 0
-908 -906 910 0
908 -910 0
906 -910 0
-767 -907 911 0
767 -911 0
907 -911 0
910 911 -912 0
-910 912 0
-911 912 0
-162 -789 913 0
162 -913 0
789 -913 0
-773 -913 -914 0
773 913 -914 0
773 -913 914 0
-773 913 914 0
-914 -912 -915 0
914 912 -915 0
914 -912 915 0
-914 912 915 0
-914 -912 916 0
914 -916 0
912 -916 0
-773 -913 917 0
773 -917 0
913 -917 0
916 917 -918 0
-916 918 0
-917 918 0
-170 -789 919 0
170 -919 0
789 -919 0
-779 -919 -920 0
779 919 -920 0
779 -919 920 0
-779 919 920 0
-920 -918 -921 0
920 918 -921 0
920 -918 921 0
-920 918 921 0
-920 -918 922 0
920 -922 0
918 -922 0
-779 -919 923 0
779 -923 0
919 -923 0
922 923 -924 0
-922 924 0
-923 924 0
-178 -789 925 0
178 -925 0
789 -925 0
-785 -925 -926 0
785 925 -926 0
785 -925 926 0
-785 925 926 0
-926 -924 -927 0
926 924 -927 0
926 -924 927 0
-926 924 927 0
-926 -924 928 0
926 -928 0
924 -928 0
-785 -925 929 0
785 -929 0
925 -929 0
928 929 -930 0
-928 930 0
-929 930 0
-186 -789 931 0
186 -931 0
789 -931 0
-788 -931 -932 0
788 931 -932 0
788 -931 932 0
-788 931 932 0
-932 -930 -933 0
932 930 -933 0
932 -930 933 0
-932 930 933 0
-932 -930 934 0
932 -934 0
930 -934 0
-788 -931 935 0
788 -935 0
931 -935 0
934 935 -936 0
-934 936 0
-935 936 0
-1 -937 938 0
1 -938 0
937 -938 0
-795 -938 -939 0
795 938 -939 0
795 -938 939 0
-795 938 939 0
-795 -938 940 0
795 -940 0
938 -940 0
-4 -937 941 0
4 -941 0
937 -941 0
-801 -941 -942 0
801 941 -942 0
801 -941 942 0
-801 941 942 0
-942 -940 -943 0
942 940 -943 0
942 -940 943 0
-942 940 943 0
-942 -940 944 0
942 -944 0
940 -944 0
-801 -941 945 0
801 -945 0
941 -945 0
944 945 -946 0
-944 946 0
-945 946 0
-10 -937 947 0
10 -947 0
937 -947 0
-807 -947 -948 0
807 947 -948 0
807 -947 948 0
-807 947 948 0
-948 -946 -949 0
948 946 -949 0
948 -946 949 0
-948 946 949 0
-948 -946 950 0
948 -950 0
946 -950 0
-807 -947 951 0
807 -951 0
947 -951 0
950 951 -952 0
-950 952 0
-951 952 0
-18 -937 953 0
18 -953 0
937 -953 0
-813 -953 -954 0
813 953 -954 0
813 -953 954 0
-813 953 954 0
-954 -952 -955 0
954 952 -955 0
954 -952 955 0
-954 952 955 0
-954 -952 956 0
954 -956 0
952 -956 0
-813 -953 957 0
813 -957 0
953 -957 0
956 957 -958 0
-956 958 0
-957 958 0
-26 -937 959 0
26 -959 0
937 -959 0
-819 -959 -960 0
819 959 -960 0
819 -959 960 0
-819 959 960 0
-960 -958 -961 0
960 958 -961 0
960 -958 961 0
-960 958 961 0
-960 -958 962 0
960 -962 0
958 -962 0
-819 -959 963 0
819 -963 0
959 -963 0
962 963 -964 0
-962 964 0
-963 964 0
-34 -937 965 0
34 -965 0
937 -965 0
-825 -965 -966 0
825 965 -966 0
825 -965 966 0
-825 965 966 0
-966 -964 -967 0
966 964 -967 0
966 -964 967 0
-966 964 967 0
-966 -964 968 0
966 -968 0
964 -968 0
-825 -965 969 0
825 -969 0
965 -969 0
968 969 -970 0
-968 970 0
-969 970 0
-42 -937 971 0
42 -971 0
937 -971 0
-831 -971 -972 0
831 971 -972 0
831 -971 972 0
-831 971 972 0
-972 -970 -973 0
972 970 -973 0
972 -970 973 0
-972 970 973 0
-972 -970 974 0
972 -974 0
970 -974 0
-831 -971 975 0
831 -975 0
971 -975 0
974 975 -976 0
-974 976 0
-975 976 0
-50 -937 977 0
50 -977 0
937 -977 0
-837 -977 -978 0
837 977 -978 0
837 -977 978 0
-837 977 978 0
-978 -976 -979 0
978 976 -979 0
978 -976 979 0
-978 976 979 0
-978 -976 980 0
978 -980 0
976 -980 0
-837 -977 981 0
837 -981 0
977 -981 0
980 981 -982 0
-980 982 0
-981 982 0
-58 -937 983 0
58 -983 0
937 -983 0
-843 -983 -984 0
843 983 -984 0
843 -983 984 0
-843 983 984 0
-984 -982 -985 0
984 982 -985 0
984 -982 985 0
-984 982 985 0
-984 -982 986 0
984 -986 0
982 -986 0
-843 -983 987 0
843 -987 0
983 -987 0
986 987 -988 0
-986 988 0
-987 988 0
-66 -937 989 0
66 -989 0
937 -989 0
-849 -989 -990 0
849 989 -990 0
849 -989 990 0
-849 989 990 0
-990 -988 -991 0
990 988 -991 0
990 -988 991 0
-990 988 991 0
-990 -988 992 0
990 -992 0
988 -992 0
-849 -989 993 0
849 -993 0
989 -993 0
992 993 -994 0
-992 994 0
-993 994 0
-74 -937 995 0
74 -995 0
937 -995 0
-855 -995 -996 0
855 995 -996 0
855 -995 996 0
-855 995 996 0
-996 -994 -997 0
996 994 -997 0
996 -994 997 0
-996 994 997 0
-996 -994 998 0
996 -998 0
994 -998 0
-855 -995 999 0
855 -999 0
995 -999 0
998 999 -1000 0
-998 1000 0
-999 1000 0
-82 -937 1001 0
82 -1001 0
937 -1001 0
-861 -1001 -1002 0
861 1001 -1002 0
861 -1001 1002 0
-861 1001 1002 0
-1002 -1000 -1003 0
1002 1000 -1003 0
1002 -1000 1003 0
-1002 1000 1003 0
-1002 -1000 1004 0
1002 -1004 0
1000 -1004 0
-861 -1001 1005 0
861 -1005 0
1001 -1005 0
1004 1005 -1006 0
-1004 1006 0
-1005 1006 0
-90 -937 1007 0
90 -1007 0
937 -1007 0
-867 -1007 -1008 0
867 1007 -1008 0
867 -1007 1008 0
-867 1007 1008 0
-1008 -1006 -1009 0
1008 1006 -1009 0
1008 -1006 1009 0
-1008 1006 1009 0
-1008 -1006 1010 0
1008 -1010 0
1006 -1010 0
-867 -1007 1011 0
867 -1011 0
1007 -1011 0
1010 1011 -1012 0
-1010 1012 0
-1011 1012 0
-98 -937 1013 0
98 -1013 0
937 -1013 0
-873 -1013 -1014 0
873 1013 -1014 0
873 -1013 1014 0
-873 1013 1014 0
-1014 -1012 -1015 0
1014 1012 -1015 0
1014 -1012 1015 0
-1014 1012 1015 0
-1014 -1012 1016 0
1014 -1016 0
1012 -1016 0
-873 -1013 1017 0
873 -1017 0
1013 -1017 0
1016 1017 -1018 0
-1016 1018 0
-1017 1018 0
-106 -937 1019 0
106 -1019 0
937 -1019 0
-879 -1019 -1020 0
879 1019 -1020 0
879 -1019 1020 0
-879 1019 1020 0
-1020 -1018 -1021 0
1020 1018 -1021 0
1020 -1018 1021 0
-1020 1018 1021 0
-1020 -1018 1022 0
1020 -1022 0
1018 -1022 0
-879 -1019 1023 0
879 -1023 0
1019 -1023 0
1022 1023 -1024 0
-1022 1024 0
-1023 1024 0
-114 -937 1025 0
114 -1025 0
937 -1025 0
-885 -1025 -1026 0
885 1025 -1026 0
885 -1025 1026 0
-885 1025 1026 0
-1026 -1024 -1027 0
1026 1024 -1027 0
1026 -1024 1027 0
-1026 1024 1027 0
-1026 -1024 1028 0
1026 -1028 0
1024 -1028 0
-885 -1025 1029 0
885 -1029 0
1025 -1029 0
1028 1029 -1030 0
-1028 1030 0
-1029 1030 0
-122 -937 1031 0
122 -1031 0
937 -1031 0
-891 -1031 -1032 0
891 1031 -1032 0
891 -1031 1032 0
-891 1031 1032 0
-1032 -1030 -1033 0
1032 1030 -1033 0
1032 -1030 1033 0
-1032 1030 1033 0
-1032 -1030 1034 0
1032 -1034 0
1030 -1034 0
-891 -1031 1035 0
891 -1035 0
1031 -1035 0
1034 1035 -1036 0
-1034 1036 0
-1035 1036 0
-130 -937 1037 0
130 -1037 0
937 -1037 0
-897 -1037 -1038 0
897 1037 -1038 0
897 -1037 1038 0
-897 1037 1038 0
-1038 -1036 -1039 0
1038 1036 -1039 0
1038 -1036 1039 0
-1038 1036 1039 0
-1038 -1036 1040 0
1038 -1040 0
1036 -1040 0
-897 -1037 1041 0
897 -1041 0
1037 -1041 0
1040 1041 -1042 0
-1040 1042 0
-1041 1042 0
-138 -937 1043 0
138 -1043 0
937 -1043 0
-903 -1043 -1044 0
903 1043 -1044 0
903 -1043 1044 0
-903 1043 1044 0
-1044 -1042 -1045 0
1044 1042 -1045 0
1044 -1042 1045 0
-1044 1042 1045 0
-1044 -1042 1046 0
1044 -1046 0
1042 -1046 0
-903 -1043 1047 0
903 -1047 0
1043 -1047 0
1046 1047 -1048 0
-1046 1048 0
-1047 1048 0
-146 -937 1049 0
146 -1049 0
937 -1049 0
-909 -1049 -1050 0
909 1049 -1050 0
909 -1049 1050 0
-909 1049 1050 0
-1050 -1048 -1051 0
1050 1048 -1051 0
1050 -1048 1051 0
-1050 1048 1051 0
-1050 -1048 1052 0
1050 -1052 0
1048 -1052 0
-909 -1049 1053 0
909 -1053 0
1049 -1053 0
1052 1053 -1054 0
-1052 1054 0
-1053 1054 0
-154 -937 1055 0
154 -1055 0
937 -1055 0
-915 -1055 -1056 0
915 1055 -1056 0
915 -1055 1056 0
-915 1055 1056 0
-1056 -1054 -1057 0
1056 1054 -1057 0
1056 -1054 1057 0
-1056 1054 1057 0
-1056 -1054 1058 0
1056 -1058 0
1054 -1058 0
-915 -1055 1059 0
915 -1059 0
1055 -1059 0
1058 1059 -1060 0
-1058 1060 0
-1059 1060 0
-162 -937 1061 0
162 -1061 0
937 -1061 0
-921 -1061 -1062 0
921 1061 -1062 0
921 -1061 1062 0
-921 1061 1062 0
-1062 -1060 -1063 0
1062 1060 -1063 0
1062 -1060 1063 0
-1062 1060 1063 0
-1062 -1060 1064 0
1062 -1064 0
1060 -1064 0
-921 -1061 1065 0
921 -1065 0
1061 -1065 0
1064 1065 -1066 0
-1064 1066 0
-1065 1066 0
-170 -937 1067 0
170 -1067 0
937 -1067 0
-927 -1067 -1068 0
927 1067 -1068 0
927 -1067 1068 0
-927 1067 1068 0
-1068 -1066 -1069 0
1068 1066 -1069 0
1068 -1066 1069 0
-1068 1066 1069 0
-1068 -1066 1070 0
1068 -1070 0
1066 -1070 0
-927 -1067 1071 0
927 -1071 0
1067 -1071 0
1070 1071 -1072 0
-1070 1072 0
-1071 1072 0
-178 -937 1073 0
178 -1073 0
937 -1073 0
-933 -1073 -1074 0
933 1073 -1074 0
933 -1073 1074 0
-933 1073 1074 0
-1074 -1072 -1075 0
1074 1072 -1075 0
1074 -1072 1075 0
-1074 1072 1075 0
-1074 -1072 1076 0
1074 -1076 0
1072 -1076 0
-933 -1073 1077 0
933 -1077 0
1073 -1077 0
1076 1077 -1078 0
-1076 1078 0
-1077 1078 0
-186 -937 1079 0
186 -1079 0
937 -1079 0
-936 -1079 -1080 0
936 1079 -1080 0
936 -1079 1080 0
-936 1079 1080 0
-1080 -1078 -1081 0
1080 1078 -1081 0
1080 -1078 1081 0
-1080 1078 1081 0
-1080 -1078 1082 0
1080 -1082 0
1078 -1082 0
-936 -1079 1083 0
936 -1083 0
1079 -1083 0
1082 1083 -1084 0
-1082 1084 0
-1083 1084 0
-1 -1085 1086 0
1 -1086 0
1085 -1086 0
-943 -1086 -1087 0
943 1086 -1087 0
943 -1086 1087 0
-943 1086 1087 0
-943 -1086 1088 0
943 -1088 0
1086 -1088 0
-4 -1085 1089 0
4 -1089 0
1085 -1089 0
-949 -1089 -1090 0
949 1089 -1090 0
949 -1089 1090 0
-949 1089 1090 0
-1090 -1088 -1091 0
1090 1088 -1091 0
1090 -1088 1091 0
-1090 1088 1091 0
-1090 -1088 1092 0
1090 -1092 0
1088 -1092 0
-949 -1089 1093 0
949 -1093 0
1089 -1093 0
1092 1093 -1094 0
-1092 1094 0
-1093 1094 0
-10 -1085 1095 0
10 -1095 0
1085 -1095 0
-955 -1095 -1096 0
955 1095 -1096 0
955 -1095 1096 0
-955 1095 1096 0
-1096 -1094 -1097 0
1096 1094 -1097 0
1096 -1094 1097 0
-1096 1094 1097 0
-1096 -1094 1098 0
1096 -1098 0
1094 -1098 0
-955 -1095 1099 0
955 -1099 0
1095 -1099 0
1098 1099 -1100 0
-1098 1100 0
-1099 1100 0
-18 -1085 1101 0
18 -1101 0
1085 -1101 0
-961 -1101 -1102 0
961 1101 -1102 0
961 -1101 1102 0
-961 1101 1102 0
-1102 -1100 -1103 0
1102 1100 -1103 0
1102 -1100 1103 0
-1102 1100 1103 0
-1102 -1100 1104 0
1102 -1104 0
1100 -1104 0
-961 -1101 1105 0
961 -1105 0
1101 -1105 0
1104 1105 -1106 0
-1104 1106 0
-1105 1106 0
-26 -1085 1107 0
26 -1107 0
1085 -1107 0
-967 -1107 -1108 0
967 1107 -1108 0
967 -1107 1108 0
-967 1107 1108 0
-1108 -1106 -1109 0
1108 1106 -1109 0
1108 -1106 1109 0
-1108 1106 1109 0
-1108 -1106 1110 0
1108 -1110 0
1106 -1110 0
-967 -1107 1111 0
967 -1111 0
1107 -1111 0
1110 1111 -1112 0
-1110 1112 0
-1111 1112 0
-34 -1085 1113 0
34 -1113 0
1085 -1113 0
-973 -1113 -1114 0
973 1113 -1114 0
973 -1113 1114 0
-973 1113 1114 0
-1114 -1112 -1115 0
1114 1112 -1115 0
1114 -1112 1115 0
-1114 1112 1115 0
-1114 -1112 1116 0
1114 -1116 0
1112 -1116 0
-973 -1113 1117 0
973 -1117 0
1113 -1117 0
1116 1117 -1118 0
-1116 1118 0
-1117 1118 0
-42 -1085 1119 0
42 -1119 0
1085 -1119 0
-979 -1119 -1120 0
979 1119 -1120 0
979 -1119 1120 0
-979 1119 1120 0
-1120 -1118 -1121 0
1120 1118 -1121 0
1120 -1118 1121 0
-1120 1118 1121 0
-1120 -1118 1122 0
1120 -1122 0
1118 -1122 0
-979 -1119 1123 0
979 -1123 0
1119 -1123 0
1122 1123 -1124 0
-1122 1124 0
-1123 1124 0
-50 -1085 1125 0
50 -1125 0
1085 -1125 0
-985 -1125 -1126 0
985 1125 -1126 0
985 -1125 1126 0
-985 1125 1126 0
-1126 -1124 -1127 0
1126 1124 -1127 0
1126 -1124 1127 0
-1126 1124 1127 0
-1126 -1124 1128 0
1126 -1128 0
1124 -1128 0
-985 -1125 1129 0
985 -1129 0
1125 -1129 0
1128 1129 -1130 0
-1128 1130 0
-1129 1130 0
-58 -1085 1131 0
58 -1131 0
1085 -1131 0
-991 -1131 -1132 0
991 1131 -1132 0
991 -1131 1132 0
-991 1131 1132 0
-1132 -1130 -1133 0
1132 1130 -1133 0
1132 -1130 1133 0
-1132 1130 1133 0
-1132 -1130 1134 0
1132 -1134 0
1130 -1134 0
-991 -1131 1135 0
991 -1135 0
1131 -1135 0
1134 1135 -1136 0
-1134 1136 0
-1135 1136 0
-66 -1085 1137 0
66 -1137 0
1085 -1137 0
-997 -1137 -1138 0
997 1137 -1138 0
997 -1137 1138 0
-997 1137 1138 0
-1138 -1136 -1139 0
1138 1136 -1139 0
1138 -1136 1139 0
-1138 1136 1139 0
-1138 -1136 1140 0
1138 -1140 0
1136 -1140 0
-997 -1137 1141 0
997 -1141 0
1137 -1141 0
1140 1141 -1142 0
-1140 1142 0
-1141 1142 0
-74 -1085 1143 0
74 -1143 0
1085 -1143 0
-1003 -1143 -1144 0
1003 1143 -1144 0
1003 -1143 1144 0
-1003 1143 1144 0
-1144 -1142 -1145 0
1144 1142 -1145 0
1144 -1142 1145 0
-1144 1142 1145 0
-1144 -1142 1146 0
1144 -1146 0
1142 -1146 0
-1003 -1143 1147 0
1003 -1147 0
1143 -1147 0
1146 1147 -1148 0
-1146 1148 0
-1147 1148 0
-82 -1085 1149 0
82 -1149 0
1085 -1149 0
-1009 -1149 -1150 0
1009 1149 -1150 0
1009 -1149 1150 0
-1009 1149 1150 0
-1150 -1148 -1151 0
1150 1148 -1151 0
1150 -1148 1151 0
-1150 1148 1151 0
-1150 -1148 1152 0
1150 -1152 0
1148 -1152 0
-1009 -1149 1153 0
1009 -1153 0
1149 -1153 0
1152 1153 -1154 0
-1152 1154 0
-1153 1154 0
-90 -1085 1155 0
90 -1155 0
1085 -1155 0
-1015 -1155 -1156 0
1015 1155 -1156 0
1015 -1155 1156 0
-1015 1155 1156 0
-1156 -1154 -1157 0
1156 1154 -1157 0
1156 -1154 1157 0
-1156 1154 1157 0
-1156 -1154 1158 0
1156 -1158 0
1154 -1158 0
-1015 -1155 1159 0
1015 -1159 0
1155 -1159 0
1158 1159 -1160 0
-1158 1160 0
-1159 1160 0
-98 -1085 1161 0
98 -1161 0
1085 -1161 0
-1021 -1161 -1162 0
1021 1161 -1162 0
1021 -1161 1162 0
-1021 1161 1162 0
-1162 -1160 -1163 0
1162 1160 -1163 0
1162 -1160 1163 0
-1162 1160 1163 0
-1162 -1160 1164 0
1162 -1164 0
1160 -1164 0
-1021 -1161 1165 0
1021 -1165 0
1161 -1165 0
1164 1165 -1166 0
-1164 1166 0
-1165 1166 0
-106 -1085 1167 0
106 -1167 0
1085 -1167 0
-1027 -1167 -1168 0
1027 1167 -1168 0
1027 -1167 1168 0
-1027 1167 1168 0
-1168 -1166 -1169 0
1168 1166 -1169 0
1168 -1166 1169 0
-1168 1166 1169 0
-1168 -1166 1170 0
1168 -1170 0
1166 -1170 0
-1027 -1167 1171 0
1027 -1171 0
1167 -1171 0
1170 1171 -1172 0
-1170 1172 0
-1171 1172 0
-114 -1085 1173 0
114 -1173 0
1085 -1173 0
-1033 -1173 -1174 0
1033 1173 -1174 0
1033 -1173 1174 0
-1033 1173 1174 0
-1174 -1172 -1175 0
1174 1172 -1175 0
1174 -1172 1175 0
-1174 1172 1175 0
-1174 -1172 1176 0
1174 -1176 0
1172 -1176 0
-1033 -1173 1177 0
1033 -1177 0
1173 -1177 0
1176 1177 -1178 0
-1176 1178 0
-1177 1178 0
-122 -1085 1179 0
122 -1179 0
1085 -1179 0
-1039 -1179 -1180 0
1039 1179 -1180 0
1039 -1179 1180 0
-1039 1179 1180 0
-1180 -1178 -1181 0
1180 1178 -1181 0
1180 -1178 1181 0
-1180 1178 1181 0
-1180 -1178 1182 0
1180 -1182 0
1178 -1182 0
-1039 -1179 1183 0
1039 -1183 0
1179 -1183 0
1182 1183 -1184 0
-1182 1184 0
-1183 1184 0
-130 -1085 1185 0
130 -1185 0
1085 -1185 0
-1045 -1185 -1186 0
1045 1185 -1186 0
1045 -1185 1186 0
-1045 1185 1186 0
-1186 -1184 -1187 0
1186 1184 -1187 0
1186 -1184 1187 0
-1186 1184 1187 0
-1186 -1184 1188 0
1186 -1188 0
1184 -1188 0
-1045 -1185 1189 0
1045 -1189 0
1185 -1189 0
1188 1189 -1190 0
-1188 1190 0
-1189 1190 0
-138 -1085 1191 0
138 -1191 0
1085 -1191 0
-1051 -1191 -1192 0
1051 1191 -1192 0
1051 -1191 1192 0
-1051 1191 1192 0
-1192 -1190 -1193 0
1192 1190 -1193 0
1192 -1190 1193 0
-1192 1190 1193 0
-1192 -1190 1194 0
1192 -1194 0
1190 -1194 0
-1051 -1191 1195 0
1051 -1195 0
1191 -1195 0
1194 1195 -1196 0
-1194 1196 0
-1195 1196 0
-146 -1085 1197 0
146 -1197 0
1085 -1197 0
-1057 -1197 -1198 0
1057 1197 -1198 0
1057 -1197 1198 0
-1057 1197 1198 0
-1198 -1196 -1199 0
1198 1196 -1199 0
1198 -1196 1199 0
-1198 1196 1199 0
-1198 -1196 1200 0
1198 -1200 0
1196 -1200 0
-1057 -1197 1201 0
1057 -1201 0
1197 -1201 0
1200 1201 -1202 0
-1200 1202 0
-1201 1202 0
-154 -1085 1203 0
154 -1203 0
1085 -1203 0
-1063 -1203 -1204 0
1063 1203 -1204 0
1063 -1203 1204 0
-1063 1203 1204 0
-1204 -1202 -1205 0
1204 1202 -1205 0
1204 -1202 1205 0
-1204 1202 1205 0
-1204 -1202 1206 0
1204 -1206 0
1202 -1206 0
-1063 -1203 1207 0
1063 -1207 0
1203 -1207 0
1206 1207 -1208 0
-1206 1208 0
-1207 1208 0
-162 -1085 1209 0
162 -1209 0
1085 -1209 0
-1069 -1209 -1210 0
1069 1209 -1210 0
1069 -1209 1210 0
-1069 1209 1210 0
-1210 -1208 -1211 0
1210 1208 -1211 0
1210 -1208 1211 0
-1210 1208 1211 0
-1210 -1208 1212 0
1210 -1212 0
1208 -1212 0
-1069 -1209 1213 0
1069 -1213 0
1209 -1213 0
1212 1213 -1214 0
-1212 1214 0
-1213 1214 0
-170 -1085 1215 0
170 -1215 0
1085 -1215 0
-1075 -1215 -1216 0
1075 1215 -1216 0
1075 -1215 1216 0
-1075 1215 1216 0
-1216 -1214 -1217 0
1216 1214 -1217 0
1216 -1214 1217 0
-1216 1214 1217 0
-1216 -1214 1218 0
1216 -1218 0
1214 -1218 0
-1075 -1215 1219 0
1075 -1219 0
1215 -1219 0
1218 1219 -1220 0
-1218 1220 0
-1219 1220 0
-178 -1085 1221 0
178 -1221 0
1085 -1221 0
-1081 -1221 -1222 0
1081 1221 -1222 0
1081 -1221 1222 0
-1081 1221 1222 0
-1222 -1220 -1223 0
1222 1220 -1223 0
1222 -1220 1223 0
-1222 1220 1223 0
-1222 -1220 1224 0
1222 -1224 0
1220 -1224 0
-1081 -1221 1225 0
1081 -1225 0
1221 -1225 0
1224 1225 -1226 0
-1224 1226 0
-1225 1226 0
-186 -1085 1227 0
186 -1227 0
1085 -1227 0
-1084 -1227 -1228 0
1084 1227 -1228 0
1084 -1227 1228 0
-1084 1227 1228 0
-1228 -1226 -1229 0
1228 1226 -1229 0
1228 -1226 1229 0
-1228 1226 1229 0
-1228 -1226 1230 0
1228 -1230 0
1226 -1230 0
-1084 -1227 1231 0
1084 -1231 0
1227 -1231 0
1230 1231 -1232 0
-1230 1232 0
-1231 1232 0
-1 -1233 1234 0
1 -1234 0
1233 -1234 0
-1091 -1234 -1235 0
1091 1234 -1235 0
1091 -1234 1235 0
-1091 1234 1235 0
-1091 -1234 1236 0
1091 -1236 0
1234 -1236 0
-4 -1233 1237 0
4 -1237 0
1233 -1237 0
-1097 -1237 -1238 0
1097 1237 -1238 0
1097 -1237 1238 0
-1097 1237 1238 0
-1238 -1236 -1239 0
1238 1236 -1239 0
1238 -1236 1239 0
-1238 1236 1239 0
-1238 -1236 1240 0
1238 -1240 0
1236 -1240 0
-1097 -1237 1241 0
1097 -1241 0
1237 -1241 0
1240 1241 -1242 0
-1240 1242 0
-1241 1242 0
-10 -1233 1243 0
10 -1243 0
1233 -1243 0
-1103 -1243 -1244 0
1103 1243 -1244 0
1103 -1243 1244 0
-1103 1243 1244 0
-1244 -1242 -1245 0
1244 1242 -1245 0
1244 -1242 1245 0
-1244 1242 1245 0
-1244 -1242 1246 0
1244 -1246 0
1242 -1246 0
-1103 -1243 1247 0
1103 -1247 0
1243 -1247 0
1246 1247 -1248 0
-1246 1248 0
-1247 1248 0
-18 -1233 1249 0
18 -1249 0
1233 -1249 0
-1109 -1249 -1250 0
1109 1249 -1250 0
1109 -1249 1250 0
-1109 1249 1250 0
-1250 -1248 -1251 0
1250 1248 -1251 0
1250 -1248 1251 0
-1250 1248 1251 0
-1250 -1248 1252 0
1250 -1252 0
1248 -1252 0
-1109 -1249 1253 0
1109 -1253 0
1249 -1253 0
1252 1253 -1254 0
-1252 1254 0
-1253 1254 0
-26 -1233 1255 0
26 -1255 0
1233 -1255 0
-1115 -1255 -1256 0
1115 1255 -1256 0
1115 -1255 1256 0
-1115 1255 1256 0
-1256 -1254 -1257 0
1256 1254 -1257 0
1256 -1254 1257 0
-1256 1254 1257 0
-1256 -1254 1258 0
1256 -1258 0
1254 -1258 0
-1115 -1255 1259 0
1115 -1259 0
1255 -1259 0
1258 1259 -1260 0
-1258 1260 0
-1259 1260 0
-34 -1233 1261 0
34 -1261 0
1233 -1261 0
-1121 -1261 -1262 0
1121 1261 -1262 0
1121 -1261 1262 0
-1121 1261 1262 0
-1262 -1260 -1263 0
1262 1260 -1263 0
1262 -1260 1263 0
-1262 1260 1263 0
-1262 -1260 1264 0
1262 -1264 0
1260 -1264 0
-1121 -1261 1265 0
1121 -1265 0
1261 -1265 0
1264 1265 -1266 0
-1264 1266 0
-1265 1266 0
-42 -1233 1267 0
42 -1267 0
1233 -1267 0
-1127 -1267 -1268 0
1127 1267 -1268 0
1127 -1267 1268 0
-1127 1267 1268 0
-1268 -1266 -1269 0
1268 1266 -1269 0
1268 -1266 1269 0
-1268 1266 1269 0
-1268 -1266 1270 0
1268 -1270 0
1266 -1270 0
-1127 -1267 1271 0
1127 -1271 0
1267 -1271 0
1270 1271 -1272 0
-1270 1272 0
-1271 1272 0
-50 -1233 1273 0
50 -1273 0
1233 -1273 0
-1133 -1273 -1274 0
1133 1273 -1274 0
1133 -1273 1274 0
-1133 1273 1274 0
-1274 -1272 -1275 0
1274 1272 -1275 0
1274 -1272 1275 0
-1274 1272 1275 0
-1274 -1272 1276 0
1274 -1276 0
1272 -1276 0
-1133 -1273 1277 0
1133 -1277 0
1273 -1277 0
1276 1277 -1278 0
-1276 1278 0
-1277 1278 0
-58 -1233 1279 0
58 -1279 0
1233 -1279 0
-1139 -1279 -1280 0
1139 1279 -1280 0
1139 -1279 1280 0
-1139 1279 1280 0
-1280 -1278 -1281 0
1280 1278 -1281 0
1280 -1278 1281 0
-1280 1278 1281 0
-1280 -1278 1282 0
1280 -1282 0
1278 -1282 0
-1139 -1279 1283 0
1139 -1283 0
1279 -1283 0
1282 1283 -1284 0
-1282 1284 0
-1283 1284 0
-66 -1233 1285 0
66 -1285 0
1233 -1285 0
-1145 -1285 -1286 0
1145 1285 -1286 0
1145 -1285 1286 0
-1145 1285 1286 0
-1286 -1284 -1287 0
1286 1284 -1287 0
1286 -1284 1287 0
-1286 1284 1287 0
-1286 -1284 1288 0
1286 -1288 0
1284 -1288 0
-1145 -1285 1289 0
1145 -1289 0
1285 -1289 0
1288 1289 -1290 0
-1288 1290 0
-1289 1290 0
-74 -1233 1291 0
74 -1291 0
1233 -1291 0
-1151 -1291 -1292 0
1151 1291 -1292 0
1151 -1291 1292 0
-1151 1291 1292 0
-1292 -1290 -1293 0
1292 1290 -1293 0
1292 -1290 1293 0
-1292 1290 1293 0
-1292 -1290 1294 0
1292 -1294 0
1290 -1294 0
-1151 -1291 1295 0
1151 -1295 0
1291 -1295 0
1294 1295 -1296 0
-1294 1296 0
-1295 1296 0
-82 -1233 1297 0
82 -1297 0
1233 -1297 0
-1157 -1297 -1298 0
1157 1297 -1298 0
1157 -1297 1298 0
-1157 1297 1298 0
-1298 -1296 -1299 0
1298 1296 -1299 0
1298 -1296 1299 0
-1298 1296 1299 0
-1298 -1296 1300 0
1298 -1300 0
1296 -1300 0
-1157 -1297 1301 0
1157 -1301 0
1297 -1301 0
1300 1301 -1302 0
-1300 1302 0
-1301 1302 0
-90 -1233 1303 0
90 -1303 0
1233 -1303 0
-1163 -1303 -1304 0
1163 1303 -1304 0
1163 -1303 1304 0
-1163 1303 1304 0
-1304 -1302 -1305 0
1304 1302 -1305 0
1304 -1302 1305 0
-1304 1302 1305 0
-1304 -1302 1306 0
1304 -1306 0
1302 -1306 0
-1163 -1303 1307 0
1163 -1307 0
1303 -1307 0
1306 1307 -1308 0
-1306 1308 0
-1307 1308 0
-98 -1233 1309 0
98 -1309 0
1233 -1309 0
-1169 -1309 -1310 0
1169 1309 -1310 0
1169 -1309 1310 0
-1169 1309 1310 0
-1310 -1308 -1311 0
1310 1308 -1311 0
1310 -1308 1311 0
-1310 1308 1311 0
-1310 -1308 1312 0
1310 -1312 0
1308 -1312 0
-1169 -1309 1313 0
1169 -1313 0
1309 -1313 0
1312 1313 -1314 0
-1312 1314 0
-1313 1314 0
-106 -1233 1315 0
106 -1315 0
1233 -1315 0
-1175 -1315 -1316 0
1175 1315 -1316 0
1175 -1315 1316 0
-1175 1315 1316 0
-1316 -1314 -1317 0
1316 1314 -1317 0
1316 -1314 1317 0
-1316 1314 1317 0
-1316 -1314 1318 0
1316 -1318 0
1314 -1318 0
-1175 -1315 1319 0
1175 -1319 0
1315 -1319 0
1318 1319 -1320 0
-1318 1320 0
-1319 1320 0
-114 -1233 1321 0
114 -1321 0
1233 -1321 0
-1181 -1321 -1322 0
1181 1321 -1322 0
1181 -1321 1322 0
-1181 1321 1322 0
-1322 -1320 -1323 0
1322 1320 -1323 0
1322 -1320 1323 0
-1322 1320 1323 0
-1322 -1320 1324 0
1322 -1324 0
1320 -1324 0
-1181 -1321 1325 0
1181 -1325 0
1321 -1325 0
1324 1325 -1326 0
-1324 1326 0
-1325 1326 0
-122 -1233 1327 0
122 -1327 0
1233 -1327 0
-1187 -1327 -1328 0
1187 1327 -1328 0
1187 -1327 1328 0
-1187 1327 1328 0
-1328 -1326 -1329 0
1328 1326 -1329 0
1328 -1326 1329 0
-1328 1326 1329 0
-1328 -1326 1330 0
1328 -1330 0
1326 -1330 0
-1187 -1327 1331 0
1187 -1331 0
1327 -1331 0
1330 1331 -1332 0
-1330 1332 0
-1331 1332 0
-130 -1233 1333 0
130 -1333 0
1233 -1333 0
-1193 -1333 -1334 0
1193 1333 -1334 0
1193 -1333 1334 0
-1193 1333 1334 0
-1334 -1332 -1335 0
1334 1332 -1335 0
1334 -1332 1335 0
-1334 1332 1335 0
-1334 -1332 1336 0
1334 -1336 0
1332 -1336 0
-1193 -1333 1337 0
1193 -1337 0
1333 -1337 0
1336 1337 -1338 0
-1336 1338 0
-1337 1338 0
-138 -1233 1339 0
138 -1339 0
1233 -1339 0
-1199 -1339 -1340 0
1199 1339 -1340 0
1199 -1339 1340 0
-1199 1339 1340 0
-1340 -1338 -1341 0
1340 1338 -1341 0
1340 -1338 1341 0
-1340 1338 1341 0
-1340 -1338 1342 0
1340 -1342 0
1338 -1342 0
-1199 -1339 1343 0
1199 -1343 0
1339 -1343 0
1342 1343 -1344 0
-1342 1344 0
-1343 1344 0
-146 -1233 1345 0
146 -1345 0
1233 -1345 0
-1205 -1345 -1346 0
1205 1345 -1346 0
1205 -1345 1346 0
-1205 1345 1346 0
-1346 -1344 -1347 0
1346 1344 -1347 0
1346 -1344 1347 0
-1346 1344 1347 0
-1346 -1344 1348 0
1346 -1348 0
1344 -1348 0
-1205 -1345 1349 0
1205 -1349 0
1345 -1349 0
1348 1349 -1350 0
-1348 1350 0
-1349 1350 0
-154 -1233 1351 0
154 -1351 0
1233 -1351 0
-1211 -1351 -1352 0
1211 1351 -1352 0
1211 -1351 1352 0
-1211 1351 1352 0
-1352 -1350 -1353 0
1352 1350 -1353 0
1352 -1350 1353 0
-1352 1350 1353 0
-1352 -1350 1354 0
1352 -1354 0
1350 -1354 0
-1211 -1351 1355 0
1211 -1355 0
1351 -1355 0
1354 1355 -1356 0
-1354 1356 0
-1355 1356 0
-162 -1233 1357 0
162 -1357 0
1233 -1357 0
-1217 -1357 -1358 0
1217 1357 -1358 0
1217 -1357 1358 0
-1217 1357 1358 0
-1358 -1356 -1359 0
1358 1356 -1359 0
1358 -1356 1359 0
-1358 1356 1359 0
-1358 -1356 1360 0
1358 -1360 0
1356 -1360 0
-1217 -1357 1361 0
1217 -1361 0
1357 -1361 0
1360 1361 -1362 0
-1360 1362 0
-1361 1362 0
-170 -1233 1363 0
170 -1363 0
1233 -1363 0
-1223 -1363 -1364 0
1223 1363 -1364 0
1223 -1363 1364 0
-1223 1363 1364 0
-1364 -1362 -1365 0
1364 1362 -1365 0
1364 -1362 1365 0
-1364 1362 1365 0
-1364 -1362 1366 0
1364 -1366 0
1362 -1366 0
-1223 -1363 1367 0
1223 -1367 0
1363 -1367 0
1366 1367 -1368 0
-1366 1368 0
-1367 1368 0
-178 -1233 1369 0
178 -1369 0
1233 -1369 0
-1229 -1369 -1370 0
1229 1369 -1370 0
1229 -1369 1370 0
-1229 1369 1370 0
-1370 -1368 -1371 0
1370 1368 -1371 0
1370 -1368 1371 0
-1370 1368 1371 0
-1370 -1368 1372 0
1370 -1372 0
1368 -1372 0
-1229 -1369 1373 0
1229 -1373 0
1369 -1373 0
1372 1373 -1374 0
-1372 1374 0
-1373 1374 0
-186 -1233 1375 0
186 -1375 0
1233 -1375 0
-1232 -1375 -1376 0
1232 1375 -1376 0
1232 -1375 1376 0
-1232 1375 1376 0
-1376 -1374 -1377 0
1376 1374 -1377 0
1376 -1374 1377 0
-1376 1374 1377 0
-1376 -1374 1378 0
1376 -1378 0
1374 -1378 0
-1232 -1375 1379 0
1232 -1379 0
1375 -1379 0
1378 1379 -1380 0
-1378 1380 0
-1379 1380 0
-1 -1381 1382 0
1 -1382 0
1381 -1382 0
-1239 -1382 -1383 0
1239 1382 -1383 0
1239 -1382 1383 0
-1239 1382 1383 0
-1239 -1382 1384 0
1239 -1384 0
1382 -1384 0
-4 -1381 1385 0
4 -1385 0
1381 -1385 0
-1245 -1385 -1386 0
1245 1385 -1386 0
1245 -1385 1386 0
-1245 1385 1386 0
-1386 -1384 -1387 0
1386 1384 -1387 0
1386 -1384 1387 0
-1386 1384 1387 0
-1386 -1384 1388 0
1386 -1388 0
1384 -1388 0
-1245 -1385 1389 0
1245 -1389 0
1385 -1389 0
1388 1389 -1390 0
-1388 1390 0
-1389 1390 0
-10 -1381 1391 0
10 -1391 0
1381 -1391 0
-1251 -1391 -1392 0
1251 1391 -1392 0
1251 -1391 1392 0
-1251 1391 1392 0
-1392 -1390 -1393 0
1392 1390 -1393 0
1392 -1390 1393 0
-1392 1390 1393 0
-1392 -1390 1394 0
1392 -1394 0
1390 -1394 0
-1251 -1391 1395 0
1251 -1395 0
1391 -1395 0
1394 1395 -1396 0
-1394 1396 0
-1395 1396 0
-18 -1381 1397 0
18 -1397 0
1381 -1397 0
-1257 -1397 -1398 0
1257 1397 -1398 0
1257 -1397 1398 0
-1257 1397 1398 0
-1398 -1396 -1399 0
1398 1396 -1399 0
1398 -1396 1399 0
-1398 1396 1399 0
-1398 -1396 1400 0
1398 -1400 0
1396 -1400 0
-1257 -1397 1401 0
1257 -1401 0
1397 -1401 0
1400 1401 -1402 0
-1400 1402 0
-1401 1402 0
-26 -1381 1403 0
26 -1403 0
1381 -1403 0
-1263 -1403 -1404 0
1263 1403 -1404 0
1263 -1403 1404 0
-1263 1403 1404 0
-1404 -1402 -1405 0
1404 1402 -1405 0
1404 -1402 1405 0
-1404 1402 1405 0
-1404 -1402 1406 0
1404 -1406 0
1402 -1406 0
-1263 -1403 1407 0
1263 -1407 0
1403 -1407 0
1406 1407 -1408 0
-1406 1408 0
-1407 1408 0
-34 -1381 1409 0
34 -1409 0
1381 -1409 0
-1269 -1409 -1410 0
1269 1409 -1410 0
1269 -1409 1410 0
-1269 1409 1410 0
-1410 -1408 -1411 0
1410 1408 -1411 0
1410 -1408 1411 0
-1410 1408 1411 0
-1410 -1408 1412 0
1410 -1412 0
1408 -1412 0
-1269 -1409 1413 0
1269 -1413 0
1409 -1413 0
1412 1413 -1414 0
-1412 1414 0
-1413 1414 0
-42 -1381 1415 0
42 -1415 0
1381 -1415 0
-1275 -1415 -1416 0
1275 1415 -1416 0
1275 -1415 1416 0
-1275 1415 1416 0
-1416 -1414 -1417 0
1416 1414 -1417 0
1416 -1414 1417 0
-1416 1414 1417 0
-1416 -1414 1418 0
1416 -1418 0
1414 -1418 0
-1275 -1415 1419 0
1275 -1419 0
1415 -1419 0
1418 1419 -1420 0
-1418 1420 0
-1419 1420 0
-50 -1381 1421 0
50 -1421 0
1381 -1421 0
-1281 -1421 -1422 0
1281 1421 -1422 0
1281 -1421 1422 0
-1281 1421 1422 0
-1422 -1420 -1423 0
1422 1420 -1423 0
1422 -1420 1423 0
-1422 1420 1423 0
-1422 -1420 1424 0
1422 -1424 0
1420 -1424 0
-1281 -1421 1425 0
1281 -1425 0
1421 -1425 0
1424 1425 -1426 0
-1424 1426 0
-1425 1426 0
-58 -1381 1427 0
58 -1427 0
1381 -1427 0
-1287 -1427 -1428 0
1287 1427 -1428 0
1287 -1427 1428 0
-1287 1427 1428 0
-1428 -1426 -1429 0
1428 1426 -1429 0
1428 -1426 1429 0
-1428 1426 1429 0
-1428 -1426 1430 0
1428 -1430 0
1426 -1430 0
-1287 -1427 1431 0
1287 -1431 0
1427 -1431 0
1430 1431 -1432 0
-1430 1432 0
-1431 1432 0
-66 -1381 1433 0
66 -1433 0
1381 -1433 0
-1293 -1433 -1434 0
1293 1433 -1434 0
1293 -1433 1434 0
-1293 1433 1434 0
-1434 -1432 -1435 0
1434 1432 -1435 0
1434 -1432 1435 0
-1434 1432 1435 0
-1434 -1432 1436 0
1434 -1436 0
1432 -1436 0
-1293 -1433 1437 0
1293 -1437 0
1433 -1437 0
1436 1437 -1438 0
-1436 1438 0
-1437 1438 0
-74 -1381 1439 0
74 -1439 0
1381 -1439 0
-1299 -1439 -1440 0
1299 1439 -1440 0
1299 -1439 1440 0
-1299 1439 1440 0
-1440 -1438 -1441 0
1440 1438 -1441 0
1440 -1438 1441 0
-1440 1438 1441 0
-1440 -1438 1442 0
1440 -1442 0
1438 -1442 0
-1299 -1439 1443 0
1299 -1443 0
1439 -1443 0
1442 1443 -1444 0
-1442 1444 0
-1443 1444 0
-82 -1381 1445 0
82 -1445 0
1381 -1445 0
-1305 -1445 -1446 0
1305 1445 -1446 0
1305 -1445 1446 0
-1305 1445 1446 0
-1446 -1444 -1447 0
1446 1444 -1447 0
1446 -1444 1447 0
-1446 1444 1447 0
-1446 -1444 1448 0
1446 -1448 0
1444 -1448 0
-1305 -1445 1449 0
1305 -1449 0
1445 -1449 0
1448 1449 -1450 0
-1448 1450 0
-1449 1450 0
-90 -1381 1451 0
90 -1451 0
1381 -1451 0
-1311 -1451 -1452 0
1311 1451 -1452 0
1311 -1451 1452 0
-1311 1451 1452 0
-1452 -1450 -1453 0
1452 1450 -1453 0
1452 -1450 1453 0
-1452 1450 1453 0
-1452 -1450 1454 0
1452 -1454 0
1450 -1454 0
-1311 -1451 1455 0
1311 -1455 0
1451 -1455 0
1454 1455 -1456 0
-1454 1456 0
-1455 1456 0
-98 -1381 1457 0
98 -1457 0
1381 -1457 0
-1317 -1457 -1458 0
1317 1457 -1458 0
1317 -1457 1458 0
-1317 1457 1458 0
-1458 -1456 -1459 0
1458 1456 -1459 0
1458 -1456 1459 0
-1458 1456 1459 0
-1458 -1456 1460 0
1458 -1460 0
1456 -1460 0
-1317 -1457 1461 0
1317 -1461 0
1457 -1461 0
1460 1461 -1462 0
-1460 1462 0
-1461 1462 0
-106 -1381 1463 0
106 -1463 0
1381 -1463 0
-1323 -1463 -1464 0
1323 1463 -1464 0
1323 -1463 1464 0
-1323 1463 1464 0
-1464 -1462 -1465 0
1464 1462 -1465 0
1464 -1462 1465 0
-1464 1462 1465 0
-1464 -1462 1466 0
1464 -1466 0
1462 -1466 0
-1323 -1463 1467 0
1323 -1467 0
1463 -1467 0
1466 1467 -1468 0
-1466 1468 0
-1467 1468 0
-114 -1381 1469 0
114 -1469 0
1381 -1469 0
-1329 -1469 -1470 0
1329 1469 -1470 0
1329 -1469 1470 0
-1329 1469 1470 0
-1470 -1468 -1471 0
1470 1468 -1471 0
1470 -1468 1471 0
-1470 1468 1471 0
-1470 -1468 1472 0
1470 -1472 0
1468 -1472 0
-1329 -1469 1473 0
1329 -1473 0
1469 -1473 0
1472 1473 -1474 0
-1472 1474 0
-1473 1474 0
-122 -1381 1475 0
122 -1475 0
1381 -1475 0
-1335 -1475 -1476 0
1335 1475 -1476 0
1335 -1475 1476 0
-1335 1475 1476 0
-1476 -1474 -1477 0
1476 1474 -1477 0
1476 -1474 1477 0
-1476 1474 1477 0
-1476 -1474 1478 0
1476 -1478 0
1474 -1478 0
-1335 -1475 1479 0
1335 -1479 0
1475 -1479 0
1478 1479 -1480 0
-1478 1480 0
-1479 1480 0
-130 -1381 1481 0
130 -1481 0
1381 -1481 0
-1341 -1481 -1482 0
1341 1481 -1482 0
1341 -1481 1482 0
-1341 1481 1482 0
-1482 -1480 -1483 0
1482 1480 -1483 0
1482 -1480 1483 0
-1482 1480 1483 0
-1482 -1480 1484 0
1482 -1484 0
1480 -1484 0
-1341 -1481 1485 0
1341 -1485 0
1481 -1485 0
1484 1485 -1486 0
-1484 1486 0
-1485 1486 0
-138 -1381 1487 0
138 -1487 0
1381 -1487 0
-1347 -1487 -1488 0
1347 1487 -1488 0
1347 -1487 1488 0
-1347 1487 1488 0
-1488 -1486 -1489 0
1488 1486 -1489 0
1488 -1486 1489 0
-1488 1486 1489 0
-1488 -1486 1490 0
1488 -1490 0
1486 -1490 0
-1347 -1487 1491 0
1347 -1491 0
1487 -1491 0
1490 1491 -1492 0
-1490 1492 0
-1491 1492 0
-146 -1381 1493 0
146 -1493 0
1381 -1493 0
-1353 -1493 -1494 0
1353 1493 -1494 0
1353 -1493 1494 0
-1353 1493 1494 0
-1494 -1492 -1495 0
1494 1492 -1495 0
1494 -1492 1495 0
-1494 1492 1495 0
-1494 -1492 1496 0
1494 -1496 0
1492 -1496 0
-1353 -1493 1497 0
1353 -1497 0
1493 -1497 0
1496 1497 -1498 0
-1496 1498 0
-1497 1498 0
-154 -1381 1499 0
154 -1499 0
1381 -1499 0
-1359 -1499 -1500 0
1359 1499 -1500 0
1359 -1499 1500 0
-1359 1499 1500 0
-1500 -1498 -1501 0
1500 1498 -1501 0
1500 -1498 1501 0
-1500 1498 1501 0
-1500 -1498 1502 0
1500 -1502 0
1498 -1502 0
-1359 -1499 1503 0
1359 -1503 0
1499 -1503 0
1502 1503 -1504 0
-1502 1504 0
-1503 1504 0
-162 -1381 1505 0
162 -1505 0
1381 -1505 0
-1365 -1505 -1506 0
1365 1505 -1506 0
1365 -1505 1506 0
-1365 1505 1506 0
-1506 -1504 -1507 0
1506 1504 -1507 0
1506 -1504 1507 0
-1506 1504 1507 0
-1506 -1504 1508 0
1506 -1508 0
1504 -1508 0
-1365 -1505 1509 0
1365 -1509 0
1505 -1509 0
1508 1509 -1510 0
-1508 1510 0
-1509 1510 0
-170 -1381 1511 0
170 -1511 0
1381 -1511 0
-1371 -1511 -1512 0
1371 1511 -1512 0
1371 -1511 1512 0
-1371 1511 1512 0
-1512 -1510 -1513 0
1512 1510 -1513 0
1512 -1510 1513 0
-1512 1510 1513 0
-1512 -1510 1514 0
1512 -1514 0
1510 -1514 0
-1371 -1511 1515 0
1371 -1515 0
1511 -1515 0
1514 1515 -1516 0
-1514 1516 0
-1515 1516 0
-178 -1381 1517 0
178 -1517 0
1381 -1517 0
-1377 -1517 -1518 0
1377 1517 -1518 0
1377 -1517 1518 0
-1377 1517 1518 0
-1518 -1516 -1519 0
1518 1516 -1519 0
1518 -1516 1519 0
-1518 1516 1519 0
-1518 -1516 1520 0
1518 -1520 0
1516 -1520 0
-1377 -1517 1521 0
1377 -1521 0
1517 -1521 0
1520 1521 -1522 0
-1520 1522 0
-1521 1522 0
-186 -1381 1523 0
186 -1523 0
1381 -1523 0
-1380 -1523 -1524 0
1380 1523 -1524 0
1380 -1523 1524 0
-1380 1523 1524 0
-1524 -1522 -1525 0
1524 1522 -1525 0
1524 -1522 1525 0
-1524 1522 1525 0
-1524 -1522 1526 0
1524 -1526 0
1522 -1526 0
-1380 -1523 1527 0
1380 -1527 0
1523 -1527 0
1526 1527 -1528 0
-1526 1528 0
-1527 1528 0
-1 -1529 1530 0
1 -1530 0
1529 -1530 0
-1387 -1530 -1531 0
1387 1530 -1531 0
1387 -1530 1531 0
-1387 1530 1531 0
-1387 -1530 1532 0
1387 -1532 0
1530 -1532 0
-4 -1529 1533 0
4 -1533 0
1529 -1533 0
-1393 -1533 -1534 0
1393 1533 -1534 0
1393 -1533 1534 0
-1393 1533 1534 0
-1534 -1532 -1535 0
1534 1532 -1535 0
1534 -1532 1535 0
-1534 1532 1535 0
-1534 -1532 1536 0
1534 -1536 0
1532 -1536 0
-1393 -1533 1537 0
1393 -1537 0
1533 -1537 0
1536 1537 -1538 0
-1536 1538 0
-1537 1538 0
-10 -1529 1539 0
10 -1539 0
1529 -1539 0
-1399 -1539 -1540 0
1399 1539 -1540 0
1399 -1539 1540 0
-1399 1539 1540 0
-1540 -1538 -1541 0
1540 1538 -1541 0
1540 -1538 1541 0
-1540 1538 1541 0
-1540 -1538 1542 0
1540 -1542 0
1538 -1542 0
-1399 -1539 1543 0
1399 -1543 0
1539 -1543 0
1542 1543 -1544 0
-1542 1544 0
-1543 1544 0
-18 -1529 1545 0
18 -1545 0
1529 -1545 0
-1405 -1545 -1546 0
1405 1545 -1546 0
1405 -1545 1546 0
-1405 1545 1546 0
-1546 -1544 -1547 0
1546 1544 -1547 0
1546 -1544 1547 0
-1546 1544 1547 0
-1546 -1544 1548 0
1546 -1548 0
1544 -1548 0
-1405 -1545 1549 0
1405 -1549 0
1545 -1549 0
1548 1549 -1550 0
-1548 1550 0
-1549 1550 0
-26 -1529 1551 0
26 -1551 0
1529 -1551 0
-1411 -1551 -1552 0
1411 1551 -1552 0
1411 -1551 1552 0
-1411 1551 1552 0
-1552 -1550 -1553 0
1552 1550 -1553 0
1552 -1550 1553 0
-1552 1550 1553 0
-1552 -1550 1554 0
1552 -1554 0
1550 -1554 0
-1411 -1551 1555 0
1411 -1555 0
1551 -1555 0
1554 1555 -1556 0
-1554 1556 0
-1555 1556 0
-34 -1529 1557 0
34 -1557 0
1529 -1557 0
-1417 -1557 -1558 0
1417 1557 -1558 0
1417 -1557 1558 0
-1417 1557 1558 0
-1558 -1556 -1559 0
1558 1556 -1559 0
1558 -1556 1559 0
-1558 1556 1559 0
-1558 -1556 1560 0
1558 -1560 0
1556 -1560 0
-1417 -1557 1561 0
1417 -1561 0
1557 -1561 0
1560 1561 -1562 0
-1560 1562 0
-1561 1562 0
-42 -1529 1563 0
42 -1563 0
1529 -1563 0
-1423 -1563 -1564 0
1423 1563 -1564 0
1423 -1563 1564 0
-1423 1563 1564 0
-1564 -1562 -1565 0
1564 1562 -1565 0
1564 -1562 1565 0
-1564 1562 1565 0
-1564 -1562 1566 0
1564 -1566 0
1562 -1566 0
-1423 -1563 1567 0
1423 -1567 0
1563 -1567 0
1566 1567 -1568 0
-1566 1568 0
-1567 1568 0
-50 -1529 1569 0
50 -1569 0
1529 -1569 0
-1429 -1569 -1570 0
1429 1569 -1570 0
1429 -1569 1570 0
-1429 1569 1570 0
-1570 -1568 -1571 0
1570 1568 -1571 0
1570 -1568 1571 0
-1570 1568 1571 0
-1570 -1568 1572 0
1570 -1572 0
1568 -1572 0
-1429 -1569 1573 0
1429 -1573 0
1569 -1573 0
1572 1573 -1574 0
-1572 1574 0
-1573 1574 0
-58 -1529 1575 0
58 -1575 0
1529 -1575 0
-1435 -1575 -1576 0
1435 1575 -1576 0
1435 -1575 1576 0
-1435 1575 1576 0
-1576 -1574 -1577 0
1576 1574 -1577 0
1576 -1574 1577 0
-1576 1574 1577 0
-1576 -1574 1578 0
1576 -1578 0
1574 -1578 0
-1435 -1575 1579 0
1435 -1579 0
1575 -1579 0
1578 1579 -1580 0
-1578 1580 0
-1579 1580 0
-66 -1529 1581 0
66 -1581 0
1529 -1581 0
-1441 -1581 -1582 0
1441 1581 -1582 0
1441 -1581 1582 0
-1441 1581 1582 0
-1582 -1580 -1583 0
1582 1580 -1583 0
1582 -1580 1583 0
-1582 1580 1583 0
-1582 -1580 1584 0
1582 -1584 0
1580 -1584 0
-1441 -1581 1585 0
1441 -1585 0
1581 -1585 0
1584 1585 -1586 0
-1584 1586 0
-1585 1586 0
-74 -1529 1587 0
74 -1587 0
1529 -1587 0
-1447 -1587 -1588 0
1447 1587 -1588 0
1447 -1587 1588 0
-1447 1587 1588 0
-1588 -1586 -1589 0
1588 1586 -1589 0
1588 -1586 1589 0
-1588 1586 1589 0
-1588 -1586 1590 0
1588 -1590 0
1586 -1590 0
-1447 -1587 1591 0
1447 -1591 0
1587 -1591 0
1590 1591 -1592 0
-1590 1592 0
-1591 1592 0
-82 -1529 1593 0
82 -1593 0
1529 -1593 0
-1453 -1593 -1594 0
1453 1593 -1594 0
1453 -1593 1594 0
-1453 1593 1594 0
-1594 -1592 -1595 0
1594 1592 -1595 0
1594 -1592 1595 0
-1594 1592 1595 0
-1594 -1592 1596 0
1594 -1596 0
1592 -1596 0
-1453 -1593 1597 0
1453 -1597 0
1593 -1597 0
1596 1597 -1598 0
-1596 1598 0
-1597 1598 0
-90 -1529 1599 0
90 -1599 0
1529 -1599 0
-1459 -1599 -1600 0
1459 1599 -1600 0
1459 -1599 1600 0
-1459 1599 1600 0
-1600 -1598 -1601 0
1600 1598 -1601 0
1600 -1598 1601 0
-1600 1598 1601 0
-1600 -1598 1602 0
1600 -1602 0
1598 -1602 0
-1459 -1599 1603 0
1459 -1603 0
1599 -1603 0
1602 1603 -1604 0
-1602 1604 0
-1603 1604 0
-98 -1529 1605 0
98 -1605 0
1529 -1605 0
-1465 -1605 -1606 0
1465 1605 -1606 0
1465 -1605 1606 0
-1465 1605 1606 0
-1606 -1604 -1607 0
1606 1604 -1607 0
1606 -1604 1607 0
-1606 1604 1607 0
-1606 -1604 1608 0
1606 -1608 0
1604 -1608 0
-1465 -1605 1609 0
1465 -1609 0
1605 -1609 0
1608 1609 -1610 0
-1608 1610 0
-1609 1610 0
-106 -1529 1611 0
106 -1611 0
1529 -1611 0
-1471 -1611 -1612 0
1471 1611 -1612 0
1471 -1611 1612 0
-1471 1611 1612 0
-1612 -1610 -1613 0
1612 1610 -1613 0
1612 -1610 1613 0
-1612 1610 1613 0
-1612 -1610 1614 0
1612 -1614 0
1610 -1614 0
-1471 -1611 1615 0
1471 -1615 0
1611 -1615 0
1614 1615 -1616 0
-1614 1616 0
-1615 1616 0
-114 -1529 1617 0
114 -1617 0
1529 -1617 0
-1477 -1617 -1618 0
1477 1617 -1618 0
1477 -1617 1618 0
-1477 1617 1618 0
-1618 -1616 -1619 0
1618 1616 -1619 0
1618 -1616 1619 0
-1618 1616 1619 0
-1618 -1616 1620 0
1618 -1620 0
1616 -1620 0
-1477 -1617 1621 0
1477 -1621 0
1617 -1621 0
1620 1621 -1622 0
-1620 1622 0
-1621 1622 0
-122 -1529 1623 0
122 -1623 0
1529 -1623 0
-1483 -1623 -1624 0
1483 1623 -1624 0
1483 -1623 1624 0
-1483 1623 1624 0
-1624 -1622 -1625 0
1624 1622 -1625 0
1624 -1622 1625 0
-1624 1622 1625 0
-1624 -1622 1626 0
1624 -1626 0
1622 -1626 0
-1483 -1623 1627 0
1483 -1627 0
1623 -1627 0
1626 1627 -1628 0
-1626 1628 0
-1627 1628 0
-130 -1529 1629 0
130 -1629 0
1529 -1629 0
-1489 -1629 -1630 0
1489 1629 -1630 0
1489 -1629 1630 0
-1489 1629 1630 0
-1630 -1628 -1631 0
1630 1628 -1631 0
1630 -1628 1631 0
-1630 1628 1631 0
-1630 -1628 1632 0
1630 -1632 0
1628 -1632 0
-1489 -1629 1633 0
1489 -1633 0
1629 -1633 0
1632 1633 -1634 0
-1632 1634 0
-1633 1634 0
-138 -1529 1635 0
138 -1635 0
1529 -1635 0
-1495 -1635 -1636 0
1495 1635 -1636 0
1495 -1635 1636 0
-1495 1635 1636 0
-1636 -1634 -1637 0
1636 1634 -1637 0
1636 -1634 1637 0
-1636 1634 1637 0
-1636 -1634 1638 0
1636 -1638 0
1634 -1638 0
-1495 -1635 1639 0
1495 -1639 0
1635 -1639 0
1638 1639 -1640 0
-1638 1640 0
-1639 1640 0
-146 -1529 1641 0
146 -1641 0
1529 -1641 0
-1501 -1641 -1642 0
1501 1641 -1642 0
1501 -1641 1642 0
-1501 1641 1642 0
-1642 -1640 -1643 0
1642 1640 -1643 0
1642 -1640 1643 0
-1642 1640 1643 0
-1642 -1640 1644 0
1642 -1644 0
1640 -1644 0
-1501 -1641 1645 0
1501 -1645 0
1641 -1645 0
1644 1645 -1646 0
-1644 1646 0
-1645 1646 0
-154 -1529 1647 0
154 -1647 0
1529 -1647 0
-1507 -1647 -1648 0
1507 1647 -1648 0
1507 -1647 1648 0
-1507 1647 1648 0
-1648 -1646 -1649 0
1648 1646 -1649 0
1648 -1646 1649 0
-1648 1646 1649 0
-1648 -1646 1650 0
1648 -1650 0
1646 -1650 0
-1507 -1647 1651 0
1507 -1651 0
1647 -1651 0
1650 1651 -1652 0
-1650 1652 0
-1651 1652 0
-162 -1529 1653 0
162 -1653 0
1529 -1653 0
-1513 -1653 -1654 0
1513 1653 -1654 0
1513 -1653 1654 0
-1513 1653 1654 0
-1654 -1652 -1655 0
1654 1652 -1655 0
1654 -1652 1655 0
-1654 1652 1655 0
-1654 -1652 1656 0
1654 -1656 0
1652 -1656 0
-1513 -1653 1657 0
1513 -1657 0
1653 -1657 0
1656 1657 -1658 0
-1656 1658 0
-1657 1658 0
-170 -1529 1659 0
170 -1659 0
1529 -1659 0
-1519 -1659 -1660 0
1519 1659 -1660 0
1519 -1659 1660 0
-1519 1659 1660 0
-1660 -1658 -1661 0
1660 1658 -1661 0
1660 -1658 1661 0
-1660 1658 1661 0
-1660 -1658 1662 0
1660 -1662 0
1658 -1662 0
-1519 -1659 1663 0
1519 -1663 0
1659 -1663 0
1662 1663 -1664 0
-1662 1664 0
-1663 1664 0
-178 -1529 1665 0
178 -1665 0
1529 -1665 0
-1525 -1665 -1666 0
1525 1665 -1666 0
1525 -1665 1666 0
-1525 1665 1666 0
-1666 -1664 -1667 0
1666 1664 -1667 0
1666 -1664 1667 0
-1666 1664 1667 0
-1666 -1664 1668 0
1666 -1668 0
1664 -1668 0
-1525 -1665 1669 0
1525 -1669 0
1665 -1669 0
1668 1669 -1670 0
-1668 1670 0
-1669 1670 0
-186 -1529 1671 0
186 -1671 0
1529 -1671 0
-1528 -1671 -1672 0
1528 1671 -1672 0
1528 -1671 1672 0
-1528 1671 1672 0
-1672 -1670 -1673 0
1672 1670 -1673 0
1672 -1670 1673 0
-1672 1670 1673 0
-1672 -1670 1674 0
1672 -1674 0
1670 -1674 0
-1528 -1671 1675 0
1528 -1675 0
1671 -1675 0
1674 1675 -1676 0
-1674 1676 0
-1675 1676 0
-1 -1677 1678 0
1 -1678 0
1677 -1678 0
-1535 -1678 -1679 0
1535 1678 -1679 0
1535 -1678 1679 0
-1535 1678 1679 0
-1535 -1678 1680 0
1535 -1680 0
1678 -1680 0
-4 -1677 1681 0
4 -1681 0
1677 -1681 0
-1541 -1681 -1682 0
1541 1681 -1682 0
1541 -1681 1682 0
-1541 1681 1682 0
-1682 -1680 -1683 0
1682 1680 -1683 0
1682 -1680 1683 0
-1682 1680 1683 0
-1682 -1680 1684 0
1682 -1684 0
1680 -1684 0
-1541 -1681 1685 0
1541 -1685 0
1681 -1685 0
1684 1685 -1686 0
-1684 1686 0
-1685 1686 0
-10 -1677 1687 0
10 -1687 0
1677 -1687 0
-1547 -1687 -1688 0
1547 1687 -1688 0
1547 -1687 1688 0
-1547 1687 1688 0
-1688 -1686 -1689 0
1688 1686 -1689 0
1688 -1686 1689 0
-1688 1686 1689 0
-1688 -1686 1690 0
1688 -1690 0
1686 -1690 0
-1547 -1687 1691 0
1547 -1691 0
1687 -1691 0
1690 1691 -1692 0
-1690 1692 0
-1691 1692 0
-18 -1677 1693 0
18 -1693 0
1677 -1693 0
-1553 -1693 -1694 0
1553 1693 -1694 0
1553 -1693 1694 0
-1553 1693 1694 0
-1694 -1692 -1695 0
1694 1692 -1695 0
1694 -1692 1695 0
-1694 1692 1695 0
-1694 -1692 1696 0
1694 -1696 0
1692 -1696 0
-1553 -1693 1697 0
1553 -1697 0
1693 -1697 0
1696 1697 -1698 0
-1696 1698 0
-1697 1698 0
-26 -1677 1699 0
26 -1699 0
1677 -1699 0
-1559 -1699 -1700 0
1559 1699 -1700 0
1559 -1699 1700 0
-1559 1699 1700 0
-1700 -1698 -1701 0
1700 1698 -1701 0
1700 -1698 1701 0
-1700 1698 1701 0
-1700 -1698 1702 0
1700 -1702 0
1698 -1702 0
-1559 -1699 1703 0
1559 -1703 0
1699 -1703 0
1702 1703 -1704 0
-1702 1704 0
-1703 1704 0
-34 -1677 1705 0
34 -1705 0
1677 -1705 0
-1565 -1705 -1706 0
1565 1705 -1706 0
1565 -1705 1706 0
-1565 1705 1706 0
-1706 -1704 -1707 0
1706 1704 -1707 0
1706 -1704 1707 0
-1706 1704 1707 0
-1706 -1704 1708 0
1706 -1708 0
1704 -1708 0
-1565 -1705 1709 0
1565 -1709 0
1705 -1709 0
1708 1709 -1710 0
-1708 1710 0
-1709 1710 0
-42 -1677 1711 0
42 -1711 0
1677 -1711 0
-1571 -1711 -1712 0
1571 1711 -1712 0
1571 -1711 1712 0
-1571 1711 1712 0
-1712 -1710 -1713 0
1712 1710 -1713 0
1712 -1710 1713 0
-1712 1710 1713 0
-1712 -1710 1714 0
1712 -1714 0
1710 -1714 0
-1571 -1711 1715 0
1571 -1715 0
1711 -1715 0
1714 1715 -1716 0
-1714 1716 0
-1715 1716 0
-50 -1677 1717 0
50 -1717 0
1677 -1717 0
-1577 -1717 -1718 0
1577 1717 -1718 0
1577 -1717 1718 0
-1577 1717 1718 0
-1718 -1716 -1719 0
1718 1716 -1719 0
1718 -1716 1719 0
-1718 1716 1719 0
-1718 -1716 1720 0
1718 -1720 0
1716 -1720 0
-1577 -1717 1721 0
1577 -1721 0
1717 -1721 0
1720 1721 -1722 0
-1720 1722 0
-1721 1722 0
-58 -1677 1723 0
58 -1723 0
1677 -1723 0
-1583 -1723 -1724 0
1583 1723 -1724 0
1583 -1723 1724 0
-1583 1723 1724 0
-1724 -1722 -1725 0
1724 1722 -1725 0
1724 -1722 1725 0
-1724 1722 1725 0
-1724 -1722 1726 0
1724 -1726 0
1722 -1726 0
-1583 -1723 1727 0
1583 -1727 0
1723 -1727 0
1726 1727 -1728 0
-1726 1728 0
-1727 1728 0
-66 -1677 1729 0
66 -1729 0
1677 -1729 0
-1589 -1729 -1730 0
1589 1729 -1730 0
1589 -1729 1730 0
-1589 1729 1730 0
-1730 -1728 -1731 0
1730 1728 -1731 0
1730 -1728 1731 0
-1730 1728 1731 0
-1730 -1728 1732 0
1730 -1732 0
1728 -1732 0
-1589 -1729 1733 0
1589 -1733 0
1729 -1733 0
1732 1733 -1734 0
-1732 1734 0
-1733 1734 0
-74 -1677 1735 0
74 -1735 0
1677 -1735 0
-1595 -1735 -1736 0
1595 1735 -1736 0
1595 -1735 1736 0
-1595 1735 1736 0
-1736 -1734 -1737 0
1736 1734 -1737 0
1736 -1734 1737 0
-1736 1734 1737 0
-1736 -1734 1738 0
1736 -1738 0
1734 -1738 0
-1595 -1735 1739 0
1595 -1739 0
1735 -1739 0
1738 1739 -1740 0
-1738 1740 0
-1739 1740 0
-82 -1677 1741 0
82 -1741 0
1677 -1741 0
-1601 -1741 -1742 0
1601 1741 -1742 0
1601 -1741 1742 0
-1601 1741 1742 0
-1742 -1740 -1743 0
1742 1740 -1743 0
1742 -1740 1743 0
-1742 1740 1743 0
-1742 -1740 1744 0
1742 -1744 0
1740 -1744 0
-1601 -1741 1745 0
1601 -1745 0
1741 -1745 0
1744 1745 -1746 0
-1744 1746 0
-1745 1746 0
-90 -1677 1747 0
90 -1747 0
1677 -1747 0
-1607 -1747 -1748 0
1607 1747 -1748 0
1607 -1747 1748 0
-1607 1747 1748 0
-1748 -1746 -1749 0
1748 1746 -1749 0
1748 -1746 1749 0
-1748 1746 1749 0
-1748 -1746 1750 0
1748 -1750 0
1746 -1750 0
-1607 -1747 1751 0
1607 -1751 0
1747 -1751 0
1750 1751 -1752 0
-1750 1752 0
-1751 1752 0
-98 -1677 1753 0
98 -1753 0
1677 -1753 0
-1613 -1753 -1754 0
1613 1753 -1754 0
1613 -1753 1754 0
-1613 1753 1754 0
-1754 -1752 -1755 0
1754 1752 -1755 0
1754 -1752 1755 0
-1754 1752 1755 0
-1754 -1752 1756 0
1754 -1756 0
1752 -1756 0
-1613 -1753 1757 0
1613 -1757 0
1753 -1757 0
1756 1757 -1758 0
-1756 1758 0
-1757 1758 0
-106 -1677 1759 0
106 -1759 0
1677 -1759 0
-1619 -1759 -1760 0
1619 1759 -1760 0
1619 -1759 1760 0
-1619 1759 1760 0
-1760 -1758 -1761 0
1760 1758 -1761 0
1760 -1758 1761 0
-1760 1758 1761 0
-1760 -1758 1762 0
1760 -1762 0
1758 -1762 0
-1619 -1759 1763 0
1619 -1763 0
1759 -1763 0
1762 1763 -1764 0
-1762 1764 0
-1763 1764 0
-114 -1677 1765 0
114 -1765 0
1677 -1765 0
-1625 -1765 -1766 0
1625 1765 -1766 0
1625 -1765 1766 0
-1625 1765 1766 0
-1766 -1764 -1767 0
1766 1764 -1767 0
1766 -1764 1767 0
-1766 1764 1767 0
-1766 -1764 1768 0
1766 -1768 0
1764 -1768 0
-1625 -1765 1769 0
1625 -1769 0
1765 -1769 0
1768 1769 -1770 0
-1768 1770 0
-1769 1770 0
-122 -1677 1771 0
122 -1771 0
1677 -1771 0
-1631 -1771 -1772 0
1631 1771 -1772 0
1631 -1771 1772 0
-1631 1771 1772 0
-1772 -1770 -1773 0
1772 1770 -1773 0
1772 -1770 1773 0
-1772 1770 1773 0
-1772 -1770 1774 0
1772 -1774 0
1770 -1774 0
-1631 -1771 1775 0
1631 -1775 0
1771 -1775 0
1774 1775 -1776 0
-1774 1776 0
-1775 1776 0
-130 -1677 1777 0
130 -1777 0
1677 -1777 0
-1637 -1777 -1778 0
1637 1777 -1778 0
1637 -1777 1778 0
-1637 1777 1778 0
-1778 -1776 -1779 0
1778 1776 -1779 0
1778 -1776 1779 0
-1778 1776 1779 0
-1778 -1776 1780 0
1778 -1780 0
1776 -1780 0
-1637 -1777 1781 0
1637 -1781 0
1777 -1781 0
1780 1781 -1782 0
-1780 1782 0
-1781 1782 0
-138 -1677 1783 0
138 -1783 0
1677 -1783 0
-1643 -1783 -1784 0
1643 1783 -1784 0
1643 -1783 1784 0
-1643 1783 1784 0
-1784 -1782 -1785 0
1784 1782 -1785 0
1784 -1782 1785 0
-1784 1782 1785 0
-1784 -1782 1786 0
1784 -1786 0
1782 -1786 0
-1643 -1783 1787 0
1643 -1787 0
1783 -1787 0
1786 1787 -1788 0
-1786 1788 0
-1787 1788 0
-146 -1677 1789 0
146 -1789 0
1677 -1789 0
-1649 -1789 -1790 0
1649 1789 -1790 0
1649 -1789 1790 0
-1649 1789 1790 0
-1790 -1788 -1791 0
1790 1788 -1791 0
1790 -1788 1791 0
-1790 1788 1791 0
-1790 -1788 1792 0
1790 -1792 0
1788 -1792 0
-1649 -1789 1793 0
1649 -1793 0
1789 -1793 0
1792 1793 -1794 0
-1792 1794 0
-1793 1794 0
-154 -1677 1795 0
154 -1795 0
1677 -1795 0
-1655 -1795 -1796 0
1655 1795 -1796 0
1655 -1795 1796 0
-1655 1795 1796 0
-1796 -1794 -1797 0
1796 1794 -1797 0
1796 -1794 1797 0
-1796 1794 1797 0
-1796 -1794 1798 0
1796 -1798 0
1794 -1798 0
-1655 -1795 1799 0
1655 -1799 0
1795 -1799 0
1798 1799 -1800 0
-1798 1800 0
-1799 1800 0
-162 -1677 1801 0
162 -1801 0
1677 -1801 0
-1661 -1801 -1802 0
1661 1801 -1802 0
1661 -1801 1802 0
-1661 1801 1802 0
-1802 -1800 -1803 0
1802 1800 -1803 0
1802 -1800 1803 0
-1802 1800 1803 0
-1802 -1800 1804 0
1802 -1804 0
1800 -1804 0
-1661 -1801 1805 0
1661 -1805 0
1801 -1805 0
1804 1805 -1806 0
-1804 1806 0
-1805 1806 0
-170 -1677 1807 0
170 -1807 0
1677 -1807 0
-1667 -1807 -1808 0
1667 1807 -1808 0
1667 -1807 1808 0
-1667 1807 1808 0
-1808 -1806 -1809 0
1808 1806 -1809 0
1808 -1806 1809 0
-1808 1806 1809 0
-1808 -1806 1810 0
1808 -1810 0
1806 -1810 0
-1667 -1807 1811 0
1667 -1811 0
1807 -1811 0
1810 1811 -1812 0
-1810 1812 0
-1811 1812 0
-178 -1677 1813 0
178 -1813 0
1677 -1813 0
-1673 -1813 -1814 0
1673 1813 -1814 0
1673 -1813 1814 0
-1673 1813 1814 0
-1814 -1812 -1815 0
1814 1812 -1815 0
1814 -1812 1815 0
-1814 1812 1815 0
-1814 -1812 1816 0
1814 -1816 0
1812 -1816 0
-1673 -1813 1817 0
1673 -1817 0
1813 -1817 0
1816 1817 -1818 0
-1816 1818 0
-1817 1818 0
-186 -1677 1819 0
186 -1819 0
1677 -1819 0
-1676 -1819 -1820 0
1676 1819 -1820 0
1676 -1819 1820 0
-1676 1819 1820 0
-1820 -1818 -1821 0
1820 1818 -1821 0
1820 -1818 1821 0
-1820 1818 1821 0
-1820 -1818 1822 0
1820 -1822 0
1818 -1822 0
-1676 -1819 1823 0
1676 -1823 0
1819 -1823 0
1822 1823 -1824 0
-1822 1824 0
-1823 1824 0
-1 -1825 1826 0
1 -1826 0
1825 -1826 0
-1683 -1826 -1827 0
1683 1826 -1827 0
1683 -1826 1827 0
-1683 1826 1827 0
-1683 -1826 1828 0
1683 -1828 0
1826 -1828 0
-4 -1825 1829 0
4 -1829 0
1825 -1829 0
-1689 -1829 -1830 0
1689 1829 -1830 0
1689 -1829 1830 0
-1689 1829 1830 0
-1830 -1828 -1831 0
1830 1828 -1831 0
1830 -1828 1831 0
-1830 1828 1831 0
-1830 -1828 1832 0
1830 -1832 0
1828 -1832 0
-1689 -1829 1833 0
1689 -1833 0
1829 -1833 0
1832 1833 -1834 0
-1832 1834 0
-1833 1834 0
-10 -1825 1835 0
10 -1835 0
1825 -1835 0
-1695 -1835 -1836 0
1695 1835 -1836 0
1695 -1835 1836 0
-1695 1835 1836 0
-1836 -1834 -1837 0
1836 1834 -1837 0
1836 -1834 1837 0
-1836 1834 1837 0
-1836 -1834 1838 0
1836 -1838 0
1834 -1838 0
-1695 -1835 1839 0
1695 -1839 0
1835 -1839 0
1838 1839 -1840 0
-1838 1840 0
-1839 1840 0
-18 -1825 1841 0
18 -1841 0
1825 -1841 0
-1701 -1841 -1842 0
1701 1841 -1842 0
1701 -1841 1842 0
-1701 1841 1842 0
-1842 -1840 -1843 0
1842 1840 -1843 0
1842 -1840 1843 0
-1842 1840 1843 0
-1842 -1840 1844 0
1842 -1844 0
1840 -1844 0
-1701 -1841 1845 0
1701 -1845 0
1841 -1845 0
1844 1845 -1846 0
-1844 1846 0
-1845 1846 0
-26 -1825 1847 0
26 -1847 0
1825 -1847 0
-1707 -1847 -1848 0
1707 1847 -1848 0
1707 -1847 1848 0
-1707 1847 1848 0
-1848 -1846 -1849 0
1848 1846 -1849 0
1848 -1846 1849 0
-1848 1846 1849 0
-1848 -1846 1850 0
1848 -1850 0
1846 -1850 0
-1707 -1847 1851 0
1707 -1851 0
1847 -1851 0
1850 1851 -1852 0
-1850 1852 0
-1851 1852 0
-34 -1825 1853 0
34 -1853 0
1825 -1853 0
-1713 -1853 -1854 0
1713 1853 -1854 0
1713 -1853 1854 0
-1713 1853 1854 0
-1854 -1852 -1855 0
1854 1852 -1855 0
1854 -1852 1855 0
-1854 1852 1855 0
-1854 -1852 1856 0
1854 -1856 0
1852 -1856 0
-1713 -1853 1857 0
1713 -1857 0
1853 -1857 0
1856 1857 -1858 0
-1856 1858 0
-1857 1858 0
-42 -1825 1859 0
42 -1859 0
1825 -1859 0
-1719 -1859 -1860 0
1719 1859 -1860 0
1719 -1859 1860 0
-1719 1859 1860 0
-1860 -1858 -1861 0
1860 1858 -1861 0
1860 -1858 1861 0
-1860 1858 1861 0
-1860 -1858 1862 0
1860 -1862 0
1858 -1862 0
-1719 -1859 1863 0
1719 -1863 0
1859 -1863 0
1862 1863 -1864 0
-1862 1864 0
-1863 1864 0
-50 -1825 1865 0
50 -1865 0
1825 -1865 0
-1725 -1865 -1866 0
1725 1865 -1866 0
1725 -1865 1866 0
-1725 1865 1866 0
-1866 -1864 -1867 0
1866 1864 -1867 0
1866 -1864 1867 0
-1866 1864 1867 0
-1866 -1864 1868 0
1866 -1868 0
1864 -1868 0
-1725 -1865 1869 0
1725 -1869 0
1865 -1869 0
1868 1869 -1870 0
-1868 1870 0
-1869 1870 0
-58 -1825 1871 0
58 -1871 0
1825 -1871 0
-1731 -1871 -1872 0
1731 1871 -1872 0
1731 -1871 1872 0
-1731 1871 1872 0
-1872 -1870 -1873 0
1872 1870 -1873 0
1872 -1870 1873 0
-1872 1870 1873 0
-1872 -1870 1874 0
1872 -1874 0
1870 -1874 0
-1731 -1871 1875 0
1731 -1875 0
1871 -1875 0
1874 1875 -1876 0
-1874 1876 0
-1875 1876 0
-66 -1825 1877 0
66 -1877 0
1825 -1877 0
-1737 -1877 -1878 0
1737 1877 -1878 0
1737 -1877 1878 0
-1737 1877 1878 0
-1878 -1876 -1879 0
1878 1876 -1879 0
1878 -1876 1879 0
-1878 1876 1879 0
-1878 -1876 1880 0
1878 -1880 0
1876 -1880 0
-1737 -1877 1881 0
1737 -1881 0
1877 -1881 0
1880 1881 -1882 0
-1880 1882 0
-1881 1882 0
-74 -1825 1883 0
74 -1883 0
1825 -1883 0
-1743 -1883 -1884 0
1743 1883 -1884 0
1743 -1883 1884 0
-1743 1883 1884 0
-1884 -1882 -1885 0
1884 1882 -1885 0
1884 -1882 1885 0
-1884 1882 1885 0
-1884 -1882 1886 0
1884 -1886 0
1882 -1886 0
-1743 -1883 1887 0
1743 -1887 0
1883 -1887 0
1886 1887 -1888 0
-1886 1888 0
-1887 1888 0
-82 -1825 1889 0
82 -1889 0
1825 -1889 0
-1749 -1889 -1890 0
1749 1889 -1890 0
1749 -1889 1890 0
-1749 1889 1890 0
-1890 -1888 -1891 0
1890 1888 -1891 0
1890 -1888 1891 0
-1890 1888 1891 0
-1890 -1888 1892 0
1890 -1892 0
1888 -1892 0
-1749 -1889 1893 0
1749 -1893 0
1889 -1893 0
1892 1893 -1894 0
-1892 1894 0
-1893 1894 0
-90 -1825 1895 0
90 -1895 0
1825 -1895 0
-1755 -1895 -1896 0
1755 1895 -1896 0
1755 -1895 1896 0
-1755 1895 1896 0
-1896 -1894 -1897 0
1896 1894 -1897 0
1896 -1894 1897 0
-1896 1894 1897 0
-1896 -1894 1898 0
1896 -1898 0
1894 -1898 0
-1755 -1895 1899 0
1755 -1899 0
1895 -1899 0
1898 1899 -1900 0
-1898 1900 0
-1899 1900 0
-98 -1825 1901 0
98 -1901 0
1825 -1901 0
-1761 -1901 -1902 0
1761 1901 -1902 0
1761 -1901 1902 0
-1761 1901 1902 0
-1902 -1900 -1903 0
1902 1900 -1903 0
1902 -1900 1903 0
-1902 1900 1903 0
-1902 -1900 1904 0
1902 -1904 0
1900 -1904 0
-1761 -1901 1905 0
1761 -1905 0
1901 -1905 0
1904 1905 -1906 0
-1904 1906 0
-1905 1906 0
-106 -1825 1907 0
106 -1907 0
1825 -1907 0
-1767 -1907 -1908 0
1767 1907 -1908 0
1767 -1907 1908 0
-1767 1907 1908 0
-1908 -1906 -1909 0
1908 1906 -1909 0
1908 -1906 1909 0
-1908 1906 1909 0
-1908 -1906 1910 0
1908 -1910 0
1906 -1910 0
-1767 -1907 1911 0
1767 -1911 0
1907 -1911 0
1910 1911 -1912 0
-1910 1912 0
-1911 1912 0
-114 -1825 1913 0
114 -1913 0
1825 -1913 0
-1773 -1913 -1914 0
1773 1913 -1914 0
1773 -1913 1914 0
-1773 1913 1914 0
-1914 -1912 -1915 0
1914 1912 -1915 0
1914 -1912 1915 0
-1914 1912 1915 0
-1914 -1912 1916 0
1914 -1916 0
1912 -1916 0
-1773 -1913 1917 0
1773 -1917 0
1913 -1917 0
1916 1917 -1918 0
-1916 1918 0
-1917 1918 0
-122 -1825 1919 0
122 -1919 0
1825 -1919 0
-1779 -1919 -1920 0
1779 1919 -1920 0
1779 -1919 1920 0
-1779 1919 1920 0
-1920 -1918 -1921 0
1920 1918 -1921 0
1920 -1918 1921 0
-1920 1918 1921 0
-1920 -1918 1922 0
1920 -1922 0
1918 -1922 0
-1779 -1919 1923 0
1779 -1923 0
1919 -1923 0
1922 1923 -1924 0
-1922 1924 0
-1923 1924 0
-130 -1825 1925 0
130 -1925 0
1825 -1925 0
-1785 -1925 -1926 0
1785 1925 -1926 0
1785 -1925 1926 0
-1785 1925 1926 0
-1926 -1924 -1927 0
1926 1924 -1927 0
1926 -1924 1927 0
-1926 1924 1927 0
-1926 -1924 1928 0
1926 -1928 0
1924 -1928 0
-1785 -1925 1929 0
1785 -1929 0
1925 -1929 0
1928 1929 -1930 0
-1928 1930 0
-1929 1930 0
-138 -1825 1931 0
138 -1931 0
1825 -1931 0
-1791 -1931 -1932 0
1791 1931 -1932 0
1791 -1931 1932 0
-1791 1931 1932 0
-1932 -1930 -1933 0
1932 1930 -1933 0
1932 -1930 1933 0
-1932 1930 1933 0
-1932 -1930 1934 0
1932 -1934 0
1930 -1934 0
-1791 -1931 1935 0
1791 -1935 0
1931 -1935 0
1934 1935 -1936 0
-1934 1936 0
-1935 1936 0
-146 -1825 1937 0
146 -1937 0
1825 -1937 0
-1797 -1937 -1938 0
1797 1937 -1938 0
1797 -1937 1938 0
-1797 1937 1938 0
-1938 -1936 -1939 0
1938 1936 -1939 0
1938 -1936 1939 0
-1938 1936 1939 0
-1938 -1936 1940 0
1938 -1940 0
1936 -1940 0
-1797 -1937 1941 0
1797 -1941 0
1937 -1941 0
1940 1941 -1942 0
-1940 1942 0
-1941 1942 0
-154 -1825 1943 0
154 -1943 0
1825 -1943 0
-1803 -1943 -1944 0
1803 1943 -1944 0
1803 -1943 1944 0
-1803 1943 1944 0
-1944 -1942 -1945 0
1944 1942 -1945 0
1944 -1942 1945 0
-1944 1942 1945 0
-1944 -1942 1946 0
1944 -1946 0
1942 -1946 0
-1803 -1943 1947 0
1803 -1947 0
1943 -1947 0
1946 1947 -1948 0
-1946 1948 0
-1947 1948 0
-162 -1825 1949 0
162 -1949 0
1825 -1949 0
-1809 -1949 -1950 0
1809 1949 -1950 0
1809 -1949 1950 0
-1809 1949 1950 0
-1950 -1948 -1951 0
1950 1948 -1951 0
1950 -1948 1951 0
-1950 1948 1951 0
-1950 -1948 1952 0
1950 -1952 0
1948 -1952 0
-1809 -1949 1953 0
1809 -1953 0
1949 -1953 0
1952 1953 -1954 0
-1952 1954 0
-1953 1954 0
-170 -1825 1955 0
170 -1955 0
1825 -1955 0
-1815 -1955 -1956 0
1815 1955 -1956 0
1815 -1955 1956 0
-1815 1955 1956 0
-1956 -1954 -1957 0
1956 1954 -1957 0
1956 -1954 1957 0
-1956 1954 1957 0
-1956 -1954 1958 0
1956 -1958 0
1954 -1958 0
-1815 -1955 1959 0
1815 -1959 0
1955 -1959 0
1958 1959 -1960 0
-1958 1960 0
-1959 1960 0
-178 -1825 1961 0
178 -1961 0
1825 -1961 0
-1821 -1961 -1962 0
1821 1961 -1962 0
1821 -1961 1962 0
-1821 1961 1962 0
-1962 -1960 -1963 0
1962 1960 -1963 0
1962 -1960 1963 0
-1962 1960 1963 0
-1962 -1960 1964 0
1962 -1964 0
1960 -1964 0
-1821 -1961 1965 0
1821 -1965 0
1961 -1965 0
1964 1965 -1966 0
-1964 1966 0
-1965 1966 0
-186 -1825 1967 0
186 -1967 0
1825 -1967 0
-1824 -1967 -1968 0
1824 1967 -1968 0
1824 -1967 1968 0
-1824 1967 1968 0
-1968 -1966 -1969 0
1968 1966 -1969 0
1968 -1966 1969 0
-1968 1966 1969 0
-1968 -1966 1970 0
1968 -1970 0
1966 -1970 0
-1824 -1967 1971 0
1824 -1971 0
1967 -1971 0
1970 1971 -1972 0
-1970 1972 0
-1971 1972 0
-1 -1973 1974 0
1 -1974 0
1973 -1974 0
-1831 -1974 -1975 0
1831 1974 -1975 0
1831 -1974 1975 0
-1831 1974 1975 0
-1831 -1974 1976 0
1831 -1976 0
1974 -1976 0
-4 -1973 1977 0
4 -1977 0
1973 -1977 0
-1837 -1977 -1978 0
1837 1977 -1978 0
1837 -1977 1978 0
-1837 1977 1978 0
-1978 -1976 -1979 0
1978 1976 -1979 0
1978 -1976 1979 0
-1978 1976 1979 0
-1978 -1976 1980 0
1978 -1980 0
1976 -1980 0
-1837 -1977 1981 0
1837 -1981 0
1977 -1981 0
1980 1981 -1982 0
-1980 1982 0
-1981 1982 0
-10 -1973 1983 0
10 -1983 0
1973 -1983 0
-1843 -1983 -1984 0
1843 1983 -1984 0
1843 -1983 1984 0
-1843 1983 1984 0
-1984 -1982 -1985 0
1984 1982 -1985 0
1984 -1982 1985 0
-1984 1982 1985 0
-1984 -1982 1986 0
1984 -1986 0
1982 -1986 0
-1843 -1983 1987 0
1843 -1987 0
1983 -1987 0
1986 1987 -1988 0
-1986 1988 0
-1987 1988 0
-18 -1973 1989 0
18 -1989 0
1973 -1989 0
-1849 -1989 -1990 0
1849 1989 -1990 0
1849 -1989 1990 0
-1849 1989 1990 0
-1990 -1988 -1991 0
1990 1988 -1991 0
1990 -1988 1991 0
-1990 1988 1991 0
-1990 -1988 1992 0
1990 -1992 0
1988 -1992 0
-1849 -1989 1993 0
1849 -1993 0
1989 -1993 0
1992 1993 -1994 0
-1992 1994 0
-1993 1994 0
-26 -1973 1995 0
26 -1995 0
1973 -1995 0
-1855 -1995 -1996 0
1855 1995 -1996 0
1855 -1995 1996 0
-1855 1995 1996 0
-1996 -1994 -1997 0
1996 1994 -1997 0
1996 -1994 1997 0
-1996 1994 1997 0
-1996 -1994 1998 0
1996 -1998 0
1994 -1998 0
-1855 -1995 1999 0
1855 -1999 0
1995 -1999 0
1998 1999 -2000 0
-1998 2000 0
-1999 2000 0
-34 -1973 2001 0
34 -2001 0
1973 -2001 0
-1861 -2001 -2002 0
1861 2001 -2002 0
1861 -2001 2002 0
-1861 2001 2002 0
-2002 -2000 -2003 0
2002 2000 -2003 0
2002 -2000 2003 0
-2002 2000 2003 0
-2002 -2000 2004 0
2002 -2004 0
2000 -2004 0
-1861 -2001 2005 0
1861 -2005 0
2001 -2005 0
2004 2005 -2006 0
-2004 2006 0
-2005 2006 0
-42 -1973 2007 0
42 -2007 0
1973 -2007 0
-1867 -2007 -2008 0
1867 2007 -2008 0
1867 -2007 2008 0
-1867 2007 2008 0
-2008 -2006 -2009 0
2008 2006 -2009 0
2008 -2006 2009 0
-2008 2006 2009 0
-2008 -2006 2010 0
2008 -2010 0
2006 -2010 0
-1867 -2007 2011 0
1867 -2011 0
2007 -2011 0
2010 2011 -2012 0
-2010 2012 0
-2011 2012 0
-50 -1973 2013 0
50 -2013 0
1973 -2013 0
-1873 -2013 -2014 0
1873 2013 -2014 0
1873 -2013 2014 0
-1873 2013 2014 0
-2014 -2012 -2015 0
2014 2012 -2015 0
2014 -2012 2015 0
-2014 2012 2015 0
-2014 -2012 2016 0
2014 -2016 0
2012 -2016 0
-1873 -2013 2017 0
1873 -2017 0
2013 -2017 0
2016 2017 -2018 0
-2016 2018 0
-2017 2018 0
-58 -1973 2019 0
58 -2019 0
1973 -2019 0
-1879 -2019 -2020 0
1879 2019 -2020 0
1879 -2019 2020 0
-1879 2019 2020 0
-2020 -2018 -2021 0
2020 2018 -2021 0
2020 -2018 2021 0
-2020 2018 2021 0
-2020 -2018 2022 0
2020 -2022 0
2018 -2022 0
-1879 -2019 2023 0
1879 -2023 0
2019 -2023 0
2022 2023 -2024 0
-2022 2024 0
-2023 2024 0
-66 -1973 2025 0
66 -2025 0
1973 -2025 0
-1885 -2025 -2026 0
1885 2025 -2026 0
1885 -2025 2026 0
-1885 2025 2026 0
-2026 -2024 -2027 0
2026 2024 -2027 0
2026 -2024 2027 0
-2026 2024 2027 0
-2026 -2024 2028 0
2026 -2028 0
2024 -2028 0
-1885 -2025 2029 0
1885 -2029 0
2025 -2029 0
2028 2029 -2030 0
-2028 2030 0
-2029 2030 0
-74 -1973 2031 0
74 -2031 0
1973 -2031 0
-1891 -2031 -2032 0
1891 2031 -2032 0
1891 -2031 2032 0
-1891 2031 2032 0
-2032 -2030 -2033 0
2032 2030 -2033 0
2032 -2030 2033 0
-2032 2030 2033 0
-2032 -2030 2034 0
2032 -2034 0
2030 -2034 0
-1891 -2031 2035 0
1891 -2035 0
2031 -2035 0
2034 2035 -2036 0
-2034 2036 0
-2035 2036 0
-82 -1973 2037 0
82 -2037 0
1973 -2037 0
-1897 -2037 -2038 0
1897 2037 -2038 0
1897 -2037 2038 0
-1897 2037 2038 0
-2038 -2036 -2039 0
2038 2036 -2039 0
2038 -2036 2039 0
-2038 2036 2039 0
-2038 -2036 2040 0
2038 -2040 0
2036 -2040 0
-1897 -2037 2041 0
1897 -2041 0
2037 -2041 0
2040 2041 -2042 0
-2040 2042 0
-2041 2042 0
-90 -1973 2043 0
90 -2043 0
1973 -2043 0
-1903 -2043 -2044 0
1903 2043 -2044 0
1903 -2043 2044 0
-1903 2043 2044 0
-2044 -2042 -2045 0
2044 2042 -2045 0
2044 -2042 2045 0
-2044 2042 2045 0
-2044 -2042 2046 0
2044 -2046 0
2042 -2046 0
-1903 -2043 2047 0
1903 -2047 0
2043 -2047 0
2046 2047 -2048 0
-2046 2048 0
-2047 2048 0
-98 -1973 2049 0
98 -2049 0
1973 -2049 0
-1909 -2049 -2050 0
1909 2049 -2050 0
1909 -2049 2050 0
-1909 2049 2050 0
-2050 -2048 -2051 0
2050 2048 -2051 0
2050 -2048 2051 0
-2050 2048 2051 0
-2050 -2048 2052 0
2050 -2052 0
2048 -2052 0
-1909 -2049 2053 0
1909 -2053 0
2049 -2053 0
2052 2053 -2054 0
-2052 2054 0
-2053 2054 0
-106 -1973 2055 0
106 -2055 0
1973 -2055 0
-1915 -2055 -2056 0
1915 2055 -2056 0
1915 -2055 2056 0
-1915 2055 2056 0
-2056 -2054 -2057 0
2056 2054 -2057 0
2056 -2054 2057 0
-2056 2054 2057 0
-2056 -2054 2058 0
2056 -2058 0
2054 -2058 0
-1915 -2055 2059 0
1915 -2059 0
2055 -2059 0
2058 2059 -2060 0
-2058 2060 0
-2059 2060 0
-114 -1973 2061 0
114 -2061 0
1973 -2061 0
-1921 -2061 -2062 0
1921 2061 -2062 0
1921 -2061 2062 0
-1921 2061 2062 0
-2062 -2060 -2063 0
2062 2060 -2063 0
2062 -2060 2063 0
-2062 2060 2063 0
-2062 -2060 2064 0
2062 -2064 0
2060 -2064 0
-1921 -2061 2065 0
1921 -2065 0
2061 -2065 0
2064 2065 -2066 0
-2064 2066 0
-2065 2066 0
-122 -1973 2067 0
122 -2067 0
1973 -2067 0
-1927 -2067 -2068 0
1927 2067 -2068 0
1927 -2067 2068 0
-1927 2067 2068 0
-2068 -2066 -2069 0
2068 2066 -2069 0
2068 -2066 2069 0
-2068 2066 2069 0
-2068 -2066 2070 0
2068 -2070 0
2066 -2070 0
-1927 -2067 2071 0
1927 -2071 0
2067 -2071 0
2070 2071 -2072 0
-2070 2072 0
-2071 2072 0
-130 -1973 2073 0
130 -2073 0
1973 -2073 0
-1933 -2073 -2074 0
1933 2073 -2074 0
1933 -2073 2074 0
-1933 2073 2074 0
-2074 -2072 -2075 0
2074 2072 -2075 0
2074 -2072 2075 0
-2074 2072 2075 0
-2074 -2072 2076 0
2074 -2076 0
2072 -2076 0
-1933 -2073 2077 0
1933 -2077 0
2073 -2077 0
2076 2077 -2078 0
-2076 2078 0
-2077 2078 0
-138 -1973 2079 0
138 -2079 0
1973 -2079 0
-1939 -2079 -2080 0
1939 2079 -2080 0
1939 -2079 2080 0
-1939 2079 2080 0
-2080 -2078 -2081 0
2080 2078 -2081 0
2080 -2078 2081 0
-2080 2078 2081 0
-2080 -2078 2082 0
2080 -2082 0
2078 -2082 0
-1939 -2079 2083 0
1939 -2083 0
2079 -2083 0
2082 2083 -2084 0
-2082 2084 0
-2083 2084 0
-146 -1973 2085 0
146 -2085 0
1973 -2085 0
-1945 -2085 -2086 0
1945 2085 -2086 0
1945 -2085 2086 0
-1945 2085 2086 0
-2086 -2084 -2087 0
2086 2084 -2087 0
2086 -2084 2087 0
-2086 2084 2087 0
-2086 -2084 2088 0
2086 -2088 0
2084 -2088 0
-1945 -2085 2089 0
1945 -2089 0
2085 -2089 0
2088 2089 -2090 0
-2088 2090 0
-2089 2090 0
-154 -1973 2091 0
154 -2091 0
1973 -2091 0
-1951 -2091 -2092 0
1951 2091 -2092 0
1951 -2091 2092 0
-1951 2091 2092 0
-2092 -2090 -2093 0
2092 2090 -2093 0
2092 -2090 2093 0
-2092 2090 2093 0
-2092 -2090 2094 0
2092 -2094 0
2090 -2094 0
-1951 -2091 2095 0
1951 -2095 0
2091 -2095 0
2094 2095 -2096 0
-2094 2096 0
-2095 2096 0
-162 -1973 2097 0
162 -2097 0
1973 -2097 0
-1957 -2097 -2098 0
1957 2097 -2098 0
1957 -2097 2098 0
-1957 2097 2098 0
-2098 -2096 -2099 0
2098 2096 -2099 0
2098 -2096 2099 0
-2098 2096 2099 0
-2098 -2096 2100 0
2098 -2100 0
2096 -2100 0
-1957 -2097 2101 0
1957 -2101 0
2097 -2101 0
2100 2101 -2102 0
-2100 2102 0
-2101 2102 0
-170 -1973 2103 0
170 -2103 0
1973 -2103 0
-1963 -2103 -2104 0
1963 2103 -2104 0
1963 -2103 2104 0
-1963 2103 2104 0
-2104 -2102 -2105 0
2104 2102 -2105 0
2104 -2102 2105 0
-2104 2102 2105 0
-2104 -2102 2106 0
2104 -2106 0
2102 -2106 0
-1963 -2103 2107 0
1963 -2107 0
2103 -2107 0
2106 2107 -2108 0
-2106 2108 0
-2107 2108 0
-178 -1973 2109 0
178 -2109 0
1973 -2109 0
-1969 -2109 -2110 0
1969 2109 -2110 0
1969 -2109 2110 0
-1969 2109 2110 0
-2110 -2108 -2111 0
2110 2108 -2111 0
2110 -2108 2111 0
-2110 2108 2111 0
-2110 -2108 2112 0
2110 -2112 0
2108 -2112 0
-1969 -2109 2113 0
1969 -2113 0
2109 -2113 0
2112 2113 -2114 0
-2112 2114 0
-2113 2114 0
-186 -1973 2115 0
186 -2115 0
1973 -2115 0
-1972 -2115 -2116 0
1972 2115 -2116 0
1972 -2115 2116 0
-1972 2115 2116 0
-2116 -2114 -2117 0
2116 2114 -2117 0
2116 -2114 2117 0
-2116 2114 2117 0
-2116 -2114 2118 0
2116 -2118 0
2114 -2118 0
-1972 -2115 2119 0
1972 -2119 0
2115 -2119 0
2118 2119 -2120 0
-2118 2120 0
-2119 2120 0
-1 -2121 2122 0
1 -2122 0
2121 -2122 0
-1979 -2122 -2123 0
1979 2122 -2123 0
1979 -2122 2123 0
-1979 2122 2123 0
-1979 -2122 2124 0
1979 -2124 0
2122 -2124 0
-4 -2121 2125 0
4 -2125 0
2121 -2125 0
-1985 -2125 -2126 0
1985 2125 -2126 0
1985 -2125 2126 0
-1985 2125 2126 0
-2126 -2124 -2127 0
2126 2124 -2127 0
2126 -2124 2127 0
-2126 2124 2127 0
-2126 -2124 2128 0
2126 -2128 0
2124 -2128 0
-1985 -2125 2129 0
1985 -2129 0
2125 -2129 0
2128 2129 -2130 0
-2128 2130 0
-2129 2130 0
-10 -2121 2131 0
10 -2131 0
2121 -2131 0
-1991 -2131 -2132 0
1991 2131 -2132 0
1991 -2131 2132 0
-1991 2131 2132 0
-2132 -2130 -2133 0
2132 2130 -2133 0
2132 -2130 2133 0
-2132 2130 2133 0
-2132 -2130 2134 0
2132 -2134 0
2130 -2134 0
-1991 -2131 2135 0
1991 -2135 0
2131 -2135 0
2134 2135 -2136 0
-2134 2136 0
-2135 2136 0
-18 -2121 2137 0
18 -2137 0
2121 -2137 0
-1997 -2137 -2138 0
1997 2137 -2138 0
1997 -2137 2138 0
-1997 2137 2138 0
-2138 -2136 -2139 0
2138 2136 -2139 0
2138 -2136 2139 0
-2138 2136 2139 0
-2138 -2136 2140 0
2138 -2140 0
2136 -2140 0
-1997 -2137 2141 0
1997 -2141 0
2137 -2141 0
2140 2141 -2142 0
-2140 2142 0
-2141 2142 0
-26 -2121 2143 0
26 -2143 0
2121 -2143 0
-2003 -2143 -2144 0
2003 2143 -2144 0
2003 -2143 2144 0
-2003 2143 2144 0
-2144 -2142 -2145 0
2144 2142 -2145 0
2144 -2142 2145 0
-2144 2142 2145 0
-2144 -2142 2146 0
2144 -2146 0
2142 -2146 0
-2003 -2143 2147 0
2003 -2147 0
2143 -2147 0
2146 2147 -2148 0
-2146 2148 0
-2147 2148 0
-34 -2121 2149 0
34 -2149 0
2121 -2149 0
-2009 -2149 -2150 0
2009 2149 -2150 0
2009 -2149 2150 0
-2009 2149 2150 0
-2150 -2148 -2151 0
2150 2148 -2151 0
2150 -2148 2151 0
-2150 2148 2151 0
-2150 -2148 2152 0
2150 -2152 0
2148 -2152 0
-2009 -2149 2153 0
2009 -2153 0
2149 -2153 0
2152 2153 -2154 0
-2152 2154 0
-2153 2154 0
-42 -2121 2155 0
42 -2155 0
2121 -2155 0
-2015 -2155 -2156 0
2015 2155 -2156 0
2015 -2155 2156 0
-2015 2155 2156 0
-2156 -2154 -2157 0
2156 2154 -2157 0
2156 -2154 2157 0
-2156 2154 2157 0
-2156 -2154 2158 0
2156 -2158 0
2154 -2158 0
-2015 -2155 2159 0
2015 -2159 0
2155 -2159 0
2158 2159 -2160 0
-2158 2160 0
-2159 2160 0
-50 -2121 2161 0
50 -2161 0
2121 -2161 0
-2021 -2161 -2162 0
2021 2161 -2162 0
2021 -2161 2162 0
-2021 2161 2162 0
-2162 -2160 -2163 0
2162 2160 -2163 0
2162 -2160 2163 0
-2162 2160 2163 0
-2162 -2160 2164 0
2162 -2164 0
2160 -2164 0
-2021 -2161 2165 0
2021 -2165 0
2161 -2165 0
2164 2165 -2166 0
-2164 2166 0
-2165 2166 0
-58 -2121 2167 0
58 -2167 0
2121 -2167 0
-2027 -2167 -2168 0
2027 2167 -2168 0
2027 -2167 2168 0
-2027 2167 2168 0
-2168 -2166 -2169 0
2168 2166 -2169 0
2168 -2166 2169 0
-2168 2166 2169 0
-2168 -2166 2170 0
2168 -2170 0
2166 -2170 0
-2027 -2167 2171 0
2027 -2171 0
2167 -2171 0
2170 2171 -2172 0
-2170 2172 0
-2171 2172 0
-66 -2121 2173 0
66 -2173 0
2121 -2173 0
-2033 -2173 -2174 0
2033 2173 -2174 0
2033 -2173 2174 0
-2033 2173 2174 0
-2174 -2172 -2175 0
2174 2172 -2175 0
2174 -2172 2175 0
-2174 2172 2175 0
-2174 -2172 2176 0
2174 -2176 0
2172 -2176 0
-2033 -2173 2177 0
2033 -2177 0
2173 -2177 0
2176 2177 -2178 0
-2176 2178 0
-2177 2178 0
-74 -2121 2179 0
74 -2179 0
2121 -2179 0
-2039 -2179 -2180 0
2039 2179 -2180 0
2039 -2179 2180 0
-2039 2179 2180 0
-2180 -2178 -2181 0
2180 2178 -2181 0
2180 -2178 2181 0
-2180 2178 2181 0
-2180 -2178 2182 0
2180 -2182 0
2178 -2182 0
-2039 -2179 2183 0
2039 -2183 0
2179 -2183 0
2182 2183 -2184 0
-2182 2184 0
-2183 2184 0
-82 -2121 2185 0
82 -2185 0
2121 -2185 0
-2045 -2185 -2186 0
2045 2185 -2186 0
2045 -2185 2186 0
-2045 2185 2186 0
-2186 -2184 -2187 0
2186 2184 -2187 0
2186 -2184 2187 0
-2186 2184 2187 0
-2186 -2184 2188 0
2186 -2188 0
2184 -2188 0
-2045 -2185 2189 0
2045 -2189 0
2185 -2189 0
2188 2189 -2190 0
-2188 2190 0
-2189 2190 0
-90 -2121 2191 0
90 -2191 0
2121 -2191 0
-2051 -2191 -2192 0
2051 2191 -2192 0
2051 -2191 2192 0
-2051 2191 2192 0
-2192 -2190 -2193 0
2192 2190 -2193 0
2192 -2190 2193 0
-2192 2190 2193 0
-2192 -2190 2194 0
2192 -2194 0
2190 -2194 0
-2051 -2191 2195 0
2051 -2195 0
2191 -2195 0
2194 2195 -2196 0
-2194 2196 0
-2195 2196 0
-98 -2121 2197 0
98 -2197 0
2121 -2197 0
-2057 -2197 -2198 0
2057 2197 -2198 0
2057 -2197 2198 0
-2057 2197 2198 0
-2198 -2196 -2199 0
2198 2196 -2199 0
2198 -2196 2199 0
-2198 2196 2199 0
-2198 -2196 2200 0
2198 -2200 0
2196 -2200 0
-2057 -2197 2201 0
2057 -2201 0
2197 -2201 0
2200 2201 -2202 0
-2200 2202 0
-2201 2202 0
-106 -2121 2203 0
106 -2203 0
2121 -2203 0
-2063 -2203 -2204 0
2063 2203 -2204 0
2063 -2203 2204 0
-2063 2203 2204 0
-2204 -2202 -2205 0
2204 2202 -2205 0
2204 -2202 2205 0
-2204 2202 2205 0
-2204 -2202 2206 0
2204 -2206 0
2202 -2206 0
-2063 -2203 2207 0
2063 -2207 0
2203 -2207 0
2206 2207 -2208 0
-2206 2208 0
-2207 2208 0
-114 -2121 2209 0
114 -2209 0
2121 -2209 0
-2069 -2209 -2210 0
2069 2209 -2210 0
2069 -2209 2210 0
-2069 2209 2210 0
-2210 -2208 -2211 0
2210 2208 -2211 0
2210 -2208 2211 0
-2210 2208 2211 0
-2210 -2208 2212 0
2210 -2212 0
2208 -2212 0
-2069 -2209 2213 0
2069 -2213 0
2209 -2213 0
2212 2213 -2214 0
-2212 2214 0
-2213 2214 0
-122 -2121 2215 0
122 -2215 0
2121 -2215 0
-2075 -2215 -2216 0
2075 2215 -2216 0
2075 -2215 2216 0
-2075 2215 2216 0
-2216 -2214 -2217 0
2216 2214 -2217 0
2216 -2214 2217 0
-2216 2214 2217 0
-2216 -2214 2218 0
2216 -2218 0
2214 -2218 0
-2075 -2215 2219 0
2075 -2219 0
2215 -2219 0
2218 2219 -2220 0
-2218 2220 0
-2219 2220 0
-130 -2121 2221 0
130 -2221 0
2121 -2221 0
-2081 -2221 -2222 0
2081 2221 -2222 0
2081 -2221 2222 0
-2081 2221 2222 0
-2222 -2220 -2223 0
2222 2220 -2223 0
2222 -2220 2223 0
-2222 2220 2223 0
-2222 -2220 2224 0
2222 -2224 0
2220 -2224 0
-2081 -2221 2225 0
2081 -2225 0
2221 -2225 0
2224 2225 -2226 0
-2224 2226 0
-2225 2226 0
-138 -2121 2227 0
138 -2227 0
2121 -2227 0
-2087 -2227 -2228 0
2087 2227 -2228 0
2087 -2227 2228 0
-2087 2227 2228 0
-2228 -2226 -2229 0
2228 2226 -2229 0
2228 -2226 2229 0
-2228 2226 2229 0
-2228 -2226 2230 0
2228 -2230 0
2226 -2230 0
-2087 -2227 2231 0
2087 -2231 0
2227 -2231 0
2230 2231 -2232 0
-2230 2232 0
-2231 2232 0
-146 -2121 2233 0
146 -2233 0
2121 -2233 0
-2093 -2233 -2234 0
2093 2233 -2234 0
2093 -2233 2234 0
-2093 2233 2234 0
-2234 -2232 -2235 0
2234 2232 -2235 0
2234 -2232 2235 0
-2234 2232 2235 0
-2234 -2232 2236 0
2234 -2236 0
2232 -2236 0
-2093 -2233 2237 0
2093 -2237 0
2233 -2237 0
2236 2237 -2238 0
-2236 2238 0
-2237 2238 0
-154 -2121 2239 0
154 -2239 0
2121 -2239 0
-2099 -2239 -2240 0
2099 2239 -2240 0
2099 -2239 2240 0
-2099 2239 2240 0
-2240 -2238 -2241 0
2240 2238 -2241 0
2240 -2238 2241 0
-2240 2238 2241 0
-2240 -2238 2242 0
2240 -2242 0
2238 -2242 0
-2099 -2239 2243 0
2099 -2243 0
2239 -2243 0
2242 2243 -2244 0
-2242 2244 0
-2243 2244 0
-162 -2121 2245 0
162 -2245 0
2121 -2245 0
-2105 -2245 -2246 0
2105 2245 -2246 0
2105 -2245 2246 0
-2105 2245 2246 0
-2246 -2244 -2247 0
2246 2244 -2247 0
2246 -2244 2247 0
-2246 2244 2247 0
-2246 -2244 2248 0
2246 -2248 0
2244 -2248 0
-2105 -2245 2249 0
2105 -2249 0
2245 -2249 0
2248 2249 -2250 0
-2248 2250 0
-2249 2250 0
-170 -2121 2251 0
170 -2251 0
2121 -2251 0
-2111 -2251 -2252 0
2111 2251 -2252 0
2111 -2251 2252 0
-2111 2251 2252 0
-2252 -2250 -2253 0
2252 2250 -2253 0
2252 -2250 2253 0
-2252 2250 2253 0
-2252 -2250 2254 0
2252 -2254 0
2250 -2254 0
-2111 -2251 2255 0
2111 -2255 0
2251 -2255 0
2254 2255 -2256 0
-2254 2256 0
-2255 2256 0
-178 -2121 2257 0
178 -2257 0
2121 -2257 0
-2117 -2257 -2258 0
2117 2257 -2258 0
2117 -2257 2258 0
-2117 2257 2258 0
-2258 -2256 -2259 0
2258 2256 -2259 0
2258 -2256 2259 0
-2258 2256 2259 0
-2258 -2256 2260 0
2258 -2260 0
2256 -2260 0
-2117 -2257 2261 0
2117 -2261 0
2257 -2261 0
2260 2261 -2262 0
-2260 2262 0
-2261 2262 0
-186 -2121 2263 0
186 -2263 0
2121 -2263 0
-2120 -2263 -2264 0
2120 2263 -2264 0
2120 -2263 2264 0
-2120 2263 2264 0
-2264 -2262 -2265 0
2264 2262 -2265 0
2264 -2262 2265 0
-2264 2262 2265 0
-2264 -2262 2266 0
2264 -2266 0
2262 -2266 0
-2120 -2263 2267 0
2120 -2267 0
2263 -2267 0
2266 2267 -2268 0
-2266 2268 0
-2267 2268 0
-1 -2269 2270 0
1 -2270 0
2269 -2270 0
-2127 -2270 -2271 0
2127 2270 -2271 0
2127 -2270 2271 0
-2127 2270 2271 0
-2127 -2270 2272 0
2127 -2272 0
2270 -2272 0
-4 -2269 2273 0
4 -2273 0
2269 -2273 0
-2133 -2273 -2274 0
2133 2273 -2274 0
2133 -2273 2274 0
-2133 2273 2274 0
-2274 -2272 -2275 0
2274 2272 -2275 0
2274 -2272 2275 0
-2274 2272 2275 0
-2274 -2272 2276 0
2274 -2276 0
2272 -2276 0
-2133 -2273 2277 0
2133 -2277 0
2273 -2277 0
2276 2277 -2278 0
-2276 2278 0
-2277 2278 0
-10 -2269 2279 0
10 -2279 0
2269 -2279 0
-2139 -2279 -2280 0
2139 2279 -2280 0
2139 -2279 2280 0
-2139 2279 2280 0
-2280 -2278 -2281 0
2280 2278 -2281 0
2280 -2278 2281 0
-2280 2278 2281 0
-2280 -2278 2282 0
2280 -2282 0
2278 -2282 0
-2139 -2279 2283 0
2139 -2283 0
2279 -2283 0
2282 2283 -2284 0
-2282 2284 0
-2283 2284 0
-18 -2269 2285 0
18 -2285 0
2269 -2285 0
-2145 -2285 -2286 0
2145 2285 -2286 0
2145 -2285 2286 0
-2145 2285 2286 0
-2286 -2284 -2287 0
2286 2284 -2287 0
2286 -2284 2287 0
-2286 2284 2287 0
-2286 -2284 2288 0
2286 -2288 0
2284 -2288 0
-2145 -2285 2289 0
2145 -2289 0
2285 -2289 0
2288 2289 -2290 0
-2288 2290 0
-2289 2290 0
-26 -2269 2291 0
26 -2291 0
2269 -2291 0
-2151 -2291 -2292 0
2151 2291 -2292 0
2151 -2291 2292 0
-2151 2291 2292 0
-2292 -2290 -2293 0
2292 2290 -2293 0
2292 -2290 2293 0
-2292 2290 2293 0
-2292 -2290 2294 0
2292 -2294 0
2290 -2294 0
-2151 -2291 2295 0
2151 -2295 0
2291 -2295 0
2294 2295 -2296 0
-2294 2296 0
-2295 2296 0
-34 -2269 2297 0
34 -2297 0
2269 -2297 0
-2157 -2297 -2298 0
2157 2297 -2298 0
2157 -2297 2298 0
-2157 2297 2298 0
-2298 -2296 -2299 0
2298 2296 -2299 0
2298 -2296 2299 0
-2298 2296 2299 0
-2298 -2296 2300 0
2298 -2300 0
2296 -2300 0
-2157 -2297 2301 0
2157 -2301 0
2297 -2301 0
2300 2301 -2302 0
-2300 2302 0
-2301 2302 0
-42 -2269 2303 0
42 -2303 0
2269 -2303 0
-2163 -2303 -2304 0
2163 2303 -2304 0
2163 -2303 2304 0
-2163 2303 2304 0
-2304 -2302 -2305 0
2304 2302 -2305 0
2304 -2302 2305 0
-2304 2302 2305 0
-2304 -2302 2306 0
2304 -2306 0
2302 -2306 0
-2163 -2303 2307 0
2163 -2307 0
2303 -2307 0
2306 2307 -2308 0
-2306 2308 0
-2307 2308 0
-50 -2269 2309 0
50 -2309 0
2269 -2309 0
-2169 -2309 -2310 0
2169 2309 -2310 0
2169 -2309 2310 0
-2169 2309 2310 0
-2310 -2308 -2311 0
2310 2308 -2311 0
2310 -2308 2311 0
-2310 2308 2311 0
-2310 -2308 2312 0
2310 -2312 0
2308 -2312 0
-2169 -2309 2313 0
2169 -2313 0
2309 -2313 0
2312 2313 -2314 0
-2312 2314 0
-2313 2314 0
-58 -2269 2315 0
58 -2315 0
2269 -2315 0
-2175 -2315 -2316 0
2175 2315 -2316 0
2175 -2315 2316 0
-2175 2315 2316 0
-2316 -2314 -2317 0
2316 2314 -2317 0
2316 -2314 2317 0
-2316 2314 2317 0
-2316 -2314 2318 0
2316 -2318 0
2314 -2318 0
-2175 -2315 2319 0
2175 -2319 0
2315 -2319 0
2318 2319 -2320 0
-2318 2320 0
-2319 2320 0
-66 -2269 2321 0
66 -2321 0
2269 -2321 0
-2181 -2321 -2322 0
2181 2321 -2322 0
2181 -2321 2322 0
-2181 2321 2322 0
-2322 -2320 -2323 0
2322 2320 -2323 0
2322 -2320 2323 0
-2322 2320 2323 0
-2322 -2320 2324 0
2322 -2324 0
2320 -2324 0
-2181 -2321 2325 0
2181 -2325 0
2321 -2325 0
2324 2325 -2326 0
-2324 2326 0
-2325 2326 0
-74 -2269 2327 0
74 -2327 0
2269 -2327 0
-2187 -2327 -2328 0
2187 2327 -2328 0
2187 -2327 2328 0
-2187 2327 2328 0
-2328 -2326 -2329 0
2328 2326 -2329 0
2328 -2326 2329 0
-2328 2326 2329 0
-2328 -2326 2330 0
2328 -2330 0
2326 -2330 0
-2187 -2327 2331 0
2187 -2331 0
2327 -2331 0
2330 2331 -2332 0
-2330 2332 0
-2331 2332 0
-82 -2269 2333 0
82 -2333 0
2269 -2333 0
-2193 -2333 -2334 0
2193 2333 -2334 0
2193 -2333 2334 0
-2193 2333 2334 0
-2334 -2332 -2335 0
2334 2332 -2335 0
2334 -2332 2335 0
-2334 2332 2335 0
-2334 -2332 2336 0
2334 -2336 0
2332 -2336 0
-2193 -2333 2337 0
2193 -2337 0
2333 -2337 0
2336 2337 -2338 0
-2336 2338 0
-2337 2338 0
-90 -2269 2339 0
90 -2339 0
2269 -2339 0
-2199 -2339 -2340 0
2199 2339 -2340 0
2199 -2339 2340 0
-2199 2339 2340 0
-2340 -2338 -2341 0
2340 2338 -2341 0
2340 -2338 2341 0
-2340 2338 2341 0
-2340 -2338 2342 0
2340 -2342 0
2338 -2342 0
-2199 -2339 2343 0
2199 -2343 0
2339 -2343 0
2342 2343 -2344 0
-2342 2344 0
-2343 2344 0
-98 -2269 2345 0
98 -2345 0
2269 -2345 0
-2205 -2345 -2346 0
2205 2345 -2346 0
2205 -2345 2346 0
-2205 2345 2346 0
-2346 -2344 -2347 0
2346 2344 -2347 0
2346 -2344 2347 0
-2346 2344 2347 0
-2346 -2344 2348 0
2346 -2348 0
2344 -2348 0
-2205 -2345 2349 0
2205 -2349 0
2345 -2349 0
2348 2349 -2350 0
-2348 2350 0
-2349 2350 0
-106 -2269 2351 0
106 -2351 0
2269 -2351 0
-2211 -2351 -2352 0
2211 2351 -2352 0
2211 -2351 2352 0
-2211 2351 2352 0
-2352 -2350 -2353 0
2352 2350 -2353 0
2352 -2350 2353 0
-2352 2350 2353 0
-2352 -2350 2354 0
2352 -2354 0
2350 -2354 0
-2211 -2351 2355 0
2211 -2355 0
2351 -2355 0
2354 2355 -2356 0
-2354 2356 0
-2355 2356 0
-114 -2269 2357 0
114 -2357 0
2269 -2357 0
-2217 -2357 -2358 0
2217 2357 -2358 0
2217 -2357 2358 0
-2217 2357 2358 0
-2358 -2356 -2359 0
2358 2356 -2359 0
2358 -2356 2359 0
-2358 2356 2359 0
-2358 -2356 2360 0
2358 -2360 0
2356 -2360 0
-2217 -2357 2361 0
2217 -2361 0
2357 -2361 0
2360 2361 -2362 0
-2360 2362 0
-2361 2362 0
-122 -2269 2363 0
122 -2363 0
2269 -2363 0
-2223 -2363 -2364 0
2223 2363 -2364 0
2223 -2363 2364 0
-2223 2363 2364 0
-2364 -2362 -2365 0
2364 2362 -2365 0
2364 -2362 2365 0
-2364 2362 2365 0
-2364 -2362 2366 0
2364 -2366 0
2362 -2366 0
-2223 -2363 2367 0
2223 -2367 0
2363 -2367 0
2366 2367 -2368 0
-2366 2368 0
-2367 2368 0
-130 -2269 2369 0
130 -2369 0
2269 -2369 0
-2229 -2369 -2370 0
2229 2369 -2370 0
2229 -2369 2370 0
-2229 2369 2370 0
-2370 -2368 -2371 0
2370 2368 -2371 0
2370 -2368 2371 0
-2370 2368 2371 0
-2370 -2368 2372 0
2370 -2372 0
2368 -2372 0
-2229 -2369 2373 0
2229 -2373 0
2369 -2373 0
2372 2373 -2374 0
-2372 2374 0
-2373 2374 0
-138 -2269 2375 0
138 -2375 0
2269 -2375 0
-2235 -2375 -2376 0
2235 2375 -2376 0
2235 -2375 2376 0
-2235 2375 2376 0
-2376 -2374 -2377 0
2376 2374 -2377 0
2376 -2374 2377 0
-2376 2374 2377 0
-2376 -2374 2378 0
2376 -2378 0
2374 -2378 0
-2235 -2375 2379 0
2235 -2379 0
2375 -2379 0
2378 2379 -2380 0
-2378 2380 0
-2379 2380 0
-146 -2269 2381 0
146 -2381 0
2269 -2381 0
-2241 -2381 -2382 0
2241 2381 -2382 0
2241 -2381 2382 0
-2241 2381 2382 0
-2382 -2380 -2383 0
2382 2380 -2383 0
2382 -2380 2383 0
-2382 2380 2383 0
-2382 -2380 2384 0
2382 -2384 0
2380 -2384 0
-2241 -2381 2385 0
2241 -2385 0
2381 -2385 0
2384 2385 -2386 0
-2384 2386 0
-2385 2386 0
-154 -2269 2387 0
154 -2387 0
2269 -2387 0
-2247 -2387 -2388 0
2247 2387 -2388 0
2247 -2387 2388 0
-2247 2387 2388 0
-2388 -2386 -2389 0
2388 2386 -2389 0
2388 -2386 2389 0
-2388 2386 2389 0
-2388 -2386 2390 0
2388 -2390 0
2386 -2390 0
-2247 -2387 2391 0
2247 -2391 0
2387 -2391 0
2390 2391 -2392 0
-2390 2392 0
-2391 2392 0
-162 -2269 2393 0
162 -2393 0
2269 -2393 0
-2253 -2393 -2394 0
2253 2393 -2394 0
2253 -2393 2394 0
-2253 2393 2394 0
-2394 -2392 -2395 0
2394 2392 -2395 0
2394 -2392 2395 0
-2394 2392 2395 0
-2394 -2392 2396 0
2394 -2396 0
2392 -2396 0
-2253 -2393 2397 0
2253 -2397 0
2393 -2397 0
2396 2397 -2398 0
-2396 2398 0
-2397 2398 0
-170 -2269 2399 0
170 -2399 0
2269 -2399 0
-2259 -2399 -2400 0
2259 2399 -2400 0
2259 -2399 2400 0
-2259 2399 2400 0
-2400 -2398 -2401 0
2400 2398 -2401 0
2400 -2398 2401 0
-2400 2398 2401 0
-2400 -2398 2402 0
2400 -2402 0
2398 -2402 0
-2259 -2399 2403 0
2259 -2403 0
2399 -2403 0
2402 2403 -2404 0
-2402 2404 0
-2403 2404 0
-178 -2269 2405 0
178 -2405 0
2269 -2405 0
-2265 -2405 -2406 0
2265 2405 -2406 0
2265 -2405 2406 0
-2265 2405 2406 0
-2406 -2404 -2407 0
2406 2404 -2407 0
2406 -2404 2407 0
-2406 2404 2407 0
-2406 -2404 2408 0
2406 -2408 0
2404 -2408 0
-2265 -2405 2409 0
2265 -2409 0
2405 -2409 0
2408 2409 -2410 0
-2408 2410 0
-2409 2410 0
-186 -2269 2411 0
186 -2411 0
2269 -2411 0
-2268 -2411 -2412 0
2268 2411 -2412 0
2268 -2411 2412 0
-2268 2411 2412 0
-2412 -2410 -2413 0
2412 2410 -2413 0
2412 -2410 2413 0
-2412 2410 2413 0
-2412 -2410 2414 0
2412 -2414 0
2410 -2414 0
-2268 -2411 2415 0
2268 -2415 0
2411 -2415 0
2414 2415 -2416 0
-2414 2416 0
-2415 2416 0
-1 -2417 2418 0
1 -2418 0
2417 -2418 0
-2275 -2418 -2419 0
2275 2418 -2419 0
2275 -2418 2419 0
-2275 2418 2419 0
-2275 -2418 2420 0
2275 -2420 0
2418 -2420 0
-4 -2417 2421 0
4 -2421 0
2417 -2421 0
-2281 -2421 -2422 0
2281 2421 -2422 0
2281 -2421 2422 0
-2281 2421 2422 0
-2422 -2420 -2423 0
2422 2420 -2423 0
2422 -2420 2423 0
-2422 2420 2423 0
-2422 -2420 2424 0
2422 -2424 0
2420 -2424 0
-2281 -2421 2425 0
2281 -2425 0
2421 -2425 0
2424 2425 -2426 0
-2424 2426 0
-2425 2426 0
-10 -2417 2427 0
10 -2427 0
2417 -2427 0
-2287 -2427 -2428 0
2287 2427 -2428 0
2287 -2427 2428 0
-2287 2427 2428 0
-2428 -2426 -2429 0
2428 2426 -2429 0
2428 -2426 2429 0
-2428 2426 2429 0
-2428 -2426 2430 0
2428 -2430 0
2426 -2430 0
-2287 -2427 2431 0
2287 -2431 0
2427 -2431 0
2430 2431 -2432 0
-2430 2432 0
-2431 2432 0
-18 -2417 2433 0
18 -2433 0
2417 -2433 0
-2293 -2433 -2434 0
2293 2433 -2434 0
2293 -2433 2434 0
-2293 2433 2434 0
-2434 -2432 -2435 0
2434 2432 -2435 0
2434 -2432 2435 0
-2434 2432 2435 0
-2434 -2432 2436 0
2434 -2436 0
2432 -2436 0
-2293 -2433 2437 0
2293 -2437 0
2433 -2437 0
2436 2437 -2438 0
-2436 2438 0
-2437 2438 0
-26 -2417 2439 0
26 -2439 0
2417 -2439 0
-2299 -2439 -2440 0
2299 2439 -2440 0
2299 -2439 2440 0
-2299 2439 2440 0
-2440 -2438 -2441 0
2440 2438 -2441 0
2440 -2438 2441 0
-2440 2438 2441 0
-2440 -2438 2442 0
2440 -2442 0
2438 -2442 0
-2299 -2439 2443 0
2299 -2443 0
2439 -2443 0
2442 2443 -2444 0
-2442 2444 0
-2443 2444 0
-34 -2417 2445 0
34 -2445 0
2417 -2445 0
-2305 -2445 -2446 0
2305 2445 -2446 0
2305 -2445 2446 0
-2305 2445 2446 0
-2446 -2444 -2447 0
2446 2444 -2447 0
2446 -2444 2447 0
-2446 2444 2447 0
-2446 -2444 2448 0
2446 -2448 0
2444 -2448 0
-2305 -2445 2449 0
2305 -2449 0
2445 -2449 0
2448 2449 -2450 0
-2448 2450 0
-2449 2450 0
-42 -2417 2451 0
42 -2451 0
2417 -2451 0
-2311 -2451 -2452 0
2311 2451 -2452 0
2311 -2451 2452 0
-2311 2451 2452 0
-2452 -2450 -2453 0
2452 2450 -2453 0
2452 -2450 2453 0
-2452 2450 2453 0
-2452 -2450 2454 0
2452 -2454 0
2450 -2454 0
-2311 -2451 2455 0
2311 -2455 0
2451 -2455 0
2454 2455 -2456 0
-2454 2456 0
-2455 2456 0
-50 -2417 2457 0
50 -2457 0
2417 -2457 0
-2317 -2457 -2458 0
2317 2457 -2458 0
2317 -2457 2458 0
-2317 2457 2458 0
-2458 -2456 -2459 0
2458 2456 -2459 0
2458 -2456 2459 0
-2458 2456 2459 0
-2458 -2456 2460 0
2458 -2460 0
2456 -2460 0
-2317 -2457 2461 0
2317 -2461 0
2457 -2461 0
2460 2461 -2462 0
-2460 2462 0
-2461 2462 0
-58 -2417 2463 0
58 -2463 0
2417 -2463 0
-2323 -2463 -2464 0
2323 2463 -2464 0
2323 -2463 2464 0
-2323 2463 2464 0
-2464 -2462 -2465 0
2464 2462 -2465 0
2464 -2462 2465 0
-2464 2462 2465 0
-2464 -2462 2466 0
2464 -2466 0
2462 -2466 0
-2323 -2463 2467 0
2323 -2467 0
2463 -2467 0
2466 2467 -2468 0
-2466 2468 0
-2467 2468 0
-66 -2417 2469 0
66 -2469 0
2417 -2469 0
-2329 -2469 -2470 0
2329 2469 -2470 0
2329 -2469 2470 0
-2329 2469 2470 0
-2470 -2468 -2471 0
2470 2468 -2471 0
2470 -2468 2471 0
-2470 2468 2471 0
-2470 -2468 2472 0
2470 -2472 0
2468 -2472 0
-2329 -2469 2473 0
2329 -2473 0
2469 -2473 0
2472 2473 -2474 0
-2472 2474 0
-2473 2474 0
-74 -2417 2475 0
74 -2475 0
2417 -2475 0
-2335 -2475 -2476 0
2335 2475 -2476 0
2335 -2475 2476 0
-2335 2475 2476 0
-2476 -2474 -2477 0
2476 2474 -2477 0
2476 -2474 2477 0
-2476 2474 2477 0
-2476 -2474 2478 0
2476 -2478 0
2474 -2478 0
-2335 -2475 2479 0
2335 -2479 0
2475 -2479 0
2478 2479 -2480 0
-2478 2480 0
-2479 2480 0
-82 -2417 2481 0
82 -2481 0
2417 -2481 0
-2341 -2481 -2482 0
2341 2481 -2482 0
2341 -2481 2482 0
-2341 2481 2482 0
-2482 -2480 -2483 0
2482 2480 -2483 0
2482 -2480 2483 0
-2482 2480 2483 0
-2482 -2480 2484 0
2482 -2484 0
2480 -2484 0
-2341 -2481 2485 0
2341 -2485 0
2481 -2485 0
2484 2485 -2486 0
-2484 2486 0
-2485 2486 0
-90 -2417 2487 0
90 -2487 0
2417 -2487 0
-2347 -2487 -2488 0
2347 2487 -2488 0
2347 -2487 2488 0
-2347 2487 2488 0
-2488 -2486 -2489 0
2488 2486 -2489 0
2488 -2486 2489 0
-2488 2486 2489 0
-2488 -2486 2490 0
2488 -2490 0
2486 -2490 0
-2347 -2487 2491 0
2347 -2491 0
2487 -2491 0
2490 2491 -2492 0
-2490 2492 0
-2491 2492 0
-98 -2417 2493 0
98 -2493 0
2417 -2493 0
-2353 -2493 -2494 0
2353 2493 -2494 0
2353 -2493 2494 0
-2353 2493 2494 0
-2494 -2492 -2495 0
2494 2492 -2495 0
2494 -2492 2495 0
-2494 2492 2495 0
-2494 -2492 2496 0
2494 -2496 0
2492 -2496 0
-2353 -2493 2497 0
2353 -2497 0
2493 -2497 0
2496 2497 -2498 0
-2496 2498 0
-2497 2498 0
-106 -2417 2499 0
106 -2499 0
2417 -2499 0
-2359 -2499 -2500 0
2359 2499 -2500 0
2359 -2499 2500 0
-2359 2499 2500 0
-2500 -2498 -2501 0
2500 2498 -2501 0
2500 -2498 2501 0
-2500 2498 2501 0
-2500 -2498 2502 0
2500 -2502 0
2498 -2502 0
-2359 -2499 2503 0
2359 -2503 0
2499 -2503 0
2502 2503 -2504 0
-2502 2504 0
-2503 2504 0
-114 -2417 2505 0
114 -2505 0
2417 -2505 0
-2365 -2505 -2506 0
2365 2505 -2506 0
2365 -2505 2506 0
-2365 2505 2506 0
-2506 -2504 -2507 0
2506 2504 -2507 0
2506 -2504 2507 0
-2506 2504 2507 0
-2506 -2504 2508 0
2506 -2508 0
2504 -2508 0
-2365 -2505 2509 0
2365 -2509 0
2505 -2509 0
2508 2509 -2510 0
-2508 2510 0
-2509 2510 0
-122 -2417 2511 0
122 -2511 0
2417 -2511 0
-2371 -2511 -2512 0
2371 2511 -2512 0
2371 -2511 2512 0
-2371 2511 2512 0
-2512 -2510 -2513 0
2512 2510 -2513 0
2512 -2510 2513 0
-2512 2510 2513 0
-2512 -2510 2514 0
2512 -2514 0
2510 -2514 0
-2371 -2511 2515 0
2371 -2515 0
2511 -2515 0
2514 2515 -2516 0
-2514 2516 0
-2515 2516 0
-130 -2417 2517 0
130 -2517 0
2417 -2517 0
-2377 -2517 -2518 0
2377 2517 -2518 0
2377 -2517 2518 0
-2377 2517 2518 0
-2518 -2516 -2519 0
2518 2516 -2519 0
2518 -2516 2519 0
-2518 2516 2519 0
-2518 -2516 2520 0
2518 -2520 0
2516 -2520 0
-2377 -2517 2521 0
2377 -2521 0
2517 -2521 0
2520 2521 -2522 0
-2520 2522 0
-2521 2522 0
-138 -2417 2523 0
138 -2523 0
2417 -2523 0
-2383 -2523 -2524 0
2383 2523 -2524 0
2383 -2523 2524 0
-2383 2523 2524 0
-2524 -2522 -2525 0
2524 2522 -2525 0
2524 -2522 2525 0
-2524 2522 2525 0
-2524 -2522 2526 0
2524 -2526 0
2522 -2526 0
-2383 -2523 2527 0
2383 -2527 0
2523 -2527 0
2526 2527 -2528 0
-2526 2528 0
-2527 2528 0
-146 -2417 2529 0
146 -2529 0
2417 -2529 0
-2389 -2529 -2530 0
2389 2529 -2530 0
2389 -2529 2530 0
-2389 2529 2530 0
-2530 -2528 -2531 0
2530 2528 -2531 0
2530 -2528 2531 0
-2530 2528 2531 0
-2530 -2528 2532 0
2530 -2532 0
2528 -2532 0
-2389 -2529 2533 0
2389 -2533 0
2529 -2533 0
2532 2533 -2534 0
-2532 2534 0
-2533 2534 0
-154 -2417 2535 0
154 -2535 0
2417 -2535 0
-2395 -2535 -2536 0
2395 2535 -2536 0
2395 -2535 2536 0
-2395 2535 2536 0
-2536 -2534 -2537 0
2536 2534 -2537 0
2536 -2534 2537 0
-2536 2534 2537 0
-2536 -2534 2538 0
2536 -2538 0
2534 -2538 0
-2395 -2535 2539 0
2395 -2539 0
2535 -2539 0
2538 2539 -2540 0
-2538 2540 0
-2539 2540 0
-162 -2417 2541 0
162 -2541 0
2417 -2541 0
-2401 -2541 -2542 0
2401 2541 -2542 0
2401 -2541 2542 0
-2401 2541 2542 0
-2542 -2540 -2543 0
2542 2540 -2543 0
2542 -2540 2543 0
-2542 2540 2543 0
-2542 -2540 2544 0
2542 -2544 0
2540 -2544 0
-2401 -2541 2545 0
2401 -2545 0
2541 -2545 0
2544 2545 -2546 0
-2544 2546 0
-2545 2546 0
-170 -2417 2547 0
170 -2547 0
2417 -2547 0
-2407 -2547 -2548 0
2407 2547 -2548 0
2407 -2547 2548 0
-2407 2547 2548 0
-2548 -2546 -2549 0
2548 2546 -2549 0
2548 -2546 2549 0
-2548 2546 2549 0
-2548 -2546 2550 0
2548 -2550 0
2546 -2550 0
-2407 -2547 2551 0
2407 -2551 0
2547 -2551 0
2550 2551 -2552 0
-2550 2552 0
-2551 2552 0
-178 -2417 2553 0
178 -2553 0
2417 -2553 0
-2413 -2553 -2554 0
2413 2553 -2554 0
2413 -2553 2554 0
-2413 2553 2554 0
-2554 -2552 -2555 0
2554 2552 -2555 0
2554 -2552 2555 0
-2554 2552 2555 0
-2554 -2552 2556 0
2554 -2556 0
2552 -2556 0
-2413 -2553 2557 0
2413 -2557 0
2553 -2557 0
2556 2557 -2558 0
-2556 2558 0
-2557 2558 0
-186 -2417 2559 0
186 -2559 0
2417 -2559 0
-2416 -2559 -2560 0
2416 2559 -2560 0
2416 -2559 2560 0
-2416 2559 2560 0
-2560 -2558 -2561 0
2560 2558 -2561 0
2560 -2558 2561 0
-2560 2558 2561 0
-2560 -2558 2562 0
2560 -2562 0
2558 -2562 0
-2416 -2559 2563 0
2416 -2563 0
2559 -2563 0
2562 2563 -2564 0
-2562 2564 0
-2563 2564 0
-1 -2565 2566 0
1 -2566 0
2565 -2566 0
-2423 -2566 -2567 0
2423 2566 -2567 0
2423 -2566 2567 0
-2423 2566 2567 0
-2423 -2566 2568 0
2423 -2568 0
2566 -2568 0
-4 -2565 2569 0
4 -2569 0
2565 -2569 0
-2429 -2569 -2570 0
2429 2569 -2570 0
2429 -2569 2570 0
-2429 2569 2570 0
-2570 -2568 -2571 0
2570 2568 -2571 0
2570 -2568 2571 0
-2570 2568 2571 0
-2570 -2568 2572 0
2570 -2572 0
2568 -2572 0
-2429 -2569 2573 0
2429 -2573 0
2569 -2573 0
2572 2573 -2574 0
-2572 2574 0
-2573 2574 0
-10 -2565 2575 0
10 -2575 0
2565 -2575 0
-2435 -2575 -2576 0
2435 2575 -2576 0
2435 -2575 2576 0
-2435 2575 2576 0
-2576 -2574 -2577 0
2576 2574 -2577 0
2576 -2574 2577 0
-2576 2574 2577 0
-2576 -2574 2578 0
2576 -2578 0
2574 -2578 0
-2435 -2575 2579 0
2435 -2579 0
2575 -2579 0
2578 2579 -2580 0
-2578 2580 0
-2579 2580 0
-18 -2565 2581 0
18 -2581 0
2565 -2581 0
-2441 -2581 -2582 0
2441 2581 -2582 0
2441 -2581 2582 0
-2441 2581 2582 0
-2582 -2580 -2583 0
2582 2580 -2583 0
2582 -2580 2583 0
-2582 2580 2583 0
-2582 -2580 2584 0
2582 -2584 0
2580 -2584 0
-2441 -2581 2585 0
2441 -2585 0
2581 -2585 0
2584 2585 -2586 0
-2584 2586 0
-2585 2586 0
-26 -2565 2587 0
26 -2587 0
2565 -2587 0
-2447 -2587 -2588 0
2447 2587 -2588 0
2447 -2587 2588 0
-2447 2587 2588 0
-2588 -2586 -2589 0
2588 2586 -2589 0
2588 -2586 2589 0
-2588 2586 2589 0
-2588 -2586 2590 0
2588 -2590 0
2586 -2590 0
-2447 -2587 2591 0
2447 -2591 0
2587 -2591 0
2590 2591 -2592 0
-2590 2592 0
-2591 2592 0
-34 -2565 2593 0
34 -2593 0
2565 -2593 0
-2453 -2593 -2594 0
2453 2593 -2594 0
2453 -2593 2594 0
-2453 2593 2594 0
-2594 -2592 -2595 0
2594 2592 -2595 0
2594 -2592 2595 0
-2594 2592 2595 0
-2594 -2592 2596 0
2594 -2596 0
2592 -2596 0
-2453 -2593 2597 0
2453 -2597 0
2593 -2597 0
2596 2597 -2598 0
-2596 2598 0
-2597 2598 0
-42 -2565 2599 0
42 -2599 0
2565 -2599 0
-2459 -2599 -2600 0
2459 2599 -2600 0
2459 -2599 2600 0
-2459 2599 2600 0
-2600 -2598 -2601 0
2600 2598 -2601 0
2600 -2598 2601 0
-2600 2598 2601 0
-2600 -2598 2602 0
2600 -2602 0
2598 -2602 0
-2459 -2599 2603 0
2459 -2603 0
2599 -2603 0
2602 2603 -2604 0
-2602 2604 0
-2603 2604 0
-50 -2565 2605 0
50 -2605 0
2565 -2605 0
-2465 -2605 -2606 0
2465 2605 -2606 0
2465 -2605 2606 0
-2465 2605 2606 0
-2606 -2604 -2607 0
2606 2604 -2607 0
2606 -2604 2607 0
-2606 2604 2607 0
-2606 -2604 2608 0
2606 -2608 0
2604 -2608 0
-2465 -2605 2609 0
2465 -2609 0
2605 -2609 0
2608 2609 -2610 0
-2608 2610 0
-2609 2610 0
-58 -2565 2611 0
58 -2611 0
2565 -2611 0
-2471 -2611 -2612 0
2471 2611 -2612 0
2471 -2611 2612 0
-2471 2611 2612 0
-2612 -2610 -2613 0
2612 2610 -2613 0
2612 -2610 2613 0
-2612 2610 2613 0
-2612 -2610 2614 0
2612 -2614 0
2610 -2614 0
-2471 -2611 2615 0
2471 -2615 0
2611 -2615 0
2614 2615 -2616 0
-2614 2616 0
-2615 2616 0
-66 -2565 2617 0
66 -2617 0
2565 -2617 0
-2477 -2617 -2618 0
2477 2617 -2618 0
2477 -2617 2618 0
-2477 2617 2618 0
-2618 -2616 -2619 0
2618 2616 -2619 0
2618 -2616 2619 0
-2618 2616 2619 0
-2618 -2616 2620 0
2618 -2620 0
2616 -2620 0
-2477 -2617 2621 0
2477 -2621 0
2617 -2621 0
2620 2621 -2622 0
-2620 2622 0
-2621 2622 0
-74 -2565 2623 0
74 -2623 0
2565 -2623 0
-2483 -2623 -2624 0
2483 2623 -2624 0
2483 -2623 2624 0
-2483 2623 2624 0
-2624 -2622 -2625 0
2624 2622 -2625 0
2624 -2622 2625 0
-2624 2622 2625 0
-2624 -2622 2626 0
2624 -2626 0
2622 -2626 0
-2483 -2623 2627 0
2483 -2627 0
2623 -2627 0
2626 2627 -2628 0
-2626 2628 0
-2627 2628 0
-82 -2565 2629 0
82 -2629 0
2565 -2629 0
-2489 -2629 -2630 0
2489 2629 -2630 0
2489 -2629 2630 0
-2489 2629 2630 0
-2630 -2628 -2631 0
2630 2628 -2631 0
2630 -2628 2631 0
-2630 2628 2631 0
-2630 -2628 2632 0
2630 -2632 0
2628 -2632 0
-2489 -2629 2633 0
2489 -2633 0
2629 -2633 0
2632 2633 -2634 0
-2632 2634 0
-2633 2634 0
-90 -2565 2635 0
90 -2635 0
2565 -2635 0
-2495 -2635 -2636 0
2495 2635 -2636 0
2495 -2635 2636 0
-2495 2635 2636 0
-2636 -2634 -2637 0
2636 2634 -2637 0
2636 -2634 2637 0
-2636 2634 2637 0
-2636 -2634 2638 0
2636 -2638 0
2634 -2638 0
-2495 -2635 2639 0
2495 -2639 0
2635 -2639 0
2638 2639 -2640 0
-2638 2640 0
-2639 2640 0
-98 -2565 2641 0
98 -2641 0
2565 -2641 0
-2501 -2641 -2642 0
2501 2641 -2642 0
2501 -2641 2642 0
-2501 2641 2642 0
-2642 -2640 -2643 0
2642 2640 -2643 0
2642 -2640 2643 0
-2642 2640 2643 0
-2642 -2640 2644 0
2642 -2644 0
2640 -2644 0
-2501 -2641 2645 0
2501 -2645 0
2641 -2645 0
2644 2645 -2646 0
-2644 2646 0
-2645 2646 0
-106 -2565 2647 0
106 -2647 0
2565 -2647 0
-2507 -2647 -2648 0
2507 2647 -2648 0
2507 -2647 2648 0
-2507 2647 2648 0
-2648 -2646 -2649 0
2648 2646 -2649 0
2648 -2646 2649 0
-2648 2646 2649 0
-2648 -2646 2650 0
2648 -2650 0
2646 -2650 0
-2507 -2647 2651 0
2507 -2651 0
2647 -2651 0
2650 2651 -2652 0
-2650 2652 0
-2651 2652 0
-114 -2565 2653 0
114 -2653 0
2565 -2653 0
-2513 -2653 -2654 0
2513 2653 -2654 0
2513 -2653 2654 0
-2513 2653 2654 0
-2654 -2652 -2655 0
2654 2652 -2655 0
2654 -2652 2655 0
-2654 2652 2655 0
-2654 -2652 2656 0
2654 -2656 0
2652 -2656 0
-2513 -2653 2657 0
2513 -2657 0
2653 -2657 0
2656 2657 -2658 0
-2656 2658 0
-2657 2658 0
-122 -2565 2659 0
122 -2659 0
2565 -2659 0
-2519 -2659 -2660 0
2519 2659 -2660 0
2519 -2659 2660 0
-2519 2659 2660 0
-2660 -2658 -2661 0
2660 2658 -2661 0
2660 -2658 2661 0
-2660 2658 2661 0
-2660 -2658 2662 0
2660 -2662 0
2658 -2662 0
-2519 -2659 2663 0
2519 -2663 0
2659 -2663 0
2662 2663 -2664 0
-2662 2664 0
-2663 2664 0
-130 -2565 2665 0
130 -2665 0
2565 -2665 0
-2525 -2665 -2666 0
2525 2665 -2666 0
2525 -2665 2666 0
-2525 2665 2666 0
-2666 -2664 -2667 0
2666 2664 -2667 0
2666 -2664 2667 0
-2666 2664 2667 0
-2666 -2664 2668 0
2666 -2668 0
2664 -2668 0
-2525 -2665 2669 0
2525 -2669 0
2665 -2669 0
2668 2669 -2670 0
-2668 2670 0
-2669 2670 0
-138 -2565 2671 0
138 -2671 0
2565 -2671 0
-2531 -2671 -2672 0
2531 2671 -2672 0
2531 -2671 2672 0
-2531 2671 2672 0
-2672 -2670 -2673 0
2672 2670 -2673 0
2672 -2670 2673 0
-2672 2670 2673 0
-2672 -2670 2674 0
2672 -2674 0
2670 -2674 0
-2531 -2671 2675 0
2531 -2675 0
2671 -2675 0
2674 2675 -2676 0
-2674 2676 0
-2675 2676 0
-146 -2565 2677 0
146 -2677 0
2565 -2677 0
-2537 -2677 -2678 0
2537 2677 -2678 0
2537 -2677 2678 0
-2537 2677 2678 0
-2678 -2676 -2679 0
2678 2676 -2679 0
2678 -2676 2679 0
-2678 2676 2679 0
-2678 -2676 2680 0
2678 -2680 0
2676 -2680 0
-2537 -2677 2681 0
2537 -2681 0
2677 -2681 0
2680 2681 -2682 0
-2680 2682 0
-2681 2682 0
-154 -2565 2683 0
154 -2683 0
2565 -2683 0
-2543 -2683 -2684 0
2543 2683 -2684 0
2543 -2683 2684 0
-2543 2683 2684 0
-2684 -2682 -2685 0
2684 2682 -2685 0
2684 -2682 2685 0
-2684 2682 2685 0
-2684 -2682 2686 0
2684 -2686 0
2682 -2686 0
-2543 -2683 2687 0
2543 -2687 0
2683 -2687 0
2686 2687 -2688 0
-2686 2688 0
-2687 2688 0
-162 -2565 2689 0
162 -2689 0
2565 -2689 0
-2549 -2689 -2690 0
2549 2689 -2690 0
2549 -2689 2690 0
-2549 2689 2690 0
-2690 -2688 -2691 0
2690 2688 -2691 0
2690 -2688 2691 0
-2690 2688 2691 0
-2690 -2688 2692 0
2690 -2692 0
2688 -2692 0
-2549 -2689 2693 0
2549 -2693 0
2689 -2693 0
2692 2693 -2694 0
-2692 2694 0
-2693 2694 0
-170 -2565 2695 0
170 -2695 0
2565 -2695 0
-2555 -2695 -2696 0
2555 2695 -2696 0
2555 -2695 2696 0
-2555 2695 2696 0
-2696 -2694 -2697 0
2696 2694 -2697 0
2696 -2694 2697 0
-2696 2694 2697 0
-2696 -2694 2698 0
2696 -2698 0
2694 -2698 0
-2555 -2695 2699 0
2555 -2699 0
2695 -2699 0
2698 2699 -2700 0
-2698 2700 0
-2699 2700 0
-178 -2565 2701 0
178 -2701 0
2565 -2701 0
-2561 -2701 -2702 0
2561 2701 -2702 0
2561 -2701 2702 0
-2561 2701 2702 0
-2702 -2700 -2703 0
2702 2700 -2703 0
2702 -2700 2703 0
-2702 2700 2703 0
-2702 -2700 2704 0
2702 -2704 0
2700 -2704 0
-2561 -2701 2705 0
2561 -2705 0
2701 -2705 0
2704 2705 -2706 0
-2704 2706 0
-2705 2706 0
-186 -2565 2707 0
186 -2707 0
2565 -2707 0
-2564 -2707 -2708 0
2564 2707 -2708 0
2564 -2707 2708 0
-2564 2707 2708 0
-2708 -2706 -2709 0
2708 2706 -2709 0
2708 -2706 2709 0
-2708 2706 2709 0
-2708 -2706 2710 0
2708 -2710 0
2706 -2710 0
-2564 -2707 2711 0
2564 -2711 0
2707 -2711 0
2710 2711 -2712 0
-2710 2712 0
-2711 2712 0
-1 -2713 2714 0
1 -2714 0
2713 -2714 0
-2571 -2714 -2715 0
2571 2714 -2715 0
2571 -2714 2715 0
-2571 2714 2715 0
-2571 -2714 2716 0
2571 -2716 0
2714 -2716 0
-4 -2713 2717 0
4 -2717 0
2713 -2717 0
-2577 -2717 -2718 0
2577 2717 -2718 0
2577 -2717 2718 0
-2577 2717 2718 0
-2718 -2716 -2719 0
2718 2716 -2719 0
2718 -2716 2719 0
-2718 2716 2719 0
-2718 -2716 2720 0
2718 -2720 0
2716 -2720 0
-2577 -2717 2721 0
2577 -2721 0
2717 -2721 0
2720 2721 -2722 0
-2720 2722 0
-2721 2722 0
-10 -2713 2723 0
10 -2723 0
2713 -2723 0
-2583 -2723 -2724 0
2583 2723 -2724 0
2583 -2723 2724 0
-2583 2723 2724 0
-2724 -2722 -2725 0
2724 2722 -2725 0
2724 -2722 2725 0
-2724 2722 2725 0
-2724 -2722 2726 0
2724 -2726 0
2722 -2726 0
-2583 -2723 2727 0
2583 -2727 0
2723 -2727 0
2726 2727 -2728 0
-2726 2728 0
-2727 2728 0
-18 -2713 2729 0
18 -2729 0
2713 -2729 0
-2589 -2729 -2730 0
2589 2729 -2730 0
2589 -2729 2730 0
-2589 2729 2730 0
-2730 -2728 -2731 0
2730 2728 -2731 0
2730 -2728 2731 0
-2730 2728 2731 0
-2730 -2728 2732 0
2730 -2732 0
2728 -2732 0
-2589 -2729 2733 0
2589 -2733 0
2729 -2733 0
2732 2733 -2734 0
-2732 2734 0
-2733 2734 0
-26 -2713 2735 0
26 -2735 0
2713 -2735 0
-2595 -2735 -2736 0
2595 2735 -2736 0
2595 -2735 2736 0
-2595 2735 2736 0
-2736 -2734 -2737 0
2736 2734 -2737 0
2736 -2734 2737 0
-2736 2734 2737 0
-2736 -2734 2738 0
2736 -2738 0
2734 -2738 0
-2595 -2735 2739 0
2595 -2739 0
2735 -2739 0
2738 2739 -2740 0
-2738 2740 0
-2739 2740 0
-34 -2713 2741 0
34 -2741 0
2713 -2741 0
-2601 -2741 -2742 0
2601 2741 -2742 0
2601 -2741 2742 0
-2601 2741 2742 0
-2742 -2740 -2743 0
2742 2740 -2743 0
2742 -2740 2743 0
-2742 2740 2743 0
-2742 -2740 2744 0
2742 -2744 0
2740 -2744 0
-2601 -2741 2745 0
2601 -2745 0
2741 -2745 0
2744 2745 -2746 0
-2744 2746 0
-2745 2746 0
-42 -2713 2747 0
42 -2747 0
2713 -2747 0
-2607 -2747 -2748 0
2607 2747 -2748 0
2607 -2747 2748 0
-2607 2747 2748 0
-2748 -2746 -2749 0
2748 2746 -2749 0
2748 -2746 2749 0
-2748 2746 2749 0
-2748 -2746 2750 0
2748 -2750 0
2746 -2750 0
-2607 -2747 2751 0
2607 -2751 0
2747 -2751 0
2750 2751 -2752 0
-2750 2752 0
-2751 2752 0
-50 -2713 2753 0
50 -2753 0
2713 -2753 0
-2613 -2753 -2754 0
2613 2753 -2754 0
2613 -2753 2754 0
-2613 2753 2754 0
-2754 -2752 -2755 0
2754 2752 -2755 0
2754 -2752 2755 0
-2754 2752 2755 0
-2754 -2752 2756 0
2754 -2756 0
2752 -2756 0
-2613 -2753 2757 0
2613 -2757 0
2753 -2757 0
2756 2757 -2758 0
-2756 2758 0
-2757 2758 0
-58 -2713 2759 0
58 -2759 0
2713 -2759 0
-2619 -2759 -2760 0
2619 2759 -2760 0
2619 -2759 2760 0
-2619 2759 2760 0
-2760 -2758 -2761 0
2760 2758 -2761 0
2760 -2758 2761 0
-2760 2758 2761 0
-2760 -2758 2762 0
2760 -2762 0
2758 -2762 0
-2619 -2759 2763 0
2619 -2763 0
2759 -2763 0
2762 2763 -2764 0
-2762 2764 0
-2763 2764 0
-66 -2713 2765 0
66 -2765 0
2713 -2765 0
-2625 -2765 -2766 0
2625 2765 -2766 0
2625 -2765 2766 0
-2625 2765 2766 0
-2766 -2764 -2767 0
2766 2764 -2767 0
2766 -2764 2767 0
-2766 2764 2767 0
-2766 -2764 2768 0
2766 -2768 0
2764 -2768 0
-2625 -2765 2769 0
2625 -2769 0
2765 -2769 0
2768 2769 -2770 0
-2768 2770 0
-2769 2770 0
-74 -2713 2771 0
74 -2771 0
2713 -2771 0
-2631 -2771 -2772 0
2631 2771 -2772 0
2631 -2771 2772 0
-2631 2771 2772 0
-2772 -2770 -2773 0
2772 2770 -2773 0
2772 -2770 2773 0
-2772 2770 2773 0
-2772 -2770 2774 0
2772 -2774 0
2770 -2774 0
-2631 -2771 2775 0
2631 -2775 0
2771 -2775 0
2774 2775 -2776 0
-2774 2776 0
-2775 2776 0
-82 -2713 2777 0
82 -2777 0
2713 -2777 0
-2637 -2777 -2778 0
2637 2777 -2778 0
2637 -2777 2778 0
-2637 2777 2778 0
-2778 -2776 -2779 0
2778 2776 -2779 0
2778 -2776 2779 0
-2778 2776 2779 0
-2778 -2776 2780 0
2778 -2780 0
2776 -2780 0
-2637 -2777 2781 0
2637 -2781 0
2777 -2781 0
2780 2781 -2782 0
-2780 2782 0
-2781 2782 0
-90 -2713 2783 0
90 -2783 0
2713 -2783 0
-2643 -2783 -2784 0
2643 2783 -2784 0
2643 -2783 2784 0
-2643 2783 2784 0
-2784 -2782 -2785 0
2784 2782 -2785 0
2784 -2782 2785 0
-2784 2782 2785 0
-2784 -2782 2786 0
2784 -2786 0
2782 -2786 0
-2643 -2783 2787 0
2643 -2787 0
2783 -2787 0
2786 2787 -2788 0
-2786 2788 0
-2787 2788 0
-98 -2713 2789 0
98 -2789 0
2713 -2789 0
-2649 -2789 -2790 0
2649 2789 -2790 0
2649 -2789 2790 0
-2649 2789 2790 0
-2790 -2788 -2791 0
2790 2788 -2791 0
2790 -2788 2791 0
-2790 2788 2791 0
-2790 -2788 2792 0
2790 -2792 0
2788 -2792 0
-2649 -2789 2793 0
2649 -2793 0
2789 -2793 0
2792 2793 -2794 0
-2792 2794 0
-2793 2794 0
-106 -2713 2795 0
106 -2795 0
2713 -2795 0
-2655 -2795 -2796 0
2655 2795 -2796 0
2655 -2795 2796 0
-2655 2795 2796 0
-2796 -2794 -2797 0
2796 2794 -2797 0
2796 -2794 2797 0
-2796 2794 2797 0
-2796 -2794 2798 0
2796 -2798 0
2794 -2798 0
-2655 -2795 2799 0
2655 -2799 0
2795 -2799 0
2798 2799 -2800 0
-2798 2800 0
-2799 2800 0
-114 -2713 2801 0
114 -2801 0
2713 -2801 0
-2661 -2801 -2802 0
2661 2801 -2802 0
2661 -2801 2802 0
-2661 2801 2802 0
-2802 -2800 -2803 0
2802 2800 -2803 0
2802 -2800 2803 0
-2802 2800 2803 0
-2802 -2800 2804 0
2802 -2804 0
2800 -2804 0
-2661 -2801 2805 0
2661 -2805 0
2801 -2805 0
2804 2805 -2806 0
-2804 2806 0
-2805 2806 0
-122 -2713 2807 0
122 -2807 0
2713 -2807 0
-2667 -2807 -2808 0
2667 2807 -2808 0
2667 -2807 2808 0
-2667 2807 2808 0
-2808 -2806 -2809 0
2808 2806 -2809 0
2808 -2806 2809 0
-2808 2806 2809 0
-2808 -2806 2810 0
2808 -2810 0
2806 -2810 0
-2667 -2807 2811 0
2667 -2811 0
2807 -2811 0
2810 2811 -2812 0
-2810 2812 0
-2811 2812 0
-130 -2713 2813 0
130 -2813 0
2713 -2813 0
-2673 -2813 -2814 0
2673 2813 -2814 0
2673 -2813 2814 0
-2673 2813 2814 0
-2814 -2812 -2815 0
2814 2812 -2815 0
2814 -2812 2815 0
-2814 2812 2815 0
-2814 -2812 2816 0
2814 -2816 0
2812 -2816 0
-2673 -2813 2817 0
2673 -2817 0
2813 -2817 0
2816 2817 -2818 0
-2816 2818 0
-2817 2818 0
-138 -2713 2819 0
138 -2819 0
2713 -2819 0
-2679 -2819 -2820 0
2679 2819 -2820 0
2679 -2819 2820 0
-2679 2819 2820 0
-2820 -2818 -2821 0
2820 2818 -2821 0
2820 -2818 2821 0
-2820 2818 2821 0
-2820 -2818 2822 0
2820 -2822 0
2818 -2822 0
-2679 -2819 2823 0
2679 -2823 0
2819 -2823 0
2822 2823 -2824 0
-2822 2824 0
-2823 2824 0
-146 -2713 2825 0
146 -2825 0
2713 -2825 0
-2685 -2825 -2826 0
2685 2825 -2826 0
2685 -2825 2826 0
-2685 2825 2826 0
-2826 -2824 -2827 0
2826 2824 -2827 0
2826 -2824 2827 0
-2826 2824 2827 0
-2826 -2824 2828 0
2826 -2828 0
2824 -2828 0
-2685 -2825 2829 0
2685 -2829 0
2825 -2829 0
2828 2829 -2830 0
-2828 2830 0
-2829 2830 0
-154 -2713 2831 0
154 -2831 0
2713 -2831 0
-2691 -2831 -2832 0
2691 2831 -2832 0
2691 -2831 2832 0
-2691 2831 2832 0
-2832 -2830 -2833 0
2832 2830 -2833 0
2832 -2830 2833 0
-2832 2830 2833 0
-2832 -2830 2834 0
2832 -2834 0
2830 -2834 0
-2691 -2831 2835 0
2691 -2835 0
2831 -2835 0
2834 2835 -2836 0
-2834 2836 0
-2835 2836 0
-162 -2713 2837 0
162 -2837 0
2713 -2837 0
-2697 -2837 -2838 0
2697 2837 -2838 0
2697 -2837 2838 0
-2697 2837 2838 0
-2838 -2836 -2839 0
2838 2836 -2839 0
2838 -2836 2839 0
-2838 2836 2839 0
-2838 -2836 2840 0
2838 -2840 0
2836 -2840 0
-2697 -2837 2841 0
2697 -2841 0
2837 -2841 0
2840 2841 -2842 0
-2840 2842 0
-2841 2842 0
-170 -2713 2843 0
170 -2843 0
2713 -2843 0
-2703 -2843 -2844 0
2703 2843 -2844 0
2703 -2843 2844 0
-2703 2843 2844 0
-2844 -2842 -2845 0
2844 2842 -2845 0
2844 -2842 2845 0
-2844 2842 2845 0
-2844 -2842 2846 0
2844 -2846 0
2842 -2846 0
-2703 -2843 2847 0
2703 -2847 0
2843 -2847 0
2846 2847 -2848 0
-2846 2848 0
-2847 2848 0
-178 -2713 2849 0
178 -2849 0
2713 -2849 0
-2709 -2849 -2850 0
2709 2849 -2850 0
2709 -2849 2850 0
-2709 2849 2850 0
-2850 -2848 -2851 0
2850 2848 -2851 0
2850 -2848 2851 0
-2850 2848 2851 0
-2850 -2848 2852 0
2850 -2852 0
2848 -2852 0
-2709 -2849 2853 0
2709 -2853 0
2849 -2853 0
2852 2853 -2854 0
-2852 2854 0
-2853 2854 0
-186 -2713 2855 0
186 -2855 0
2713 -2855 0
-2712 -2855 -2856 0
2712 2855 -2856 0
2712 -2855 2856 0
-2712 2855 2856 0
-2856 -2854 -2857 0
2856 2854 -2857 0
2856 -2854 2857 0
-2856 2854 2857 0
-2856 -2854 2858 0
2856 -2858 0
2854 -2858 0
-2712 -2855 2859 0
2712 -2859 0
2855 -2859 0
2858 2859 -2860 0
-2858 2860 0
-2859 2860 0
-1 -2861 2862 0
1 -2862 0
2861 -2862 0
-2719 -2862 -2863 0
2719 2862 -2863 0
2719 -2862 2863 0
-2719 2862 2863 0
-2719 -2862 2864 0
2719 -2864 0
2862 -2864 0
-4 -2861 2865 0
4 -2865 0
2861 -2865 0
-2725 -2865 -2866 0
2725 2865 -2866 0
2725 -2865 2866 0
-2725 2865 2866 0
-2866 -2864 -2867 0
2866 2864 -2867 0
2866 -2864 2867 0
-2866 2864 2867 0
-2866 -2864 2868 0
2866 -2868 0
2864 -2868 0
-2725 -2865 2869 0
2725 -2869 0
2865 -2869 0
2868 2869 -2870 0
-2868 2870 0
-2869 2870 0
-10 -2861 2871 0
10 -2871 0
2861 -2871 0
-2731 -2871 -2872 0
2731 2871 -2872 0
2731 -2871 2872 0
-2731 2871 2872 0
-2872 -2870 -2873 0
2872 2870 -2873 0
2872 -2870 2873 0
-2872 2870 2873 0
-2872 -2870 2874 0
2872 -2874 0
2870 -2874 0
-2731 -2871 2875 0
2731 -2875 0
2871 -2875 0
2874 2875 -2876 0
-2874 2876 0
-2875 2876 0
-18 -2861 2877 0
18 -2877 0
2861 -2877 0
-2737 -2877 -2878 0
2737 2877 -2878 0
2737 -2877 2878 0
-2737 2877 2878 0
-2878 -2876 -2879 0
2878 2876 -2879 0
2878 -2876 2879 0
-2878 2876 2879 0
-2878 -2876 2880 0
2878 -2880 0
2876 -2880 0
-2737 -2877 2881 0
2737 -2881 0
2877 -2881 0
2880 2881 -2882 0
-2880 2882 0
-2881 2882 0
-26 -2861 2883 0
26 -2883 0
2861 -2883 0
-2743 -2883 -2884 0
2743 2883 -2884 0
2743 -2883 2884 0
-2743 2883 2884 0
-2884 -2882 -2885 0
2884 2882 -2885 0
2884 -2882 2885 0
-2884 2882 2885 0
-2884 -2882 2886 0
2884 -2886 0
2882 -2886 0
-2743 -2883 2887 0
2743 -2887 0
2883 -2887 0
2886 2887 -2888 0
-2886 2888 0
-2887 2888 0
-34 -2861 2889 0
34 -2889 0
2861 -2889 0
-2749 -2889 -2890 0
2749 2889 -2890 0
2749 -2889 2890 0
-2749 2889 2890 0
-2890 -2888 -2891 0
2890 2888 -2891 0
2890 -2888 2891 0
-2890 2888 2891 0
-2890 -2888 2892 0
2890 -2892 0
2888 -2892 0
-2749 -2889 2893 0
2749 -2893 0
2889 -2893 0
2892 2893 -2894 0
-2892 2894 0
-2893 2894 0
-42 -2861 2895 0
42 -2895 0
2861 -2895 0
-2755 -2895 -2896 0
2755 2895 -2896 0
2755 -2895 2896 0
-2755 2895 2896 0
-2896 -2894 -2897 0
2896 2894 -2897 0
2896 -2894 2897 0
-2896 2894 2897 0
-2896 -2894 2898 0
2896 -2898 0
2894 -2898 0
-2755 -2895 2899 0
2755 -2899 0
2895 -2899 0
2898 2899 -2900 0
-2898 2900 0
-2899 2900 0
-50 -2861 2901 0
50 -2901 0
2861 -2901 0
-2761 -2901 -2902 0
2761 2901 -2902 0
2761 -2901 2902 0
-2761 2901 2902 0
-2902 -2900 -2903 0
2902 2900 -2903 0
2902 -2900 2903 0
-2902 2900 2903 0
-2902 -2900 2904 0
2902 -2904 0
2900 -2904 0
-2761 -2901 2905 0
2761 -2905 0
2901 -2905 0
2904 2905 -2906 0
-2904 2906 0
-2905 2906 0
-58 -2861 2907 0
58 -2907 0
2861 -2907 0
-2767 -2907 -2908 0
2767 2907 -2908 0
2767 -2907 2908 0
-2767 2907 2908 0
-2908 -2906 -2909 0
2908 2906 -2909 0
2908 -2906 2909 0
-2908 2906 2909 0
-2908 -2906 2910 0
2908 -2910 0
2906 -2910 0
-2767 -2907 2911 0
2767 -2911 0
2907 -2911 0
2910 2911 -2912 0
-2910 2912 0
-2911 2912 0
-66 -2861 2913 0
66 -2913 0
2861 -2913 0
-2773 -2913 -2914 0
2773 2913 -2914 0
2773 -2913 2914 0
-2773 2913 2914 0
-2914 -2912 -2915 0
2914 2912 -2915 0
2914 -2912 2915 0
-2914 2912 2915 0
-2914 -2912 2916 0
2914 -2916 0
2912 -2916 0
-2773 -2913 2917 0
2773 -2917 0
2913 -2917 0
2916 2917 -2918 0
-2916 2918 0
-2917 2918 0
-74 -2861 2919 0
74 -2919 0
2861 -2919 0
-2779 -2919 -2920 0
2779 2919 -2920 0
2779 -2919 2920 0
-2779 2919 2920 0
-2920 -2918 -2921 0
2920 2918 -2921 0
2920 -2918 2921 0
-2920 2918 2921 0
-2920 -2918 2922 0
2920 -2922 0
2918 -2922 0
-2779 -2919 2923 0
2779 -2923 0
2919 -2923 0
2922 2923 -2924 0
-2922 2924 0
-2923 2924 0
-82 -2861 2925 0
82 -2925 0
2861 -2925 0
-2785 -2925 -2926 0
2785 2925 -2926 0
2785 -2925 2926 0
-2785 2925 2926 0
-2926 -2924 -2927 0
2926 2924 -2927 0
2926 -2924 2927 0
-2926 2924 2927 0
-2926 -2924 2928 0
2926 -2928 0
2924 -2928 0
-2785 -2925 2929 0
2785 -2929 0
2925 -2929 0
2928 2929 -2930 0
-2928 2930 0
-2929 2930 0
-90 -2861 2931 0
90 -2931 0
2861 -2931 0
-2791 -2931 -2932 0
2791 2931 -2932 0
2791 -2931 2932 0
-2791 2931 2932 0
-2932 -2930 -2933 0
2932 2930 -2933 0
2932 -2930 2933 0
-2932 2930 2933 0
-2932 -2930 2934 0
2932 -2934 0
2930 -2934 0
-2791 -2931 2935 0
2791 -2935 0
2931 -2935 0
2934 2935 -2936 0
-2934 2936 0
-2935 2936 0
-98 -2861 2937 0
98 -2937 0
2861 -2937 0
-2797 -2937 -2938 0
2797 2937 -2938 0
2797 -2937 2938 0
-2797 2937 2938 0
-2938 -2936 -2939 0
2938 2936 -2939 0
2938 -2936 2939 0
-2938 2936 2939 0
-2938 -2936 2940 0
2938 -2940 0
2936 -2940 0
-2797 -2937 2941 0
2797 -2941 0
2937 -2941 0
2940 2941 -2942 0
-2940 2942 0
-2941 2942 0
-106 -2861 2943 0
106 -2943 0
2861 -2943 0
-2803 -2943 -2944 0
2803 2943 -2944 0
2803 -2943 2944 0
-2803 2943 2944 0
-2944 -2942 -2945 0
2944 2942 -2945 0
2944 -2942 2945 0
-2944 2942 2945 0
-2944 -2942 2946 0
2944 -2946 0
2942 -2946 0
-2803 -2943 2947 0
2803 -2947 0
2943 -2947 0
2946 2947 -2948 0
-2946 2948 0
-2947 2948 0
-114 -2861 2949 0
114 -2949 0
2861 -2949 0
-2809 -2949 -2950 0
2809 2949 -2950 0
2809 -2949 2950 0
-2809 2949 2950 0
-2950 -2948 -2951 0
2950 2948 -2951 0
2950 -2948 2951 0
-2950 2948 2951 0
-2950 -2948 2952 0
2950 -2952 0
2948 -2952 0
-2809 -2949 2953 0
2809 -2953 0
2949 -2953 0
2952 2953 -2954 0
-2952 2954 0
-2953 2954 0
-122 -2861 2955 0
122 -2955 0
2861 -2955 0
-2815 -2955 -2956 0
2815 2955 -2956 0
2815 -2955 2956 0
-2815 2955 2956 0
-2956 -2954 -2957 0
2956 2954 -2957 0
2956 -2954 2957 0
-2956 2954 2957 0
-2956 -2954 2958 0
2956 -2958 0
2954 -2958 0
-2815 -2955 2959 0
2815 -2959 0
2955 -2959 0
2958 2959 -2960 0
-2958 2960 0
-2959 2960 0
-130 -2861 2961 0
130 -2961 0
2861 -2961 0
-2821 -2961 -2962 0
2821 2961 -2962 0
2821 -2961 2962 0
-2821 2961 2962 0
-2962 -2960 -2963 0
2962 2960 -2963 0
2962 -2960 2963 0
-2962 2960 2963 0
-2962 -2960 2964 0
2962 -2964 0
2960 -2964 0
-2821 -2961 2965 0
2821 -2965 0
2961 -2965 0
2964 2965 -2966 0
-2964 2966 0
-2965 2966 0
-138 -2861 2967 0
138 -2967 0
2861 -2967 0
-2827 -2967 -2968 0
2827 2967 -2968 0
2827 -2967 2968 0
-2827 2967 2968 0
-2968 -2966 -2969 0
2968 2966 -2969 0
2968 -2966 2969 0
-2968 2966 2969 0
-2968 -2966 2970 0
2968 -2970 0
2966 -2970 0
-2827 -2967 2971 0
2827 -2971 0
2967 -2971 0
2970 2971 -2972 0
-2970 2972 0
-2971 2972 0
-146 -2861 2973 0
146 -2973 0
2861 -2973 0
-2833 -2973 -2974 0
2833 2973 -2974 0
2833 -2973 2974 0
-2833 2973 2974 0
-2974 -2972 -2975 0
2974 2972 -2975 0
2974 -2972 2975 0
-2974 2972 2975 0
-2974 -2972 2976 0
2974 -2976 0
2972 -2976 0
-2833 -2973 2977 0
2833 -2977 0
2973 -2977 0
2976 2977 -2978 0
-2976 2978 0
-2977 2978 0
-154 -2861 2979 0
154 -2979 0
2861 -2979 0
-2839 -2979 -2980 0
2839 2979 -2980 0
2839 -2979 2980 0
-2839 2979 2980 0
-2980 -2978 -2981 0
2980 2978 -2981 0
2980 -2978 2981 0
-2980 2978 2981 0
-2980 -2978 2982 0
2980 -2982 0
2978 -2982 0
-2839 -2979 2983 0
2839 -2983 0
2979 -2983 0
2982 2983 -2984 0
-2982 2984 0
-2983 2984 0
-162 -2861 2985 0
162 -2985 0
2861 -2985 0
-2845 -2985 -2986 0
2845 2985 -2986 0
2845 -2985 2986 0
-2845 2985 2986 0
-2986 -2984 -2987 0
2986 2984 -2987 0
2986 -2984 2987 0
-2986 2984 2987 0
-2986 -2984 2988 0
2986 -2988 0
2984 -2988 0
-2845 -2985 2989 0
2845 -2989 0
2985 -2989 0
2988 2989 -2990 0
-2988 2990 0
-2989 2990 0
-170 -2861 2991 0
170 -2991 0
2861 -2991 0
-2851 -2991 -2992 0
2851 2991 -2992 0
2851 -2991 2992 0
-2851 2991 2992 0
-2992 -2990 -2993 0
2992 2990 -2993 0
2992 -2990 2993 0
-2992 2990 2993 0
-2992 -2990 2994 0
2992 -2994 0
2990 -2994 0
-2851 -2991 2995 0
2851 -2995 0
2991 -2995 0
2994 2995 -2996 0
-2994 2996 0
-2995 2996 0
-178 -2861 2997 0
178 -2997 0
2861 -2997 0
-2857 -2997 -2998 0
2857 2997 -2998 0
2857 -2997 2998 0
-2857 2997 2998 0
-2998 -2996 -2999 0
2998 2996 -2999 0
2998 -2996 2999 0
-2998 2996 2999 0
-2998 -2996 3000 0
2998 -3000 0
2996 -3000 0
-2857 -2997 3001 0
2857 -3001 0
2997 -3001 0
3000 3001 -3002 0
-3000 3002 0
-3001 3002 0
-186 -2861 3003 0
186 -3003 0
2861 -3003 0
-2860 -3003 -3004 0
2860 3003 -3004 0
2860 -3003 3004 0
-2860 3003 3004 0
-3004 -3002 -3005 0
3004 3002 -3005 0
3004 -3002 3005 0
-3004 3002 3005 0
-3004 -3002 3006 0
3004 -3006 0
3002 -3006 0
-2860 -3003 3007 0
2860 -3007 0
3003 -3007 0
3006 3007 -3008 0
-3006 3008 0
-3007 3008 0
-1 -3009 3010 0
1 -3010 0
3009 -3010 0
-2867 -3010 -3011 0
2867 3010 -3011 0
2867 -3010 3011 0
-2867 3010 3011 0
-2867 -3010 3012 0
2867 -3012 0
3010 -3012 0
-4 -3009 3013 0
4 -3013 0
3009 -3013 0
-2873 -3013 -3014 0
2873 3013 -3014 0
2873 -3013 3014 0
-2873 3013 3014 0
-3014 -3012 -3015 0
3014 3012 -3015 0
3014 -3012 3015 0
-3014 3012 3015 0
-3014 -3012 3016 0
3014 -3016 0
3012 -3016 0
-2873 -3013 3017 0
2873 -3017 0
3013 -3017 0
3016 3017 -3018 0
-3016 3018 0
-3017 3018 0
-10 -3009 3019 0
10 -3019 0
3009 -3019 0
-2879 -3019 -3020 0
2879 3019 -3020 0
2879 -3019 3020 0
-2879 3019 3020 0
-3020 -3018 -3021 0
3020 3018 -3021 0
3020 -3018 3021 0
-3020 3018 3021 0
-3020 -3018 3022 0
3020 -3022 0
3018 -3022 0
-2879 -3019 3023 0
2879 -3023 0
3019 -3023 0
3022 3023 -3024 0
-3022 3024 0
-3023 3024 0
-18 -3009 3025 0
18 -3025 0
3009 -3025 0
-2885 -3025 -3026 0
2885 3025 -3026 0
2885 -3025 3026 0
-2885 3025 3026 0
-3026 -3024 -3027 0
3026 3024 -3027 0
3026 -3024 3027 0
-3026 3024 3027 0
-3026 -3024 3028 0
3026 -3028 0
3024 -3028 0
-2885 -3025 3029 0
2885 -3029 0
3025 -3029 0
3028 3029 -3030 0
-3028 3030 0
-3029 3030 0
-26 -3009 3031 0
26 -3031 0
3009 -3031 0
-2891 -3031 -3032 0
2891 3031 -3032 0
2891 -3031 3032 0
-2891 3031 3032 0
-3032 -3030 -3033 0
3032 3030 -3033 0
3032 -3030 3033 0
-3032 3030 3033 0
-3032 -3030 3034 0
3032 -3034 0
3030 -3034 0
-2891 -3031 3035 0
2891 -3035 0
3031 -3035 0
3034 3035 -3036 0
-3034 3036 0
-3035 3036 0
-34 -3009 3037 0
34 -3037 0
3009 -3037 0
-2897 -3037 -3038 0
2897 3037 -3038 0
2897 -3037 3038 0
-2897 3037 3038 0
-3038 -3036 -3039 0
3038 3036 -3039 0
3038 -3036 3039 0
-3038 3036 3039 0
-3038 -3036 3040 0
3038 -3040 0
3036 -3040 0
-2897 -3037 3041 0
2897 -3041 0
3037 -3041 0
3040 3041 -3042 0
-3040 3042 0
-3041 3042 0
-42 -3009 3043 0
42 -3043 0
3009 -3043 0
-2903 -3043 -3044 0
2903 3043 -3044 0
2903 -3043 3044 0
-2903 3043 3044 0
-3044 -3042 -3045 0
3044 3042 -3045 0
3044 -3042 3045 0
-3044 3042 3045 0
-3044 -3042 3046 0
3044 -3046 0
3042 -3046 0
-2903 -3043 3047 0
2903 -3047 0
3043 -3047 0
3046 3047 -3048 0
-3046 3048 0
-3047 3048 0
-50 -3009 3049 0
50 -3049 0
3009 -3049 0
-2909 -3049 -3050 0
2909 3049 -3050 0
2909 -3049 3050 0
-2909 3049 3050 0
-3050 -3048 -3051 0
3050 3048 -3051 0
3050 -3048 3051 0
-3050 3048 3051 0
-3050 -3048 3052 0
3050 -3052 0
3048 -3052 0
-2909 -3049 3053 0
2909 -3053 0
3049 -3053 0
3052 3053 -3054 0
-3052 3054 0
-3053 3054 0
-58 -3009 3055 0
58 -3055 0
3009 -3055 0
-2915 -3055 -3056 0
2915 3055 -3056 0
2915 -3055 3056 0
-2915 3055 3056 0
-3056 -3054 -3057 0
3056 3054 -3057 0
3056 -3054 3057 0
-3056 3054 3057 0
-3056 -3054 3058 0
3056 -3058 0
3054 -3058 0
-2915 -3055 3059 0
2915 -3059 0
3055 -3059 0
3058 3059 -3060 0
-3058 3060 0
-3059 3060 0
-66 -3009 3061 0
66 -3061 0
3009 -3061 0
-2921 -3061 -3062 0
2921 3061 -3062 0
2921 -3061 3062 0
-2921 3061 3062 0
-3062 -3060 -3063 0
3062 3060 -3063 0
3062 -3060 3063 0
-3062 3060 3063 0
-3062 -3060 3064 0
3062 -3064 0
3060 -3064 0
-2921 -3061 3065 0
2921 -3065 0
3061 -3065 0
3064 3065 -3066 0
-3064 3066 0
-3065 3066 0
-74 -3009 3067 0
74 -3067 0
3009 -3067 0
-2927 -3067 -3068 0
2927 3067 -3068 0
2927 -3067 3068 0
-2927 3067 3068 0
-3068 -3066 -3069 0
3068 3066 -3069 0
3068 -3066 3069 0
-3068 3066 3069 0
-3068 -3066 3070 0
3068 -3070 0
3066 -3070 0
-2927 -3067 3071 0
2927 -3071 0
3067 -3071 0
3070 3071 -3072 0
-3070 3072 0
-3071 3072 0
-82 -3009 3073 0
82 -3073 0
3009 -3073 0
-2933 -3073 -3074 0
2933 3073 -3074 0
2933 -3073 3074 0
-2933 3073 3074 0
-3074 -3072 -3075 0
3074 3072 -3075 0
3074 -3072 3075 0
-3074 3072 3075 0
-3074 -3072 3076 0
3074 -3076 0
3072 -3076 0
-2933 -3073 3077 0
2933 -3077 0
3073 -3077 0
3076 3077 -3078 0
-3076 3078 0
-3077 3078 0
-90 -3009 3079 0
90 -3079 0
3009 -3079 0
-2939 -3079 -3080 0
2939 3079 -3080 0
2939 -3079 3080 0
-2939 3079 3080 0
-3080 -3078 -3081 0
3080 3078 -3081 0
3080 -3078 3081 0
-3080 3078 3081 0
-3080 -3078 3082 0
3080 -3082 0
3078 -3082 0
-2939 -3079 3083 0
2939 -3083 0
3079 -3083 0
3082 3083 -3084 0
-3082 3084 0
-3083 3084 0
-98 -3009 3085 0
98 -3085 0
3009 -3085 0
-2945 -3085 -3086 0
2945 3085 -3086 0
2945 -3085 3086 0
-2945 3085 3086 0
-3086 -3084 -3087 0
3086 3084 -3087 0
3086 -3084 3087 0
-3086 3084 3087 0
-3086 -3084 3088 0
3086 -3088 0
3084 -3088 0
-2945 -3085 3089 0
2945 -3089 0
3085 -3089 0
3088 3089 -3090 0
-3088 3090 0
-3089 3090 0
-106 -3009 3091 0
106 -3091 0
3009 -3091 0
-2951 -3091 -3092 0
2951 3091 -3092 0
2951 -3091 3092 0
-2951 3091 3092 0
-3092 -3090 -3093 0
3092 3090 -3093 0
3092 -3090 3093 0
-3092 3090 3093 0
-3092 -3090 3094 0
3092 -3094 0
3090 -3094 0
-2951 -3091 3095 0
2951 -3095 0
3091 -3095 0
3094 3095 -3096 0
-3094 3096 0
-3095 3096 0
-114 -3009 3097 0
114 -3097 0
3009 -3097 0
-2957 -3097 -3098 0
2957 3097 -3098 0
2957 -3097 3098 0
-2957 3097 3098 0
-3098 -3096 -3099 0
3098 3096 -3099 0
3098 -3096 3099 0
-3098 3096 3099 0
-3098 -3096 3100 0
3098 -3100 0
3096 -3100 0
-2957 -3097 3101 0
2957 -3101 0
3097 -3101 0
3100 3101 -3102 0
-3100 3102 0
-3101 3102 0
-122 -3009 3103 0
122 -3103 0
3009 -3103 0
-2963 -3103 -3104 0
2963 3103 -3104 0
2963 -3103 3104 0
-2963 3103 3104 0
-3104 -3102 -3105 0
3104 3102 -3105 0
3104 -3102 3105 0
-3104 3102 3105 0
-3104 -3102 3106 0
3104 -3106 0
3102 -3106 0
-2963 -3103 3107 0
2963 -3107 0
3103 -3107 0
3106 3107 -3108 0
-3106 3108 0
-3107 3108 0
-130 -3009 3109 0
130 -3109 0
3009 -3109 0
-2969 -3109 -3110 0
2969 3109 -3110 0
2969 -3109 3110 0
-2969 3109 3110 0
-3110 -3108 -3111 0
3110 3108 -3111 0
3110 -3108 3111 0
-3110 3108 3111 0
-3110 -3108 3112 0
3110 -3112 0
3108 -3112 0
-2969 -3109 3113 0
2969 -3113 0
3109 -3113 0
3112 3113 -3114 0
-3112 3114 0
-3113 3114 0
-138 -3009 3115 0
138 -3115 0
3009 -3115 0
-2975 -3115 -3116 0
2975 3115 -3116 0
2975 -3115 3116 0
-2975 3115 3116 0
-3116 -3114 -3117 0
3116 3114 -3117 0
3116 -3114 3117 0
-3116 3114 3117 0
-3116 -3114 3118 0
3116 -3118 0
3114 -3118 0
-2975 -3115 3119 0
2975 -3119 0
3115 -3119 0
3118 3119 -3120 0
-3118 3120 0
-3119 3120 0
-146 -3009 3121 0
146 -3121 0
3009 -3121 0
-2981 -3121 -3122 0
2981 3121 -3122 0
2981 -3121 3122 0
-2981 3121 3122 0
-3122 -3120 -3123 0
3122 3120 -3123 0
3122 -3120 3123 0
-3122 3120 3123 0
-3122 -3120 3124 0
3122 -3124 0
3120 -3124 0
-2981 -3121 3125 0
2981 -3125 0
3121 -3125 0
3124 3125 -3126 0
-3124 3126 0
-3125 3126 0
-154 -3009 3127 0
154 -3127 0
3009 -3127 0
-2987 -3127 -3128 0
2987 3127 -3128 0
2987 -3127 3128 0
-2987 3127 3128 0
-3128 -3126 -3129 0
3128 3126 -3129 0
3128 -3126 3129 0
-3128 3126 3129 0
-3128 -3126 3130 0
3128 -3130 0
3126 -3130 0
-2987 -3127 3131 0
2987 -3131 0
3127 -3131 0
3130 3131 -3132 0
-3130 3132 0
-3131 3132 0
-162 -3009 3133 0
162 -3133 0
3009 -3133 0
-2993 -3133 -3134 0
2993 3133 -3134 0
2993 -3133 3134 0
-2993 3133 3134 0
-3134 -3132 -3135 0
3134 3132 -3135 0
3134 -3132 3135 0
-3134 3132 3135 0
-3134 -3132 3136 0
3134 -3136 0
3132 -3136 0
-2993 -3133 3137 0
2993 -3137 0
3133 -3137 0
3136 3137 -3138 0
-3136 3138 0
-3137 3138 0
-170 -3009 3139 0
170 -3139 0
3009 -3139 0
-2999 -3139 -3140 0
2999 3139 -3140 0
2999 -3139 3140 0
-2999 3139 3140 0
-3140 -3138 -3141 0
3140 3138 -3141 0
3140 -3138 3141 0
-3140 3138 3141 0
-3140 -3138 3142 0
3140 -3142 0
3138 -3142 0
-2999 -3139 3143 0
2999 -3143 0
3139 -3143 0
3142 3143 -3144 0
-3142 3144 0
-3143 3144 0
-178 -3009 3145 0
178 -3145 0
3009 -3145 0
-3005 -3145 -3146 0
3005 3145 -3146 0
3005 -3145 3146 0
-3005 3145 3146 0
-3146 -3144 -3147 0
3146 3144 -3147 0
3146 -3144 3147 0
-3146 3144 3147 0
-3146 -3144 3148 0
3146 -3148 0
3144 -3148 0
-3005 -3145 3149 0
3005 -3149 0
3145 -3149 0
3148 3149 -3150 0
-3148 3150 0
-3149 3150 0
-186 -3009 3151 0
186 -3151 0
3009 -3151 0
-3008 -3151 -3152 0
3008 3151 -3152 0
3008 -3151 3152 0
-3008 3151 3152 0
-3152 -3150 -3153 0
3152 3150 -3153 0
3152 -3150 3153 0
-3152 3150 3153 0
-3152 -3150 3154 0
3152 -3154 0
3150 -3154 0
-3008 -3151 3155 0
3008 -3155 0
3151 -3155 0
3154 3155 -3156 0
-3154 3156 0
-3155 3156 0
-1 -3157 3158 0
1 -3158 0
3157 -3158 0
-3015 -3158 -3159 0
3015 3158 -3159 0
3015 -3158 3159 0
-3015 3158 3159 0
-3015 -3158 3160 0
3015 -3160 0
3158 -3160 0
-4 -3157 3161 0
4 -3161 0
3157 -3161 0
-3021 -3161 -3162 0
3021 3161 -3162 0
3021 -3161 3162 0
-3021 3161 3162 0
-3162 -3160 -3163 0
3162 3160 -3163 0
3162 -3160 3163 0
-3162 3160 3163 0
-3162 -3160 3164 0
3162 -3164 0
3160 -3164 0
-3021 -3161 3165 0
3021 -3165 0
3161 -3165 0
3164 3165 -3166 0
-3164 3166 0
-3165 3166 0
-10 -3157 3167 0
10 -3167 0
3157 -3167 0
-3027 -3167 -3168 0
3027 3167 -3168 0
3027 -3167 3168 0
-3027 3167 3168 0
-3168 -3166 -3169 0
3168 3166 -3169 0
3168 -3166 3169 0
-3168 3166 3169 0
-3168 -3166 3170 0
3168 -3170 0
3166 -3170 0
-3027 -3167 3171 0
3027 -3171 0
3167 -3171 0
3170 3171 -3172 0
-3170 3172 0
-3171 3172 0
-18 -3157 3173 0
18 -3173 0
3157 -3173 0
-3033 -3173 -3174 0
3033 3173 -3174 0
3033 -3173 3174 0
-3033 3173 3174 0
-3174 -3172 -3175 0
3174 3172 -3175 0
3174 -3172 3175 0
-3174 3172 3175 0
-3174 -3172 3176 0
3174 -3176 0
3172 -3176 0
-3033 -3173 3177 0
3033 -3177 0
3173 -3177 0
3176 3177 -3178 0
-3176 3178 0
-3177 3178 0
-26 -3157 3179 0
26 -3179 0
3157 -3179 0
-3039 -3179 -3180 0
3039 3179 -3180 0
3039 -3179 3180 0
-3039 3179 3180 0
-3180 -3178 -3181 0
3180 3178 -3181 0
3180 -3178 3181 0
-3180 3178 3181 0
-3180 -3178 3182 0
3180 -3182 0
3178 -3182 0
-3039 -3179 3183 0
3039 -3183 0
3179 -3183 0
3182 3183 -3184 0
-3182 3184 0
-3183 3184 0
-34 -3157 3185 0
34 -3185 0
3157 -3185 0
-3045 -3185 -3186 0
3045 3185 -3186 0
3045 -3185 3186 0
-3045 3185 3186 0
-3186 -3184 -3187 0
3186 3184 -3187 0
3186 -3184 3187 0
-3186 3184 3187 0
-3186 -3184 3188 0
3186 -3188 0
3184 -3188 0
-3045 -3185 3189 0
3045 -3189 0
3185 -3189 0
3188 3189 -3190 0
-3188 3190 0
-3189 3190 0
-42 -3157 3191 0
42 -3191 0
3157 -3191 0
-3051 -3191 -3192 0
3051 3191 -3192 0
3051 -3191 3192 0
-3051 3191 3192 0
-3192 -3190 -3193 0
3192 3190 -3193 0
3192 -3190 3193 0
-3192 3190 3193 0
-3192 -3190 3194 0
3192 -3194 0
3190 -3194 0
-3051 -3191 3195 0
3051 -3195 0
3191 -3195 0
3194 3195 -3196 0
-3194 3196 0
-3195 3196 0
-50 -3157 3197 0
50 -3197 0
3157 -3197 0
-3057 -3197 -3198 0
3057 3197 -3198 0
3057 -3197 3198 0
-3057 3197 3198 0
-3198 -3196 -3199 0
3198 3196 -3199 0
3198 -3196 3199 0
-3198 3196 3199 0
-3198 -3196 3200 0
3198 -3200 0
3196 -3200 0
-3057 -3197 3201 0
3057 -3201 0
3197 -3201 0
3200 3201 -3202 0
-3200 3202 0
-3201 3202 0
-58 -3157 3203 0
58 -3203 0
3157 -3203 0
-3063 -3203 -3204 0
3063 3203 -3204 0
3063 -3203 3204 0
-3063 3203 3204 0
-3204 -3202 -3205 0
3204 3202 -3205 0
3204 -3202 3205 0
-3204 3202 3205 0
-3204 -3202 3206 0
3204 -3206 0
3202 -3206 0
-3063 -3203 3207 0
3063 -3207 0
3203 -3207 0
3206 3207 -3208 0
-3206 3208 0
-3207 3208 0
-66 -3157 3209 0
66 -3209 0
3157 -3209 0
-3069 -3209 -3210 0
3069 3209 -3210 0
3069 -3209 3210 0
-3069 3209 3210 0
-3210 -3208 -3211 0
3210 3208 -3211 0
3210 -3208 3211 0
-3210 3208 3211 0
-3210 -3208 3212 0
3210 -3212 0
3208 -3212 0
-3069 -3209 3213 0
3069 -3213 0
3209 -3213 0
3212 3213 -3214 0
-3212 3214 0
-3213 3214 0
-74 -3157 3215 0
74 -3215 0
3157 -3215 0
-3075 -3215 -3216 0
3075 3215 -3216 0
3075 -3215 3216 0
-3075 3215 3216 0
-3216 -3214 -3217 0
3216 3214 -3217 0
3216 -3214 3217 0
-3216 3214 3217 0
-3216 -3214 3218 0
3216 -3218 0
3214 -3218 0
-3075 -3215 3219 0
3075 -3219 0
3215 -3219 0
3218 3219 -3220 0
-3218 3220 0
-3219 3220 0
-82 -3157 3221 0
82 -3221 0
3157 -3221 0
-3081 -3221 -3222 0
3081 3221 -3222 0
3081 -3221 3222 0
-3081 3221 3222 0
-3222 -3220 -3223 0
3222 3220 -3223 0
3222 -3220 3223 0
-3222 3220 3223 0
-3222 -3220 3224 0
3222 -3224 0
3220 -3224 0
-3081 -3221 3225 0
3081 -3225 0
3221 -3225 0
3224 3225 -3226 0
-3224 3226 0
-3225 3226 0
-90 -3157 3227 0
90 -3227 0
3157 -3227 0
-3087 -3227 -3228 0
3087 3227 -3228 0
3087 -3227 3228 0
-3087 3227 3228 0
-3228 -3226 -3229 0
3228 3226 -3229 0
3228 -3226 3229 0
-3228 3226 3229 0
-3228 -3226 3230 0
3228 -3230 0
3226 -3230 0
-3087 -3227 3231 0
3087 -3231 0
3227 -3231 0
3230 3231 -3232 0
-3230 3232 0
-3231 3232 0
-98 -3157 3233 0
98 -3233 0
3157 -3233 0
-3093 -3233 -3234 0
3093 3233 -3234 0
3093 -3233 3234 0
-3093 3233 3234 0
-3234 -3232 -3235 0
3234 3232 -3235 0
3234 -3232 3235 0
-3234 3232 3235 0
-3234 -3232 3236 0
3234 -3236 0
3232 -3236 0
-3093 -3233 3237 0
3093 -3237 0
3233 -3237 0
3236 3237 -3238 0
-3236 3238 0
-3237 3238 0
-106 -3157 3239 0
106 -3239 0
3157 -3239 0
-3099 -3239 -3240 0
3099 3239 -3240 0
3099 -3239 3240 0
-3099 3239 3240 0
-3240 -3238 -3241 0
3240 3238 -3241 0
3240 -3238 3241 0
-3240 3238 3241 0
-3240 -3238 3242 0
3240 -3242 0
3238 -3242 0
-3099 -3239 3243 0
3099 -3243 0
3239 -3243 0
3242 3243 -3244 0
-3242 3244 0
-3243 3244 0
-114 -3157 3245 0
114 -3245 0
3157 -3245 0
-3105 -3245 -3246 0
3105 3245 -3246 0
3105 -3245 3246 0
-3105 3245 3246 0
-3246 -3244 -3247 0
3246 3244 -3247 0
3246 -3244 3247 0
-3246 3244 3247 0
-3246 -3244 3248 0
3246 -3248 0
3244 -3248 0
-3105 -3245 3249 0
3105 -3249 0
3245 -3249 0
3248 3249 -3250 0
-3248 3250 0
-3249 3250 0
-122 -3157 3251 0
122 -3251 0
3157 -3251 0
-3111 -3251 -3252 0
3111 3251 -3252 0
3111 -3251 3252 0
-3111 3251 3252 0
-3252 -3250 -3253 0
3252 3250 -3253 0
3252 -3250 3253 0
-3252 3250 3253 0
-3252 -3250 3254 0
3252 -3254 0
3250 -3254 0
-3111 -3251 3255 0
3111 -3255 0
3251 -3255 0
3254 3255 -3256 0
-3254 3256 0
-3255 3256 0
-130 -3157 3257 0
130 -3257 0
3157 -3257 0
-3117 -3257 -3258 0
3117 3257 -3258 0
3117 -3257 3258 0
-3117 3257 3258 0
-3258 -3256 -3259 0
3258 3256 -3259 0
3258 -3256 3259 0
-3258 3256 3259 0
-3258 -3256 3260 0
3258 -3260 0
3256 -3260 0
-3117 -3257 3261 0
3117 -3261 0
3257 -3261 0
3260 3261 -3262 0
-3260 3262 0
-3261 3262 0
-138 -3157 3263 0
138 -3263 0
3157 -3263 0
-3123 -3263 -3264 0
3123 3263 -3264 0
3123 -3263 3264 0
-3123 3263 3264 0
-3264 -3262 -3265 0
3264 3262 -3265 0
3264 -3262 3265 0
-3264 3262 3265 0
-3264 -3262 3266 0
3264 -3266 0
3262 -3266 0
-3123 -3263 3267 0
3123 -3267 0
3263 -3267 0
3266 3267 -3268 0
-3266 3268 0
-3267 3268 0
-146 -3157 3269 0
146 -3269 0
3157 -3269 0
-3129 -3269 -3270 0
3129 3269 -3270 0
3129 -3269 3270 0
-3129 3269 3270 0
-3270 -3268 -3271 0
3270 3268 -3271 0
3270 -3268 3271 0
-3270 3268 3271 0
-3270 -3268 3272 0
3270 -3272 0
3268 -3272 0
-3129 -3269 3273 0
3129 -3273 0
3269 -3273 0
3272 3273 -3274 0
-3272 3274 0
-3273 3274 0
-154 -3157 3275 0
154 -3275 0
3157 -3275 0
-3135 -3275 -3276 0
3135 3275 -3276 0
3135 -3275 3276 0
-3135 3275 3276 0
-3276 -3274 -3277 0
3276 3274 -3277 0
3276 -3274 3277 0
-3276 3274 3277 0
-3276 -3274 3278 0
3276 -3278 0
3274 -3278 0
-3135 -3275 3279 0
3135 -3279 0
3275 -3279 0
3278 3279 -3280 0
-3278 3280 0
-3279 3280 0
-162 -3157 3281 0
162 -3281 0
3157 -3281 0
-3141 -3281 -3282 0
3141 3281 -3282 0
3141 -3281 3282 0
-3141 3281 3282 0
-3282 -3280 -3283 0
3282 3280 -3283 0
3282 -3280 3283 0
-3282 3280 3283 0
-3282 -3280 3284 0
3282 -3284 0
3280 -3284 0
-3141 -3281 3285 0
3141 -3285 0
3281 -3285 0
3284 3285 -3286 0
-3284 3286 0
-3285 3286 0
-170 -3157 3287 0
170 -3287 0
3157 -3287 0
-3147 -3287 -3288 0
3147 3287 -3288 0
3147 -3287 3288 0
-3147 3287 3288 0
-3288 -3286 -3289 0
3288 3286 -3289 0
3288 -3286 3289 0
-3288 3286 3289 0
-3288 -3286 3290 0
3288 -3290 0
3286 -3290 0
-3147 -3287 3291 0
3147 -3291 0
3287 -3291 0
3290 3291 -3292 0
-3290 3292 0
-3291 3292 0
-178 -3157 3293 0
178 -3293 0
3157 -3293 0
-3153 -3293 -3294 0
3153 3293 -3294 0
3153 -3293 3294 0
-3153 3293 3294 0
-3294 -3292 -3295 0
3294 3292 -3295 0
3294 -3292 3295 0
-3294 3292 3295 0
-3294 -3292 3296 0
3294 -3296 0
3292 -3296 0
-3153 -3293 3297 0
3153 -3297 0
3293 -3297 0
3296 3297 -3298 0
-3296 3298 0
-3297 3298 0
-186 -3157 3299 0
186 -3299 0
3157 -3299 0
-3156 -3299 -3300 0
3156 3299 -3300 0
3156 -3299 3300 0
-3156 3299 3300 0
-3300 -3298 -3301 0
3300 3298 -3301 0
3300 -3298 3301 0
-3300 3298 3301 0
-3300 -3298 3302 0
3300 -3302 0
3298 -3302 0
-3156 -3299 3303 0
3156 -3303 0
3299 -3303 0
3302 3303 -3304 0
-3302 3304 0
-3303 3304 0
-1 -3305 3306 0
1 -3306 0
3305 -3306 0
-3163 -3306 -3307 0
3163 3306 -3307 0
3163 -3306 3307 0
-3163 3306 3307 0
-3163 -3306 3308 0
3163 -3308 0
3306 -3308 0
-4 -3305 3309 0
4 -3309 0
3305 -3309 0
-3169 -3309 -3310 0
3169 3309 -3310 0
3169 -3309 3310 0
-3169 3309 3310 0
-3310 -3308 -3311 0
3310 3308 -3311 0
3310 -3308 3311 0
-3310 3308 3311 0
-3310 -3308 3312 0
3310 -3312 0
3308 -3312 0
-3169 -3309 3313 0
3169 -3313 0
3309 -3313 0
3312 3313 -3314 0
-3312 3314 0
-3313 3314 0
-10 -3305 3315 0
10 -3315 0
3305 -3315 0
-3175 -3315 -3316 0
3175 3315 -3316 0
3175 -3315 3316 0
-3175 3315 3316 0
-3316 -3314 -3317 0
3316 3314 -3317 0
3316 -3314 3317 0
-3316 3314 3317 0
-3316 -3314 3318 0
3316 -3318 0
3314 -3318 0
-3175 -3315 3319 0
3175 -3319 0
3315 -3319 0
3318 3319 -3320 0
-3318 3320 0
-3319 3320 0
-18 -3305 3321 0
18 -3321 0
3305 -3321 0
-3181 -3321 -3322 0
3181 3321 -3322 0
3181 -3321 3322 0
-3181 3321 3322 0
-3322 -3320 -3323 0
3322 3320 -3323 0
3322 -3320 3323 0
-3322 3320 3323 0
-3322 -3320 3324 0
3322 -3324 0
3320 -3324 0
-3181 -3321 3325 0
3181 -3325 0
3321 -3325 0
3324 3325 -3326 0
-3324 3326 0
-3325 3326 0
-26 -3305 3327 0
26 -3327 0
3305 -3327 0
-3187 -3327 -3328 0
3187 3327 -3328 0
3187 -3327 3328 0
-3187 3327 3328 0
-3328 -3326 -3329 0
3328 3326 -3329 0
3328 -3326 3329 0
-3328 3326 3329 0
-3328 -3326 3330 0
3328 -3330 0
3326 -3330 0
-3187 -3327 3331 0
3187 -3331 0
3327 -3331 0
3330 3331 -3332 0
-3330 3332 0
-3331 3332 0
-34 -3305 3333 0
34 -3333 0
3305 -3333 0
-3193 -3333 -3334 0
3193 3333 -3334 0
3193 -3333 3334 0
-3193 3333 3334 0
-3334 -3332 -3335 0
3334 3332 -3335 0
3334 -3332 3335 0
-3334 3332 3335 0
-3334 -3332 3336 0
3334 -3336 0
3332 -3336 0
-3193 -3333 3337 0
3193 -3337 0
3333 -3337 0
3336 3337 -3338 0
-3336 3338 0
-3337 3338 0
-42 -3305 3339 0
42 -3339 0
3305 -3339 0
-3199 -3339 -3340 0
3199 3339 -3340 0
3199 -3339 3340 0
-3199 3339 3340 0
-3340 -3338 -3341 0
3340 3338 -3341 0
3340 -3338 3341 0
-3340 3338 3341 0
-3340 -3338 3342 0
3340 -3342 0
3338 -3342 0
-3199 -3339 3343 0
3199 -3343 0
3339 -3343 0
3342 3343 -3344 0
-3342 3344 0
-3343 3344 0
-50 -3305 3345 0
50 -3345 0
3305 -3345 0
-3205 -3345 -3346 0
3205 3345 -3346 0
3205 -3345 3346 0
-3205 3345 3346 0
-3346 -3344 -3347 0
3346 3344 -3347 0
3346 -3344 3347 0
-3346 3344 3347 0
-3346 -3344 3348 0
3346 -3348 0
3344 -3348 0
-3205 -3345 3349 0
3205 -3349 0
3345 -3349 0
3348 3349 -3350 0
-3348 3350 0
-3349 3350 0
-58 -3305 3351 0
58 -3351 0
3305 -3351 0
-3211 -3351 -3352 0
3211 3351 -3352 0
3211 -3351 3352 0
-3211 3351 3352 0
-3352 -3350 -3353 0
3352 3350 -3353 0
3352 -3350 3353 0
-3352 3350 3353 0
-3352 -3350 3354 0
3352 -3354 0
3350 -3354 0
-3211 -3351 3355 0
3211 -3355 0
3351 -3355 0
3354 3355 -3356 0
-3354 3356 0
-3355 3356 0
-66 -3305 3357 0
66 -3357 0
3305 -3357 0
-3217 -3357 -3358 0
3217 3357 -3358 0
3217 -3357 3358 0
-3217 3357 3358 0
-3358 -3356 -3359 0
3358 3356 -3359 0
3358 -3356 3359 0
-3358 3356 3359 0
-3358 -3356 3360 0
3358 -3360 0
3356 -3360 0
-3217 -3357 3361 0
3217 -3361 0
3357 -3361 0
3360 3361 -3362 0
-3360 3362 0
-3361 3362 0
-74 -3305 3363 0
74 -3363 0
3305 -3363 0
-3223 -3363 -3364 0
3223 3363 -3364 0
3223 -3363 3364 0
-3223 3363 3364 0
-3364 -3362 -3365 0
3364 3362 -3365 0
3364 -3362 3365 0
-3364 3362 3365 0
-3364 -3362 3366 0
3364 -3366 0
3362 -3366 0
-3223 -3363 3367 0
3223 -3367 0
3363 -3367 0
3366 3367 -3368 0
-3366 3368 0
-3367 3368 0
-82 -3305 3369 0
82 -3369 0
3305 -3369 0
-3229 -3369 -3370 0
3229 3369 -3370 0
3229 -3369 3370 0
-3229 3369 3370 0
-3370 -3368 -3371 0
3370 3368 -3371 0
3370 -3368 3371 0
-3370 3368 3371 0
-3370 -3368 3372 0
3370 -3372 0
3368 -3372 0
-3229 -3369 3373 0
3229 -3373 0
3369 -3373 0
3372 3373 -3374 0
-3372 3374 0
-3373 3374 0
-90 -3305 3375 0
90 -3375 0
3305 -3375 0
-3235 -3375 -3376 0
3235 3375 -3376 0
3235 -3375 3376 0
-3235 3375 3376 0
-3376 -3374 -3377 0
3376 3374 -3377 0
3376 -3374 3377 0
-3376 3374 3377 0
-3376 -3374 3378 0
3376 -3378 0
3374 -3378 0
-3235 -3375 3379 0
3235 -3379 0
3375 -3379 0
3378 3379 -3380 0
-3378 3380 0
-3379 3380 0
-98 -3305 3381 0
98 -3381 0
3305 -3381 0
-3241 -3381 -3382 0
3241 3381 -3382 0
3241 -3381 3382 0
-3241 3381 3382 0
-3382 -3380 -3383 0
3382 3380 -3383 0
3382 -3380 3383 0
-3382 3380 3383 0
-3382 -3380 3384 0
3382 -3384 0
3380 -3384 0
-3241 -3381 3385 0
3241 -3385 0
3381 -3385 0
3384 3385 -3386 0
-3384 3386 0
-3385 3386 0
-106 -3305 3387 0
106 -3387 0
3305 -3387 0
-3247 -3387 -3388 0
3247 3387 -3388 0
3247 -3387 3388 0
-3247 3387 3388 0
-3388 -3386 -3389 0
3388 3386 -3389 0
3388 -3386 3389 0
-3388 3386 3389 0
-3388 -3386 3390 0
3388 -3390 0
3386 -3390 0
-3247 -3387 3391 0
3247 -3391 0
3387 -3391 0
3390 3391 -3392 0
-3390 3392 0
-3391 3392 0
-114 -3305 3393 0
114 -3393 0
3305 -3393 0
-3253 -3393 -3394 0
3253 3393 -3394 0
3253 -3393 3394 0
-3253 3393 3394 0
-3394 -3392 -3395 0
3394 3392 -3395 0
3394 -3392 3395 0
-3394 3392 3395 0
-3394 -3392 3396 0
3394 -3396 0
3392 -3396 0
-3253 -3393 3397 0
3253 -3397 0
3393 -3397 0
3396 3397 -3398 0
-3396 3398 0
-3397 3398 0
-122 -3305 3399 0
122 -3399 0
3305 -3399 0
-3259 -3399 -3400 0
3259 3399 -3400 0
3259 -3399 3400 0
-3259 3399 3400 0
-3400 -3398 -3401 0
3400 3398 -3401 0
3400 -3398 3401 0
-3400 3398 3401 0
-3400 -3398 3402 0
3400 -3402 0
3398 -3402 0
-3259 -3399 3403 0
3259 -3403 0
3399 -3403 0
3402 3403 -3404 0
-3402 3404 0
-3403 3404 0
-130 -3305 3405 0
130 -3405 0
3305 -3405 0
-3265 -3405 -3406 0
3265 3405 -3406 0
3265 -3405 3406 0
-3265 3405 3406 0
-3406 -3404 -3407 0
3406 3404 -3407 0
3406 -3404 3407 0
-3406 3404 3407 0
-3406 -3404 3408 0
3406 -3408 0
3404 -3408 0
-3265 -3405 3409 0
3265 -3409 0
3405 -3409 0
3408 3409 -3410 0
-3408 3410 0
-3409 3410 0
-138 -3305 3411 0
138 -3411 0
3305 -3411 0
-3271 -3411 -3412 0
3271 3411 -3412 0
3271 -3411 3412 0
-3271 3411 3412 0
-3412 -3410 -3413 0
3412 3410 -3413 0
3412 -3410 3413 0
-3412 3410 3413 0
-3412 -3410 3414 0
3412 -3414 0
3410 -3414 0
-3271 -3411 3415 0
3271 -3415 0
3411 -3415 0
3414 3415 -3416 0
-3414 3416 0
-3415 3416 0
-146 -3305 3417 0
146 -3417 0
3305 -3417 0
-3277 -3417 -3418 0
3277 3417 -3418 0
3277 -3417 3418 0
-3277 3417 3418 0
-3418 -3416 -3419 0
3418 3416 -3419 0
3418 -3416 3419 0
-3418 3416 3419 0
-3418 -3416 3420 0
3418 -3420 0
3416 -3420 0
-3277 -3417 3421 0
3277 -3421 0
3417 -3421 0
3420 3421 -3422 0
-3420 3422 0
-3421 3422 0
-154 -3305 3423 0
154 -3423 0
3305 -3423 0
-3283 -3423 -3424 0
3283 3423 -3424 0
3283 -3423 3424 0
-3283 3423 3424 0
-3424 -3422 -3425 0
3424 3422 -3425 0
3424 -3422 3425 0
-3424 3422 3425 0
-3424 -3422 3426 0
3424 -3426 0
3422 -3426 0
-3283 -3423 3427 0
3283 -3427 0
3423 -3427 0
3426 3427 -3428 0
-3426 3428 0
-3427 3428 0
-162 -3305 3429 0
162 -3429 0
3305 -3429 0
-3289 -3429 -3430 0
3289 3429 -3430 0
3289 -3429 3430 0
-3289 3429 3430 0
-3430 -3428 -3431 0
3430 3428 -3431 0
3430 -3428 3431 0
-3430 3428 3431 0
-3430 -3428 3432 0
3430 -3432 0
3428 -3432 0
-3289 -3429 3433 0
3289 -3433 0
3429 -3433 0
3432 3433 -3434 0
-3432 3434 0
-3433 3434 0
-170 -3305 3435 0
170 -3435 0
3305 -3435 0
-3295 -3435 -3436 0
3295 3435 -3436 0
3295 -3435 3436 0
-3295 3435 3436 0
-3436 -3434 -3437 0
3436 3434 -3437 0
3436 -3434 3437 0
-3436 3434 3437 0
-3436 -3434 3438 0
3436 -3438 0
3434 -3438 0
-3295 -3435 3439 0
3295 -3439 0
3435 -3439 0
3438 3439 -3440 0
-3438 3440 0
-3439 3440 0
-178 -3305 3441 0
178 -3441 0
3305 -3441 0
-3301 -3441 -3442 0
3301 3441 -3442 0
3301 -3441 3442 0
-3301 3441 3442 0
-3442 -3440 -3443 0
3442 3440 -3443 0
3442 -3440 3443 0
-3442 3440 3443 0
-3442 -3440 3444 0
3442 -3444 0
3440 -3444 0
-3301 -3441 3445 0
3301 -3445 0
3441 -3445 0
3444 3445 -3446 0
-3444 3446 0
-3445 3446 0
-186 -3305 3447 0
186 -3447 0
3305 -3447 0
-3304 -3447 -3448 0
3304 3447 -3448 0
3304 -3447 3448 0
-3304 3447 3448 0
-3448 -3446 -3449 0
3448 3446 -3449 0
3448 -3446 3449 0
-3448 3446 3449 0
-3448 -3446 3450 0
3448 -3450 0
3446 -3450 0
-3304 -3447 3451 0
3304 -3451 0
3447 -3451 0
3450 3451 -3452 0
-3450 3452 0
-3451 3452 0
-1 -3453 3454 0
1 -3454 0
3453 -3454 0
-3311 -3454 -3455 0
3311 3454 -3455 0
3311 -3454 3455 0
-3311 3454 3455 0
-3311 -3454 3456 0
3311 -3456 0
3454 -3456 0
-4 -3453 3457 0
4 -3457 0
3453 -3457 0
-3317 -3457 -3458 0
3317 3457 -3458 0
3317 -3457 3458 0
-3317 3457 3458 0
-3458 -3456 -3459 0
3458 3456 -3459 0
3458 -3456 3459 0
-3458 3456 3459 0
-3458 -3456 3460 0
3458 -3460 0
3456 -3460 0
-3317 -3457 3461 0
3317 -3461 0
3457 -3461 0
3460 3461 -3462 0
-3460 3462 0
-3461 3462 0
-10 -3453 3463 0
10 -3463 0
3453 -3463 0
-3323 -3463 -3464 0
3323 3463 -3464 0
3323 -3463 3464 0
-3323 3463 3464 0
-3464 -3462 -3465 0
3464 3462 -3465 0
3464 -3462 3465 0
-3464 3462 3465 0
-3464 -3462 3466 0
3464 -3466 0
3462 -3466 0
-3323 -3463 3467 0
3323 -3467 0
3463 -3467 0
3466 3467 -3468 0
-3466 3468 0
-3467 3468 0
-18 -3453 3469 0
18 -3469 0
3453 -3469 0
-3329 -3469 -3470 0
3329 3469 -3470 0
3329 -3469 3470 0
-3329 3469 3470 0
-3470 -3468 -3471 0
3470 3468 -3471 0
3470 -3468 3471 0
-3470 3468 3471 0
-3470 -3468 3472 0
3470 -3472 0
3468 -3472 0
-3329 -3469 3473 0
3329 -3473 0
3469 -3473 0
3472 3473 -3474 0
-3472 3474 0
-3473 3474 0
-26 -3453 3475 0
26 -3475 0
3453 -3475 0
-3335 -3475 -3476 0
3335 3475 -3476 0
3335 -3475 3476 0
-3335 3475 3476 0
-3476 -3474 -3477 0
3476 3474 -3477 0
3476 -3474 3477 0
-3476 3474 3477 0
-3476 -3474 3478 0
3476 -3478 0
3474 -3478 0
-3335 -3475 3479 0
3335 -3479 0
3475 -3479 0
3478 3479 -3480 0
-3478 3480 0
-3479 3480 0
-34 -3453 3481 0
34 -3481 0
3453 -3481 0
-3341 -3481 -3482 0
3341 3481 -3482 0
3341 -3481 3482 0
-3341 3481 3482 0
-3482 -3480 -3483 0
3482 3480 -3483 0
3482 -3480 3483 0
-3482 3480 3483 0
-3482 -3480 3484 0
3482 -3484 0
3480 -3484 0
-3341 -3481 3485 0
3341 -3485 0
3481 -3485 0
3484 3485 -3486 0
-3484 3486 0
-3485 3486 0
-42 -3453 3487 0
42 -3487 0
3453 -3487 0
-3347 -3487 -3488 0
3347 3487 -3488 0
3347 -3487 3488 0
-3347 3487 3488 0
-3488 -3486 -3489 0
3488 3486 -3489 0
3488 -3486 3489 0
-3488 3486 3489 0
-3488 -3486 3490 0
3488 -3490 0
3486 -3490 0
-3347 -3487 3491 0
3347 -3491 0
3487 -3491 0
3490 3491 -3492 0
-3490 3492 0
-3491 3492 0
-50 -3453 3493 0
50 -3493 0
3453 -3493 0
-3353 -3493 -3494 0
3353 3493 -3494 0
3353 -3493 3494 0
-3353 3493 3494 0
-3494 -3492 -3495 0
3494 3492 -3495 0
3494 -3492 3495 0
-3494 3492 3495 0
-3494 -3492 3496 0
3494 -3496 0
3492 -3496 0
-3353 -3493 3497 0
3353 -3497 0
3493 -3497 0
3496 3497 -3498 0
-3496 3498 0
-3497 3498 0
-58 -3453 3499 0
58 -3499 0
3453 -3499 0
-3359 -3499 -3500 0
3359 3499 -3500 0
3359 -3499 3500 0
-3359 3499 3500 0
-3500 -3498 -3501 0
3500 3498 -3501 0
3500 -3498 3501 0
-3500 3498 3501 0
-3500 -3498 3502 0
3500 -3502 0
3498 -3502 0
-3359 -3499 3503 0
3359 -3503 0
3499 -3503 0
3502 3503 -3504 0
-3502 3504 0
-3503 3504 0
-66 -3453 3505 0
66 -3505 0
3453 -3505 0
-3365 -3505 -3506 0
3365 3505 -3506 0
3365 -3505 3506 0
-3365 3505 3506 0
-3506 -3504 -3507 0
3506 3504 -3507 0
3506 -3504 3507 0
-3506 3504 3507 0
-3506 -3504 3508 0
3506 -3508 0
3504 -3508 0
-3365 -3505 3509 0
3365 -3509 0
3505 -3509 0
3508 3509 -3510 0
-3508 3510 0
-3509 3510 0
-74 -3453 3511 0
74 -3511 0
3453 -3511 0
-3371 -3511 -3512 0
3371 3511 -3512 0
3371 -3511 3512 0
-3371 3511 3512 0
-3512 -3510 -3513 0
3512 3510 -3513 0
3512 -3510 3513 0
-3512 3510 3513 0
-3512 -3510 3514 0
3512 -3514 0
3510 -3514 0
-3371 -3511 3515 0
3371 -3515 0
3511 -3515 0
3514 3515 -3516 0
-3514 3516 0
-3515 3516 0
-82 -3453 3517 0
82 -3517 0
3453 -3517 0
-3377 -3517 -3518 0
3377 3517 -3518 0
3377 -3517 3518 0
-3377 3517 3518 0
-3518 -3516 -3519 0
3518 3516 -3519 0
3518 -3516 3519 0
-3518 3516 3519 0
-3518 -3516 3520 0
3518 -3520 0
3516 -3520 0
-3377 -3517 3521 0
3377 -3521 0
3517 -3521 0
3520 3521 -3522 0
-3520 3522 0
-3521 3522 0
-90 -3453 3523 0
90 -3523 0
3453 -3523 0
-3383 -3523 -3524 0
3383 3523 -3524 0
3383 -3523 3524 0
-3383 3523 3524 0
-3524 -3522 -3525 0
3524 3522 -3525 0
3524 -3522 3525 0
-3524 3522 3525 0
-3524 -3522 3526 0
3524 -3526 0
3522 -3526 0
-3383 -3523 3527 0
3383 -3527 0
3523 -3527 0
3526 3527 -3528 0
-3526 3528 0
-3527 3528 0
-98 -3453 3529 0
98 -3529 0
3453 -3529 0
-3389 -3529 -3530 0
3389 3529 -3530 0
3389 -3529 3530 0
-3389 3529 3530 0
-3530 -3528 -3531 0
3530 3528 -3531 0
3530 -3528 3531 0
-3530 3528 3531 0
-3530 -3528 3532 0
3530 -3532 0
3528 -3532 0
-3389 -3529 3533 0
3389 -3533 0
3529 -3533 0
3532 3533 -3534 0
-3532 3534 0
-3533 3534 0
-106 -3453 3535 0
106 -3535 0
3453 -3535 0
-3395 -3535 -3536 0
3395 3535 -3536 0
3395 -3535 3536 0
-3395 3535 3536 0
-3536 -3534 -3537 0
3536 3534 -3537 0
3536 -3534 3537 0
-3536 3534 3537 0
-3536 -3534 3538 0
3536 -3538 0
3534 -3538 0
-3395 -3535 3539 0
3395 -3539 0
3535 -3539 0
3538 3539 -3540 0
-3538 3540 0
-3539 3540 0
-114 -3453 3541 0
114 -3541 0
3453 -3541 0
-3401 -3541 -3542 0
3401 3541 -3542 0
3401 -3541 3542 0
-3401 3541 3542 0
-3542 -3540 -3543 0
3542 3540 -3543 0
3542 -3540 3543 0
-3542 3540 3543 0
-3542 -3540 3544 0
3542 -3544 0
3540 -3544 0
-3401 -3541 3545 0
3401 -3545 0
3541 -3545 0
3544 3545 -3546 0
-3544 3546 0
-3545 3546 0
-122 -3453 3547 0
122 -3547 0
3453 -3547 0
-3407 -3547 -3548 0
3407 3547 -3548 0
3407 -3547 3548 0
-3407 3547 3548 0
-3548 -3546 -3549 0
3548 3546 -3549 0
3548 -3546 3549 0
-3548 3546 3549 0
-3548 -3546 3550 0
3548 -3550 0
3546 -3550 0
-3407 -3547 3551 0
3407 -3551 0
3547 -3551 0
3550 3551 -3552 0
-3550 3552 0
-3551 3552 0
-130 -3453 3553 0
130 -3553 0
3453 -3553 0
-3413 -3553 -3554 0
3413 3553 -3554 0
3413 -3553 3554 0
-3413 3553 3554 0
-3554 -3552 -3555 0
3554 3552 -3555 0
3554 -3552 3555 0
-3554 3552 3555 0
-3554 -3552 3556 0
3554 -3556 0
3552 -3556 0
-3413 -3553 3557 0
3413 -3557 0
3553 -3557 0
3556 3557 -3558 0
-3556 3558 0
-3557 3558 0
-138 -3453 3559 0
138 -3559 0
3453 -3559 0
-3419 -3559 -3560 0
3419 3559 -3560 0
3419 -3559 3560 0
-3419 3559 3560 0
-3560 -3558 -3561 0
3560 3558 -3561 0
3560 -3558 3561 0
-3560 3558 3561 0
-3560 -3558 3562 0
3560 -3562 0
3558 -3562 0
-3419 -3559 3563 0
3419 -3563 0
3559 -3563 0
3562 3563 -3564 0
-3562 3564 0
-3563 3564 0
-146 -3453 3565 0
146 -3565 0
3453 -3565 0
-3425 -3565 -3566 0
3425 3565 -3566 0
3425 -3565 3566 0
-3425 3565 3566 0
-3566 -3564 -3567 0
3566 3564 -3567 0
3566 -3564 3567 0
-3566 3564 3567 0
-3566 -3564 3568 0
3566 -3568 0
3564 -3568 0
-3425 -3565 3569 0
3425 -3569 0
3565 -3569 0
3568 3569 -3570 0
-3568 3570 0
-3569 3570 0
-154 -3453 3571 0
154 -3571 0
3453 -3571 0
-3431 -3571 -3572 0
3431 3571 -3572 0
3431 -3571 3572 0
-3431 3571 3572 0
-3572 -3570 -3573 0
3572 3570 -3573 0
3572 -3570 3573 0
-3572 3570 3573 0
-3572 -3570 3574 0
3572 -3574 0
3570 -3574 0
-3431 -3571 3575 0
3431 -3575 0
3571 -3575 0
3574 3575 -3576 0
-3574 3576 0
-3575 3576 0
-162 -3453 3577 0
162 -3577 0
3453 -3577 0
-3437 -3577 -3578 0
3437 3577 -3578 0
3437 -3577 3578 0
-3437 3577 3578 0
-3578 -3576 -3579 0
3578 3576 -3579 0
3578 -3576 3579 0
-3578 3576 3579 0
-3578 -3576 3580 0
3578 -3580 0
3576 -3580 0
-3437 -3577 3581 0
3437 -3581 0
3577 -3581 0
3580 3581 -3582 0
-3580 3582 0
-3581 3582 0
-170 -3453 3583 0
170 -3583 0
3453 -3583 0
-3443 -3583 -3584 0
3443 3583 -3584 0
3443 -3583 3584 0
-3443 3583 3584 0
-3584 -3582 -3585 0
3584 3582 -3585 0
3584 -3582 3585 0
-3584 3582 3585 0
-3584 -3582 3586 0
3584 -3586 0
3582 -3586 0
-3443 -3583 3587 0
3443 -3587 0
3583 -3587 0
3586 3587 -3588 0
-3586 3588 0
-3587 3588 0
-178 -3453 3589 0
178 -3589 0
3453 -3589 0
-3449 -3589 -3590 0
3449 3589 -3590 0
3449 -3589 3590 0
-3449 3589 3590 0
-3590 -3588 -3591 0
3590 3588 -3591 0
3590 -3588 3591 0
-3590 3588 3591 0
-3590 -3588 3592 0
3590 -3592 0
3588 -3592 0
-3449 -3589 3593 0
3449 -3593 0
3589 -3593 0
3592 3593 -3594 0
-3592 3594 0
-3593 3594 0
-186 -3453 3595 0
186 -3595 0
3453 -3595 0
-3452 -3595 -3596 0
3452 3595 -3596 0
3452 -3595 3596 0
-3452 3595 3596 0
-3596 -3594 -3597 0
3596 3594 -3597 0
3596 -3594 3597 0
-3596 3594 3597 0
-3596 -3594 3598 0
3596 -3598 0
3594 -3598 0
-3452 -3595 3599 0
3452 -3599 0
3595 -3599 0
3598 3599 -3600 0
-3598 3600 0
-3599 3600 0
3 0
8 0
-199 0
-347 0
-495 0
-643 0
791 0
-939 0
-1087 0
-1235 0
1383 0
1531 0
-1679 0
-1827 0
-1975 0
-2123 0
-2271 0
-2419 0
-2567 0
-2715 0
-2863 0
-3011 0
-3159 0
-3307 0
-3455 0
-3459 0
3465 0
-3471 0
3477 0
3483 0
3489 0
-3495 0
-3501 0
-3507 0
-3513 0
-3519 0
-3525 0
-3531 0
-3537 0
-3543 0
-3549 0
-3555 0
-3561 0
-3567 0
-3573 0
-3579 0
-3585 0
-3591 0
3597 0
-3600 0
