p cnf 72 220
-1 -2 3 0
1 -3 0
2 -3 0
-4 -2 5 0
4 -5 0
2 -5 0
-1 -6 7 0
1 -7 0
6 -7 0
-5 -7 -8 0
5 7 -8 0
5 -7 8 0
-5 7 8 0
-5 -7 9 0
5 -9 0
7 -9 0
-10 -2 11 0
10 -11 0
2 -11 0
-4 -6 12 0
4 -12 0
6 -12 0
-11 -12 -13 0
11 12 -13 0
11 -12 13 0
-11 12 13 0
-13 -9 -14 0
13 9 -14 0
13 -9 14 0
-13 9 14 0
-13 -9 15 0
13 -15 0
9 -15 0
-11 -12 16 0
11 -16 0
12 -16 0
15 16 -17 0
-15 17 0
-16 17 0
-18 -2 19 0
18 -19 0
2 -19 0
-10 -6 20 0
10 -20 0
6 -20 0
-19 -20 -21 0
19 20 -21 0
19 -20 21 0
-19 20 21 0
-21 -17 -22 0
21 17 -22 0
21 -17 22 0
-21 17 22 0
-21 -17 23 0
21 -23 0
17 -23 0
-19 -20 24 0
19 -24 0
20 -24 0
23 24 -25 0
-23 25 0
-24 25 0
-18 -6 26 0
18 -26 0
6 -26 0
-25 -26 -27 0
25 26 -27 0
25 -26 27 0
-25 26 27 0
-25 -26 28 0
25 -28 0
26 -28 0
-1 -29 30 0
1 -30 0
29 -30 0
-14 -30 -31 0
14 30 -31 0
14 -30 31 0
-14 30 31 0
-14 -30 32 0
14 -32 0
30 -32 0
-4 -29 33 0
4 -33 0
29 -33 0
-22 -33 -34 0
22 33 -34 0
22 -33 34 0
-22 33 34 0
-34 -32 -35 0
34 32 -35 0
34 -32 35 0
-34 32 35 0
-34 -32 36 0
34 -36 0
32 -36 0
-22 -33 37 0
22 -37 0
33 -37 0
36 37 -38 0
-36 38 0
-37 38 0
-10 -29 39 0
10 -39 0
29 -39 0
-27 -39 -40 0
27 39 -40 0
27 -39 40 0
-27 39 40 0
-40 -38 -41 0
40 38 -41 0
40 -38 41 0
-40 38 41 0
-40 -38 42 0
40 -42 0
38 -42 0
-27 -39 43 0
27 -43 0
39 -43 0
42 43 -44 0
-42 44 0
-43 44 0
-18 -29 45 0
18 -45 0
29 -45 0
-28 -45 -46 0
28 45 -46 0
28 -45 46 0
-28 45 46 0
-46 -44 -47 0
46 44 -47 0
46 -44 47 0
-46 44 47 0
-46 -44 48 0
46 -48 0
44 -48 0
-28 -45 49 0
28 -49 0
45 -49 0
48 49 -50 0
-48 50 0
-49 50 0
-1 -51 52 0
1 -52 0
51 -52 0
-35 -52 -53 0
35 52 -53 0
35 -52 53 0
-35 52 53 0
-35 -52 54 0
35 -54 0
52 -54 0
-4 -51 55 0
4 -55 0
51 -55 0
-41 -55 -56 0
41 55 -56 0
41 -55 56 0
-41 55 56 0
-56 -54 -57 0
56 54 -57 0
56 -54 57 0
-56 54 57 0
-56 -54 58 0
56 -58 0
54 -58 0
-41 -55 59 0
41 -59 0
55 -59 0
58 59 -60 0
-58 60 0
-59 60 0
-10 -51 61 0
10 -61 0
51 -61 0
-47 -61 -62 0
47 61 -62 0
47 -61 62 0
-47 61 62 0
-62 -60 -63 0
62 60 -63 0
62 -60 63 0
-62 60 63 0
-62 -60 64 0
62 -64 0
60 -64 0
-47 -61 65 0
47 -65 0
61 -65 0
64 65 -66 0
-64 66 0
-65 66 0
-18 -51 67 0
18 -67 0
51 -67 0
-50 -67 -68 0
50 67 -68 0
50 -67 68 0
-50 67 68 0
-68 -66 -69 0
68 66 -69 0
68 -66 69 0
-68 66 69 0
-68 -66 70 0
68 -70 0
66 -70 0
-50 -67 71 0
50 -71 0
67 -71 0
70 71 -72 0
-70 72 0
-71 72 0
3 0
8 0
31 0
53 0
-57 0
-63 0
-69 0
72 0
