p cnf 540 1750
-1 3 -2 0
-3 1 0
2 -3 0
-4 5 -2 0
4 -5 0
2 -5 0
-1 -6 7 0
1 -7 0
6 -7 0
-8 -5 -7 0
5 -8 7 0
8 5 -7 0
8 -5 7 0
9 -5 -7 0
5 -9 0
-9 7 0
11 -2 -10 0
10 -11 0
2 -11 0
-4 12 -6 0
4 -12 0
6 -12 0
-13 -11 -12 0
11 -13 12 0
11 -12 13 0
13 -11 12 0
-9 -13 -14 0
9 13 -14 0
14 -9 13 0
9 14 -13 0
-9 -13 15 0
-15 13 0
9 -15 0
-11 -12 16 0
11 -16 0
-16 12 0
-17 15 16 0
-15 17 0
-16 17 0
-2 -18 19 0
18 -19 0
2 -19 0
-6 20 -10 0
10 -20 0
6 -20 0
-21 -19 -20 0
-21 20 19 0
-20 19 21 0
-19 20 21 0
-17 -21 -22 0
-22 21 17 0
-17 22 21 0
-21 22 17 0
-17 -21 23 0
-23 21 0
-23 17 0
-19 -20 24 0
-24 19 0
-24 20 0
23 24 -25 0
-23 25 0
25 -24 0
27 -2 -26 0
-27 26 0
2 -27 0
-6 -18 28 0
18 -28 0
-28 6 0
-27 -28 -29 0
27 -29 28 0
-28 27 29 0
-27 29 28 0
-30 -25 -29 0
25 29 -30 0
29 30 -25 0
25 30 -29 0
31 -25 -29 0
-31 29 0
25 -31 0
32 -27 -28 0
27 -32 0
-32 28 0
32 31 -33 0
-31 33 0
33 -32 0
35 -34 -2 0
-35 34 0
2 -35 0
-6 36 -26 0
-36 26 0
-36 6 0
-37 -36 -35 0
-37 35 36 0
-36 35 37 0
-35 36 37 0
-37 -33 -38 0
33 -38 37 0
-33 37 38 0
-37 33 38 0
39 -37 -33 0
-39 37 0
-39 33 0
40 -36 -35 0
35 -40 0
36 -40 0
39 -41 40 0
-39 41 0
41 -40 0
43 -42 -2 0
-43 42 0
2 -43 0
-6 -34 44 0
-44 34 0
-44 6 0
-44 -43 -45 0
43 -45 44 0
-44 45 43 0
45 -43 44 0
-46 -41 -45 0
-46 45 41 0
45 -41 46 0
46 41 -45 0
-41 47 -45 0
45 -47 0
-47 41 0
-44 -43 48 0
43 -48 0
-48 44 0
48 -49 47 0
-47 49 0
49 -48 0
-2 51 -50 0
50 -51 0
2 -51 0
-6 -42 52 0
-52 42 0
-52 6 0
-52 -51 -53 0
52 51 -53 0
53 -52 51 0
53 52 -51 0
-49 -54 -53 0
53 49 -54 0
53 -49 54 0
54 49 -53 0
-49 55 -53 0
53 -55 0
49 -55 0
-52 56 -51 0
-56 51 0
-56 52 0
56 -57 55 0
57 -55 0
57 -56 0
-58 -2 59 0
-59 58 0
2 -59 0
-6 60 -50 0
50 -60 0
-60 6 0
-60 -61 -59 0
-61 60 59 0
-60 61 59 0
61 60 -59 0
-62 -61 -57 0
61 57 -62 0
61 62 -57 0
62 57 -61 0
63 -61 -57 0
61 -63 0
57 -63 0
-60 64 -59 0
-64 59 0
-64 60 0
63 64 -65 0
65 -63 0
65 -64 0
67 -66 -2 0
66 -67 0
2 -67 0
-6 -58 68 0
-68 58 0
-68 6 0
-68 -69 -67 0
67 68 -69 0
67 69 -68 0
68 69 -67 0
-70 -65 -69 0
-70 65 69 0
70 -65 69 0
65 70 -69 0
-65 71 -69 0
-71 69 0
65 -71 0
-68 72 -67 0
67 -72 0
68 -72 0
-73 71 72 0
73 -71 0
73 -72 0
-6 74 -66 0
66 -74 0
-74 6 0
-73 -74 -75 0
73 74 -75 0
75 73 -74 0
75 -73 74 0
-73 -74 76 0
73 -76 0
74 -76 0
-1 -77 78 0
-78 1 0
-78 77 0
-79 -78 -14 0
78 14 -79 0
79 -78 14 0
78 79 -14 0
-78 80 -14 0
-80 14 0
78 -80 0
-4 81 -77 0
4 -81 0
77 -81 0
-81 -22 -82 0
81 22 -82 0
-81 22 82 0
81 -22 82 0
-80 -83 -82 0
80 -83 82 0
-80 82 83 0
80 -82 83 0
-80 84 -82 0
-84 82 0
-84 80 0
-81 -22 85 0
-85 22 0
-85 81 0
-86 84 85 0
-84 86 0
-85 86 0
87 -77 -10 0
10 -87 0
77 -87 0
-30 -87 -88 0
87 30 -88 0
-87 30 88 0
-30 87 88 0
-86 -88 -89 0
86 -89 88 0
89 -86 88 0
86 89 -88 0
-86 90 -88 0
88 -90 0
86 -90 0
-30 91 -87 0
-91 30 0
87 -91 0
91 -92 90 0
92 -90 0
92 -91 0
93 -77 -18 0
18 -93 0
77 -93 0
-38 -93 -94 0
93 -94 38 0
94 -93 38 0
93 -38 94 0
-95 -92 -94 0
-95 92 94 0
-92 94 95 0
92 95 -94 0
96 -92 -94 0
-96 94 0
92 -96 0
97 -38 -93 0
-97 38 0
93 -97 0
-98 96 97 0
98 -96 0
98 -97 0
-77 99 -26 0
26 -99 0
77 -99 0
-46 -100 -99 0
-100 46 99 0
-99 46 100 0
-46 100 99 0
-98 -100 -101 0
100 98 -101 0
100 101 -98 0
101 -100 98 0
-98 -100 102 0
100 -102 0
-102 98 0
-46 103 -99 0
-103 46 0
-103 99 0
-104 103 102 0
-102 104 0
-103 104 0
105 -77 -34 0
34 -105 0
77 -105 0
-106 -54 -105 0
-106 105 54 0
106 -105 54 0
105 106 -54 0
-106 -107 -104 0
106 -107 104 0
107 106 -104 0
-106 104 107 0
-106 -104 108 0
-108 106 0
-108 104 0
109 -54 -105 0
-109 54 0
105 -109 0
109 -110 108 0
-108 110 0
110 -109 0
111 -77 -42 0
-111 42 0
77 -111 0
-111 -112 -62 0
111 -112 62 0
-111 62 112 0
111 -62 112 0
-113 -112 -110 0
110 -113 112 0
113 -110 112 0
110 -112 113 0
114 -112 -110 0
-114 112 0
-114 110 0
115 -111 -62 0
62 -115 0
111 -115 0
115 114 -116 0
-114 116 0
-115 116 0
-77 117 -50 0
50 -117 0
77 -117 0
-70 -118 -117 0
70 117 -118 0
70 118 -117 0
-70 117 118 0
-119 -118 -116 0
-119 118 116 0
119 118 -116 0
119 -118 116 0
120 -118 -116 0
-120 118 0
-120 116 0
-70 121 -117 0
-121 70 0
-121 117 0
-122 121 120 0
-120 122 0
122 -121 0
123 -58 -77 0
-123 58 0
77 -123 0
-75 -124 -123 0
123 75 -124 0
75 124 -123 0
-75 123 124 0
-125 -122 -124 0
-125 122 124 0
125 -122 124 0
125 122 -124 0
-122 -124 126 0
124 -126 0
122 -126 0
-75 127 -123 0
-127 75 0
-127 123 0
127 -128 126 0
128 -126 0
-127 128 0
129 -77 -66 0
66 -129 0
77 -129 0
-130 -129 -76 0
129 -130 76 0
130 -129 76 0
129 130 -76 0
-130 -131 -128 0
-131 130 128 0
130 131 -128 0
-130 131 128 0
-130 132 -128 0
130 -132 0
-132 128 0
-129 -76 133 0
76 -133 0
129 -133 0
132 133 -134 0
134 -132 0
134 -133 0
-1 -135 136 0
-136 1 0
-136 135 0
-136 -137 -83 0
136 -137 83 0
-136 137 83 0
136 137 -83 0
-136 138 -83 0
-138 83 0
136 -138 0
-4 -135 139 0
-139 4 0
-139 135 0
-89 -139 -140 0
89 139 -140 0
89 -139 140 0
-89 140 139 0
-138 -141 -140 0
138 140 -141 0
-138 140 141 0
138 141 -140 0
-138 142 -140 0
-142 140 0
-142 138 0
-89 -139 143 0
89 -143 0
-143 139 0
143 142 -144 0
-142 144 0
144 -143 0
-135 145 -10 0
-145 10 0
-145 135 0
-95 -145 -146 0
-146 145 95 0
-145 146 95 0
-95 146 145 0
-144 -147 -146 0
144 -147 146 0
147 146 -144 0
144 147 -146 0
-144 148 -146 0
-148 146 0
144 -148 0
-95 -145 149 0
-149 95 0
-149 145 0
-150 148 149 0
150 -148 0
150 -149 0
151 -135 -18 0
18 -151 0
135 -151 0
-151 -152 -101 0
151 101 -152 0
-151 101 152 0
151 152 -101 0
-150 -153 -152 0
150 -153 152 0
153 -150 152 0
150 153 -152 0
154 -150 -152 0
-154 152 0
150 -154 0
-151 155 -101 0
-155 101 0
151 -155 0
154 -156 155 0
156 -154 0
156 -155 0
-135 157 -26 0
26 -157 0
135 -157 0
-158 -107 -157 0
107 -158 157 0
107 158 -157 0
-107 158 157 0
-159 -158 -156 0
-159 156 158 0
159 -156 158 0
159 -158 156 0
-158 -156 160 0
-160 158 0
-160 156 0
161 -107 -157 0
107 -161 0
-161 157 0
161 160 -162 0
-160 162 0
162 -161 0
163 -135 -34 0
34 -163 0
135 -163 0
-113 -164 -163 0
163 -164 113 0
164 113 -163 0
163 -113 164 0
-164 -165 -162 0
162 164 -165 0
165 164 -162 0
162 -164 165 0
166 -164 -162 0
-166 164 0
162 -166 0
167 -113 -163 0
113 -167 0
163 -167 0
166 167 -168 0
-166 168 0
-167 168 0
169 -135 -42 0
-169 42 0
135 -169 0
-170 -119 -169 0
169 -170 119 0
170 119 -169 0
169 170 -119 0
-170 -171 -168 0
170 -171 168 0
170 171 -168 0
-170 171 168 0
172 -170 -168 0
170 -172 0
-172 168 0
173 -119 -169 0
119 -173 0
169 -173 0
172 173 -174 0
174 -172 0
174 -173 0
-135 175 -50 0
50 -175 0
-175 135 0
-125 -175 -176 0
125 175 -176 0
125 -175 176 0
-125 176 175 0
-174 -177 -176 0
176 174 -177 0
176 -174 177 0
177 174 -176 0
-174 178 -176 0
176 -178 0
-178 174 0
-125 -175 179 0
125 -179 0
-179 175 0
179 178 -180 0
-178 180 0
-179 180 0
181 -58 -135 0
-181 58 0
-181 135 0
-181 -131 -182 0
181 131 -182 0
-181 131 182 0
181 -131 182 0
-180 -183 -182 0
180 182 -183 0
-180 183 182 0
183 180 -182 0
-180 184 -182 0
-184 182 0
-184 180 0
-181 -131 185 0
-185 131 0
181 -185 0
185 -186 184 0
-184 186 0
-185 186 0
-135 -66 187 0
66 -187 0
-187 135 0
-187 -134 -188 0
134 -188 187 0
-187 134 188 0
-134 188 187 0
-186 -188 -189 0
-189 188 186 0
-186 188 189 0
-188 186 189 0
190 -186 -188 0
188 -190 0
186 -190 0
-187 -134 191 0
-191 134 0
-191 187 0
-192 190 191 0
192 -190 0
192 -191 0
-1 194 -193 0
-194 1 0
193 -194 0
-195 -194 -141 0
-195 141 194 0
195 141 -194 0
195 194 -141 0
-194 -141 196 0
141 -196 0
194 -196 0
197 -4 -193 0
-197 4 0
-197 193 0
-197 -147 -198 0
197 147 -198 0
147 -197 198 0
197 -147 198 0
-199 -198 -196 0
-199 198 196 0
199 198 -196 0
-198 199 196 0
200 -198 -196 0
-200 198 0
-200 196 0
-197 -147 201 0
147 -201 0
197 -201 0
200 201 -202 0
202 -200 0
202 -201 0
-193 203 -10 0
10 -203 0
193 -203 0
-204 -153 -203 0
153 -204 203 0
153 204 -203 0
203 -153 204 0
-205 -204 -202 0
202 204 -205 0
-202 205 204 0
202 -204 205 0
206 -204 -202 0
-206 204 0
202 -206 0
207 -153 -203 0
153 -207 0
203 -207 0
206 -208 207 0
208 -206 0
208 -207 0
-193 -18 209 0
18 -209 0
193 -209 0
-159 -209 -210 0
159 -210 209 0
159 -209 210 0
-159 210 209 0
-211 -208 -210 0
208 -211 210 0
211 -208 210 0
208 211 -210 0
212 -208 -210 0
-212 210 0
208 -212 0
-159 -209 213 0
159 -213 0
-213 209 0
-214 212 213 0
-212 214 0
214 -213 0
215 -193 -26 0
-215 26 0
193 -215 0
-216 -215 -165 0
165 -216 215 0
165 -215 216 0
215 -165 216 0
-216 -217 -214 0
214 -217 216 0
-214 217 216 0
-216 217 214 0
-216 218 -214 0
-218 216 0
-218 214 0
-215 219 -165 0
165 -219 0
-219 215 0
219 218 -220 0
-218 220 0
-219 220 0
221 -34 -193 0
-221 34 0
-221 193 0
-221 -171 -222 0
221 -222 171 0
-221 171 222 0
221 -171 222 0
-222 -223 -220 0
-223 220 222 0
223 -220 222 0
-222 223 220 0
224 -222 -220 0
-224 222 0
-224 220 0
225 -221 -171 0
-225 171 0
-225 221 0
225 224 -226 0
-224 226 0
-225 226 0
227 -42 -193 0
-227 42 0
-227 193 0
-227 -177 -228 0
177 -228 227 0
177 -227 228 0
227 -177 228 0
-228 -226 -229 0
228 226 -229 0
-226 229 228 0
-228 229 226 0
230 -228 -226 0
228 -230 0
226 -230 0
231 -227 -177 0
177 -231 0
227 -231 0
230 -232 231 0
-230 232 0
-231 232 0
-193 -50 233 0
50 -233 0
193 -233 0
-234 -233 -183 0
-234 183 233 0
183 234 -233 0
234 -183 233 0
-235 -232 -234 0
-235 234 232 0
-232 235 234 0
-234 235 232 0
-232 -234 236 0
-236 234 0
-236 232 0
237 -233 -183 0
183 -237 0
-237 233 0
237 236 -238 0
-236 238 0
238 -237 0
-58 239 -193 0
-239 58 0
-239 193 0
-239 -240 -189 0
-240 239 189 0
-239 240 189 0
-189 240 239 0
-240 -238 -241 0
240 238 -241 0
241 240 -238 0
241 -240 238 0
-240 242 -238 0
-242 240 0
-242 238 0
-239 -189 243 0
-243 189 0
239 -243 0
242 -244 243 0
-242 244 0
-243 244 0
245 -66 -193 0
66 -245 0
-245 193 0
-245 -192 -246 0
-246 192 245 0
-245 192 246 0
-192 246 245 0
-246 -244 -247 0
246 -247 244 0
247 246 -244 0
247 -246 244 0
-246 -244 248 0
246 -248 0
-248 244 0
-245 -192 249 0
192 -249 0
-249 245 0
249 248 -250 0
-248 250 0
-249 250 0
-1 -251 252 0
-252 1 0
251 -252 0
-199 -253 -252 0
199 -253 252 0
199 253 -252 0
-199 253 252 0
-199 254 -252 0
199 -254 0
-254 252 0
255 -4 -251 0
-255 4 0
-255 251 0
-205 -256 -255 0
255 -256 205 0
-255 205 256 0
-205 255 256 0
-256 -254 -257 0
-257 254 256 0
257 -254 256 0
-256 254 257 0
-256 258 -254 0
-258 256 0
-258 254 0
-205 -255 259 0
-259 205 0
255 -259 0
258 259 -260 0
-258 260 0
-259 260 0
261 -251 -10 0
10 -261 0
-261 251 0
-211 -261 -262 0
261 -262 211 0
-261 211 262 0
261 -211 262 0
-262 -263 -260 0
260 -263 262 0
263 262 -260 0
263 -262 260 0
-262 264 -260 0
-264 262 0
-264 260 0
-211 -261 265 0
-265 211 0
261 -265 0
-266 265 264 0
266 -264 0
266 -265 0
267 -251 -18 0
18 -267 0
251 -267 0
-267 -268 -217 0
217 267 -268 0
268 217 -267 0
268 267 -217 0
-266 -269 -268 0
268 -269 266 0
268 -266 269 0
266 269 -268 0
-266 270 -268 0
268 -270 0
266 -270 0
-267 271 -217 0
217 -271 0
-271 267 0
271 -272 270 0
272 -270 0
272 -271 0
-251 273 -26 0
26 -273 0
251 -273 0
-274 -223 -273 0
223 -274 273 0
223 274 -273 0
-223 273 274 0
-275 -272 -274 0
272 -275 274 0
-272 274 275 0
272 -274 275 0
-272 -274 276 0
-276 274 0
272 -276 0
-223 -273 277 0
223 -277 0
273 -277 0
-278 277 276 0
-276 278 0
278 -277 0
-251 -34 279 0
-279 34 0
-279 251 0
-280 -279 -229 0
229 279 -280 0
229 -279 280 0
280 279 -229 0
-278 -280 -281 0
280 278 -281 0
-278 280 281 0
281 278 -280 0
282 -278 -280 0
280 -282 0
-282 278 0
-279 -229 283 0
229 -283 0
-283 279 0
282 -284 283 0
-282 284 0
-283 284 0
-251 -42 285 0
-285 42 0
-285 251 0
-286 -235 -285 0
-286 235 285 0
-285 235 286 0
-235 286 285 0
-286 -284 -287 0
-287 286 284 0
-284 286 287 0
-286 284 287 0
-286 -284 288 0
-288 286 0
-288 284 0
-235 -285 289 0
235 -289 0
-289 285 0
289 -290 288 0
-288 290 0
-289 290 0
291 -251 -50 0
50 -291 0
251 -291 0
-292 -241 -291 0
241 -292 291 0
241 292 -291 0
292 291 -241 0
-293 -292 -290 0
-293 292 290 0
292 -290 293 0
293 -292 290 0
294 -292 -290 0
292 -294 0
-294 290 0
295 -241 -291 0
241 -295 0
-295 291 0
294 295 -296 0
-294 296 0
-295 296 0
-58 -251 297 0
-297 58 0
251 -297 0
-298 -247 -297 0
247 297 -298 0
247 298 -297 0
297 -247 298 0
-299 -296 -298 0
-299 298 296 0
299 -296 298 0
299 -298 296 0
-296 -298 300 0
-300 298 0
-300 296 0
301 -247 -297 0
-301 247 0
-301 297 0
301 -302 300 0
-300 302 0
-301 302 0
-251 -66 303 0
66 -303 0
251 -303 0
-250 -304 -303 0
250 -304 303 0
304 250 -303 0
304 -250 303 0
-305 -302 -304 0
302 -305 304 0
304 -302 305 0
302 305 -304 0
306 -302 -304 0
-306 304 0
302 -306 0
307 -250 -303 0
-307 250 0
-307 303 0
-308 306 307 0
-306 308 0
-307 308 0
-1 -309 310 0
-310 1 0
-310 309 0
-257 -310 -311 0
310 257 -311 0
311 -310 257 0
-257 310 311 0
-257 -310 312 0
-312 257 0
310 -312 0
-4 313 -309 0
-313 4 0
-313 309 0
-313 -263 -314 0
263 313 -314 0
263 -313 314 0
313 -263 314 0
-312 -314 -315 0
314 -315 312 0
314 -312 315 0
315 -314 312 0
316 -312 -314 0
314 -316 0
-316 312 0
-313 -263 317 0
263 -317 0
-317 313 0
316 -318 317 0
318 -316 0
-317 318 0
-309 319 -10 0
10 -319 0
309 -319 0
-320 -269 -319 0
-320 319 269 0
-319 320 269 0
320 -269 319 0
-321 -318 -320 0
318 320 -321 0
320 321 -318 0
318 321 -320 0
-318 322 -320 0
320 -322 0
318 -322 0
323 -269 -319 0
-323 269 0
-323 319 0
-324 322 323 0
324 -322 0
324 -323 0
-309 325 -18 0
18 -325 0
309 -325 0
-275 -326 -325 0
-326 325 275 0
326 275 -325 0
326 -275 325 0
-327 -324 -326 0
326 -327 324 0
326 -324 327 0
324 -326 327 0
328 -324 -326 0
326 -328 0
324 -328 0
-275 329 -325 0
-329 275 0
-329 325 0
329 -330 328 0
-328 330 0
-329 330 0
-309 331 -26 0
26 -331 0
309 -331 0
-332 -331 -281 0
281 -332 331 0
281 332 -331 0
332 331 -281 0
-333 -330 -332 0
332 -333 330 0
332 -330 333 0
333 -332 330 0
334 -330 -332 0
332 -334 0
330 -334 0
335 -331 -281 0
281 -335 0
-335 331 0
334 335 -336 0
336 -334 0
336 -335 0
-309 -34 337 0
-337 34 0
-337 309 0
-337 -338 -287 0
-338 337 287 0
-337 338 287 0
337 -287 338 0
-338 -339 -336 0
336 -339 338 0
339 -336 338 0
336 -338 339 0
-338 340 -336 0
-340 338 0
336 -340 0
341 -337 -287 0
-341 287 0
-341 337 0
341 340 -342 0
-340 342 0
-341 342 0
-309 -42 343 0
-343 42 0
309 -343 0
-293 -343 -344 0
343 -344 293 0
344 -343 293 0
-293 344 343 0
-345 -344 -342 0
344 -345 342 0
344 345 -342 0
345 -344 342 0
346 -344 -342 0
344 -346 0
-346 342 0
-293 347 -343 0
-347 293 0
-347 343 0
347 -348 346 0
-346 348 0
348 -347 0
349 -309 -50 0
50 -349 0
309 -349 0
-299 -349 -350 0
299 -350 349 0
350 299 -349 0
-299 349 350 0
-351 -348 -350 0
-351 348 350 0
351 -348 350 0
348 351 -350 0
352 -348 -350 0
350 -352 0
348 -352 0
353 -299 -349 0
299 -353 0
349 -353 0
353 352 -354 0
354 -352 0
354 -353 0
-58 -309 355 0
-355 58 0
309 -355 0
-356 -305 -355 0
-356 355 305 0
356 305 -355 0
-305 355 356 0
-356 -357 -354 0
-357 354 356 0
357 356 -354 0
-356 354 357 0
-356 358 -354 0
-358 356 0
354 -358 0
-305 359 -355 0
-359 305 0
355 -359 0
358 -360 359 0
-358 360 0
360 -359 0
361 -309 -66 0
66 -361 0
-361 309 0
-361 -308 -362 0
361 308 -362 0
362 -361 308 0
362 361 -308 0
-363 -360 -362 0
-363 362 360 0
363 362 -360 0
363 360 -362 0
364 -360 -362 0
-364 362 0
-364 360 0
-361 -308 365 0
308 -365 0
361 -365 0
-366 364 365 0
-364 366 0
-365 366 0
-1 -367 368 0
1 -368 0
367 -368 0
-369 -368 -315 0
368 -369 315 0
-368 315 369 0
368 369 -315 0
370 -368 -315 0
-370 315 0
368 -370 0
-4 -367 371 0
-371 4 0
-371 367 0
-371 -372 -321 0
321 -372 371 0
-371 321 372 0
372 -321 371 0
-373 -370 -372 0
372 -373 370 0
372 -370 373 0
373 -372 370 0
-370 -372 374 0
372 -374 0
-374 370 0
375 -371 -321 0
-375 321 0
-375 371 0
-376 375 374 0
376 -374 0
-375 376 0
377 -367 -10 0
-377 10 0
-377 367 0
-377 -327 -378 0
327 -378 377 0
327 -377 378 0
377 -327 378 0
-378 -379 -376 0
-379 376 378 0
-376 379 378 0
-378 376 379 0
-378 380 -376 0
-380 378 0
376 -380 0
-377 381 -327 0
327 -381 0
377 -381 0
381 380 -382 0
-380 382 0
-381 382 0
383 -367 -18 0
18 -383 0
367 -383 0
-333 -384 -383 0
383 333 -384 0
384 333 -383 0
-333 383 384 0
-385 -384 -382 0
-385 384 382 0
385 384 -382 0
-384 382 385 0
-384 386 -382 0
384 -386 0
-386 382 0
-333 387 -383 0
-387 333 0
-387 383 0
-388 386 387 0
388 -386 0
-387 388 0
389 -367 -26 0
-389 26 0
-389 367 0
-339 -389 -390 0
389 -390 339 0
-389 339 390 0
389 -339 390 0
-388 -391 -390 0
388 -391 390 0
-388 391 390 0
388 391 -390 0
-388 392 -390 0
-392 390 0
388 -392 0
-339 393 -389 0
-393 339 0
-393 389 0
-394 393 392 0
394 -392 0
-393 394 0
395 -34 -367 0
-395 34 0
-395 367 0
-345 -395 -396 0
345 395 -396 0
345 -395 396 0
-345 395 396 0
-394 -396 -397 0
394 396 -397 0
-394 396 397 0
394 -396 397 0
-394 -396 398 0
-398 396 0
394 -398 0
-345 -395 399 0
345 -399 0
-399 395 0
-400 399 398 0
-398 400 0
-399 400 0
-367 -42 401 0
-401 42 0
367 -401 0
-351 -401 -402 0
-402 351 401 0
351 -401 402 0
-351 402 401 0
-402 -400 -403 0
-403 402 400 0
-400 403 402 0
-402 403 400 0
-402 -400 404 0
-404 402 0
-404 400 0
-351 405 -401 0
351 -405 0
-405 401 0
405 404 -406 0
-404 406 0
406 -405 0
-367 407 -50 0
50 -407 0
-407 367 0
-357 -407 -408 0
357 -408 407 0
-407 357 408 0
-357 407 408 0
-409 -408 -406 0
-409 406 408 0
-406 409 408 0
406 409 -408 0
410 -408 -406 0
-410 408 0
406 -410 0
-357 411 -407 0
-411 357 0
-411 407 0
411 410 -412 0
412 -410 0
-411 412 0
-58 -367 413 0
-413 58 0
-413 367 0
-363 -413 -414 0
363 413 -414 0
363 414 -413 0
-363 414 413 0
-415 -412 -414 0
412 414 -415 0
415 414 -412 0
415 412 -414 0
416 -412 -414 0
414 -416 0
412 -416 0
-363 417 -413 0
363 -417 0
-417 413 0
417 -418 416 0
-416 418 0
-417 418 0
419 -66 -367 0
66 -419 0
-419 367 0
-366 -420 -419 0
-420 419 366 0
-419 420 366 0
-366 419 420 0
-421 -420 -418 0
-421 420 418 0
-418 420 421 0
-420 421 418 0
-420 -418 422 0
420 -422 0
418 -422 0
-366 -419 423 0
-423 366 0
419 -423 0
423 -424 422 0
424 -422 0
-423 424 0
-1 426 -425 0
-426 1 0
-426 425 0
-426 -373 -427 0
373 426 -427 0
373 427 -426 0
426 -373 427 0
-426 -373 428 0
373 -428 0
426 -428 0
-4 -425 429 0
4 -429 0
425 -429 0
-379 -430 -429 0
379 -430 429 0
379 -429 430 0
-379 430 429 0
-431 -430 -428 0
-431 430 428 0
431 430 -428 0
431 -430 428 0
-430 -428 432 0
-432 430 0
-432 428 0
-379 433 -429 0
-433 379 0
-433 429 0
433 -434 432 0
-432 434 0
-433 434 0
-425 435 -10 0
10 -435 0
-435 425 0
-385 -435 -436 0
435 -436 385 0
436 -435 385 0
-385 436 435 0
-437 -434 -436 0
-437 436 434 0
437 436 -434 0
437 434 -436 0
438 -434 -436 0
-438 436 0
-438 434 0
-385 439 -435 0
-439 385 0
-439 435 0
438 439 -440 0
-438 440 0
-439 440 0
-425 441 -18 0
18 -441 0
425 -441 0
-391 -441 -442 0
391 -442 441 0
442 391 -441 0
442 -391 441 0
-442 -440 -443 0
442 440 -443 0
442 443 -440 0
443 440 -442 0
-442 444 -440 0
442 -444 0
440 -444 0
445 -391 -441 0
391 -445 0
-445 441 0
445 -446 444 0
-444 446 0
-445 446 0
447 -425 -26 0
26 -447 0
425 -447 0
-448 -447 -397 0
447 -448 397 0
448 -447 397 0
447 448 -397 0
-449 -446 -448 0
-449 448 446 0
449 448 -446 0
449 -448 446 0
-446 450 -448 0
448 -450 0
-450 446 0
451 -447 -397 0
-451 397 0
447 -451 0
451 -452 450 0
452 -450 0
-451 452 0
-425 -34 453 0
34 -453 0
425 -453 0
-403 -453 -454 0
453 403 -454 0
403 -453 454 0
-403 453 454 0
-452 -455 -454 0
-455 452 454 0
-452 455 454 0
455 452 -454 0
-452 456 -454 0
-456 454 0
-456 452 0
-403 -453 457 0
-457 403 0
-457 453 0
-458 456 457 0
-456 458 0
-457 458 0
459 -425 -42 0
42 -459 0
425 -459 0
-409 -460 -459 0
409 459 -460 0
409 460 -459 0
-409 460 459 0
-458 -461 -460 0
458 460 -461 0
-458 460 461 0
458 461 -460 0
-458 462 -460 0
460 -462 0
458 -462 0
463 -409 -459 0
409 -463 0
459 -463 0
463 -464 462 0
464 -462 0
464 -463 0
-425 -50 465 0
50 -465 0
425 -465 0
-415 -466 -465 0
415 -466 465 0
415 -465 466 0
-415 466 465 0
-466 -467 -464 0
466 464 -467 0
466 -464 467 0
467 -466 464 0
468 -466 -464 0
466 -468 0
-468 464 0
-415 469 -465 0
415 -469 0
-469 465 0
468 469 -470 0
470 -468 0
470 -469 0
471 -58 -425 0
-471 58 0
-471 425 0
-421 -471 -472 0
471 421 -472 0
472 421 -471 0
-421 472 471 0
-473 -470 -472 0
470 472 -473 0
472 -470 473 0
470 473 -472 0
-470 474 -472 0
472 -474 0
470 -474 0
-421 475 -471 0
421 -475 0
471 -475 0
-476 475 474 0
476 -474 0
476 -475 0
477 -425 -66 0
66 -477 0
425 -477 0
-478 -424 -477 0
-478 477 424 0
478 424 -477 0
478 477 -424 0
-476 -478 -479 0
478 476 -479 0
478 -476 479 0
479 -478 476 0
-476 -478 480 0
478 -480 0
476 -480 0
-424 481 -477 0
424 -481 0
477 -481 0
-482 480 481 0
482 -480 0
482 -481 0
-1 -483 484 0
-484 1 0
-484 483 0
-431 -484 -485 0
431 484 -485 0
485 -484 431 0
-431 485 484 0
-431 -484 486 0
431 -486 0
-486 484 0
-4 487 -483 0
4 -487 0
-487 483 0
-437 -487 -488 0
437 487 -488 0
437 488 -487 0
-437 488 487 0
-489 -486 -488 0
-489 488 486 0
488 489 -486 0
489 486 -488 0
490 -486 -488 0
488 -490 0
-490 486 0
-437 491 -487 0
437 -491 0
487 -491 0
-492 491 490 0
-490 492 0
492 -491 0
-483 493 -10 0
10 -493 0
483 -493 0
-494 -493 -443 0
443 493 -494 0
494 443 -493 0
494 493 -443 0
-492 -495 -494 0
494 492 -495 0
494 -492 495 0
492 495 -494 0
496 -492 -494 0
494 -496 0
492 -496 0
497 -493 -443 0
-497 443 0
-497 493 0
496 -498 497 0
-496 498 0
-497 498 0
499 -483 -18 0
18 -499 0
-499 483 0
-449 -499 -500 0
499 449 -500 0
-499 500 449 0
499 -449 500 0
-501 -498 -500 0
500 -501 498 0
501 500 -498 0
501 -500 498 0
-498 -500 502 0
-502 500 0
-502 498 0
503 -449 -499 0
-503 449 0
499 -503 0
-504 503 502 0
-502 504 0
504 -503 0
505 -483 -26 0
-505 26 0
-505 483 0
-505 -455 -506 0
505 455 -506 0
506 -505 455 0
506 505 -455 0
-507 -504 -506 0
-507 506 504 0
506 -504 507 0
504 507 -506 0
-504 -506 508 0
-508 506 0
-508 504 0
-505 509 -455 0
-509 455 0
-509 505 0
509 -510 508 0
-508 510 0
-509 510 0
511 -34 -483 0
34 -511 0
-511 483 0
-461 -511 -512 0
-512 511 461 0
-511 461 512 0
-461 511 512 0
-513 -510 -512 0
-513 510 512 0
513 -510 512 0
513 -512 510 0
514 -510 -512 0
-514 512 0
-514 510 0
515 -461 -511 0
-515 461 0
511 -515 0
515 -516 514 0
516 -514 0
516 -515 0
517 -483 -42 0
-517 42 0
-517 483 0
-517 -467 -518 0
467 517 -518 0
467 -517 518 0
-467 517 518 0
-519 -516 -518 0
-519 516 518 0
-516 518 519 0
516 519 -518 0
-516 520 -518 0
518 -520 0
516 -520 0
-517 -467 521 0
467 -521 0
517 -521 0
521 520 -522 0
522 -520 0
522 -521 0
-483 523 -50 0
50 -523 0
-523 483 0
-473 -524 -523 0
-524 473 523 0
-523 473 524 0
-473 523 524 0
-524 -525 -522 0
522 -525 524 0
-522 525 524 0
522 -524 525 0
526 -524 -522 0
-526 524 0
522 -526 0
-473 527 -523 0
-527 473 0
-527 523 0
526 -528 527 0
-526 528 0
-527 528 0
529 -58 -483 0
-529 58 0
-529 483 0
-530 -479 -529 0
479 529 -530 0
479 530 -529 0
529 -479 530 0
-530 -528 -531 0
530 -531 528 0
-528 530 531 0
-530 531 528 0
-530 -528 532 0
530 -532 0
-532 528 0
-479 533 -529 0
479 -533 0
529 -533 0
533 532 -534 0
-532 534 0
534 -533 0
-66 -483 535 0
66 -535 0
-535 483 0
-482 -535 -536 0
482 -536 535 0
482 -535 536 0
-482 536 535 0
-537 -534 -536 0
534 -537 536 0
537 536 -534 0
534 537 -536 0
538 -534 -536 0
-538 536 0
-538 534 0
-482 -535 539 0
482 -539 0
-539 535 0
538 -540 539 0
-538 540 0
-539 540 0
3 0
-8 0
-79 0
137 0
195 0
253 0
311 0
-369 0
427 0
-485 0
489 0
495 0
-501 0
507 0
-513 0
519 0
-525 0
-531 0
-537 0
540 0
