p cnf 540 1750
-1 -2 3 0
1 -3 0
2 -3 0
-4 -2 5 0
4 -5 0
2 -5 0
-1 -6 7 0
1 -7 0
6 -7 0
-5 -7 -8 0
5 7 -8 0
5 -7 8 0
-5 7 8 0
-5 -7 9 0
5 -9 0
7 -9 0
-10 -2 11 0
10 -11 0
2 -11 0
-4 -6 12 0
4 -12 0
6 -12 0
-11 -12 -13 0
11 12 -13 0
11 -12 13 0
-11 12 13 0
-13 -9 -14 0
13 9 -14 0
13 -9 14 0
-13 9 14 0
-13 -9 15 0
13 -15 0
9 -15 0
-11 -12 16 0
11 -16 0
12 -16 0
15 16 -17 0
-15 17 0
-16 17 0
-18 -2 19 0
18 -19 0
2 -19 0
-10 -6 20 0
10 -20 0
6 -20 0
-19 -20 -21 0
19 20 -21 0
19 -20 21 0
-19 20 21 0
-21 -17 -22 0
21 17 -22 0
21 -17 22 0
-21 17 22 0
-21 -17 23 0
21 -23 0
17 -23 0
-19 -20 24 0
19 -24 0
20 -24 0
23 24 -25 0
-23 25 0
-24 25 0
-26 -2 27 0
26 -27 0
2 -27 0
-18 -6 28 0
18 -28 0
6 -28 0
-27 -28 -29 0
27 28 -29 0
27 -28 29 0
-27 28 29 0
-29 -25 -30 0
29 25 -30 0
29 -25 30 0
-29 25 30 0
-29 -25 31 0
29 -31 0
25 -31 0
-27 -28 32 0
27 -32 0
28 -32 0
31 32 -33 0
-31 33 0
-32 33 0
-34 -2 35 0
34 -35 0
2 -35 0
-26 -6 36 0
26 -36 0
6 -36 0
-35 -36 -37 0
35 36 -37 0
35 -36 37 0
-35 36 37 0
-37 -33 -38 0
37 33 -38 0
37 -33 38 0
-37 33 38 0
-37 -33 39 0
37 -39 0
33 -39 0
-35 -36 40 0
35 -40 0
36 -40 0
39 40 -41 0
-39 41 0
-40 41 0
-42 -2 43 0
42 -43 0
2 -43 0
-34 -6 44 0
34 -44 0
6 -44 0
-43 -44 -45 0
43 44 -45 0
43 -44 45 0
-43 44 45 0
-45 -41 -46 0
45 41 -46 0
45 -41 46 0
-45 41 46 0
-45 -41 47 0
45 -47 0
41 -47 0
-43 -44 48 0
43 -48 0
44 -48 0
47 48 -49 0
-47 49 0
-48 49 0
-50 -2 51 0
50 -51 0
2 -51 0
-42 -6 52 0
42 -52 0
6 -52 0
-51 -52 -53 0
51 52 -53 0
51 -52 53 0
-51 52 53 0
-53 -49 -54 0
53 49 -54 0
53 -49 54 0
-53 49 54 0
-53 -49 55 0
53 -55 0
49 -55 0
-51 -52 56 0
51 -56 0
52 -56 0
55 56 -57 0
-55 57 0
-56 57 0
-58 -2 59 0
58 -59 0
2 -59 0
-50 -6 60 0
50 -60 0
6 -60 0
-59 -60 -61 0
59 60 -61 0
59 -60 61 0
-59 60 61 0
-61 -57 -62 0
61 57 -62 0
61 -57 62 0
-61 57 62 0
-61 -57 63 0
61 -63 0
57 -63 0
-59 -60 64 0
59 -64 0
60 -64 0
63 64 -65 0
-63 65 0
-64 65 0
-66 -2 67 0
66 -67 0
2 -67 0
-58 -6 68 0
58 -68 0
6 -68 0
-67 -68 -69 0
67 68 -69 0
67 -68 69 0
-67 68 69 0
-69 -65 -70 0
69 65 -70 0
69 -65 70 0
-69 65 70 0
-69 -65 71 0
69 -71 0
65 -71 0
-67 -68 72 0
67 -72 0
68 -72 0
71 72 -73 0
-71 73 0
-72 73 0
-66 -6 74 0
66 -74 0
6 -74 0
-73 -74 -75 0
73 74 -75 0
73 -74 75 0
-73 74 75 0
-73 -74 76 0
73 -76 0
74 -76 0
-1 -77 78 0
1 -78 0
77 -78 0
-14 -78 -79 0
14 78 -79 0
14 -78 79 0
-14 78 79 0
-14 -78 80 0
14 -80 0
78 -80 0
-4 -77 81 0
4 -81 0
77 -81 0
-22 -81 -82 0
22 81 -82 0
22 -81 82 0
-22 81 82 0
-82 -80 -83 0
82 80 -83 0
82 -80 83 0
-82 80 83 0
-82 -80 84 0
82 -84 0
80 -84 0
-22 -81 85 0
22 -85 0
81 -85 0
84 85 -86 0
-84 86 0
-85 86 0
-10 -77 87 0
10 -87 0
77 -87 0
-30 -87 -88 0
30 87 -88 0
30 -87 88 0
-30 87 88 0
-88 -86 -89 0
88 86 -89 0
88 -86 89 0
-88 86 89 0
-88 -86 90 0
88 -90 0
86 -90 0
-30 -87 91 0
30 -91 0
87 -91 0
90 91 -92 0
-90 92 0
-91 92 0
-18 -77 93 0
18 -93 0
77 -93 0
-38 -93 -94 0
38 93 -94 0
38 -93 94 0
-38 93 94 0
-94 -92 -95 0
94 92 -95 0
94 -92 95 0
-94 92 95 0
-94 -92 96 0
94 -96 0
92 -96 0
-38 -93 97 0
38 -97 0
93 -97 0
96 97 -98 0
-96 98 0
-97 98 0
-26 -77 99 0
26 -99 0
77 -99 0
-46 -99 -100 0
46 99 -100 0
46 -99 100 0
-46 99 100 0
-100 -98 -101 0
100 98 -101 0
100 -98 101 0
-100 98 101 0
-100 -98 102 0
100 -102 0
98 -102 0
-46 -99 103 0
46 -103 0
99 -103 0
102 103 -104 0
-102 104 0
-103 104 0
-34 -77 105 0
34 -105 0
77 -105 0
-54 -105 -106 0
54 105 -106 0
54 -105 106 0
-54 105 106 0
-106 -104 -107 0
106 104 -107 0
106 -104 107 0
-106 104 107 0
-106 -104 108 0
106 -108 0
104 -108 0
-54 -105 109 0
54 -109 0
105 -109 0
108 109 -110 0
-108 110 0
-109 110 0
-42 -77 111 0
42 -111 0
77 -111 0
-62 -111 -112 0
62 111 -112 0
62 -111 112 0
-62 111 112 0
-112 -110 -113 0
112 110 -113 0
112 -110 113 0
-112 110 113 0
-112 -110 114 0
112 -114 0
110 -114 0
-62 -111 115 0
62 -115 0
111 -115 0
114 115 -116 0
-114 116 0
-115 116 0
-50 -77 117 0
50 -117 0
77 -117 0
-70 -117 -118 0
70 117 -118 0
70 -117 118 0
-70 117 118 0
-118 -116 -119 0
118 116 -119 0
118 -116 119 0
-118 116 119 0
-118 -116 120 0
118 -120 0
116 -120 0
-70 -117 121 0
70 -121 0
117 -121 0
120 121 -122 0
-120 122 0
-121 122 0
-58 -77 123 0
58 -123 0
77 -123 0
-75 -123 -124 0
75 123 -124 0
75 -123 124 0
-75 123 124 0
-124 -122 -125 0
124 122 -125 0
124 -122 125 0
-124 122 125 0
-124 -122 126 0
124 -126 0
122 -126 0
-75 -123 127 0
75 -127 0
123 -127 0
126 127 -128 0
-126 128 0
-127 128 0
-66 -77 129 0
66 -129 0
77 -129 0
-76 -129 -130 0
76 129 -130 0
76 -129 130 0
-76 129 130 0
-130 -128 -131 0
130 128 -131 0
130 -128 131 0
-130 128 131 0
-130 -128 132 0
130 -132 0
128 -132 0
-76 -129 133 0
76 -133 0
129 -133 0
132 133 -134 0
-132 134 0
-133 134 0
-1 -135 136 0
1 -136 0
135 -136 0
-83 -136 -137 0
83 136 -137 0
83 -136 137 0
-83 136 137 0
-83 -136 138 0
83 -138 0
136 -138 0
-4 -135 139 0
4 -139 0
135 -139 0
-89 -139 -140 0
89 139 -140 0
89 -139 140 0
-89 139 140 0
-140 -138 -141 0
140 138 -141 0
140 -138 141 0
-140 138 141 0
-140 -138 142 0
140 -142 0
138 -142 0
-89 -139 143 0
89 -143 0
139 -143 0
142 143 -144 0
-142 144 0
-143 144 0
-10 -135 145 0
10 -145 0
135 -145 0
-95 -145 -146 0
95 145 -146 0
95 -145 146 0
-95 145 146 0
-146 -144 -147 0
146 144 -147 0
146 -144 147 0
-146 144 147 0
-146 -144 148 0
146 -148 0
144 -148 0
-95 -145 149 0
95 -149 0
145 -149 0
148 149 -150 0
-148 150 0
-149 150 0
-18 -135 151 0
18 -151 0
135 -151 0
-101 -151 -152 0
101 151 -152 0
101 -151 152 0
-101 151 152 0
-152 -150 -153 0
152 150 -153 0
152 -150 153 0
-152 150 153 0
-152 -150 154 0
152 -154 0
150 -154 0
-101 -151 155 0
101 -155 0
151 -155 0
154 155 -156 0
-154 156 0
-155 156 0
-26 -135 157 0
26 -157 0
135 -157 0
-107 -157 -158 0
107 157 -158 0
107 -157 158 0
-107 157 158 0
-158 -156 -159 0
158 156 -159 0
158 -156 159 0
-158 156 159 0
-158 -156 160 0
158 -160 0
156 -160 0
-107 -157 161 0
107 -161 0
157 -161 0
160 161 -162 0
-160 162 0
-161 162 0
-34 -135 163 0
34 -163 0
135 -163 0
-113 -163 -164 0
113 163 -164 0
113 -163 164 0
-113 163 164 0
-164 -162 -165 0
164 162 -165 0
164 -162 165 0
-164 162 165 0
-164 -162 166 0
164 -166 0
162 -166 0
-113 -163 167 0
113 -167 0
163 -167 0
166 167 -168 0
-166 168 0
-167 168 0
-42 -135 169 0
42 -169 0
135 -169 0
-119 -169 -170 0
119 169 -170 0
119 -169 170 0
-119 169 170 0
-170 -168 -171 0
170 168 -171 0
170 -168 171 0
-170 168 171 0
-170 -168 172 0
170 -172 0
168 -172 0
-119 -169 173 0
119 -173 0
169 -173 0
172 173 -174 0
-172 174 0
-173 174 0
-50 -135 175 0
50 -175 0
135 -175 0
-125 -175 -176 0
125 175 -176 0
125 -175 176 0
-125 175 176 0
-176 -174 -177 0
176 174 -177 0
176 -174 177 0
-176 174 177 0
-176 -174 178 0
176 -178 0
174 -178 0
-125 -175 179 0
125 -179 0
175 -179 0
178 179 -180 0
-178 180 0
-179 180 0
-58 -135 181 0
58 -181 0
135 -181 0
-131 -181 -182 0
131 181 -182 0
131 -181 182 0
-131 181 182 0
-182 -180 -183 0
182 180 -183 0
182 -180 183 0
-182 180 183 0
-182 -180 184 0
182 -184 0
180 -184 0
-131 -181 185 0
131 -185 0
181 -185 0
184 185 -186 0
-184 186 0
-185 186 0
-66 -135 187 0
66 -187 0
135 -187 0
-134 -187 -188 0
134 187 -188 0
134 -187 188 0
-134 187 188 0
-188 -186 -189 0
188 186 -189 0
188 -186 189 0
-188 186 189 0
-188 -186 190 0
188 -190 0
186 -190 0
-134 -187 191 0
134 -191 0
187 -191 0
190 191 -192 0
-190 192 0
-191 192 0
-1 -193 194 0
1 -194 0
193 -194 0
-141 -194 -195 0
141 194 -195 0
141 -194 195 0
-141 194 195 0
-141 -194 196 0
141 -196 0
194 -196 0
-4 -193 197 0
4 -197 0
193 -197 0
-147 -197 -198 0
147 197 -198 0
147 -197 198 0
-147 197 198 0
-198 -196 -199 0
198 196 -199 0
198 -196 199 0
-198 196 199 0
-198 -196 200 0
198 -200 0
196 -200 0
-147 -197 201 0
147 -201 0
197 -201 0
200 201 -202 0
-200 202 0
-201 202 0
-10 -193 203 0
10 -203 0
193 -203 0
-153 -203 -204 0
153 203 -204 0
153 -203 204 0
-153 203 204 0
-204 -202 -205 0
204 202 -205 0
204 -202 205 0
-204 202 205 0
-204 -202 206 0
204 -206 0
202 -206 0
-153 -203 207 0
153 -207 0
203 -207 0
206 207 -208 0
-206 208 0
-207 208 0
-18 -193 209 0
18 -209 0
193 -209 0
-159 -209 -210 0
159 209 -210 0
159 -209 210 0
-159 209 210 0
-210 -208 -211 0
210 208 -211 0
210 -208 211 0
-210 208 211 0
-210 -208 212 0
210 -212 0
208 -212 0
-159 -209 213 0
159 -213 0
209 -213 0
212 213 -214 0
-212 214 0
-213 214 0
-26 -193 215 0
26 -215 0
193 -215 0
-165 -215 -216 0
165 215 -216 0
165 -215 216 0
-165 215 216 0
-216 -214 -217 0
216 214 -217 0
216 -214 217 0
-216 214 217 0
-216 -214 218 0
216 -218 0
214 -218 0
-165 -215 219 0
165 -219 0
215 -219 0
218 219 -220 0
-218 220 0
-219 220 0
-34 -193 221 0
34 -221 0
193 -221 0
-171 -221 -222 0
171 221 -222 0
171 -221 222 0
-171 221 222 0
-222 -220 -223 0
222 220 -223 0
222 -220 223 0
-222 220 223 0
-222 -220 224 0
222 -224 0
220 -224 0
-171 -221 225 0
171 -225 0
221 -225 0
224 225 -226 0
-224 226 0
-225 226 0
-42 -193 227 0
42 -227 0
193 -227 0
-177 -227 -228 0
177 227 -228 0
177 -227 228 0
-177 227 228 0
-228 -226 -229 0
228 226 -229 0
228 -226 229 0
-228 226 229 0
-228 -226 230 0
228 -230 0
226 -230 0
-177 -227 231 0
177 -231 0
227 -231 0
230 231 -232 0
-230 232 0
-231 232 0
-50 -193 233 0
50 -233 0
193 -233 0
-183 -233 -234 0
183 233 -234 0
183 -233 234 0
-183 233 234 0
-234 -232 -235 0
234 232 -235 0
234 -232 235 0
-234 232 235 0
-234 -232 236 0
234 -236 0
232 -236 0
-183 -233 237 0
183 -237 0
233 -237 0
236 237 -238 0
-236 238 0
-237 238 0
-58 -193 239 0
58 -239 0
193 -239 0
-189 -239 -240 0
189 239 -240 0
189 -239 240 0
-189 239 240 0
-240 -238 -241 0
240 238 -241 0
240 -238 241 0
-240 238 241 0
-240 -238 242 0
240 -242 0
238 -242 0
-189 -239 243 0
189 -243 0
239 -243 0
242 243 -244 0
-242 244 0
-243 244 0
-66 -193 245 0
66 -245 0
193 -245 0
-192 -245 -246 0
192 245 -246 0
192 -245 246 0
-192 245 246 0
-246 -244 -247 0
246 244 -247 0
246 -244 247 0
-246 244 247 0
-246 -244 248 0
246 -248 0
244 -248 0
-192 -245 249 0
192 -249 0
245 -249 0
248 249 -250 0
-248 250 0
-249 250 0
-1 -251 252 0
1 -252 0
251 -252 0
-199 -252 -253 0
199 252 -253 0
199 -252 253 0
-199 252 253 0
-199 -252 254 0
199 -254 0
252 -254 0
-4 -251 255 0
4 -255 0
251 -255 0
-205 -255 -256 0
205 255 -256 0
205 -255 256 0
-205 255 256 0
-256 -254 -257 0
256 254 -257 0
256 -254 257 0
-256 254 257 0
-256 -254 258 0
256 -258 0
254 -258 0
-205 -255 259 0
205 -259 0
255 -259 0
258 259 -260 0
-258 260 0
-259 260 0
-10 -251 261 0
10 -261 0
251 -261 0
-211 -261 -262 0
211 261 -262 0
211 -261 262 0
-211 261 262 0
-262 -260 -263 0
262 260 -263 0
262 -260 263 0
-262 260 263 0
-262 -260 264 0
262 -264 0
260 -264 0
-211 -261 265 0
211 -265 0
261 -265 0
264 265 -266 0
-264 266 0
-265 266 0
-18 -251 267 0
18 -267 0
251 -267 0
-217 -267 -268 0
217 267 -268 0
217 -267 268 0
-217 267 268 0
-268 -266 -269 0
268 266 -269 0
268 -266 269 0
-268 266 269 0
-268 -266 270 0
268 -270 0
266 -270 0
-217 -267 271 0
217 -271 0
267 -271 0
270 271 -272 0
-270 272 0
-271 272 0
-26 -251 273 0
26 -273 0
251 -273 0
-223 -273 -274 0
223 273 -274 0
223 -273 274 0
-223 273 274 0
-274 -272 -275 0
274 272 -275 0
274 -272 275 0
-274 272 275 0
-274 -272 276 0
274 -276 0
272 -276 0
-223 -273 277 0
223 -277 0
273 -277 0
276 277 -278 0
-276 278 0
-277 278 0
-34 -251 279 0
34 -279 0
251 -279 0
-229 -279 -280 0
229 279 -280 0
229 -279 280 0
-229 279 280 0
-280 -278 -281 0
280 278 -281 0
280 -278 281 0
-280 278 281 0
-280 -278 282 0
280 -282 0
278 -282 0
-229 -279 283 0
229 -283 0
279 -283 0
282 283 -284 0
-282 284 0
-283 284 0
-42 -251 285 0
42 -285 0
251 -285 0
-235 -285 -286 0
235 285 -286 0
235 -285 286 0
-235 285 286 0
-286 -284 -287 0
286 284 -287 0
286 -284 287 0
-286 284 287 0
-286 -284 288 0
286 -288 0
284 -288 0
-235 -285 289 0
235 -289 0
285 -289 0
288 289 -290 0
-288 290 0
-289 290 0
-50 -251 291 0
50 -291 0
251 -291 0
-241 -291 -292 0
241 291 -292 0
241 -291 292 0
-241 291 292 0
-292 -290 -293 0
292 290 -293 0
292 -290 293 0
-292 290 293 0
-292 -290 294 0
292 -294 0
290 -294 0
-241 -291 295 0
241 -295 0
291 -295 0
294 295 -296 0
-294 296 0
-295 296 0
-58 -251 297 0
58 -297 0
251 -297 0
-247 -297 -298 0
247 297 -298 0
247 -297 298 0
-247 297 298 0
-298 -296 -299 0
298 296 -299 0
298 -296 299 0
-298 296 299 0
-298 -296 300 0
298 -300 0
296 -300 0
-247 -297 301 0
247 -301 0
297 -301 0
300 301 -302 0
-300 302 0
-301 302 0
-66 -251 303 0
66 -303 0
251 -303 0
-250 -303 -304 0
250 303 -304 0
250 -303 304 0
-250 303 304 0
-304 -302 -305 0
304 302 -305 0
304 -302 305 0
-304 302 305 0
-304 -302 306 0
304 -306 0
302 -306 0
-250 -303 307 0
250 -307 0
303 -307 0
306 307 -308 0
-306 308 0
-307 308 0
-1 -309 310 0
1 -310 0
309 -310 0
-257 -310 -311 0
257 310 -311 0
257 -310 311 0
-257 310 311 0
-257 -310 312 0
257 -312 0
310 -312 0
-4 -309 313 0
4 -313 0
309 -313 0
-263 -313 -314 0
263 313 -314 0
263 -313 314 0
-263 313 314 0
-314 -312 -315 0
314 312 -315 0
314 -312 315 0
-314 312 315 0
-314 -312 316 0
314 -316 0
312 -316 0
-263 -313 317 0
263 -317 0
313 -317 0
316 317 -318 0
-316 318 0
-317 318 0
-10 -309 319 0
10 -319 0
309 -319 0
-269 -319 -320 0
269 319 -320 0
269 -319 320 0
-269 319 320 0
-320 -318 -321 0
320 318 -321 0
320 -318 321 0
-320 318 321 0
-320 -318 322 0
320 -322 0
318 -322 0
-269 -319 323 0
269 -323 0
319 -323 0
322 323 -324 0
-322 324 0
-323 324 0
-18 -309 325 0
18 -325 0
309 -325 0
-275 -325 -326 0
275 325 -326 0
275 -325 326 0
-275 325 326 0
-326 -324 -327 0
326 324 -327 0
326 -324 327 0
-326 324 327 0
-326 -324 328 0
326 -328 0
324 -328 0
-275 -325 329 0
275 -329 0
325 -329 0
328 329 -330 0
-328 330 0
-329 330 0
-26 -309 331 0
26 -331 0
309 -331 0
-281 -331 -332 0
281 331 -332 0
281 -331 332 0
-281 331 332 0
-332 -330 -333 0
332 330 -333 0
332 -330 333 0
-332 330 333 0
-332 -330 334 0
332 -334 0
330 -334 0
-281 -331 335 0
281 -335 0
331 -335 0
334 335 -336 0
-334 336 0
-335 336 0
-34 -309 337 0
34 -337 0
309 -337 0
-287 -337 -338 0
287 337 -338 0
287 -337 338 0
-287 337 338 0
-338 -336 -339 0
338 336 -339 0
338 -336 339 0
-338 336 339 0
-338 -336 340 0
338 -340 0
336 -340 0
-287 -337 341 0
287 -341 0
337 -341 0
340 341 -342 0
-340 342 0
-341 342 0
-42 -309 343 0
42 -343 0
309 -343 0
-293 -343 -344 0
293 343 -344 0
293 -343 344 0
-293 343 344 0
-344 -342 -345 0
344 342 -345 0
344 -342 345 0
-344 342 345 0
-344 -342 346 0
344 -346 0
342 -346 0
-293 -343 347 0
293 -347 0
343 -347 0
346 347 -348 0
-346 348 0
-347 348 0
-50 -309 349 0
50 -349 0
309 -349 0
-299 -349 -350 0
299 349 -350 0
299 -349 350 0
-299 349 350 0
-350 -348 -351 0
350 348 -351 0
350 -348 351 0
-350 348 351 0
-350 -348 352 0
350 -352 0
348 -352 0
-299 -349 353 0
299 -353 0
349 -353 0
352 353 -354 0
-352 354 0
-353 354 0
-58 -309 355 0
58 -355 0
309 -355 0
-305 -355 -356 0
305 355 -356 0
305 -355 356 0
-305 355 356 0
-356 -354 -357 0
356 354 -357 0
356 -354 357 0
-356 354 357 0
-356 -354 358 0
356 -358 0
354 -358 0
-305 -355 359 0
305 -359 0
355 -359 0
358 359 -360 0
-358 360 0
-359 360 0
-66 -309 361 0
66 -361 0
309 -361 0
-308 -361 -362 0
308 361 -362 0
308 -361 362 0
-308 361 362 0
-362 -360 -363 0
362 360 -363 0
362 -360 363 0
-362 360 363 0
-362 -360 364 0
362 -364 0
360 -364 0
-308 -361 365 0
308 -365 0
361 -365 0
364 365 -366 0
-364 366 0
-365 366 0
-1 -367 368 0
1 -368 0
367 -368 0
-315 -368 -369 0
315 368 -369 0
315 -368 369 0
-315 368 369 0
-315 -368 370 0
315 -370 0
368 -370 0
-4 -367 371 0
4 -371 0
367 -371 0
-321 -371 -372 0
321 371 -372 0
321 -371 372 0
-321 371 372 0
-372 -370 -373 0
372 370 -373 0
372 -370 373 0
-372 370 373 0
-372 -370 374 0
372 -374 0
370 -374 0
-321 -371 375 0
321 -375 0
371 -375 0
374 375 -376 0
-374 376 0
-375 376 0
-10 -367 377 0
10 -377 0
367 -377 0
-327 -377 -378 0
327 377 -378 0
327 -377 378 0
-327 377 378 0
-378 -376 -379 0
378 376 -379 0
378 -376 379 0
-378 376 379 0
-378 -376 380 0
378 -380 0
376 -380 0
-327 -377 381 0
327 -381 0
377 -381 0
380 381 -382 0
-380 382 0
-381 382 0
-18 -367 383 0
18 -383 0
367 -383 0
-333 -383 -384 0
333 383 -384 0
333 -383 384 0
-333 383 384 0
-384 -382 -385 0
384 382 -385 0
384 -382 385 0
-384 382 385 0
-384 -382 386 0
384 -386 0
382 -386 0
-333 -383 387 0
333 -387 0
383 -387 0
386 387 -388 0
-386 388 0
-387 388 0
-26 -367 389 0
26 -389 0
367 -389 0
-339 -389 -390 0
339 389 -390 0
339 -389 390 0
-339 389 390 0
-390 -388 -391 0
390 388 -391 0
390 -388 391 0
-390 388 391 0
-390 -388 392 0
390 -392 0
388 -392 0
-339 -389 393 0
339 -393 0
389 -393 0
392 393 -394 0
-392 394 0
-393 394 0
-34 -367 395 0
34 -395 0
367 -395 0
-345 -395 -396 0
345 395 -396 0
345 -395 396 0
-345 395 396 0
-396 -394 -397 0
396 394 -397 0
396 -394 397 0
-396 394 397 0
-396 -394 398 0
396 -398 0
394 -398 0
-345 -395 399 0
345 -399 0
395 -399 0
398 399 -400 0
-398 400 0
-399 400 0
-42 -367 401 0
42 -401 0
367 -401 0
-351 -401 -402 0
351 401 -402 0
351 -401 402 0
-351 401 402 0
-402 -400 -403 0
402 400 -403 0
402 -400 403 0
-402 400 403 0
-402 -400 404 0
402 -404 0
400 -404 0
-351 -401 405 0
351 -405 0
401 -405 0
404 405 -406 0
-404 406 0
-405 406 0
-50 -367 407 0
50 -407 0
367 -407 0
-357 -407 -408 0
357 407 -408 0
357 -407 408 0
-357 407 408 0
-408 -406 -409 0
408 406 -409 0
408 -406 409 0
-408 406 409 0
-408 -406 410 0
408 -410 0
406 -410 0
-357 -407 411 0
357 -411 0
407 -411 0
410 411 -412 0
-410 412 0
-411 412 0
-58 -367 413 0
58 -413 0
367 -413 0
-363 -413 -414 0
363 413 -414 0
363 -413 414 0
-363 413 414 0
-414 -412 -415 0
414 412 -415 0
414 -412 415 0
-414 412 415 0
-414 -412 416 0
414 -416 0
412 -416 0
-363 -413 417 0
363 -417 0
413 -417 0
416 417 -418 0
-416 418 0
-417 418 0
-66 -367 419 0
66 -419 0
367 -419 0
-366 -419 -420 0
366 419 -420 0
366 -419 420 0
-366 419 420 0
-420 -418 -421 0
420 418 -421 0
420 -418 421 0
-420 418 421 0
-420 -418 422 0
420 -422 0
418 -422 0
-366 -419 423 0
366 -423 0
419 -423 0
422 423 -424 0
-422 424 0
-423 424 0
-1 -425 426 0
1 -426 0
425 -426 0
-373 -426 -427 0
373 426 -427 0
373 -426 427 0
-373 426 427 0
-373 -426 428 0
373 -428 0
426 -428 0
-4 -425 429 0
4 -429 0
425 -429 0
-379 -429 -430 0
379 429 -430 0
379 -429 430 0
-379 429 430 0
-430 -428 -431 0
430 428 -431 0
430 -428 431 0
-430 428 431 0
-430 -428 432 0
430 -432 0
428 -432 0
-379 -429 433 0
379 -433 0
429 -433 0
432 433 -434 0
-432 434 0
-433 434 0
-10 -425 435 0
10 -435 0
425 -435 0
-385 -435 -436 0
385 435 -436 0
385 -435 436 0
-385 435 436 0
-436 -434 -437 0
436 434 -437 0
436 -434 437 0
-436 434 437 0
-436 -434 438 0
436 -438 0
434 -438 0
-385 -435 439 0
385 -439 0
435 -439 0
438 439 -440 0
-438 440 0
-439 440 0
-18 -425 441 0
18 -441 0
425 -441 0
-391 -441 -442 0
391 441 -442 0
391 -441 442 0
-391 441 442 0
-442 -440 -443 0
442 440 -443 0
442 -440 443 0
-442 440 443 0
-442 -440 444 0
442 -444 0
440 -444 0
-391 -441 445 0
391 -445 0
441 -445 0
444 445 -446 0
-444 446 0
-445 446 0
-26 -425 447 0
26 -447 0
425 -447 0
-397 -447 -448 0
397 447 -448 0
397 -447 448 0
-397 447 448 0
-448 -446 -449 0
448 446 -449 0
448 -446 449 0
-448 446 449 0
-448 -446 450 0
448 -450 0
446 -450 0
-397 -447 451 0
397 -451 0
447 -451 0
450 451 -452 0
-450 452 0
-451 452 0
-34 -425 453 0
34 -453 0
425 -453 0
-403 -453 -454 0
403 453 -454 0
403 -453 454 0
-403 453 454 0
-454 -452 -455 0
454 452 -455 0
454 -452 455 0
-454 452 455 0
-454 -452 456 0
454 -456 0
452 -456 0
-403 -453 457 0
403 -457 0
453 -457 0
456 457 -458 0
-456 458 0
-457 458 0
-42 -425 459 0
42 -459 0
425 -459 0
-409 -459 -460 0
409 459 -460 0
409 -459 460 0
-409 459 460 0
-460 -458 -461 0
460 458 -461 0
460 -458 461 0
-460 458 461 0
-460 -458 462 0
460 -462 0
458 -462 0
-409 -459 463 0
409 -463 0
459 -463 0
462 463 -464 0
-462 464 0
-463 464 0
-50 -425 465 0
50 -465 0
425 -465 0
-415 -465 -466 0
415 465 -466 0
415 -465 466 0
-415 465 466 0
-466 -464 -467 0
466 464 -467 0
466 -464 467 0
-466 464 467 0
-466 -464 468 0
466 -468 0
464 -468 0
-415 -465 469 0
415 -469 0
465 -469 0
468 469 -470 0
-468 470 0
-469 470 0
-58 -425 471 0
58 -471 0
425 -471 0
-421 -471 -472 0
421 471 -472 0
421 -471 472 0
-421 471 472 0
-472 -470 -473 0
472 470 -473 0
472 -470 473 0
-472 470 473 0
-472 -470 474 0
472 -474 0
470 -474 0
-421 -471 475 0
421 -475 0
471 -475 0
474 475 -476 0
-474 476 0
-475 476 0
-66 -425 477 0
66 -477 0
425 -477 0
-424 -477 -478 0
424 477 -478 0
424 -477 478 0
-424 477 478 0
-478 -476 -479 0
478 476 -479 0
478 -476 479 0
-478 476 479 0
-478 -476 480 0
478 -480 0
476 -480 0
-424 -477 481 0
424 -481 0
477 -481 0
480 481 -482 0
-480 482 0
-481 482 0
-1 -483 484 0
1 -484 0
483 -484 0
-431 -484 -485 0
431 484 -485 0
431 -484 485 0
-431 484 485 0
-431 -484 486 0
431 -486 0
484 -486 0
-4 -483 487 0
4 -487 0
483 -487 0
-437 -487 -488 0
437 487 -488 0
437 -487 488 0
-437 487 488 0
-488 -486 -489 0
488 486 -489 0
488 -486 489 0
-488 486 489 0
-488 -486 490 0
488 -490 0
486 -490 0
-437 -487 491 0
437 -491 0
487 -491 0
490 491 -492 0
-490 492 0
-491 492 0
-10 -483 493 0
10 -493 0
483 -493 0
-443 -493 -494 0
443 493 -494 0
443 -493 494 0
-443 493 494 0
-494 -492 -495 0
494 492 -495 0
494 -492 495 0
-494 492 495 0
-494 -492 496 0
494 -496 0
492 -496 0
-443 -493 497 0
443 -497 0
493 -497 0
496 497 -498 0
-496 498 0
-497 498 0
-18 -483 499 0
18 -499 0
483 -499 0
-449 -499 -500 0
449 499 -500 0
449 -499 500 0
-449 499 500 0
-500 -498 -501 0
500 498 -501 0
500 -498 501 0
-500 498 501 0
-500 -498 502 0
500 -502 0
498 -502 0
-449 -499 503 0
449 -503 0
499 -503 0
502 503 -504 0
-502 504 0
-503 504 0
-26 -483 505 0
26 -505 0
483 -505 0
-455 -505 -506 0
455 505 -506 0
455 -505 506 0
-455 505 506 0
-506 -504 -507 0
506 504 -507 0
506 -504 507 0
-506 504 507 0
-506 -504 508 0
506 -508 0
504 -508 0
-455 -505 509 0
455 -509 0
505 -509 0
508 509 -510 0
-508 510 0
-509 510 0
-34 -483 511 0
34 -511 0
483 -511 0
-461 -511 -512 0
461 511 -512 0
461 -511 512 0
-461 511 512 0
-512 -510 -513 0
512 510 -513 0
512 -510 513 0
-512 510 513 0
-512 -510 514 0
512 -514 0
510 -514 0
-461 -511 515 0
461 -515 0
511 -515 0
514 515 -516 0
-514 516 0
-515 516 0
-42 -483 517 0
42 -517 0
483 -517 0
-467 -517 -518 0
467 517 -518 0
467 -517 518 0
-467 517 518 0
-518 -516 -519 0
518 516 -519 0
518 -516 519 0
-518 516 519 0
-518 -516 520 0
518 -520 0
516 -520 0
-467 -517 521 0
467 -521 0
517 -521 0
520 521 -522 0
-520 522 0
-521 522 0
-50 -483 523 0
50 -523 0
483 -523 0
-473 -523 -524 0
473 523 -524 0
473 -523 524 0
-473 523 524 0
-524 -522 -525 0
524 522 -525 0
524 -522 525 0
-524 522 525 0
-524 -522 526 0
524 -526 0
522 -526 0
-473 -523 527 0
473 -527 0
523 -527 0
526 527 -528 0
-526 528 0
-527 528 0
-58 -483 529 0
58 -529 0
483 -529 0
-479 -529 -530 0
479 529 -530 0
479 -529 530 0
-479 529 530 0
-530 -528 -531 0
530 528 -531 0
530 -528 531 0
-530 528 531 0
-530 -528 532 0
530 -532 0
528 -532 0
-479 -529 533 0
479 -533 0
529 -533 0
532 533 -534 0
-532 534 0
-533 534 0
-66 -483 535 0
66 -535 0
483 -535 0
-482 -535 -536 0
482 535 -536 0
482 -535 536 0
-482 535 536 0
-536 -534 -537 0
536 534 -537 0
536 -534 537 0
-536 534 537 0
-536 -534 538 0
536 -538 0
534 -538 0
-482 -535 539 0
482 -539 0
535 -539 0
538 539 -540 0
-538 540 0
-539 540 0
3 0
8 0
-79 0
-137 0
-195 0
-253 0
311 0
-369 0
427 0
-485 0
-489 0
-495 0
-501 0
-507 0
-513 0
-519 0
-525 0
-531 0
-537 0
-540 0
