p cnf 792 2580
-2 -1 3 0
1 -3 0
-3 2 0
5 -2 -4 0
-5 4 0
-5 2 0
-6 7 -1 0
1 -7 0
6 -7 0
-8 -5 -7 0
-8 5 7 0
5 8 -7 0
7 -5 8 0
9 -5 -7 0
5 -9 0
7 -9 0
-2 -10 11 0
10 -11 0
2 -11 0
-4 -6 12 0
-12 4 0
6 -12 0
-13 -12 -11 0
-13 12 11 0
13 -12 11 0
13 12 -11 0
-13 -9 -14 0
9 13 -14 0
14 -9 13 0
14 -13 9 0
15 -13 -9 0
13 -15 0
9 -15 0
16 -12 -11 0
-16 11 0
-16 12 0
15 16 -17 0
17 -15 0
17 -16 0
-2 -18 19 0
18 -19 0
-19 2 0
-6 -10 20 0
10 -20 0
-20 6 0
-19 -20 -21 0
-21 20 19 0
21 -20 19 0
-19 21 20 0
-22 -21 -17 0
21 17 -22 0
22 21 -17 0
22 17 -21 0
-21 23 -17 0
21 -23 0
17 -23 0
24 -19 -20 0
-24 19 0
20 -24 0
24 -25 23 0
25 -23 0
25 -24 0
-26 -2 27 0
-27 26 0
-27 2 0
-6 -18 28 0
18 -28 0
-28 6 0
-28 -29 -27 0
28 -29 27 0
-28 29 27 0
28 -27 29 0
-29 -25 -30 0
29 25 -30 0
30 29 -25 0
30 25 -29 0
31 -29 -25 0
-31 29 0
-31 25 0
-28 -27 32 0
-32 27 0
-32 28 0
31 32 -33 0
-31 33 0
33 -32 0
-2 35 -34 0
34 -35 0
2 -35 0
36 -26 -6 0
-36 26 0
6 -36 0
-37 -36 -35 0
36 35 -37 0
37 35 -36 0
36 37 -35 0
-38 -33 -37 0
33 -38 37 0
38 -33 37 0
38 33 -37 0
39 -33 -37 0
-39 37 0
-39 33 0
40 -36 -35 0
35 -40 0
36 -40 0
39 40 -41 0
-39 41 0
41 -40 0
-2 43 -42 0
-43 42 0
-43 2 0
-6 44 -34 0
34 -44 0
-44 6 0
-43 -44 -45 0
43 44 -45 0
43 -44 45 0
-43 44 45 0
-46 -41 -45 0
41 -46 45 0
46 -41 45 0
46 41 -45 0
47 -41 -45 0
-47 45 0
41 -47 0
-43 -44 48 0
-48 43 0
-48 44 0
-49 47 48 0
49 -47 0
-48 49 0
-2 51 -50 0
-51 50 0
-51 2 0
52 -6 -42 0
42 -52 0
6 -52 0
-51 -52 -53 0
52 51 -53 0
51 53 -52 0
52 -51 53 0
-53 -49 -54 0
49 53 -54 0
53 -49 54 0
-53 49 54 0
55 -53 -49 0
53 -55 0
49 -55 0
-51 56 -52 0
51 -56 0
52 -56 0
55 56 -57 0
-55 57 0
57 -56 0
59 -2 -58 0
-59 58 0
-59 2 0
60 -6 -50 0
-60 50 0
-60 6 0
-59 -60 -61 0
59 -61 60 0
59 61 -60 0
-59 61 60 0
-62 -61 -57 0
-62 61 57 0
62 61 -57 0
62 -61 57 0
63 -61 -57 0
61 -63 0
57 -63 0
-59 -60 64 0
59 -64 0
60 -64 0
64 63 -65 0
65 -63 0
65 -64 0
-2 67 -66 0
-67 66 0
-67 2 0
-6 68 -58 0
58 -68 0
6 -68 0
-67 -69 -68 0
68 -69 67 0
67 -68 69 0
-67 68 69 0
-69 -65 -70 0
-70 65 69 0
-65 70 69 0
65 -69 70 0
71 -69 -65 0
-71 69 0
65 -71 0
-67 72 -68 0
-72 67 0
-72 68 0
71 72 -73 0
-71 73 0
73 -72 0
-2 -74 75 0
74 -75 0
2 -75 0
76 -6 -66 0
-76 66 0
-76 6 0
-77 -76 -75 0
-77 76 75 0
-76 75 77 0
76 77 -75 0
-77 -73 -78 0
-78 73 77 0
78 -73 77 0
-77 78 73 0
-77 79 -73 0
-79 77 0
-79 73 0
-76 80 -75 0
-80 75 0
76 -80 0
79 80 -81 0
-79 81 0
81 -80 0
-2 -82 83 0
-83 82 0
-83 2 0
-6 -74 84 0
74 -84 0
-84 6 0
-84 -83 -85 0
84 -85 83 0
-84 85 83 0
-83 85 84 0
-86 -81 -85 0
-86 81 85 0
-81 85 86 0
81 86 -85 0
-81 -85 87 0
85 -87 0
81 -87 0
-84 -83 88 0
-88 83 0
-88 84 0
88 -89 87 0
-87 89 0
-88 89 0
90 -6 -82 0
82 -90 0
-90 6 0
-91 -89 -90 0
90 -91 89 0
91 -90 89 0
90 -89 91 0
-89 -90 92 0
89 -92 0
90 -92 0
-1 94 -93 0
1 -94 0
-94 93 0
-94 -14 -95 0
14 94 -95 0
14 95 -94 0
95 -14 94 0
-94 96 -14 0
14 -96 0
94 -96 0
-4 -93 97 0
4 -97 0
93 -97 0
-22 -97 -98 0
22 -98 97 0
22 -97 98 0
-22 98 97 0
-99 -98 -96 0
-99 96 98 0
99 98 -96 0
99 96 -98 0
-98 -96 100 0
-100 98 0
96 -100 0
101 -22 -97 0
22 -101 0
-101 97 0
101 -102 100 0
-100 102 0
-101 102 0
103 -93 -10 0
10 -103 0
93 -103 0
-104 -103 -30 0
30 -104 103 0
30 104 -103 0
103 104 -30 0
-104 -105 -102 0
-105 104 102 0
104 105 -102 0
-104 105 102 0
-104 106 -102 0
104 -106 0
-106 102 0
107 -103 -30 0
30 -107 0
-107 103 0
106 107 -108 0
108 -106 0
108 -107 0
109 -18 -93 0
18 -109 0
93 -109 0
-110 -38 -109 0
38 -110 109 0
38 110 -109 0
109 -38 110 0
-110 -108 -111 0
108 -111 110 0
111 -108 110 0
-110 111 108 0
-110 112 -108 0
-112 110 0
108 -112 0
113 -38 -109 0
38 -113 0
-113 109 0
112 113 -114 0
114 -112 0
-113 114 0
-26 -93 115 0
-115 26 0
93 -115 0
-116 -46 -115 0
-116 115 46 0
-115 116 46 0
116 -46 115 0
-116 -114 -117 0
116 -117 114 0
116 117 -114 0
-116 117 114 0
-116 -114 118 0
116 -118 0
-118 114 0
-46 119 -115 0
-119 46 0
115 -119 0
119 118 -120 0
120 -118 0
120 -119 0
121 -93 -34 0
34 -121 0
93 -121 0
-121 -54 -122 0
121 54 -122 0
122 -121 54 0
122 -54 121 0
-120 -123 -122 0
-123 120 122 0
123 122 -120 0
120 123 -122 0
-120 124 -122 0
-124 122 0
120 -124 0
-121 -54 125 0
-125 54 0
-125 121 0
125 124 -126 0
126 -124 0
126 -125 0
127 -93 -42 0
42 -127 0
93 -127 0
-62 -128 -127 0
62 127 -128 0
62 128 -127 0
-62 127 128 0
-129 -128 -126 0
126 -129 128 0
128 129 -126 0
126 -128 129 0
130 -128 -126 0
-130 128 0
126 -130 0
-62 131 -127 0
62 -131 0
127 -131 0
130 131 -132 0
-130 132 0
-131 132 0
-93 -50 133 0
-133 50 0
93 -133 0
-134 -133 -70 0
-134 70 133 0
-133 134 70 0
134 133 -70 0
-135 -134 -132 0
-135 134 132 0
135 134 -132 0
132 -134 135 0
136 -134 -132 0
-136 134 0
-136 132 0
137 -133 -70 0
-137 70 0
-137 133 0
136 137 -138 0
-136 138 0
-137 138 0
-93 139 -58 0
58 -139 0
93 -139 0
-140 -139 -78 0
78 -140 139 0
78 140 -139 0
140 139 -78 0
-138 -140 -141 0
-141 140 138 0
-138 140 141 0
-140 138 141 0
-138 -140 142 0
-142 140 0
-142 138 0
143 -139 -78 0
78 -143 0
-143 139 0
142 143 -144 0
144 -142 0
-143 144 0
145 -93 -66 0
-145 66 0
-145 93 0
-145 -86 -146 0
-146 145 86 0
-145 86 146 0
-86 146 145 0
-147 -146 -144 0
-147 144 146 0
147 -144 146 0
-146 144 147 0
-146 148 -144 0
-148 146 0
144 -148 0
-145 -86 149 0
-149 86 0
145 -149 0
-150 149 148 0
150 -148 0
-149 150 0
151 -74 -93 0
74 -151 0
93 -151 0
-91 -152 -151 0
91 -152 151 0
91 152 -151 0
151 -91 152 0
-153 -152 -150 0
-153 150 152 0
153 -150 152 0
153 -152 150 0
-152 154 -150 0
-154 152 0
-154 150 0
-91 155 -151 0
91 -155 0
151 -155 0
-156 154 155 0
-154 156 0
-155 156 0
157 -82 -93 0
-157 82 0
93 -157 0
-157 -158 -92 0
157 -158 92 0
-157 158 92 0
157 158 -92 0
-158 -159 -156 0
-159 156 158 0
159 -156 158 0
159 -158 156 0
-158 -156 160 0
-160 158 0
156 -160 0
-157 161 -92 0
-161 92 0
157 -161 0
161 160 -162 0
162 -160 0
162 -161 0
-163 164 -1 0
1 -164 0
-164 163 0
-99 -164 -165 0
99 164 -165 0
99 -164 165 0
-99 164 165 0
-99 -164 166 0
99 -166 0
164 -166 0
-163 -4 167 0
4 -167 0
-167 163 0
-168 -105 -167 0
-168 105 167 0
-167 105 168 0
168 -105 167 0
-168 -169 -166 0
168 -169 166 0
168 169 -166 0
-168 169 166 0
-168 170 -166 0
-170 168 0
-170 166 0
-105 171 -167 0
-171 105 0
-171 167 0
170 171 -172 0
172 -170 0
172 -171 0
-163 173 -10 0
10 -173 0
-173 163 0
-173 -174 -111 0
111 173 -174 0
111 -173 174 0
173 174 -111 0
-172 -175 -174 0
172 -175 174 0
175 174 -172 0
172 175 -174 0
-172 176 -174 0
174 -176 0
172 -176 0
-173 177 -111 0
111 -177 0
-177 173 0
176 177 -178 0
-176 178 0
-177 178 0
179 -163 -18 0
18 -179 0
-179 163 0
-180 -179 -117 0
179 117 -180 0
180 -179 117 0
179 180 -117 0
-180 -178 -181 0
180 -181 178 0
180 -178 181 0
-180 181 178 0
-180 182 -178 0
180 -182 0
-182 178 0
183 -179 -117 0
117 -183 0
179 -183 0
183 182 -184 0
-182 184 0
184 -183 0
-26 -163 185 0
-185 26 0
-185 163 0
-123 -186 -185 0
185 -186 123 0
186 -185 123 0
-123 185 186 0
-187 -184 -186 0
-187 186 184 0
186 -184 187 0
184 187 -186 0
188 -184 -186 0
-188 186 0
-188 184 0
-123 189 -185 0
-189 123 0
185 -189 0
-190 188 189 0
-188 190 0
190 -189 0
-163 -34 191 0
34 -191 0
-191 163 0
-191 -129 -192 0
-192 129 191 0
-191 192 129 0
-129 192 191 0
-190 -192 -193 0
190 -193 192 0
-190 193 192 0
190 -192 193 0
-190 -192 194 0
-194 192 0
190 -194 0
-191 -129 195 0
-195 129 0
-195 191 0
-196 194 195 0
196 -194 0
-195 196 0
-163 197 -42 0
42 -197 0
163 -197 0
-198 -135 -197 0
-198 197 135 0
198 135 -197 0
-135 197 198 0
-198 -199 -196 0
196 -199 198 0
199 -196 198 0
-198 196 199 0
-198 200 -196 0
-200 198 0
196 -200 0
-135 201 -197 0
-201 135 0
197 -201 0
200 201 -202 0
202 -200 0
202 -201 0
-163 203 -50 0
-203 50 0
-203 163 0
-204 -141 -203 0
203 141 -204 0
204 141 -203 0
203 -141 204 0
-205 -202 -204 0
202 -205 204 0
205 -202 204 0
202 205 -204 0
206 -202 -204 0
-206 204 0
202 -206 0
207 -141 -203 0
141 -207 0
203 -207 0
206 207 -208 0
-206 208 0
208 -207 0
-163 209 -58 0
-209 58 0
-209 163 0
-147 -209 -210 0
209 -210 147 0
210 -209 147 0
-147 210 209 0
-211 -210 -208 0
208 210 -211 0
211 210 -208 0
211 208 -210 0
212 -210 -208 0
-212 210 0
-212 208 0
213 -147 -209 0
-213 147 0
-213 209 0
213 212 -214 0
-212 214 0
-213 214 0
-163 215 -66 0
-215 66 0
163 -215 0
-153 -216 -215 0
153 -216 215 0
153 216 -215 0
-153 216 215 0
-216 -214 -217 0
214 216 -217 0
217 216 -214 0
217 -216 214 0
-216 218 -214 0
-218 216 0
-218 214 0
-153 219 -215 0
153 -219 0
-219 215 0
218 219 -220 0
-218 220 0
220 -219 0
-163 221 -74 0
74 -221 0
-221 163 0
-222 -159 -221 0
159 -222 221 0
159 -221 222 0
-159 221 222 0
-223 -222 -220 0
-223 220 222 0
-220 222 223 0
220 -222 223 0
-222 224 -220 0
222 -224 0
220 -224 0
-159 225 -221 0
159 -225 0
-225 221 0
-226 224 225 0
226 -224 0
-225 226 0
-163 -82 227 0
-227 82 0
-227 163 0
-227 -228 -162 0
-228 162 227 0
-227 228 162 0
228 227 -162 0
-226 -228 -229 0
228 -229 226 0
-226 228 229 0
-228 229 226 0
-226 -228 230 0
228 -230 0
-230 226 0
-227 231 -162 0
-231 162 0
-231 227 0
230 -232 231 0
232 -230 0
-231 232 0
234 -1 -233 0
1 -234 0
233 -234 0
-235 -169 -234 0
-235 234 169 0
235 169 -234 0
235 234 -169 0
236 -169 -234 0
-236 169 0
-236 234 0
-4 237 -233 0
4 -237 0
233 -237 0
-175 -238 -237 0
-238 175 237 0
175 238 -237 0
-175 238 237 0
-236 -239 -238 0
236 -239 238 0
-236 238 239 0
236 -238 239 0
-236 240 -238 0
-240 238 0
-240 236 0
-175 241 -237 0
175 -241 0
237 -241 0
-242 240 241 0
-240 242 0
242 -241 0
243 -10 -233 0
10 -243 0
233 -243 0
-244 -243 -181 0
181 -244 243 0
181 244 -243 0
244 243 -181 0
-242 -244 -245 0
244 -245 242 0
-242 244 245 0
-244 245 242 0
-242 -244 246 0
-246 244 0
-246 242 0
247 -243 -181 0
181 -247 0
-247 243 0
247 -248 246 0
-246 248 0
248 -247 0
249 -18 -233 0
18 -249 0
-249 233 0
-187 -250 -249 0
-250 187 249 0
-249 187 250 0
-187 249 250 0
-251 -250 -248 0
-251 248 250 0
-248 251 250 0
-250 251 248 0
-250 -248 252 0
-252 250 0
248 -252 0
-187 253 -249 0
-253 187 0
-253 249 0
253 -254 252 0
254 -252 0
254 -253 0
-26 255 -233 0
-255 26 0
233 -255 0
-193 -255 -256 0
255 193 -256 0
193 -255 256 0
-193 255 256 0
-257 -254 -256 0
254 -257 256 0
257 -254 256 0
257 254 -256 0
258 -254 -256 0
-258 256 0
254 -258 0
-193 259 -255 0
193 -259 0
255 -259 0
259 -260 258 0
260 -258 0
260 -259 0
-233 -34 261 0
34 -261 0
233 -261 0
-262 -261 -199 0
199 -262 261 0
199 262 -261 0
262 -199 261 0
-262 -260 -263 0
260 262 -263 0
263 262 -260 0
263 -262 260 0
-262 -260 264 0
-264 262 0
-264 260 0
-261 -199 265 0
199 -265 0
-265 261 0
-266 265 264 0
-264 266 0
-265 266 0
267 -233 -42 0
42 -267 0
233 -267 0
-268 -205 -267 0
267 -268 205 0
205 268 -267 0
267 268 -205 0
-266 -268 -269 0
-269 268 266 0
-266 268 269 0
269 -268 266 0
-266 270 -268 0
-270 268 0
-270 266 0
271 -205 -267 0
205 -271 0
267 -271 0
270 -272 271 0
272 -270 0
272 -271 0
273 -50 -233 0
50 -273 0
233 -273 0
-274 -211 -273 0
211 -274 273 0
274 211 -273 0
274 273 -211 0
-272 -274 -275 0
274 272 -275 0
274 275 -272 0
272 275 -274 0
276 -272 -274 0
274 -276 0
272 -276 0
277 -211 -273 0
211 -277 0
-277 273 0
-278 277 276 0
278 -276 0
278 -277 0
279 -233 -58 0
-279 58 0
-279 233 0
-280 -279 -217 0
-280 217 279 0
217 -279 280 0
279 -217 280 0
-280 -278 -281 0
278 280 -281 0
281 -278 280 0
-280 281 278 0
-280 282 -278 0
-282 280 0
-282 278 0
283 -279 -217 0
217 -283 0
279 -283 0
282 283 -284 0
284 -282 0
284 -283 0
285 -233 -66 0
-285 66 0
233 -285 0
-223 -285 -286 0
-286 223 285 0
286 -285 223 0
-223 286 285 0
-287 -286 -284 0
284 -287 286 0
287 286 -284 0
287 284 -286 0
288 -286 -284 0
286 -288 0
284 -288 0
-223 -285 289 0
-289 223 0
-289 285 0
288 -290 289 0
290 -288 0
290 -289 0
-74 291 -233 0
74 -291 0
233 -291 0
-291 -229 -292 0
291 229 -292 0
292 -291 229 0
292 291 -229 0
-290 -292 -293 0
292 290 -293 0
292 293 -290 0
290 293 -292 0
294 -290 -292 0
292 -294 0
-294 290 0
295 -291 -229 0
229 -295 0
291 -295 0
295 294 -296 0
296 -294 0
296 -295 0
297 -82 -233 0
-297 82 0
-297 233 0
-297 -298 -232 0
-298 232 297 0
-297 232 298 0
297 -232 298 0
-298 -299 -296 0
-299 296 298 0
299 -296 298 0
-298 296 299 0
-298 300 -296 0
-300 298 0
296 -300 0
-297 301 -232 0
-301 232 0
-301 297 0
300 301 -302 0
302 -300 0
302 -301 0
-303 -1 304 0
1 -304 0
303 -304 0
-305 -239 -304 0
-305 239 304 0
305 239 -304 0
305 -239 304 0
306 -239 -304 0
-306 239 0
-306 304 0
-303 -4 307 0
-307 4 0
303 -307 0
-307 -308 -245 0
307 -308 245 0
-307 308 245 0
307 308 -245 0
-306 -308 -309 0
306 308 -309 0
-306 308 309 0
306 -308 309 0
-306 -308 310 0
308 -310 0
306 -310 0
-307 311 -245 0
-311 245 0
-311 307 0
311 -312 310 0
312 -310 0
312 -311 0
-303 313 -10 0
10 -313 0
303 -313 0
-251 -313 -314 0
251 313 -314 0
-313 251 314 0
-251 314 313 0
-315 -314 -312 0
312 314 -315 0
314 -312 315 0
312 -314 315 0
316 -314 -312 0
-316 314 0
312 -316 0
-251 -313 317 0
251 -317 0
313 -317 0
316 -318 317 0
318 -316 0
318 -317 0
-303 -18 319 0
18 -319 0
303 -319 0
-319 -257 -320 0
257 -320 319 0
257 320 -319 0
-257 320 319 0
-320 -321 -318 0
318 -321 320 0
321 320 -318 0
318 -320 321 0
-320 322 -318 0
320 -322 0
318 -322 0
-319 -257 323 0
257 -323 0
-323 319 0
-324 323 322 0
324 -322 0
-323 324 0
-26 -303 325 0
-325 26 0
303 -325 0
-326 -325 -263 0
263 -326 325 0
263 326 -325 0
326 325 -263 0
-324 -327 -326 0
326 324 -327 0
-324 326 327 0
324 -326 327 0
-324 -326 328 0
326 -328 0
324 -328 0
329 -325 -263 0
-329 263 0
-329 325 0
329 -330 328 0
-328 330 0
-329 330 0
-303 331 -34 0
34 -331 0
303 -331 0
-332 -269 -331 0
331 -332 269 0
332 -331 269 0
331 332 -269 0
-332 -333 -330 0
332 330 -333 0
333 -330 332 0
333 -332 330 0
334 -332 -330 0
-334 332 0
-334 330 0
335 -269 -331 0
-335 269 0
331 -335 0
334 -336 335 0
336 -334 0
336 -335 0
-303 337 -42 0
42 -337 0
303 -337 0
-338 -275 -337 0
275 337 -338 0
275 338 -337 0
338 337 -275 0
-336 -339 -338 0
336 338 -339 0
339 338 -336 0
336 -338 339 0
-336 -338 340 0
-340 338 0
336 -340 0
341 -275 -337 0
275 -341 0
337 -341 0
341 -342 340 0
-340 342 0
-341 342 0
343 -303 -50 0
-343 50 0
303 -343 0
-343 -344 -281 0
343 281 -344 0
-343 281 344 0
343 344 -281 0
-345 -342 -344 0
-345 342 344 0
345 -342 344 0
345 342 -344 0
346 -342 -344 0
-346 344 0
-346 342 0
-343 347 -281 0
281 -347 0
343 -347 0
347 -348 346 0
-346 348 0
348 -347 0
-303 349 -58 0
-349 58 0
303 -349 0
-349 -287 -350 0
287 349 -350 0
287 -349 350 0
-287 349 350 0
-348 -350 -351 0
348 350 -351 0
351 350 -348 0
351 348 -350 0
-348 -350 352 0
-352 350 0
348 -352 0
-349 -287 353 0
287 -353 0
-353 349 0
353 -354 352 0
354 -352 0
354 -353 0
-303 355 -66 0
-355 66 0
303 -355 0
-355 -356 -293 0
-356 293 355 0
356 -355 293 0
356 355 -293 0
-357 -356 -354 0
356 -357 354 0
356 357 -354 0
354 -356 357 0
-356 358 -354 0
356 -358 0
-358 354 0
359 -355 -293 0
-359 293 0
-359 355 0
359 358 -360 0
-358 360 0
-359 360 0
-303 361 -74 0
74 -361 0
303 -361 0
-299 -362 -361 0
361 -362 299 0
362 -361 299 0
-299 361 362 0
-363 -362 -360 0
-363 362 360 0
363 362 -360 0
-362 363 360 0
-362 364 -360 0
-364 362 0
-364 360 0
-299 -361 365 0
-365 299 0
-365 361 0
-366 364 365 0
366 -364 0
-365 366 0
-303 367 -82 0
82 -367 0
303 -367 0
-368 -302 -367 0
302 367 -368 0
302 368 -367 0
367 368 -302 0
-369 -366 -368 0
-369 366 368 0
369 -366 368 0
366 369 -368 0
370 -366 -368 0
-370 368 0
-370 366 0
371 -302 -367 0
302 -371 0
367 -371 0
-372 370 371 0
-370 372 0
372 -371 0
374 -373 -1 0
1 -374 0
373 -374 0
-375 -374 -309 0
-375 374 309 0
375 309 -374 0
374 375 -309 0
376 -374 -309 0
-376 309 0
374 -376 0
377 -4 -373 0
-377 4 0
-377 373 0
-377 -315 -378 0
-378 377 315 0
-377 378 315 0
377 378 -315 0
-378 -376 -379 0
378 -379 376 0
-376 378 379 0
-378 376 379 0
-378 -376 380 0
378 -380 0
376 -380 0
-377 381 -315 0
-381 315 0
377 -381 0
-382 381 380 0
-380 382 0
382 -381 0
-373 -10 383 0
10 -383 0
373 -383 0
-321 -383 -384 0
321 383 -384 0
384 321 -383 0
384 -321 383 0
-385 -382 -384 0
-385 384 382 0
385 -382 384 0
385 382 -384 0
386 -382 -384 0
-386 384 0
-386 382 0
-321 -383 387 0
321 -387 0
383 -387 0
-388 386 387 0
388 -386 0
388 -387 0
389 -373 -18 0
18 -389 0
-389 373 0
-389 -327 -390 0
389 -390 327 0
-389 390 327 0
389 390 -327 0
-388 -390 -391 0
388 390 -391 0
390 -388 391 0
388 -390 391 0
-388 -390 392 0
390 -392 0
388 -392 0
-389 -327 393 0
327 -393 0
389 -393 0
-394 393 392 0
-392 394 0
-393 394 0
-26 395 -373 0
-395 26 0
-395 373 0
-395 -333 -396 0
333 395 -396 0
333 -395 396 0
395 -333 396 0
-397 -394 -396 0
-397 396 394 0
397 -394 396 0
397 -396 394 0
398 -394 -396 0
396 -398 0
-398 394 0
-395 -333 399 0
333 -399 0
-399 395 0
398 -400 399 0
400 -398 0
-399 400 0
401 -373 -34 0
34 -401 0
373 -401 0
-402 -339 -401 0
339 401 -402 0
339 402 -401 0
401 -339 402 0
-402 -403 -400 0
402 -403 400 0
403 402 -400 0
-402 400 403 0
-402 404 -400 0
402 -404 0
400 -404 0
405 -339 -401 0
339 -405 0
401 -405 0
405 404 -406 0
406 -404 0
406 -405 0
407 -373 -42 0
-407 42 0
-407 373 0
-407 -345 -408 0
407 345 -408 0
-407 345 408 0
407 408 -345 0
-409 -408 -406 0
406 408 -409 0
409 408 -406 0
409 406 -408 0
410 -408 -406 0
408 -410 0
406 -410 0
-407 411 -345 0
345 -411 0
407 -411 0
-412 410 411 0
-410 412 0
-411 412 0
-373 -50 413 0
-413 50 0
-413 373 0
-414 -413 -351 0
351 -414 413 0
351 414 -413 0
414 413 -351 0
-412 -414 -415 0
414 -415 412 0
-412 414 415 0
-414 415 412 0
-412 -414 416 0
414 -416 0
-416 412 0
-413 -351 417 0
351 -417 0
-417 413 0
-418 416 417 0
-416 418 0
-417 418 0
419 -373 -58 0
-419 58 0
-419 373 0
-357 -420 -419 0
419 -420 357 0
-419 357 420 0
-357 419 420 0
-418 -420 -421 0
418 -421 420 0
-418 421 420 0
-420 418 421 0
422 -418 -420 0
-422 420 0
-422 418 0
-357 -419 423 0
357 -423 0
419 -423 0
422 423 -424 0
-422 424 0
424 -423 0
425 -373 -66 0
-425 66 0
373 -425 0
-363 -426 -425 0
425 363 -426 0
363 426 -425 0
-363 425 426 0
-427 -424 -426 0
-427 424 426 0
427 -424 426 0
424 427 -426 0
-424 -426 428 0
-428 426 0
-428 424 0
-363 429 -425 0
363 -429 0
425 -429 0
429 -430 428 0
-428 430 0
430 -429 0
431 -373 -74 0
74 -431 0
-431 373 0
-369 -432 -431 0
-432 431 369 0
432 -431 369 0
-369 431 432 0
-432 -433 -430 0
432 430 -433 0
432 -430 433 0
-432 433 430 0
-432 434 -430 0
432 -434 0
-434 430 0
-369 -431 435 0
-435 369 0
431 -435 0
434 -436 435 0
-434 436 0
-435 436 0
437 -373 -82 0
82 -437 0
373 -437 0
-372 -438 -437 0
372 437 -438 0
438 372 -437 0
438 -372 437 0
-439 -438 -436 0
438 -439 436 0
438 439 -436 0
439 -438 436 0
440 -438 -436 0
438 -440 0
-440 436 0
-372 441 -437 0
372 -441 0
437 -441 0
440 441 -442 0
-440 442 0
442 -441 0
-443 -1 444 0
1 -444 0
-444 443 0
-445 -379 -444 0
-445 379 444 0
445 379 -444 0
445 -379 444 0
-379 -444 446 0
-446 379 0
-446 444 0
-443 -4 447 0
-447 4 0
-447 443 0
-447 -448 -385 0
385 447 -448 0
385 -447 448 0
448 447 -385 0
-449 -446 -448 0
-449 446 448 0
449 -446 448 0
449 446 -448 0
-446 450 -448 0
-450 448 0
-450 446 0
-447 451 -385 0
385 -451 0
-451 447 0
450 451 -452 0
-450 452 0
-451 452 0
453 -443 -10 0
10 -453 0
443 -453 0
-454 -391 -453 0
453 -454 391 0
454 391 -453 0
454 453 -391 0
-454 -455 -452 0
454 -455 452 0
454 455 -452 0
-454 455 452 0
456 -454 -452 0
454 -456 0
-456 452 0
457 -391 -453 0
391 -457 0
453 -457 0
456 457 -458 0
-456 458 0
-457 458 0
-443 -18 459 0
18 -459 0
-459 443 0
-459 -460 -397 0
397 -460 459 0
460 -459 397 0
460 -397 459 0
-461 -460 -458 0
460 458 -461 0
460 461 -458 0
458 461 -460 0
462 -460 -458 0
-462 460 0
-462 458 0
-459 463 -397 0
397 -463 0
-463 459 0
462 463 -464 0
-462 464 0
464 -463 0
465 -26 -443 0
-465 26 0
-465 443 0
-465 -466 -403 0
465 -466 403 0
-465 466 403 0
465 466 -403 0
-467 -464 -466 0
-467 464 466 0
467 466 -464 0
467 464 -466 0
-464 -466 468 0
-468 466 0
-468 464 0
-465 469 -403 0
-469 403 0
465 -469 0
-470 469 468 0
-468 470 0
-469 470 0
471 -443 -34 0
34 -471 0
443 -471 0
-472 -409 -471 0
471 409 -472 0
409 472 -471 0
471 472 -409 0
-473 -472 -470 0
472 -473 470 0
472 -470 473 0
-472 470 473 0
-472 -470 474 0
472 -474 0
-474 470 0
475 -409 -471 0
409 -475 0
471 -475 0
475 474 -476 0
476 -474 0
476 -475 0
-443 -42 477 0
42 -477 0
-477 443 0
-477 -478 -415 0
-478 415 477 0
-477 478 415 0
-415 478 477 0
-476 -478 -479 0
476 478 -479 0
-476 479 478 0
476 479 -478 0
-476 -478 480 0
-480 478 0
476 -480 0
-477 -415 481 0
-481 415 0
-481 477 0
481 480 -482 0
-480 482 0
-481 482 0
483 -443 -50 0
50 -483 0
443 -483 0
-484 -421 -483 0
483 421 -484 0
484 421 -483 0
483 484 -421 0
-485 -482 -484 0
482 484 -485 0
485 484 -482 0
482 485 -484 0
486 -482 -484 0
484 -486 0
482 -486 0
487 -421 -483 0
-487 421 0
483 -487 0
487 -488 486 0
488 -486 0
-487 488 0
489 -443 -58 0
-489 58 0
-489 443 0
-427 -490 -489 0
489 -490 427 0
-489 427 490 0
489 -427 490 0
-490 -491 -488 0
-491 488 490 0
491 -488 490 0
491 -490 488 0
-490 492 -488 0
-492 490 0
-492 488 0
493 -427 -489 0
-493 427 0
489 -493 0
493 492 -494 0
-492 494 0
-493 494 0
-443 495 -66 0
-495 66 0
443 -495 0
-496 -433 -495 0
-496 433 495 0
496 433 -495 0
496 -433 495 0
-496 -497 -494 0
496 -497 494 0
496 497 -494 0
-496 497 494 0
-496 498 -494 0
496 -498 0
-498 494 0
499 -433 -495 0
433 -499 0
-499 495 0
499 498 -500 0
-498 500 0
-499 500 0
-443 -74 501 0
74 -501 0
-501 443 0
-501 -439 -502 0
439 501 -502 0
-501 502 439 0
502 -439 501 0
-500 -503 -502 0
-503 500 502 0
-500 502 503 0
500 503 -502 0
-500 504 -502 0
502 -504 0
500 -504 0
-501 505 -439 0
-505 439 0
-505 501 0
505 504 -506 0
506 -504 0
506 -505 0
-443 -82 507 0
82 -507 0
-507 443 0
-442 -507 -508 0
442 507 -508 0
508 442 -507 0
508 -442 507 0
-509 -506 -508 0
506 -509 508 0
509 508 -506 0
506 509 -508 0
-506 510 -508 0
508 -510 0
506 -510 0
-442 -507 511 0
442 -511 0
-511 507 0
-512 511 510 0
512 -510 0
-511 512 0
514 -1 -513 0
1 -514 0
513 -514 0
-515 -449 -514 0
-515 514 449 0
515 -514 449 0
515 -449 514 0
-449 516 -514 0
-516 449 0
-516 514 0
517 -4 -513 0
-517 4 0
513 -517 0
-518 -455 -517 0
517 -518 455 0
-517 455 518 0
517 -455 518 0
-516 -518 -519 0
-519 516 518 0
-516 519 518 0
519 -518 516 0
-516 -518 520 0
-520 518 0
-520 516 0
521 -455 -517 0
455 -521 0
517 -521 0
521 520 -522 0
522 -520 0
522 -521 0
-513 -10 523 0
10 -523 0
513 -523 0
-461 -523 -524 0
461 -524 523 0
461 -523 524 0
-461 524 523 0
-525 -524 -522 0
-525 522 524 0
525 524 -522 0
525 522 -524 0
526 -524 -522 0
524 -526 0
522 -526 0
-461 527 -523 0
461 -527 0
-527 523 0
526 527 -528 0
528 -526 0
528 -527 0
529 -18 -513 0
18 -529 0
513 -529 0
-467 -530 -529 0
529 467 -530 0
467 530 -529 0
529 -467 530 0
-528 -531 -530 0
528 530 -531 0
-528 530 531 0
528 -530 531 0
-528 -530 532 0
-532 530 0
-532 528 0
533 -467 -529 0
467 -533 0
529 -533 0
533 -534 532 0
-532 534 0
534 -533 0
-26 -513 535 0
-535 26 0
513 -535 0
-536 -473 -535 0
535 -536 473 0
536 -535 473 0
536 -473 535 0
-537 -534 -536 0
536 534 -537 0
536 -534 537 0
534 537 -536 0
-534 -536 538 0
536 -538 0
-538 534 0
-473 539 -535 0
-539 473 0
-539 535 0
-540 539 538 0
540 -538 0
540 -539 0
541 -513 -34 0
34 -541 0
513 -541 0
-479 -542 -541 0
479 541 -542 0
479 542 -541 0
-479 541 542 0
-540 -543 -542 0
540 -543 542 0
-540 542 543 0
540 -542 543 0
-540 -542 544 0
542 -544 0
540 -544 0
-479 545 -541 0
479 -545 0
-545 541 0
545 -546 544 0
546 -544 0
-545 546 0
547 -513 -42 0
42 -547 0
513 -547 0
-548 -547 -485 0
485 -548 547 0
485 -547 548 0
548 547 -485 0
-546 -548 -549 0
-549 546 548 0
-546 549 548 0
549 -548 546 0
-546 -548 550 0
-550 548 0
546 -550 0
551 -547 -485 0
485 -551 0
-551 547 0
-552 550 551 0
552 -550 0
-551 552 0
-513 -50 553 0
-553 50 0
513 -553 0
-554 -553 -491 0
-554 491 553 0
491 554 -553 0
553 554 -491 0
-554 -552 -555 0
-555 554 552 0
-552 555 554 0
-554 555 552 0
-554 -552 556 0
-556 554 0
-556 552 0
-553 -491 557 0
491 -557 0
553 -557 0
557 -558 556 0
-556 558 0
558 -557 0
-513 559 -58 0
58 -559 0
513 -559 0
-497 -559 -560 0
497 559 -560 0
497 -559 560 0
560 -497 559 0
-558 -561 -560 0
-561 558 560 0
561 -558 560 0
561 558 -560 0
562 -558 -560 0
-562 560 0
-562 558 0
-497 -559 563 0
497 -563 0
559 -563 0
562 -564 563 0
-562 564 0
564 -563 0
-513 565 -66 0
-565 66 0
513 -565 0
-565 -566 -503 0
-566 565 503 0
-565 566 503 0
566 -503 565 0
-566 -567 -564 0
564 -567 566 0
566 567 -564 0
-566 567 564 0
-566 568 -564 0
-568 566 0
564 -568 0
-565 569 -503 0
-569 503 0
-569 565 0
569 -570 568 0
570 -568 0
570 -569 0
571 -74 -513 0
74 -571 0
513 -571 0
-509 -572 -571 0
509 -572 571 0
509 572 -571 0
-509 571 572 0
-572 -570 -573 0
570 -573 572 0
573 -570 572 0
570 -572 573 0
574 -572 -570 0
572 -574 0
570 -574 0
575 -509 -571 0
509 -575 0
-575 571 0
574 575 -576 0
576 -574 0
-575 576 0
577 -82 -513 0
82 -577 0
513 -577 0
-512 -578 -577 0
577 -578 512 0
-577 578 512 0
577 -512 578 0
-578 -579 -576 0
578 -579 576 0
578 579 -576 0
-578 579 576 0
-578 580 -576 0
578 -580 0
-580 576 0
-512 581 -577 0
-581 512 0
577 -581 0
581 -582 580 0
-580 582 0
-581 582 0
-583 584 -1 0
1 -584 0
583 -584 0
-585 -519 -584 0
584 -585 519 0
585 519 -584 0
584 -519 585 0
-519 -584 586 0
519 -586 0
584 -586 0
-583 -4 587 0
-587 4 0
583 -587 0
-588 -587 -525 0
-588 525 587 0
588 525 -587 0
587 588 -525 0
-588 -586 -589 0
588 -589 586 0
588 -586 589 0
-588 586 589 0
590 -588 -586 0
588 -590 0
586 -590 0
591 -587 -525 0
525 -591 0
587 -591 0
590 591 -592 0
592 -590 0
592 -591 0
-583 -10 593 0
10 -593 0
583 -593 0
-594 -531 -593 0
-594 531 593 0
-593 594 531 0
-531 594 593 0
-594 -595 -592 0
-595 594 592 0
594 -592 595 0
-594 595 592 0
-594 596 -592 0
594 -596 0
-596 592 0
597 -531 -593 0
531 -597 0
593 -597 0
597 -598 596 0
-596 598 0
598 -597 0
-583 -18 599 0
18 -599 0
583 -599 0
-537 -600 -599 0
-600 537 599 0
600 537 -599 0
600 -537 599 0
-601 -598 -600 0
600 -601 598 0
601 600 -598 0
601 -600 598 0
-598 -600 602 0
600 -602 0
-602 598 0
-537 603 -599 0
-603 537 0
-603 599 0
-604 603 602 0
604 -602 0
-603 604 0
-26 -583 605 0
-605 26 0
-605 583 0
-605 -543 -606 0
605 -606 543 0
-605 606 543 0
-543 605 606 0
-604 -606 -607 0
606 604 -607 0
-604 606 607 0
-606 604 607 0
-604 608 -606 0
606 -608 0
604 -608 0
-605 -543 609 0
-609 543 0
-609 605 0
608 609 -610 0
610 -608 0
610 -609 0
-583 611 -34 0
-611 34 0
-611 583 0
-611 -612 -549 0
611 549 -612 0
-611 612 549 0
612 611 -549 0
-610 -613 -612 0
612 610 -613 0
612 -610 613 0
610 613 -612 0
614 -610 -612 0
612 -614 0
610 -614 0
-611 615 -549 0
-615 549 0
-615 611 0
614 -616 615 0
-614 616 0
-615 616 0
-583 617 -42 0
-617 42 0
-617 583 0
-618 -617 -555 0
-618 617 555 0
-617 555 618 0
-555 618 617 0
-618 -619 -616 0
-619 616 618 0
619 618 -616 0
-618 616 619 0
620 -618 -616 0
-620 618 0
-620 616 0
-617 -555 621 0
-621 555 0
-621 617 0
620 -622 621 0
-620 622 0
-621 622 0
-583 623 -50 0
-623 50 0
-623 583 0
-623 -624 -561 0
561 -624 623 0
561 -623 624 0
623 -561 624 0
-622 -625 -624 0
-625 622 624 0
-622 625 624 0
622 -624 625 0
-622 626 -624 0
-626 624 0
622 -626 0
627 -623 -561 0
-627 561 0
-627 623 0
627 626 -628 0
628 -626 0
-627 628 0
629 -583 -58 0
58 -629 0
583 -629 0
-630 -567 -629 0
629 -630 567 0
-629 630 567 0
629 -567 630 0
-630 -631 -628 0
-631 628 630 0
631 630 -628 0
-630 631 628 0
-630 632 -628 0
-632 630 0
-632 628 0
633 -567 -629 0
-633 567 0
629 -633 0
632 633 -634 0
-632 634 0
-633 634 0
-583 635 -66 0
-635 66 0
-635 583 0
-635 -636 -573 0
573 -636 635 0
573 636 -635 0
636 -573 635 0
-636 -637 -634 0
636 634 -637 0
637 636 -634 0
-636 634 637 0
638 -636 -634 0
636 -638 0
634 -638 0
-635 -573 639 0
573 -639 0
-639 635 0
638 -640 639 0
640 -638 0
640 -639 0
641 -583 -74 0
74 -641 0
-641 583 0
-641 -642 -579 0
641 -642 579 0
-641 579 642 0
641 -579 642 0
-642 -640 -643 0
640 -643 642 0
643 -640 642 0
640 643 -642 0
644 -642 -640 0
-644 642 0
640 -644 0
-641 645 -579 0
579 -645 0
641 -645 0
644 645 -646 0
-644 646 0
646 -645 0
647 -583 -82 0
82 -647 0
583 -647 0
-648 -582 -647 0
647 -648 582 0
648 -647 582 0
647 648 -582 0
-649 -648 -646 0
-649 648 646 0
648 649 -646 0
-648 646 649 0
-648 650 -646 0
-650 648 0
-650 646 0
651 -582 -647 0
-651 582 0
647 -651 0
651 -652 650 0
652 -650 0
652 -651 0
654 -653 -1 0
1 -654 0
653 -654 0
-654 -655 -589 0
654 589 -655 0
655 589 -654 0
654 655 -589 0
-654 656 -589 0
589 -656 0
654 -656 0
657 -653 -4 0
-657 4 0
-657 653 0
-657 -595 -658 0
657 595 -658 0
-657 658 595 0
657 -595 658 0
-659 -658 -656 0
658 -659 656 0
659 658 -656 0
656 659 -658 0
660 -658 -656 0
658 -660 0
-660 656 0
-657 -595 661 0
-661 595 0
657 -661 0
-662 660 661 0
-660 662 0
662 -661 0
-653 663 -10 0
10 -663 0
653 -663 0
-663 -601 -664 0
601 -664 663 0
601 664 -663 0
664 -601 663 0
-664 -662 -665 0
664 662 -665 0
664 665 -662 0
-664 665 662 0
666 -664 -662 0
664 -666 0
-666 662 0
-663 -601 667 0
601 -667 0
-667 663 0
666 -668 667 0
668 -666 0
-667 668 0
669 -653 -18 0
18 -669 0
-669 653 0
-669 -670 -607 0
669 -670 607 0
-669 670 607 0
669 670 -607 0
-668 -670 -671 0
668 670 -671 0
-668 670 671 0
668 -670 671 0
-668 672 -670 0
670 -672 0
668 -672 0
-669 673 -607 0
-673 607 0
669 -673 0
-674 672 673 0
674 -672 0
674 -673 0
-26 -653 675 0
-675 26 0
-675 653 0
-675 -676 -613 0
-676 675 613 0
-675 676 613 0
675 676 -613 0
-676 -674 -677 0
674 676 -677 0
-674 676 677 0
-676 674 677 0
-676 678 -674 0
676 -678 0
674 -678 0
-675 679 -613 0
-679 613 0
675 -679 0
678 -680 679 0
-678 680 0
-679 680 0
681 -653 -34 0
34 -681 0
653 -681 0
-682 -619 -681 0
681 619 -682 0
619 682 -681 0
681 -619 682 0
-682 -683 -680 0
-683 682 680 0
-680 683 682 0
-682 683 680 0
-682 684 -680 0
-684 682 0
-684 680 0
685 -619 -681 0
-685 619 0
681 -685 0
684 685 -686 0
-684 686 0
-685 686 0
687 -653 -42 0
42 -687 0
653 -687 0
-625 -688 -687 0
687 -688 625 0
688 -687 625 0
687 -625 688 0
-686 -688 -689 0
688 -689 686 0
-686 688 689 0
689 -688 686 0
690 -686 -688 0
688 -690 0
686 -690 0
-625 691 -687 0
-691 625 0
-691 687 0
-692 690 691 0
692 -690 0
-691 692 0
693 -653 -50 0
-693 50 0
653 -693 0
-694 -631 -693 0
693 631 -694 0
631 694 -693 0
693 -631 694 0
-692 -694 -695 0
694 -695 692 0
-692 694 695 0
-694 695 692 0
-692 -694 696 0
-696 694 0
-696 692 0
-631 -693 697 0
-697 631 0
693 -697 0
697 -698 696 0
-696 698 0
-697 698 0
699 -653 -58 0
58 -699 0
653 -699 0
-700 -699 -637 0
699 -700 637 0
700 -699 637 0
699 700 -637 0
-700 -701 -698 0
698 700 -701 0
700 701 -698 0
698 -700 701 0
702 -700 -698 0
-702 700 0
-702 698 0
-699 703 -637 0
-703 637 0
699 -703 0
702 703 -704 0
-702 704 0
704 -703 0
705 -653 -66 0
-705 66 0
-705 653 0
-705 -706 -643 0
643 -706 705 0
706 643 -705 0
705 706 -643 0
-707 -706 -704 0
706 -707 704 0
706 -704 707 0
-706 704 707 0
708 -706 -704 0
706 -708 0
704 -708 0
709 -705 -643 0
643 -709 0
705 -709 0
709 708 -710 0
-708 710 0
-709 710 0
711 -653 -74 0
74 -711 0
653 -711 0
-649 -712 -711 0
711 -712 649 0
712 649 -711 0
-649 711 712 0
-713 -712 -710 0
712 -713 710 0
712 713 -710 0
713 -712 710 0
714 -712 -710 0
712 -714 0
710 -714 0
-649 715 -711 0
-715 649 0
711 -715 0
-716 714 715 0
716 -714 0
-715 716 0
-653 -82 717 0
-717 82 0
-717 653 0
-717 -652 -718 0
652 -718 717 0
652 718 -717 0
-652 718 717 0
-716 -718 -719 0
-719 718 716 0
-716 718 719 0
-718 716 719 0
-716 720 -718 0
718 -720 0
-720 716 0
-717 -652 721 0
652 -721 0
-721 717 0
720 721 -722 0
-720 722 0
-721 722 0
-723 -1 724 0
1 -724 0
723 -724 0
-725 -724 -659 0
659 -725 724 0
725 659 -724 0
725 724 -659 0
726 -724 -659 0
659 -726 0
-726 724 0
-723 -4 727 0
-727 4 0
723 -727 0
-727 -728 -665 0
-728 727 665 0
-727 728 665 0
728 727 -665 0
-729 -728 -726 0
726 728 -729 0
728 729 -726 0
726 -728 729 0
-728 730 -726 0
728 -730 0
726 -730 0
-727 731 -665 0
665 -731 0
727 -731 0
730 731 -732 0
-730 732 0
732 -731 0
-723 -10 733 0
10 -733 0
723 -733 0
-733 -734 -671 0
-734 733 671 0
-733 734 671 0
733 734 -671 0
-735 -734 -732 0
-735 732 734 0
-732 735 734 0
735 -734 732 0
736 -734 -732 0
-736 734 0
-736 732 0
-733 737 -671 0
-737 671 0
-737 733 0
-738 736 737 0
-736 738 0
-737 738 0
-723 739 -18 0
18 -739 0
723 -739 0
-739 -740 -677 0
739 -740 677 0
-739 740 677 0
739 740 -677 0
-738 -741 -740 0
738 -741 740 0
-738 741 740 0
738 741 -740 0
-738 -740 742 0
-742 740 0
738 -742 0
-739 -677 743 0
677 -743 0
739 -743 0
-744 742 743 0
-742 744 0
744 -743 0
-26 -723 745 0
-745 26 0
723 -745 0
-745 -683 -746 0
-746 683 745 0
746 683 -745 0
746 -683 745 0
-746 -744 -747 0
746 744 -747 0
746 -744 747 0
-746 744 747 0
-746 -744 748 0
746 -748 0
744 -748 0
-745 -683 749 0
683 -749 0
-749 745 0
-750 748 749 0
-748 750 0
750 -749 0
-723 751 -34 0
34 -751 0
723 -751 0
-751 -752 -689 0
751 -752 689 0
752 -751 689 0
752 -689 751 0
-753 -750 -752 0
752 -753 750 0
752 -750 753 0
753 -752 750 0
-750 754 -752 0
752 -754 0
-754 750 0
-751 755 -689 0
-755 689 0
-755 751 0
754 755 -756 0
756 -754 0
756 -755 0
-723 757 -42 0
-757 42 0
723 -757 0
-758 -757 -695 0
-758 695 757 0
758 -757 695 0
758 -695 757 0
-758 -756 -759 0
758 756 -759 0
759 758 -756 0
-758 756 759 0
-758 760 -756 0
758 -760 0
-760 756 0
-757 761 -695 0
-761 695 0
-761 757 0
-762 761 760 0
-760 762 0
762 -761 0
-723 -50 763 0
-763 50 0
723 -763 0
-763 -764 -701 0
-764 701 763 0
764 -763 701 0
764 763 -701 0
-762 -765 -764 0
764 -765 762 0
-762 764 765 0
762 -764 765 0
-762 766 -764 0
764 -766 0
762 -766 0
767 -763 -701 0
-767 701 0
-767 763 0
766 767 -768 0
-766 768 0
-767 768 0
769 -723 -58 0
58 -769 0
723 -769 0
-770 -707 -769 0
769 -770 707 0
770 -769 707 0
769 -707 770 0
-770 -768 -771 0
768 770 -771 0
771 770 -768 0
-770 768 771 0
-770 772 -768 0
770 -772 0
768 -772 0
773 -707 -769 0
-773 707 0
769 -773 0
773 -774 772 0
-772 774 0
-773 774 0
-723 775 -66 0
-775 66 0
723 -775 0
-775 -713 -776 0
713 775 -776 0
713 -775 776 0
776 775 -713 0
-774 -777 -776 0
776 -777 774 0
776 -774 777 0
777 774 -776 0
-774 778 -776 0
776 -778 0
-778 774 0
779 -775 -713 0
713 -779 0
775 -779 0
-780 779 778 0
-778 780 0
780 -779 0
-723 781 -74 0
74 -781 0
723 -781 0
-719 -782 -781 0
-782 781 719 0
-781 782 719 0
-719 781 782 0
-780 -782 -783 0
-783 782 780 0
-780 783 782 0
-782 783 780 0
-780 -782 784 0
-784 782 0
-784 780 0
-719 -781 785 0
-785 719 0
-785 781 0
784 785 -786 0
-784 786 0
-785 786 0
-723 -82 787 0
82 -787 0
723 -787 0
-722 -787 -788 0
-788 787 722 0
-787 788 722 0
-722 788 787 0
-789 -786 -788 0
-789 786 788 0
-786 789 788 0
789 786 -788 0
-786 -788 790 0
-790 788 0
-790 786 0
791 -722 -787 0
-791 722 0
-791 787 0
791 790 -792 0
792 -790 0
-791 792 0
3 0
-8 0
95 0
165 0
-235 0
305 0
375 0
445 0
515 0
-585 0
655 0
-725 0
-729 0
-735 0
-741 0
-747 0
-753 0
-759 0
-765 0
-771 0
-777 0
-783 0
-789 0
-792 0
