p cnf 792 2580
-1 -2 3 0
1 -3 0
2 -3 0
-4 -2 5 0
4 -5 0
2 -5 0
-1 -6 7 0
1 -7 0
6 -7 0
-5 -7 -8 0
5 7 -8 0
5 -7 8 0
-5 7 8 0
-5 -7 9 0
5 -9 0
7 -9 0
-10 -2 11 0
10 -11 0
2 -11 0
-4 -6 12 0
4 -12 0
6 -12 0
-11 -12 -13 0
11 12 -13 0
11 -12 13 0
-11 12 13 0
-13 -9 -14 0
13 9 -14 0
13 -9 14 0
-13 9 14 0
-13 -9 15 0
13 -15 0
9 -15 0
-11 -12 16 0
11 -16 0
12 -16 0
15 16 -17 0
-15 17 0
-16 17 0
-18 -2 19 0
18 -19 0
2 -19 0
-10 -6 20 0
10 -20 0
6 -20 0
-19 -20 -21 0
19 20 -21 0
19 -20 21 0
-19 20 21 0
-21 -17 -22 0
21 17 -22 0
21 -17 22 0
-21 17 22 0
-21 -17 23 0
21 -23 0
17 -23 0
-19 -20 24 0
19 -24 0
20 -24 0
23 24 -25 0
-23 25 0
-24 25 0
-26 -2 27 0
26 -27 0
2 -27 0
-18 -6 28 0
18 -28 0
6 -28 0
-27 -28 -29 0
27 28 -29 0
27 -28 29 0
-27 28 29 0
-29 -25 -30 0
29 25 -30 0
29 -25 30 0
-29 25 30 0
-29 -25 31 0
29 -31 0
25 -31 0
-27 -28 32 0
27 -32 0
28 -32 0
31 32 -33 0
-31 33 0
-32 33 0
-34 -2 35 0
34 -35 0
2 -35 0
-26 -6 36 0
26 -36 0
6 -36 0
-35 -36 -37 0
35 36 -37 0
35 -36 37 0
-35 36 37 0
-37 -33 -38 0
37 33 -38 0
37 -33 38 0
-37 33 38 0
-37 -33 39 0
37 -39 0
33 -39 0
-35 -36 40 0
35 -40 0
36 -40 0
39 40 -41 0
-39 41 0
-40 41 0
-42 -2 43 0
42 -43 0
2 -43 0
-34 -6 44 0
34 -44 0
6 -44 0
-43 -44 -45 0
43 44 -45 0
43 -44 45 0
-43 44 45 0
-45 -41 -46 0
45 41 -46 0
45 -41 46 0
-45 41 46 0
-45 -41 47 0
45 -47 0
41 -47 0
-43 -44 48 0
43 -48 0
44 -48 0
47 48 -49 0
-47 49 0
-48 49 0
-50 -2 51 0
50 -51 0
2 -51 0
-42 -6 52 0
42 -52 0
6 -52 0
-51 -52 -53 0
51 52 -53 0
51 -52 53 0
-51 52 53 0
-53 -49 -54 0
53 49 -54 0
53 -49 54 0
-53 49 54 0
-53 -49 55 0
53 -55 0
49 -55 0
-51 -52 56 0
51 -56 0
52 -56 0
55 56 -57 0
-55 57 0
-56 57 0
-58 -2 59 0
58 -59 0
2 -59 0
-50 -6 60 0
50 -60 0
6 -60 0
-59 -60 -61 0
59 60 -61 0
59 -60 61 0
-59 60 61 0
-61 -57 -62 0
61 57 -62 0
61 -57 62 0
-61 57 62 0
-61 -57 63 0
61 -63 0
57 -63 0
-59 -60 64 0
59 -64 0
60 -64 0
63 64 -65 0
-63 65 0
-64 65 0
-66 -2 67 0
66 -67 0
2 -67 0
-58 -6 68 0
58 -68 0
6 -68 0
-67 -68 -69 0
67 68 -69 0
67 -68 69 0
-67 68 69 0
-69 -65 -70 0
69 65 -70 0
69 -65 70 0
-69 65 70 0
-69 -65 71 0
69 -71 0
65 -71 0
-67 -68 72 0
67 -72 0
68 -72 0
71 72 -73 0
-71 73 0
-72 73 0
-74 -2 75 0
74 -75 0
2 -75 0
-66 -6 76 0
66 -76 0
6 -76 0
-75 -76 -77 0
75 76 -77 0
75 -76 77 0
-75 76 77 0
-77 -73 -78 0
77 73 -78 0
77 -73 78 0
-77 73 78 0
-77 -73 79 0
77 -79 0
73 -79 0
-75 -76 80 0
75 -80 0
76 -80 0
79 80 -81 0
-79 81 0
-80 81 0
-82 -2 83 0
82 -83 0
2 -83 0
-74 -6 84 0
74 -84 0
6 -84 0
-83 -84 -85 0
83 84 -85 0
83 -84 85 0
-83 84 85 0
-85 -81 -86 0
85 81 -86 0
85 -81 86 0
-85 81 86 0
-85 -81 87 0
85 -87 0
81 -87 0
-83 -84 88 0
83 -88 0
84 -88 0
87 88 -89 0
-87 89 0
-88 89 0
-82 -6 90 0
82 -90 0
6 -90 0
-89 -90 -91 0
89 90 -91 0
89 -90 91 0
-89 90 91 0
-89 -90 92 0
89 -92 0
90 -92 0
-1 -93 94 0
1 -94 0
93 -94 0
-14 -94 -95 0
14 94 -95 0
14 -94 95 0
-14 94 95 0
-14 -94 96 0
14 -96 0
94 -96 0
-4 -93 97 0
4 -97 0
93 -97 0
-22 -97 -98 0
22 97 -98 0
22 -97 98 0
-22 97 98 0
-98 -96 -99 0
98 96 -99 0
98 -96 99 0
-98 96 99 0
-98 -96 100 0
98 -100 0
96 -100 0
-22 -97 101 0
22 -101 0
97 -101 0
100 101 -102 0
-100 102 0
-101 102 0
-10 -93 103 0
10 -103 0
93 -103 0
-30 -103 -104 0
30 103 -104 0
30 -103 104 0
-30 103 104 0
-104 -102 -105 0
104 102 -105 0
104 -102 105 0
-104 102 105 0
-104 -102 106 0
104 -106 0
102 -106 0
-30 -103 107 0
30 -107 0
103 -107 0
106 107 -108 0
-106 108 0
-107 108 0
-18 -93 109 0
18 -109 0
93 -109 0
-38 -109 -110 0
38 109 -110 0
38 -109 110 0
-38 109 110 0
-110 -108 -111 0
110 108 -111 0
110 -108 111 0
-110 108 111 0
-110 -108 112 0
110 -112 0
108 -112 0
-38 -109 113 0
38 -113 0
109 -113 0
112 113 -114 0
-112 114 0
-113 114 0
-26 -93 115 0
26 -115 0
93 -115 0
-46 -115 -116 0
46 115 -116 0
46 -115 116 0
-46 115 116 0
-116 -114 -117 0
116 114 -117 0
116 -114 117 0
-116 114 117 0
-116 -114 118 0
116 -118 0
114 -118 0
-46 -115 119 0
46 -119 0
115 -119 0
118 119 -120 0
-118 120 0
-119 120 0
-34 -93 121 0
34 -121 0
93 -121 0
-54 -121 -122 0
54 121 -122 0
54 -121 122 0
-54 121 122 0
-122 -120 -123 0
122 120 -123 0
122 -120 123 0
-122 120 123 0
-122 -120 124 0
122 -124 0
120 -124 0
-54 -121 125 0
54 -125 0
121 -125 0
124 125 -126 0
-124 126 0
-125 126 0
-42 -93 127 0
42 -127 0
93 -127 0
-62 -127 -128 0
62 127 -128 0
62 -127 128 0
-62 127 128 0
-128 -126 -129 0
128 126 -129 0
128 -126 129 0
-128 126 129 0
-128 -126 130 0
128 -130 0
126 -130 0
-62 -127 131 0
62 -131 0
127 -131 0
130 131 -132 0
-130 132 0
-131 132 0
-50 -93 133 0
50 -133 0
93 -133 0
-70 -133 -134 0
70 133 -134 0
70 -133 134 0
-70 133 134 0
-134 -132 -135 0
134 132 -135 0
134 -132 135 0
-134 132 135 0
-134 -132 136 0
134 -136 0
132 -136 0
-70 -133 137 0
70 -137 0
133 -137 0
136 137 -138 0
-136 138 0
-137 138 0
-58 -93 139 0
58 -139 0
93 -139 0
-78 -139 -140 0
78 139 -140 0
78 -139 140 0
-78 139 140 0
-140 -138 -141 0
140 138 -141 0
140 -138 141 0
-140 138 141 0
-140 -138 142 0
140 -142 0
138 -142 0
-78 -139 143 0
78 -143 0
139 -143 0
142 143 -144 0
-142 144 0
-143 144 0
-66 -93 145 0
66 -145 0
93 -145 0
-86 -145 -146 0
86 145 -146 0
86 -145 146 0
-86 145 146 0
-146 -144 -147 0
146 144 -147 0
146 -144 147 0
-146 144 147 0
-146 -144 148 0
146 -148 0
144 -148 0
-86 -145 149 0
86 -149 0
145 -149 0
148 149 -150 0
-148 150 0
-149 150 0
-74 -93 151 0
74 -151 0
93 -151 0
-91 -151 -152 0
91 151 -152 0
91 -151 152 0
-91 151 152 0
-152 -150 -153 0
152 150 -153 0
152 -150 153 0
-152 150 153 0
-152 -150 154 0
152 -154 0
150 -154 0
-91 -151 155 0
91 -155 0
151 -155 0
154 155 -156 0
-154 156 0
-155 156 0
-82 -93 157 0
82 -157 0
93 -157 0
-92 -157 -158 0
92 157 -158 0
92 -157 158 0
-92 157 158 0
-158 -156 -159 0
158 156 -159 0
158 -156 159 0
-158 156 159 0
-158 -156 160 0
158 -160 0
156 -160 0
-92 -157 161 0
92 -161 0
157 -161 0
160 161 -162 0
-160 162 0
-161 162 0
-1 -163 164 0
1 -164 0
163 -164 0
-99 -164 -165 0
99 164 -165 0
99 -164 165 0
-99 164 165 0
-99 -164 166 0
99 -166 0
164 -166 0
-4 -163 167 0
4 -167 0
163 -167 0
-105 -167 -168 0
105 167 -168 0
105 -167 168 0
-105 167 168 0
-168 -166 -169 0
168 166 -169 0
168 -166 169 0
-168 166 169 0
-168 -166 170 0
168 -170 0
166 -170 0
-105 -167 171 0
105 -171 0
167 -171 0
170 171 -172 0
-170 172 0
-171 172 0
-10 -163 173 0
10 -173 0
163 -173 0
-111 -173 -174 0
111 173 -174 0
111 -173 174 0
-111 173 174 0
-174 -172 -175 0
174 172 -175 0
174 -172 175 0
-174 172 175 0
-174 -172 176 0
174 -176 0
172 -176 0
-111 -173 177 0
111 -177 0
173 -177 0
176 177 -178 0
-176 178 0
-177 178 0
-18 -163 179 0
18 -179 0
163 -179 0
-117 -179 -180 0
117 179 -180 0
117 -179 180 0
-117 179 180 0
-180 -178 -181 0
180 178 -181 0
180 -178 181 0
-180 178 181 0
-180 -178 182 0
180 -182 0
178 -182 0
-117 -179 183 0
117 -183 0
179 -183 0
182 183 -184 0
-182 184 0
-183 184 0
-26 -163 185 0
26 -185 0
163 -185 0
-123 -185 -186 0
123 185 -186 0
123 -185 186 0
-123 185 186 0
-186 -184 -187 0
186 184 -187 0
186 -184 187 0
-186 184 187 0
-186 -184 188 0
186 -188 0
184 -188 0
-123 -185 189 0
123 -189 0
185 -189 0
188 189 -190 0
-188 190 0
-189 190 0
-34 -163 191 0
34 -191 0
163 -191 0
-129 -191 -192 0
129 191 -192 0
129 -191 192 0
-129 191 192 0
-192 -190 -193 0
192 190 -193 0
192 -190 193 0
-192 190 193 0
-192 -190 194 0
192 -194 0
190 -194 0
-129 -191 195 0
129 -195 0
191 -195 0
194 195 -196 0
-194 196 0
-195 196 0
-42 -163 197 0
42 -197 0
163 -197 0
-135 -197 -198 0
135 197 -198 0
135 -197 198 0
-135 197 198 0
-198 -196 -199 0
198 196 -199 0
198 -196 199 0
-198 196 199 0
-198 -196 200 0
198 -200 0
196 -200 0
-135 -197 201 0
135 -201 0
197 -201 0
200 201 -202 0
-200 202 0
-201 202 0
-50 -163 203 0
50 -203 0
163 -203 0
-141 -203 -204 0
141 203 -204 0
141 -203 204 0
-141 203 204 0
-204 -202 -205 0
204 202 -205 0
204 -202 205 0
-204 202 205 0
-204 -202 206 0
204 -206 0
202 -206 0
-141 -203 207 0
141 -207 0
203 -207 0
206 207 -208 0
-206 208 0
-207 208 0
-58 -163 209 0
58 -209 0
163 -209 0
-147 -209 -210 0
147 209 -210 0
147 -209 210 0
-147 209 210 0
-210 -208 -211 0
210 208 -211 0
210 -208 211 0
-210 208 211 0
-210 -208 212 0
210 -212 0
208 -212 0
-147 -209 213 0
147 -213 0
209 -213 0
212 213 -214 0
-212 214 0
-213 214 0
-66 -163 215 0
66 -215 0
163 -215 0
-153 -215 -216 0
153 215 -216 0
153 -215 216 0
-153 215 216 0
-216 -214 -217 0
216 214 -217 0
216 -214 217 0
-216 214 217 0
-216 -214 218 0
216 -218 0
214 -218 0
-153 -215 219 0
153 -219 0
215 -219 0
218 219 -220 0
-218 220 0
-219 220 0
-74 -163 221 0
74 -221 0
163 -221 0
-159 -221 -222 0
159 221 -222 0
159 -221 222 0
-159 221 222 0
-222 -220 -223 0
222 220 -223 0
222 -220 223 0
-222 220 223 0
-222 -220 224 0
222 -224 0
220 -224 0
-159 -221 225 0
159 -225 0
221 -225 0
224 225 -226 0
-224 226 0
-225 226 0
-82 -163 227 0
82 -227 0
163 -227 0
-162 -227 -228 0
162 227 -228 0
162 -227 228 0
-162 227 228 0
-228 -226 -229 0
228 226 -229 0
228 -226 229 0
-228 226 229 0
-228 -226 230 0
228 -230 0
226 -230 0
-162 -227 231 0
162 -231 0
227 -231 0
230 231 -232 0
-230 232 0
-231 232 0
-1 -233 234 0
1 -234 0
233 -234 0
-169 -234 -235 0
169 234 -235 0
169 -234 235 0
-169 234 235 0
-169 -234 236 0
169 -236 0
234 -236 0
-4 -233 237 0
4 -237 0
233 -237 0
-175 -237 -238 0
175 237 -238 0
175 -237 238 0
-175 237 238 0
-238 -236 -239 0
238 236 -239 0
238 -236 239 0
-238 236 239 0
-238 -236 240 0
238 -240 0
236 -240 0
-175 -237 241 0
175 -241 0
237 -241 0
240 241 -242 0
-240 242 0
-241 242 0
-10 -233 243 0
10 -243 0
233 -243 0
-181 -243 -244 0
181 243 -244 0
181 -243 244 0
-181 243 244 0
-244 -242 -245 0
244 242 -245 0
244 -242 245 0
-244 242 245 0
-244 -242 246 0
244 -246 0
242 -246 0
-181 -243 247 0
181 -247 0
243 -247 0
246 247 -248 0
-246 248 0
-247 248 0
-18 -233 249 0
18 -249 0
233 -249 0
-187 -249 -250 0
187 249 -250 0
187 -249 250 0
-187 249 250 0
-250 -248 -251 0
250 248 -251 0
250 -248 251 0
-250 248 251 0
-250 -248 252 0
250 -252 0
248 -252 0
-187 -249 253 0
187 -253 0
249 -253 0
252 253 -254 0
-252 254 0
-253 254 0
-26 -233 255 0
26 -255 0
233 -255 0
-193 -255 -256 0
193 255 -256 0
193 -255 256 0
-193 255 256 0
-256 -254 -257 0
256 254 -257 0
256 -254 257 0
-256 254 257 0
-256 -254 258 0
256 -258 0
254 -258 0
-193 -255 259 0
193 -259 0
255 -259 0
258 259 -260 0
-258 260 0
-259 260 0
-34 -233 261 0
34 -261 0
233 -261 0
-199 -261 -262 0
199 261 -262 0
199 -261 262 0
-199 261 262 0
-262 -260 -263 0
262 260 -263 0
262 -260 263 0
-262 260 263 0
-262 -260 264 0
262 -264 0
260 -264 0
-199 -261 265 0
199 -265 0
261 -265 0
264 265 -266 0
-264 266 0
-265 266 0
-42 -233 267 0
42 -267 0
233 -267 0
-205 -267 -268 0
205 267 -268 0
205 -267 268 0
-205 267 268 0
-268 -266 -269 0
268 266 -269 0
268 -266 269 0
-268 266 269 0
-268 -266 270 0
268 -270 0
266 -270 0
-205 -267 271 0
205 -271 0
267 -271 0
270 271 -272 0
-270 272 0
-271 272 0
-50 -233 273 0
50 -273 0
233 -273 0
-211 -273 -274 0
211 273 -274 0
211 -273 274 0
-211 273 274 0
-274 -272 -275 0
274 272 -275 0
274 -272 275 0
-274 272 275 0
-274 -272 276 0
274 -276 0
272 -276 0
-211 -273 277 0
211 -277 0
273 -277 0
276 277 -278 0
-276 278 0
-277 278 0
-58 -233 279 0
58 -279 0
233 -279 0
-217 -279 -280 0
217 279 -280 0
217 -279 280 0
-217 279 280 0
-280 -278 -281 0
280 278 -281 0
280 -278 281 0
-280 278 281 0
-280 -278 282 0
280 -282 0
278 -282 0
-217 -279 283 0
217 -283 0
279 -283 0
282 283 -284 0
-282 284 0
-283 284 0
-66 -233 285 0
66 -285 0
233 -285 0
-223 -285 -286 0
223 285 -286 0
223 -285 286 0
-223 285 286 0
-286 -284 -287 0
286 284 -287 0
286 -284 287 0
-286 284 287 0
-286 -284 288 0
286 -288 0
284 -288 0
-223 -285 289 0
223 -289 0
285 -289 0
288 289 -290 0
-288 290 0
-289 290 0
-74 -233 291 0
74 -291 0
233 -291 0
-229 -291 -292 0
229 291 -292 0
229 -291 292 0
-229 291 292 0
-292 -290 -293 0
292 290 -293 0
292 -290 293 0
-292 290 293 0
-292 -290 294 0
292 -294 0
290 -294 0
-229 -291 295 0
229 -295 0
291 -295 0
294 295 -296 0
-294 296 0
-295 296 0
-82 -233 297 0
82 -297 0
233 -297 0
-232 -297 -298 0
232 297 -298 0
232 -297 298 0
-232 297 298 0
-298 -296 -299 0
298 296 -299 0
298 -296 299 0
-298 296 299 0
-298 -296 300 0
298 -300 0
296 -300 0
-232 -297 301 0
232 -301 0
297 -301 0
300 301 -302 0
-300 302 0
-301 302 0
-1 -303 304 0
1 -304 0
303 -304 0
-239 -304 -305 0
239 304 -305 0
239 -304 305 0
-239 304 305 0
-239 -304 306 0
239 -306 0
304 -306 0
-4 -303 307 0
4 -307 0
303 -307 0
-245 -307 -308 0
245 307 -308 0
245 -307 308 0
-245 307 308 0
-308 -306 -309 0
308 306 -309 0
308 -306 309 0
-308 306 309 0
-308 -306 310 0
308 -310 0
306 -310 0
-245 -307 311 0
245 -311 0
307 -311 0
310 311 -312 0
-310 312 0
-311 312 0
-10 -303 313 0
10 -313 0
303 -313 0
-251 -313 -314 0
251 313 -314 0
251 -313 314 0
-251 313 314 0
-314 -312 -315 0
314 312 -315 0
314 -312 315 0
-314 312 315 0
-314 -312 316 0
314 -316 0
312 -316 0
-251 -313 317 0
251 -317 0
313 -317 0
316 317 -318 0
-316 318 0
-317 318 0
-18 -303 319 0
18 -319 0
303 -319 0
-257 -319 -320 0
257 319 -320 0
257 -319 320 0
-257 319 320 0
-320 -318 -321 0
320 318 -321 0
320 -318 321 0
-320 318 321 0
-320 -318 322 0
320 -322 0
318 -322 0
-257 -319 323 0
257 -323 0
319 -323 0
322 323 -324 0
-322 324 0
-323 324 0
-26 -303 325 0
26 -325 0
303 -325 0
-263 -325 -326 0
263 325 -326 0
263 -325 326 0
-263 325 326 0
-326 -324 -327 0
326 324 -327 0
326 -324 327 0
-326 324 327 0
-326 -324 328 0
326 -328 0
324 -328 0
-263 -325 329 0
263 -329 0
325 -329 0
328 329 -330 0
-328 330 0
-329 330 0
-34 -303 331 0
34 -331 0
303 -331 0
-269 -331 -332 0
269 331 -332 0
269 -331 332 0
-269 331 332 0
-332 -330 -333 0
332 330 -333 0
332 -330 333 0
-332 330 333 0
-332 -330 334 0
332 -334 0
330 -334 0
-269 -331 335 0
269 -335 0
331 -335 0
334 335 -336 0
-334 336 0
-335 336 0
-42 -303 337 0
42 -337 0
303 -337 0
-275 -337 -338 0
275 337 -338 0
275 -337 338 0
-275 337 338 0
-338 -336 -339 0
338 336 -339 0
338 -336 339 0
-338 336 339 0
-338 -336 340 0
338 -340 0
336 -340 0
-275 -337 341 0
275 -341 0
337 -341 0
340 341 -342 0
-340 342 0
-341 342 0
-50 -303 343 0
50 -343 0
303 -343 0
-281 -343 -344 0
281 343 -344 0
281 -343 344 0
-281 343 344 0
-344 -342 -345 0
344 342 -345 0
344 -342 345 0
-344 342 345 0
-344 -342 346 0
344 -346 0
342 -346 0
-281 -343 347 0
281 -347 0
343 -347 0
346 347 -348 0
-346 348 0
-347 348 0
-58 -303 349 0
58 -349 0
303 -349 0
-287 -349 -350 0
287 349 -350 0
287 -349 350 0
-287 349 350 0
-350 -348 -351 0
350 348 -351 0
350 -348 351 0
-350 348 351 0
-350 -348 352 0
350 -352 0
348 -352 0
-287 -349 353 0
287 -353 0
349 -353 0
352 353 -354 0
-352 354 0
-353 354 0
-66 -303 355 0
66 -355 0
303 -355 0
-293 -355 -356 0
293 355 -356 0
293 -355 356 0
-293 355 356 0
-356 -354 -357 0
356 354 -357 0
356 -354 357 0
-356 354 357 0
-356 -354 358 0
356 -358 0
354 -358 0
-293 -355 359 0
293 -359 0
355 -359 0
358 359 -360 0
-358 360 0
-359 360 0
-74 -303 361 0
74 -361 0
303 -361 0
-299 -361 -362 0
299 361 -362 0
299 -361 362 0
-299 361 362 0
-362 -360 -363 0
362 360 -363 0
362 -360 363 0
-362 360 363 0
-362 -360 364 0
362 -364 0
360 -364 0
-299 -361 365 0
299 -365 0
361 -365 0
364 365 -366 0
-364 366 0
-365 366 0
-82 -303 367 0
82 -367 0
303 -367 0
-302 -367 -368 0
302 367 -368 0
302 -367 368 0
-302 367 368 0
-368 -366 -369 0
368 366 -369 0
368 -366 369 0
-368 366 369 0
-368 -366 370 0
368 -370 0
366 -370 0
-302 -367 371 0
302 -371 0
367 -371 0
370 371 -372 0
-370 372 0
-371 372 0
-1 -373 374 0
1 -374 0
373 -374 0
-309 -374 -375 0
309 374 -375 0
309 -374 375 0
-309 374 375 0
-309 -374 376 0
309 -376 0
374 -376 0
-4 -373 377 0
4 -377 0
373 -377 0
-315 -377 -378 0
315 377 -378 0
315 -377 378 0
-315 377 378 0
-378 -376 -379 0
378 376 -379 0
378 -376 379 0
-378 376 379 0
-378 -376 380 0
378 -380 0
376 -380 0
-315 -377 381 0
315 -381 0
377 -381 0
380 381 -382 0
-380 382 0
-381 382 0
-10 -373 383 0
10 -383 0
373 -383 0
-321 -383 -384 0
321 383 -384 0
321 -383 384 0
-321 383 384 0
-384 -382 -385 0
384 382 -385 0
384 -382 385 0
-384 382 385 0
-384 -382 386 0
384 -386 0
382 -386 0
-321 -383 387 0
321 -387 0
383 -387 0
386 387 -388 0
-386 388 0
-387 388 0
-18 -373 389 0
18 -389 0
373 -389 0
-327 -389 -390 0
327 389 -390 0
327 -389 390 0
-327 389 390 0
-390 -388 -391 0
390 388 -391 0
390 -388 391 0
-390 388 391 0
-390 -388 392 0
390 -392 0
388 -392 0
-327 -389 393 0
327 -393 0
389 -393 0
392 393 -394 0
-392 394 0
-393 394 0
-26 -373 395 0
26 -395 0
373 -395 0
-333 -395 -396 0
333 395 -396 0
333 -395 396 0
-333 395 396 0
-396 -394 -397 0
396 394 -397 0
396 -394 397 0
-396 394 397 0
-396 -394 398 0
396 -398 0
394 -398 0
-333 -395 399 0
333 -399 0
395 -399 0
398 399 -400 0
-398 400 0
-399 400 0
-34 -373 401 0
34 -401 0
373 -401 0
-339 -401 -402 0
339 401 -402 0
339 -401 402 0
-339 401 402 0
-402 -400 -403 0
402 400 -403 0
402 -400 403 0
-402 400 403 0
-402 -400 404 0
402 -404 0
400 -404 0
-339 -401 405 0
339 -405 0
401 -405 0
404 405 -406 0
-404 406 0
-405 406 0
-42 -373 407 0
42 -407 0
373 -407 0
-345 -407 -408 0
345 407 -408 0
345 -407 408 0
-345 407 408 0
-408 -406 -409 0
408 406 -409 0
408 -406 409 0
-408 406 409 0
-408 -406 410 0
408 -410 0
406 -410 0
-345 -407 411 0
345 -411 0
407 -411 0
410 411 -412 0
-410 412 0
-411 412 0
-50 -373 413 0
50 -413 0
373 -413 0
-351 -413 -414 0
351 413 -414 0
351 -413 414 0
-351 413 414 0
-414 -412 -415 0
414 412 -415 0
414 -412 415 0
-414 412 415 0
-414 -412 416 0
414 -416 0
412 -416 0
-351 -413 417 0
351 -417 0
413 -417 0
416 417 -418 0
-416 418 0
-417 418 0
-58 -373 419 0
58 -419 0
373 -419 0
-357 -419 -420 0
357 419 -420 0
357 -419 420 0
-357 419 420 0
-420 -418 -421 0
420 418 -421 0
420 -418 421 0
-420 418 421 0
-420 -418 422 0
420 -422 0
418 -422 0
-357 -419 423 0
357 -423 0
419 -423 0
422 423 -424 0
-422 424 0
-423 424 0
-66 -373 425 0
66 -425 0
373 -425 0
-363 -425 -426 0
363 425 -426 0
363 -425 426 0
-363 425 426 0
-426 -424 -427 0
426 424 -427 0
426 -424 427 0
-426 424 427 0
-426 -424 428 0
426 -428 0
424 -428 0
-363 -425 429 0
363 -429 0
425 -429 0
428 429 -430 0
-428 430 0
-429 430 0
-74 -373 431 0
74 -431 0
373 -431 0
-369 -431 -432 0
369 431 -432 0
369 -431 432 0
-369 431 432 0
-432 -430 -433 0
432 430 -433 0
432 -430 433 0
-432 430 433 0
-432 -430 434 0
432 -434 0
430 -434 0
-369 -431 435 0
369 -435 0
431 -435 0
434 435 -436 0
-434 436 0
-435 436 0
-82 -373 437 0
82 -437 0
373 -437 0
-372 -437 -438 0
372 437 -438 0
372 -437 438 0
-372 437 438 0
-438 -436 -439 0
438 436 -439 0
438 -436 439 0
-438 436 439 0
-438 -436 440 0
438 -440 0
436 -440 0
-372 -437 441 0
372 -441 0
437 -441 0
440 441 -442 0
-440 442 0
-441 442 0
-1 -443 444 0
1 -444 0
443 -444 0
-379 -444 -445 0
379 444 -445 0
379 -444 445 0
-379 444 445 0
-379 -444 446 0
379 -446 0
444 -446 0
-4 -443 447 0
4 -447 0
443 -447 0
-385 -447 -448 0
385 447 -448 0
385 -447 448 0
-385 447 448 0
-448 -446 -449 0
448 446 -449 0
448 -446 449 0
-448 446 449 0
-448 -446 450 0
448 -450 0
446 -450 0
-385 -447 451 0
385 -451 0
447 -451 0
450 451 -452 0
-450 452 0
-451 452 0
-10 -443 453 0
10 -453 0
443 -453 0
-391 -453 -454 0
391 453 -454 0
391 -453 454 0
-391 453 454 0
-454 -452 -455 0
454 452 -455 0
454 -452 455 0
-454 452 455 0
-454 -452 456 0
454 -456 0
452 -456 0
-391 -453 457 0
391 -457 0
453 -457 0
456 457 -458 0
-456 458 0
-457 458 0
-18 -443 459 0
18 -459 0
443 -459 0
-397 -459 -460 0
397 459 -460 0
397 -459 460 0
-397 459 460 0
-460 -458 -461 0
460 458 -461 0
460 -458 461 0
-460 458 461 0
-460 -458 462 0
460 -462 0
458 -462 0
-397 -459 463 0
397 -463 0
459 -463 0
462 463 -464 0
-462 464 0
-463 464 0
-26 -443 465 0
26 -465 0
443 -465 0
-403 -465 -466 0
403 465 -466 0
403 -465 466 0
-403 465 466 0
-466 -464 -467 0
466 464 -467 0
466 -464 467 0
-466 464 467 0
-466 -464 468 0
466 -468 0
464 -468 0
-403 -465 469 0
403 -469 0
465 -469 0
468 469 -470 0
-468 470 0
-469 470 0
-34 -443 471 0
34 -471 0
443 -471 0
-409 -471 -472 0
409 471 -472 0
409 -471 472 0
-409 471 472 0
-472 -470 -473 0
472 470 -473 0
472 -470 473 0
-472 470 473 0
-472 -470 474 0
472 -474 0
470 -474 0
-409 -471 475 0
409 -475 0
471 -475 0
474 475 -476 0
-474 476 0
-475 476 0
-42 -443 477 0
42 -477 0
443 -477 0
-415 -477 -478 0
415 477 -478 0
415 -477 478 0
-415 477 478 0
-478 -476 -479 0
478 476 -479 0
478 -476 479 0
-478 476 479 0
-478 -476 480 0
478 -480 0
476 -480 0
-415 -477 481 0
415 -481 0
477 -481 0
480 481 -482 0
-480 482 0
-481 482 0
-50 -443 483 0
50 -483 0
443 -483 0
-421 -483 -484 0
421 483 -484 0
421 -483 484 0
-421 483 484 0
-484 -482 -485 0
484 482 -485 0
484 -482 485 0
-484 482 485 0
-484 -482 486 0
484 -486 0
482 -486 0
-421 -483 487 0
421 -487 0
483 -487 0
486 487 -488 0
-486 488 0
-487 488 0
-58 -443 489 0
58 -489 0
443 -489 0
-427 -489 -490 0
427 489 -490 0
427 -489 490 0
-427 489 490 0
-490 -488 -491 0
490 488 -491 0
490 -488 491 0
-490 488 491 0
-490 -488 492 0
490 -492 0
488 -492 0
-427 -489 493 0
427 -493 0
489 -493 0
492 493 -494 0
-492 494 0
-493 494 0
-66 -443 495 0
66 -495 0
443 -495 0
-433 -495 -496 0
433 495 -496 0
433 -495 496 0
-433 495 496 0
-496 -494 -497 0
496 494 -497 0
496 -494 497 0
-496 494 497 0
-496 -494 498 0
496 -498 0
494 -498 0
-433 -495 499 0
433 -499 0
495 -499 0
498 499 -500 0
-498 500 0
-499 500 0
-74 -443 501 0
74 -501 0
443 -501 0
-439 -501 -502 0
439 501 -502 0
439 -501 502 0
-439 501 502 0
-502 -500 -503 0
502 500 -503 0
502 -500 503 0
-502 500 503 0
-502 -500 504 0
502 -504 0
500 -504 0
-439 -501 505 0
439 -505 0
501 -505 0
504 505 -506 0
-504 506 0
-505 506 0
-82 -443 507 0
82 -507 0
443 -507 0
-442 -507 -508 0
442 507 -508 0
442 -507 508 0
-442 507 508 0
-508 -506 -509 0
508 506 -509 0
508 -506 509 0
-508 506 509 0
-508 -506 510 0
508 -510 0
506 -510 0
-442 -507 511 0
442 -511 0
507 -511 0
510 511 -512 0
-510 512 0
-511 512 0
-1 -513 514 0
1 -514 0
513 -514 0
-449 -514 -515 0
449 514 -515 0
449 -514 515 0
-449 514 515 0
-449 -514 516 0
449 -516 0
514 -516 0
-4 -513 517 0
4 -517 0
513 -517 0
-455 -517 -518 0
455 517 -518 0
455 -517 518 0
-455 517 518 0
-518 -516 -519 0
518 516 -519 0
518 -516 519 0
-518 516 519 0
-518 -516 520 0
518 -520 0
516 -520 0
-455 -517 521 0
455 -521 0
517 -521 0
520 521 -522 0
-520 522 0
-521 522 0
-10 -513 523 0
10 -523 0
513 -523 0
-461 -523 -524 0
461 523 -524 0
461 -523 524 0
-461 523 524 0
-524 -522 -525 0
524 522 -525 0
524 -522 525 0
-524 522 525 0
-524 -522 526 0
524 -526 0
522 -526 0
-461 -523 527 0
461 -527 0
523 -527 0
526 527 -528 0
-526 528 0
-527 528 0
-18 -513 529 0
18 -529 0
513 -529 0
-467 -529 -530 0
467 529 -530 0
467 -529 530 0
-467 529 530 0
-530 -528 -531 0
530 528 -531 0
530 -528 531 0
-530 528 531 0
-530 -528 532 0
530 -532 0
528 -532 0
-467 -529 533 0
467 -533 0
529 -533 0
532 533 -534 0
-532 534 0
-533 534 0
-26 -513 535 0
26 -535 0
513 -535 0
-473 -535 -536 0
473 535 -536 0
473 -535 536 0
-473 535 536 0
-536 -534 -537 0
536 534 -537 0
536 -534 537 0
-536 534 537 0
-536 -534 538 0
536 -538 0
534 -538 0
-473 -535 539 0
473 -539 0
535 -539 0
538 539 -540 0
-538 540 0
-539 540 0
-34 -513 541 0
34 -541 0
513 -541 0
-479 -541 -542 0
479 541 -542 0
479 -541 542 0
-479 541 542 0
-542 -540 -543 0
542 540 -543 0
542 -540 543 0
-542 540 543 0
-542 -540 544 0
542 -544 0
540 -544 0
-479 -541 545 0
479 -545 0
541 -545 0
544 545 -546 0
-544 546 0
-545 546 0
-42 -513 547 0
42 -547 0
513 -547 0
-485 -547 -548 0
485 547 -548 0
485 -547 548 0
-485 547 548 0
-548 -546 -549 0
548 546 -549 0
548 -546 549 0
-548 546 549 0
-548 -546 550 0
548 -550 0
546 -550 0
-485 -547 551 0
485 -551 0
547 -551 0
550 551 -552 0
-550 552 0
-551 552 0
-50 -513 553 0
50 -553 0
513 -553 0
-491 -553 -554 0
491 553 -554 0
491 -553 554 0
-491 553 554 0
-554 -552 -555 0
554 552 -555 0
554 -552 555 0
-554 552 555 0
-554 -552 556 0
554 -556 0
552 -556 0
-491 -553 557 0
491 -557 0
553 -557 0
556 557 -558 0
-556 558 0
-557 558 0
-58 -513 559 0
58 -559 0
513 -559 0
-497 -559 -560 0
497 559 -560 0
497 -559 560 0
-497 559 560 0
-560 -558 -561 0
560 558 -561 0
560 -558 561 0
-560 558 561 0
-560 -558 562 0
560 -562 0
558 -562 0
-497 -559 563 0
497 -563 0
559 -563 0
562 563 -564 0
-562 564 0
-563 564 0
-66 -513 565 0
66 -565 0
513 -565 0
-503 -565 -566 0
503 565 -566 0
503 -565 566 0
-503 565 566 0
-566 -564 -567 0
566 564 -567 0
566 -564 567 0
-566 564 567 0
-566 -564 568 0
566 -568 0
564 -568 0
-503 -565 569 0
503 -569 0
565 -569 0
568 569 -570 0
-568 570 0
-569 570 0
-74 -513 571 0
74 -571 0
513 -571 0
-509 -571 -572 0
509 571 -572 0
509 -571 572 0
-509 571 572 0
-572 -570 -573 0
572 570 -573 0
572 -570 573 0
-572 570 573 0
-572 -570 574 0
572 -574 0
570 -574 0
-509 -571 575 0
509 -575 0
571 -575 0
574 575 -576 0
-574 576 0
-575 576 0
-82 -513 577 0
82 -577 0
513 -577 0
-512 -577 -578 0
512 577 -578 0
512 -577 578 0
-512 577 578 0
-578 -576 -579 0
578 576 -579 0
578 -576 579 0
-578 576 579 0
-578 -576 580 0
578 -580 0
576 -580 0
-512 -577 581 0
512 -581 0
577 -581 0
580 581 -582 0
-580 582 0
-581 582 0
-1 -583 584 0
1 -584 0
583 -584 0
-519 -584 -585 0
519 584 -585 0
519 -584 585 0
-519 584 585 0
-519 -584 586 0
519 -586 0
584 -586 0
-4 -583 587 0
4 -587 0
583 -587 0
-525 -587 -588 0
525 587 -588 0
525 -587 588 0
-525 587 588 0
-588 -586 -589 0
588 586 -589 0
588 -586 589 0
-588 586 589 0
-588 -586 590 0
588 -590 0
586 -590 0
-525 -587 591 0
525 -591 0
587 -591 0
590 591 -592 0
-590 592 0
-591 592 0
-10 -583 593 0
10 -593 0
583 -593 0
-531 -593 -594 0
531 593 -594 0
531 -593 594 0
-531 593 594 0
-594 -592 -595 0
594 592 -595 0
594 -592 595 0
-594 592 595 0
-594 -592 596 0
594 -596 0
592 -596 0
-531 -593 597 0
531 -597 0
593 -597 0
596 597 -598 0
-596 598 0
-597 598 0
-18 -583 599 0
18 -599 0
583 -599 0
-537 -599 -600 0
537 599 -600 0
537 -599 600 0
-537 599 600 0
-600 -598 -601 0
600 598 -601 0
600 -598 601 0
-600 598 601 0
-600 -598 602 0
600 -602 0
598 -602 0
-537 -599 603 0
537 -603 0
599 -603 0
602 603 -604 0
-602 604 0
-603 604 0
-26 -583 605 0
26 -605 0
583 -605 0
-543 -605 -606 0
543 605 -606 0
543 -605 606 0
-543 605 606 0
-606 -604 -607 0
606 604 -607 0
606 -604 607 0
-606 604 607 0
-606 -604 608 0
606 -608 0
604 -608 0
-543 -605 609 0
543 -609 0
605 -609 0
608 609 -610 0
-608 610 0
-609 610 0
-34 -583 611 0
34 -611 0
583 -611 0
-549 -611 -612 0
549 611 -612 0
549 -611 612 0
-549 611 612 0
-612 -610 -613 0
612 610 -613 0
612 -610 613 0
-612 610 613 0
-612 -610 614 0
612 -614 0
610 -614 0
-549 -611 615 0
549 -615 0
611 -615 0
614 615 -616 0
-614 616 0
-615 616 0
-42 -583 617 0
42 -617 0
583 -617 0
-555 -617 -618 0
555 617 -618 0
555 -617 618 0
-555 617 618 0
-618 -616 -619 0
618 616 -619 0
618 -616 619 0
-618 616 619 0
-618 -616 620 0
618 -620 0
616 -620 0
-555 -617 621 0
555 -621 0
617 -621 0
620 621 -622 0
-620 622 0
-621 622 0
-50 -583 623 0
50 -623 0
583 -623 0
-561 -623 -624 0
561 623 -624 0
561 -623 624 0
-561 623 624 0
-624 -622 -625 0
624 622 -625 0
624 -622 625 0
-624 622 625 0
-624 -622 626 0
624 -626 0
622 -626 0
-561 -623 627 0
561 -627 0
623 -627 0
626 627 -628 0
-626 628 0
-627 628 0
-58 -583 629 0
58 -629 0
583 -629 0
-567 -629 -630 0
567 629 -630 0
567 -629 630 0
-567 629 630 0
-630 -628 -631 0
630 628 -631 0
630 -628 631 0
-630 628 631 0
-630 -628 632 0
630 -632 0
628 -632 0
-567 -629 633 0
567 -633 0
629 -633 0
632 633 -634 0
-632 634 0
-633 634 0
-66 -583 635 0
66 -635 0
583 -635 0
-573 -635 -636 0
573 635 -636 0
573 -635 636 0
-573 635 636 0
-636 -634 -637 0
636 634 -637 0
636 -634 637 0
-636 634 637 0
-636 -634 638 0
636 -638 0
634 -638 0
-573 -635 639 0
573 -639 0
635 -639 0
638 639 -640 0
-638 640 0
-639 640 0
-74 -583 641 0
74 -641 0
583 -641 0
-579 -641 -642 0
579 641 -642 0
579 -641 642 0
-579 641 642 0
-642 -640 -643 0
642 640 -643 0
642 -640 643 0
-642 640 643 0
-642 -640 644 0
642 -644 0
640 -644 0
-579 -641 645 0
579 -645 0
641 -645 0
644 645 -646 0
-644 646 0
-645 646 0
-82 -583 647 0
82 -647 0
583 -647 0
-582 -647 -648 0
582 647 -648 0
582 -647 648 0
-582 647 648 0
-648 -646 -649 0
648 646 -649 0
648 -646 649 0
-648 646 649 0
-648 -646 650 0
648 -650 0
646 -650 0
-582 -647 651 0
582 -651 0
647 -651 0
650 651 -652 0
-650 652 0
-651 652 0
-1 -653 654 0
1 -654 0
653 -654 0
-589 -654 -655 0
589 654 -655 0
589 -654 655 0
-589 654 655 0
-589 -654 656 0
589 -656 0
654 -656 0
-4 -653 657 0
4 -657 0
653 -657 0
-595 -657 -658 0
595 657 -658 0
595 -657 658 0
-595 657 658 0
-658 -656 -659 0
658 656 -659 0
658 -656 659 0
-658 656 659 0
-658 -656 660 0
658 -660 0
656 -660 0
-595 -657 661 0
595 -661 0
657 -661 0
660 661 -662 0
-660 662 0
-661 662 0
-10 -653 663 0
10 -663 0
653 -663 0
-601 -663 -664 0
601 663 -664 0
601 -663 664 0
-601 663 664 0
-664 -662 -665 0
664 662 -665 0
664 -662 665 0
-664 662 665 0
-664 -662 666 0
664 -666 0
662 -666 0
-601 -663 667 0
601 -667 0
663 -667 0
666 667 -668 0
-666 668 0
-667 668 0
-18 -653 669 0
18 -669 0
653 -669 0
-607 -669 -670 0
607 669 -670 0
607 -669 670 0
-607 669 670 0
-670 -668 -671 0
670 668 -671 0
670 -668 671 0
-670 668 671 0
-670 -668 672 0
670 -672 0
668 -672 0
-607 -669 673 0
607 -673 0
669 -673 0
672 673 -674 0
-672 674 0
-673 674 0
-26 -653 675 0
26 -675 0
653 -675 0
-613 -675 -676 0
613 675 -676 0
613 -675 676 0
-613 675 676 0
-676 -674 -677 0
676 674 -677 0
676 -674 677 0
-676 674 677 0
-676 -674 678 0
676 -678 0
674 -678 0
-613 -675 679 0
613 -679 0
675 -679 0
678 679 -680 0
-678 680 0
-679 680 0
-34 -653 681 0
34 -681 0
653 -681 0
-619 -681 -682 0
619 681 -682 0
619 -681 682 0
-619 681 682 0
-682 -680 -683 0
682 680 -683 0
682 -680 683 0
-682 680 683 0
-682 -680 684 0
682 -684 0
680 -684 0
-619 -681 685 0
619 -685 0
681 -685 0
684 685 -686 0
-684 686 0
-685 686 0
-42 -653 687 0
42 -687 0
653 -687 0
-625 -687 -688 0
625 687 -688 0
625 -687 688 0
-625 687 688 0
-688 -686 -689 0
688 686 -689 0
688 -686 689 0
-688 686 689 0
-688 -686 690 0
688 -690 0
686 -690 0
-625 -687 691 0
625 -691 0
687 -691 0
690 691 -692 0
-690 692 0
-691 692 0
-50 -653 693 0
50 -693 0
653 -693 0
-631 -693 -694 0
631 693 -694 0
631 -693 694 0
-631 693 694 0
-694 -692 -695 0
694 692 -695 0
694 -692 695 0
-694 692 695 0
-694 -692 696 0
694 -696 0
692 -696 0
-631 -693 697 0
631 -697 0
693 -697 0
696 697 -698 0
-696 698 0
-697 698 0
-58 -653 699 0
58 -699 0
653 -699 0
-637 -699 -700 0
637 699 -700 0
637 -699 700 0
-637 699 700 0
-700 -698 -701 0
700 698 -701 0
700 -698 701 0
-700 698 701 0
-700 -698 702 0
700 -702 0
698 -702 0
-637 -699 703 0
637 -703 0
699 -703 0
702 703 -704 0
-702 704 0
-703 704 0
-66 -653 705 0
66 -705 0
653 -705 0
-643 -705 -706 0
643 705 -706 0
643 -705 706 0
-643 705 706 0
-706 -704 -707 0
706 704 -707 0
706 -704 707 0
-706 704 707 0
-706 -704 708 0
706 -708 0
704 -708 0
-643 -705 709 0
643 -709 0
705 -709 0
708 709 -710 0
-708 710 0
-709 710 0
-74 -653 711 0
74 -711 0
653 -711 0
-649 -711 -712 0
649 711 -712 0
649 -711 712 0
-649 711 712 0
-712 -710 -713 0
712 710 -713 0
712 -710 713 0
-712 710 713 0
-712 -710 714 0
712 -714 0
710 -714 0
-649 -711 715 0
649 -715 0
711 -715 0
714 715 -716 0
-714 716 0
-715 716 0
-82 -653 717 0
82 -717 0
653 -717 0
-652 -717 -718 0
652 717 -718 0
652 -717 718 0
-652 717 718 0
-718 -716 -719 0
718 716 -719 0
718 -716 719 0
-718 716 719 0
-718 -716 720 0
718 -720 0
716 -720 0
-652 -717 721 0
652 -721 0
717 -721 0
720 721 -722 0
-720 722 0
-721 722 0
-1 -723 724 0
1 -724 0
723 -724 0
-659 -724 -725 0
659 724 -725 0
659 -724 725 0
-659 724 725 0
-659 -724 726 0
659 -726 0
724 -726 0
-4 -723 727 0
4 -727 0
723 -727 0
-665 -727 -728 0
665 727 -728 0
665 -727 728 0
-665 727 728 0
-728 -726 -729 0
728 726 -729 0
728 -726 729 0
-728 726 729 0
-728 -726 730 0
728 -730 0
726 -730 0
-665 -727 731 0
665 -731 0
727 -731 0
730 731 -732 0
-730 732 0
-731 732 0
-10 -723 733 0
10 -733 0
723 -733 0
-671 -733 -734 0
671 733 -734 0
671 -733 734 0
-671 733 734 0
-734 -732 -735 0
734 732 -735 0
734 -732 735 0
-734 732 735 0
-734 -732 736 0
734 -736 0
732 -736 0
-671 -733 737 0
671 -737 0
733 -737 0
736 737 -738 0
-736 738 0
-737 738 0
-18 -723 739 0
18 -739 0
723 -739 0
-677 -739 -740 0
677 739 -740 0
677 -739 740 0
-677 739 740 0
-740 -738 -741 0
740 738 -741 0
740 -738 741 0
-740 738 741 0
-740 -738 742 0
740 -742 0
738 -742 0
-677 -739 743 0
677 -743 0
739 -743 0
742 743 -744 0
-742 744 0
-743 744 0
-26 -723 745 0
26 -745 0
723 -745 0
-683 -745 -746 0
683 745 -746 0
683 -745 746 0
-683 745 746 0
-746 -744 -747 0
746 744 -747 0
746 -744 747 0
-746 744 747 0
-746 -744 748 0
746 -748 0
744 -748 0
-683 -745 749 0
683 -749 0
745 -749 0
748 749 -750 0
-748 750 0
-749 750 0
-34 -723 751 0
34 -751 0
723 -751 0
-689 -751 -752 0
689 751 -752 0
689 -751 752 0
-689 751 752 0
-752 -750 -753 0
752 750 -753 0
752 -750 753 0
-752 750 753 0
-752 -750 754 0
752 -754 0
750 -754 0
-689 -751 755 0
689 -755 0
751 -755 0
754 755 -756 0
-754 756 0
-755 756 0
-42 -723 757 0
42 -757 0
723 -757 0
-695 -757 -758 0
695 757 -758 0
695 -757 758 0
-695 757 758 0
-758 -756 -759 0
758 756 -759 0
758 -756 759 0
-758 756 759 0
-758 -756 760 0
758 -760 0
756 -760 0
-695 -757 761 0
695 -761 0
757 -761 0
760 761 -762 0
-760 762 0
-761 762 0
-50 -723 763 0
50 -763 0
723 -763 0
-701 -763 -764 0
701 763 -764 0
701 -763 764 0
-701 763 764 0
-764 -762 -765 0
764 762 -765 0
764 -762 765 0
-764 762 765 0
-764 -762 766 0
764 -766 0
762 -766 0
-701 -763 767 0
701 -767 0
763 -767 0
766 767 -768 0
-766 768 0
-767 768 0
-58 -723 769 0
58 -769 0
723 -769 0
-707 -769 -770 0
707 769 -770 0
707 -769 770 0
-707 769 770 0
-770 -768 -771 0
770 768 -771 0
770 -768 771 0
-770 768 771 0
-770 -768 772 0
770 -772 0
768 -772 0
-707 -769 773 0
707 -773 0
769 -773 0
772 773 -774 0
-772 774 0
-773 774 0
-66 -723 775 0
66 -775 0
723 -775 0
-713 -775 -776 0
713 775 -776 0
713 -775 776 0
-713 775 776 0
-776 -774 -777 0
776 774 -777 0
776 -774 777 0
-776 774 777 0
-776 -774 778 0
776 -778 0
774 -778 0
-713 -775 779 0
713 -779 0
775 -779 0
778 779 -780 0
-778 780 0
-779 780 0
-74 -723 781 0
74 -781 0
723 -781 0
-719 -781 -782 0
719 781 -782 0
719 -781 782 0
-719 781 782 0
-782 -780 -783 0
782 780 -783 0
782 -780 783 0
-782 780 783 0
-782 -780 784 0
782 -784 0
780 -784 0
-719 -781 785 0
719 -785 0
781 -785 0
784 785 -786 0
-784 786 0
-785 786 0
-82 -723 787 0
82 -787 0
723 -787 0
-722 -787 -788 0
722 787 -788 0
722 -787 788 0
-722 787 788 0
-788 -786 -789 0
788 786 -789 0
788 -786 789 0
-788 786 789 0
-788 -786 790 0
788 -790 0
786 -790 0
-722 -787 791 0
722 -791 0
787 -791 0
790 791 -792 0
-790 792 0
-791 792 0
3 0
-8 0
95 0
165 0
-235 0
305 0
375 0
445 0
515 0
-585 0
655 0
-725 0
-729 0
-735 0
-741 0
-747 0
-753 0
-759 0
-765 0
-771 0
-777 0
-783 0
-789 0
-792 0
