p cnf 1092 3570
-2 -1 3 0
1 -3 0
-3 2 0
5 -2 -4 0
-5 4 0
-5 2 0
-6 7 -1 0
1 -7 0
6 -7 0
-8 -5 -7 0
-8 5 7 0
5 8 -7 0
7 -5 8 0
9 -5 -7 0
5 -9 0
7 -9 0
-2 -10 11 0
10 -11 0
2 -11 0
-4 -6 12 0
-12 4 0
6 -12 0
-13 -12 -11 0
-13 12 11 0
13 -12 11 0
13 12 -11 0
-13 -9 -14 0
9 13 -14 0
14 -9 13 0
14 -13 9 0
15 -13 -9 0
13 -15 0
9 -15 0
16 -12 -11 0
-16 11 0
-16 12 0
15 16 -17 0
17 -15 0
17 -16 0
-2 -18 19 0
18 -19 0
-19 2 0
-6 -10 20 0
10 -20 0
-20 6 0
-19 -20 -21 0
-21 20 19 0
21 -20 19 0
-19 21 20 0
-22 -21 -17 0
21 17 -22 0
22 21 -17 0
22 17 -21 0
-21 23 -17 0
21 -23 0
17 -23 0
24 -19 -20 0
-24 19 0
20 -24 0
24 -25 23 0
25 -23 0
25 -24 0
-26 -2 27 0
-27 26 0
-27 2 0
-6 -18 28 0
18 -28 0
-28 6 0
-28 -29 -27 0
28 -29 27 0
-28 29 27 0
28 -27 29 0
-29 -25 -30 0
29 25 -30 0
30 29 -25 0
30 25 -29 0
31 -29 -25 0
-31 29 0
-31 25 0
-28 -27 32 0
-32 27 0
-32 28 0
31 32 -33 0
-31 33 0
33 -32 0
-2 35 -34 0
34 -35 0
2 -35 0
36 -26 -6 0
-36 26 0
6 -36 0
-37 -36 -35 0
36 35 -37 0
37 35 -36 0
36 37 -35 0
-38 -33 -37 0
33 -38 37 0
38 -33 37 0
38 33 -37 0
39 -33 -37 0
-39 37 0
-39 33 0
40 -36 -35 0
35 -40 0
36 -40 0
39 40 -41 0
-39 41 0
41 -40 0
-2 43 -42 0
-43 42 0
-43 2 0
-6 44 -34 0
34 -44 0
-44 6 0
-43 -44 -45 0
43 44 -45 0
43 -44 45 0
-43 44 45 0
-46 -41 -45 0
41 -46 45 0
46 -41 45 0
46 41 -45 0
47 -41 -45 0
-47 45 0
41 -47 0
-43 -44 48 0
-48 43 0
-48 44 0
-49 47 48 0
49 -47 0
-48 49 0
-2 51 -50 0
-51 50 0
-51 2 0
52 -6 -42 0
42 -52 0
6 -52 0
-51 -52 -53 0
52 51 -53 0
51 53 -52 0
52 -51 53 0
-53 -49 -54 0
49 53 -54 0
53 -49 54 0
-53 49 54 0
55 -53 -49 0
53 -55 0
49 -55 0
-51 56 -52 0
51 -56 0
52 -56 0
55 56 -57 0
-55 57 0
57 -56 0
59 -2 -58 0
-59 58 0
-59 2 0
60 -6 -50 0
-60 50 0
-60 6 0
-59 -60 -61 0
59 -61 60 0
59 61 -60 0
-59 61 60 0
-62 -61 -57 0
-62 61 57 0
62 61 -57 0
62 -61 57 0
63 -61 -57 0
61 -63 0
57 -63 0
-59 -60 64 0
59 -64 0
60 -64 0
64 63 -65 0
65 -63 0
65 -64 0
-2 67 -66 0
-67 66 0
-67 2 0
-6 68 -58 0
58 -68 0
6 -68 0
-67 -69 -68 0
68 -69 67 0
67 -68 69 0
-67 68 69 0
-69 -65 -70 0
-70 65 69 0
-65 70 69 0
65 -69 70 0
71 -69 -65 0
-71 69 0
65 -71 0
-67 72 -68 0
-72 67 0
-72 68 0
71 72 -73 0
-71 73 0
73 -72 0
-2 -74 75 0
74 -75 0
2 -75 0
76 -6 -66 0
-76 66 0
-76 6 0
-77 -76 -75 0
-77 76 75 0
-76 75 77 0
76 77 -75 0
-77 -73 -78 0
-78 73 77 0
78 -73 77 0
-77 78 73 0
-77 79 -73 0
-79 77 0
-79 73 0
-76 80 -75 0
-80 75 0
76 -80 0
79 80 -81 0
-79 81 0
81 -80 0
-2 -82 83 0
-83 82 0
-83 2 0
-6 -74 84 0
74 -84 0
-84 6 0
-84 -83 -85 0
84 -85 83 0
-84 85 83 0
-83 85 84 0
-86 -81 -85 0
-86 81 85 0
-81 85 86 0
81 86 -85 0
-81 -85 87 0
85 -87 0
81 -87 0
-84 -83 88 0
-88 83 0
-88 84 0
88 -89 87 0
-87 89 0
-88 89 0
91 -2 -90 0
90 -91 0
-91 2 0
-6 -82 92 0
82 -92 0
6 -92 0
-91 -93 -92 0
91 -93 92 0
91 93 -92 0
-91 92 93 0
-94 -89 -93 0
-94 93 89 0
93 -89 94 0
-93 94 89 0
-89 95 -93 0
93 -95 0
89 -95 0
-91 96 -92 0
91 -96 0
92 -96 0
96 95 -97 0
-95 97 0
-96 97 0
99 -2 -98 0
-99 98 0
-99 2 0
-90 -6 100 0
90 -100 0
6 -100 0
-99 -101 -100 0
99 -101 100 0
99 101 -100 0
-99 101 100 0
-101 -97 -102 0
101 -102 97 0
101 -97 102 0
-101 102 97 0
-101 103 -97 0
101 -103 0
-103 97 0
-99 104 -100 0
99 -104 0
-104 100 0
-105 103 104 0
105 -103 0
-104 105 0
106 -6 -98 0
-106 98 0
6 -106 0
-107 -105 -106 0
106 -107 105 0
107 -106 105 0
106 -105 107 0
108 -105 -106 0
-108 105 0
106 -108 0
110 -1 -109 0
1 -110 0
-110 109 0
-110 -14 -111 0
14 -111 110 0
14 111 -110 0
111 -14 110 0
-110 112 -14 0
14 -112 0
-112 110 0
-4 113 -109 0
-113 4 0
-113 109 0
-114 -113 -22 0
22 -114 113 0
22 -113 114 0
113 -22 114 0
-115 -114 -112 0
-115 112 114 0
-112 115 114 0
-114 112 115 0
-114 116 -112 0
-116 114 0
-116 112 0
-113 -22 117 0
22 -117 0
113 -117 0
116 -118 117 0
-116 118 0
118 -117 0
119 -10 -109 0
10 -119 0
109 -119 0
-120 -119 -30 0
30 119 -120 0
30 -119 120 0
120 119 -30 0
-121 -118 -120 0
120 -121 118 0
120 -118 121 0
121 118 -120 0
-118 122 -120 0
120 -122 0
118 -122 0
123 -119 -30 0
-123 30 0
-123 119 0
-124 122 123 0
124 -122 0
-123 124 0
125 -18 -109 0
18 -125 0
109 -125 0
-125 -38 -126 0
38 125 -126 0
38 126 -125 0
125 126 -38 0
-127 -124 -126 0
126 124 -127 0
126 127 -124 0
127 124 -126 0
128 -124 -126 0
126 -128 0
124 -128 0
129 -125 -38 0
38 -129 0
125 -129 0
-130 128 129 0
130 -128 0
130 -129 0
-26 131 -109 0
-131 26 0
-131 109 0
-131 -46 -132 0
131 -132 46 0
-131 132 46 0
-46 131 132 0
-133 -130 -132 0
130 132 -133 0
-130 132 133 0
130 -132 133 0
-130 134 -132 0
132 -134 0
130 -134 0
-131 -46 135 0
-135 46 0
-135 131 0
-136 134 135 0
136 -134 0
-135 136 0
137 -34 -109 0
34 -137 0
109 -137 0
-54 -138 -137 0
137 54 -138 0
-137 54 138 0
-54 137 138 0
-136 -138 -139 0
136 138 -139 0
-136 138 139 0
136 -138 139 0
-136 -138 140 0
-140 138 0
136 -140 0
-54 -137 141 0
-141 54 0
137 -141 0
-142 140 141 0
142 -140 0
142 -141 0
143 -42 -109 0
-143 42 0
-143 109 0
-62 -143 -144 0
62 143 -144 0
62 -143 144 0
-62 144 143 0
-145 -142 -144 0
-145 142 144 0
145 -142 144 0
145 142 -144 0
-142 -144 146 0
-146 144 0
-146 142 0
-62 -143 147 0
62 -147 0
-147 143 0
-148 147 146 0
-146 148 0
-147 148 0
149 -50 -109 0
-149 50 0
-149 109 0
-149 -150 -70 0
-150 149 70 0
-149 150 70 0
150 149 -70 0
-150 -148 -151 0
150 148 -151 0
151 150 -148 0
151 -150 148 0
152 -150 -148 0
-152 150 0
-152 148 0
153 -149 -70 0
-153 70 0
-153 149 0
153 -154 152 0
-152 154 0
-153 154 0
-109 155 -58 0
-155 58 0
-155 109 0
-155 -156 -78 0
78 155 -156 0
-155 78 156 0
156 155 -78 0
-157 -156 -154 0
-157 154 156 0
157 -154 156 0
157 -156 154 0
-156 158 -154 0
-158 156 0
-158 154 0
159 -155 -78 0
78 -159 0
-159 155 0
159 -160 158 0
-158 160 0
-159 160 0
-109 161 -66 0
-161 66 0
109 -161 0
-86 -161 -162 0
161 86 -162 0
162 86 -161 0
-86 161 162 0
-163 -160 -162 0
-163 162 160 0
163 162 -160 0
160 163 -162 0
164 -160 -162 0
-164 162 0
-164 160 0
-86 165 -161 0
86 -165 0
161 -165 0
164 165 -166 0
-164 166 0
166 -165 0
-74 167 -109 0
74 -167 0
109 -167 0
-94 -167 -168 0
-168 94 167 0
168 94 -167 0
-94 168 167 0
-168 -169 -166 0
168 -169 166 0
168 169 -166 0
-168 169 166 0
-168 170 -166 0
-170 168 0
-170 166 0
-94 171 -167 0
-171 94 0
-171 167 0
170 171 -172 0
172 -170 0
172 -171 0
173 -82 -109 0
82 -173 0
-173 109 0
-173 -174 -102 0
173 -174 102 0
-173 174 102 0
173 174 -102 0
-172 -175 -174 0
172 -175 174 0
175 174 -172 0
172 175 -174 0
-172 176 -174 0
174 -176 0
172 -176 0
-173 177 -102 0
-177 102 0
-177 173 0
176 177 -178 0
-176 178 0
-177 178 0
179 -90 -109 0
90 -179 0
-179 109 0
-180 -179 -107 0
179 -180 107 0
180 -179 107 0
179 -107 180 0
-180 -178 -181 0
180 -181 178 0
180 -178 181 0
-180 181 178 0
-180 182 -178 0
180 -182 0
-182 178 0
183 -179 -107 0
-183 107 0
179 -183 0
183 182 -184 0
-182 184 0
184 -183 0
185 -98 -109 0
-185 98 0
109 -185 0
-185 -186 -108 0
108 185 -186 0
108 186 -185 0
185 186 -108 0
-187 -184 -186 0
-187 186 184 0
186 -184 187 0
184 187 -186 0
188 -184 -186 0
-188 186 0
-188 184 0
-185 189 -108 0
108 -189 0
185 -189 0
-190 188 189 0
-188 190 0
190 -189 0
-191 -1 192 0
1 -192 0
-192 191 0
-193 -192 -115 0
-193 115 192 0
-192 115 193 0
193 192 -115 0
194 -192 -115 0
115 -194 0
-194 192 0
-191 -4 195 0
-195 4 0
-195 191 0
-195 -121 -196 0
-196 195 121 0
-195 196 121 0
195 -121 196 0
-194 -196 -197 0
194 196 -197 0
196 197 -194 0
194 197 -196 0
-194 -196 198 0
-198 196 0
194 -198 0
-195 -121 199 0
-199 121 0
195 -199 0
199 -200 198 0
-198 200 0
200 -199 0
-191 201 -10 0
10 -201 0
-201 191 0
-202 -201 -127 0
127 201 -202 0
202 127 -201 0
202 201 -127 0
-202 -200 -203 0
202 200 -203 0
202 203 -200 0
200 203 -202 0
-202 -200 204 0
202 -204 0
200 -204 0
205 -201 -127 0
127 -205 0
201 -205 0
-206 205 204 0
206 -204 0
206 -205 0
-191 -18 207 0
18 -207 0
-207 191 0
-207 -133 -208 0
-208 207 133 0
208 -207 133 0
208 207 -133 0
-206 -209 -208 0
206 208 -209 0
-206 208 209 0
206 209 -208 0
-206 210 -208 0
208 -210 0
206 -210 0
211 -207 -133 0
-211 133 0
-211 207 0
211 210 -212 0
212 -210 0
212 -211 0
213 -26 -191 0
-213 26 0
-213 191 0
-213 -214 -139 0
213 -214 139 0
-213 214 139 0
213 214 -139 0
-212 -214 -215 0
214 212 -215 0
-212 214 215 0
212 -214 215 0
-212 216 -214 0
-216 214 0
-216 212 0
-213 217 -139 0
-217 139 0
213 -217 0
217 216 -218 0
-216 218 0
218 -217 0
-191 219 -34 0
34 -219 0
-219 191 0
-145 -220 -219 0
145 219 -220 0
145 220 -219 0
-145 220 219 0
-218 -221 -220 0
220 218 -221 0
220 221 -218 0
218 221 -220 0
-218 -220 222 0
220 -222 0
218 -222 0
-145 -219 223 0
-223 145 0
-223 219 0
223 222 -224 0
-222 224 0
-223 224 0
-191 225 -42 0
-225 42 0
-225 191 0
-226 -225 -151 0
151 225 -226 0
151 -225 226 0
226 225 -151 0
-226 -227 -224 0
-227 224 226 0
227 -224 226 0
-226 224 227 0
-226 228 -224 0
-228 226 0
-228 224 0
-225 229 -151 0
151 -229 0
225 -229 0
228 -230 229 0
-228 230 0
230 -229 0
-191 -50 231 0
-231 50 0
-231 191 0
-231 -157 -232 0
157 -232 231 0
157 232 -231 0
-157 232 231 0
-230 -232 -233 0
232 230 -233 0
233 232 -230 0
233 230 -232 0
234 -230 -232 0
232 -234 0
230 -234 0
-231 -157 235 0
157 -235 0
-235 231 0
-236 235 234 0
236 -234 0
236 -235 0
-191 237 -58 0
58 -237 0
-237 191 0
-163 -238 -237 0
-238 237 163 0
238 163 -237 0
-163 238 237 0
-236 -239 -238 0
236 -239 238 0
-236 238 239 0
236 -238 239 0
-236 240 -238 0
-240 238 0
-240 236 0
-163 241 -237 0
163 -241 0
237 -241 0
-242 240 241 0
-240 242 0
242 -241 0
-191 243 -66 0
-243 66 0
-243 191 0
-244 -169 -243 0
-244 169 243 0
244 169 -243 0
244 -169 243 0
-242 -244 -245 0
244 -245 242 0
-242 244 245 0
-244 245 242 0
-242 -244 246 0
-246 244 0
-246 242 0
247 -169 -243 0
169 -247 0
-247 243 0
247 -248 246 0
-246 248 0
248 -247 0
-191 -74 249 0
-249 74 0
-249 191 0
-249 -175 -250 0
-250 175 249 0
-249 175 250 0
-175 249 250 0
-251 -250 -248 0
-251 248 250 0
-248 251 250 0
-250 251 248 0
-250 -248 252 0
-252 250 0
248 -252 0
-249 -175 253 0
175 -253 0
-253 249 0
253 -254 252 0
254 -252 0
254 -253 0
-191 255 -82 0
82 -255 0
-255 191 0
-256 -255 -181 0
181 255 -256 0
181 -255 256 0
255 256 -181 0
-257 -254 -256 0
254 -257 256 0
257 -254 256 0
257 254 -256 0
258 -254 -256 0
-258 256 0
254 -258 0
259 -255 -181 0
181 -259 0
255 -259 0
259 -260 258 0
260 -258 0
260 -259 0
-191 -90 261 0
90 -261 0
-261 191 0
-187 -262 -261 0
-262 187 261 0
262 -261 187 0
-187 262 261 0
-262 -260 -263 0
260 262 -263 0
263 262 -260 0
263 -262 260 0
-262 -260 264 0
-264 262 0
-264 260 0
-187 -261 265 0
-265 187 0
-265 261 0
-266 265 264 0
-264 266 0
-265 266 0
267 -191 -98 0
98 -267 0
-267 191 0
-190 -268 -267 0
190 -268 267 0
190 268 -267 0
267 -190 268 0
-266 -268 -269 0
-269 268 266 0
-266 268 269 0
269 -268 266 0
-266 270 -268 0
-270 268 0
-270 266 0
-190 271 -267 0
190 -271 0
267 -271 0
270 -272 271 0
272 -270 0
272 -271 0
274 -1 -273 0
1 -274 0
-274 273 0
-275 -274 -197 0
274 197 -275 0
275 197 -274 0
274 275 -197 0
276 -274 -197 0
197 -276 0
274 -276 0
-4 277 -273 0
4 -277 0
-277 273 0
-278 -277 -203 0
-278 203 277 0
203 278 -277 0
277 278 -203 0
-279 -278 -276 0
-279 276 278 0
-276 279 278 0
-278 279 276 0
280 -278 -276 0
-280 278 0
-280 276 0
281 -277 -203 0
203 -281 0
277 -281 0
281 -282 280 0
-280 282 0
282 -281 0
283 -10 -273 0
10 -283 0
273 -283 0
-209 -284 -283 0
283 -284 209 0
284 209 -283 0
283 284 -209 0
-285 -284 -282 0
282 284 -285 0
284 -282 285 0
282 -284 285 0
286 -284 -282 0
284 -286 0
282 -286 0
287 -209 -283 0
-287 209 0
283 -287 0
287 286 -288 0
288 -286 0
288 -287 0
289 -18 -273 0
18 -289 0
-289 273 0
-290 -289 -215 0
289 -290 215 0
290 -289 215 0
290 -215 289 0
-290 -291 -288 0
288 290 -291 0
290 291 -288 0
288 -290 291 0
-290 292 -288 0
290 -292 0
288 -292 0
-289 293 -215 0
-293 215 0
-293 289 0
292 -294 293 0
294 -292 0
294 -293 0
295 -26 -273 0
-295 26 0
273 -295 0
-221 -296 -295 0
295 221 -296 0
296 221 -295 0
295 296 -221 0
-297 -294 -296 0
-297 296 294 0
296 -294 297 0
297 294 -296 0
-294 -296 298 0
-298 296 0
-298 294 0
299 -221 -295 0
-299 221 0
295 -299 0
299 -300 298 0
-298 300 0
300 -299 0
301 -34 -273 0
34 -301 0
-301 273 0
-227 -301 -302 0
301 227 -302 0
302 -301 227 0
-227 301 302 0
-303 -300 -302 0
300 302 -303 0
303 302 -300 0
300 -302 303 0
-300 -302 304 0
302 -304 0
300 -304 0
305 -227 -301 0
-305 227 0
-305 301 0
305 -306 304 0
306 -304 0
306 -305 0
307 -42 -273 0
-307 42 0
-307 273 0
-307 -308 -233 0
233 -308 307 0
-307 308 233 0
308 307 -233 0
-306 -308 -309 0
306 308 -309 0
-306 308 309 0
306 -308 309 0
-306 -308 310 0
308 -310 0
306 -310 0
-307 311 -233 0
233 -311 0
-311 307 0
311 -312 310 0
312 -310 0
312 -311 0
313 -50 -273 0
-313 50 0
-313 273 0
-313 -239 -314 0
313 -314 239 0
-313 314 239 0
-239 313 314 0
-315 -314 -312 0
312 314 -315 0
314 -312 315 0
312 -314 315 0
316 -314 -312 0
-316 314 0
312 -316 0
-313 -239 317 0
-317 239 0
313 -317 0
316 -318 317 0
318 -316 0
318 -317 0
319 -273 -58 0
-319 58 0
-319 273 0
-319 -320 -245 0
-320 245 319 0
-319 320 245 0
320 -245 319 0
-320 -321 -318 0
318 -321 320 0
321 320 -318 0
318 -320 321 0
-320 322 -318 0
320 -322 0
318 -322 0
-319 323 -245 0
-323 245 0
-323 319 0
-324 323 322 0
324 -322 0
-323 324 0
325 -273 -66 0
-325 66 0
-325 273 0
-251 -326 -325 0
251 -326 325 0
326 251 -325 0
-251 326 325 0
-324 -327 -326 0
326 324 -327 0
-324 326 327 0
324 -326 327 0
-324 -326 328 0
326 -328 0
324 -328 0
-251 329 -325 0
-329 251 0
-329 325 0
329 -330 328 0
-328 330 0
-329 330 0
331 -74 -273 0
74 -331 0
273 -331 0
-257 -332 -331 0
257 331 -332 0
257 332 -331 0
331 -257 332 0
-332 -333 -330 0
332 330 -333 0
333 -330 332 0
333 -332 330 0
334 -332 -330 0
-334 332 0
-334 330 0
335 -257 -331 0
257 -335 0
331 -335 0
334 -336 335 0
336 -334 0
336 -335 0
337 -82 -273 0
82 -337 0
273 -337 0
-338 -337 -263 0
263 337 -338 0
263 338 -337 0
338 337 -263 0
-336 -339 -338 0
336 338 -339 0
339 338 -336 0
336 -338 339 0
-336 -338 340 0
-340 338 0
336 -340 0
341 -337 -263 0
263 -341 0
337 -341 0
341 -342 340 0
-340 342 0
-341 342 0
343 -90 -273 0
90 -343 0
-343 273 0
-343 -269 -344 0
343 -344 269 0
-343 344 269 0
343 -269 344 0
-345 -342 -344 0
-345 342 344 0
345 -342 344 0
345 342 -344 0
346 -342 -344 0
-346 344 0
-346 342 0
-343 347 -269 0
-347 269 0
343 -347 0
347 -348 346 0
-346 348 0
348 -347 0
349 -98 -273 0
-349 98 0
-349 273 0
-349 -272 -350 0
272 349 -350 0
272 -349 350 0
-272 349 350 0
-348 -350 -351 0
348 350 -351 0
351 350 -348 0
351 348 -350 0
-348 -350 352 0
-352 350 0
348 -352 0
-349 -272 353 0
272 -353 0
-353 349 0
353 -354 352 0
354 -352 0
354 -353 0
356 -355 -1 0
1 -356 0
-356 355 0
-357 -356 -279 0
356 -357 279 0
-356 279 357 0
356 -279 357 0
-356 -279 358 0
-358 279 0
356 -358 0
359 -355 -4 0
-359 4 0
-359 355 0
-359 -285 -360 0
359 -360 285 0
-359 285 360 0
359 -285 360 0
-358 -361 -360 0
358 -361 360 0
-358 361 360 0
361 358 -360 0
-358 362 -360 0
-362 360 0
-362 358 0
-359 363 -285 0
-363 285 0
359 -363 0
-364 363 362 0
-362 364 0
-363 364 0
-355 -10 365 0
10 -365 0
-365 355 0
-365 -366 -291 0
-366 291 365 0
-365 366 291 0
366 -291 365 0
-366 -364 -367 0
366 364 -367 0
366 367 -364 0
367 -366 364 0
-366 -364 368 0
366 -368 0
364 -368 0
-365 -291 369 0
-369 291 0
-369 365 0
-370 369 368 0
370 -368 0
-369 370 0
-355 371 -18 0
18 -371 0
355 -371 0
-297 -372 -371 0
-372 371 297 0
372 297 -371 0
-297 372 371 0
-370 -372 -373 0
372 370 -373 0
-370 372 373 0
-372 370 373 0
-370 -372 374 0
372 -374 0
370 -374 0
-297 375 -371 0
-375 297 0
-375 371 0
374 -376 375 0
376 -374 0
-375 376 0
-26 -355 377 0
-377 26 0
-377 355 0
-377 -303 -378 0
303 377 -378 0
303 378 -377 0
-303 377 378 0
-378 -376 -379 0
378 -379 376 0
-376 378 379 0
-378 376 379 0
-378 -376 380 0
378 -380 0
376 -380 0
-377 -303 381 0
303 -381 0
377 -381 0
-382 381 380 0
-380 382 0
382 -381 0
383 -355 -34 0
34 -383 0
-383 355 0
-384 -383 -309 0
309 383 -384 0
384 309 -383 0
384 383 -309 0
-385 -382 -384 0
-385 384 382 0
385 -382 384 0
385 382 -384 0
386 -382 -384 0
-386 384 0
-386 382 0
387 -383 -309 0
309 -387 0
383 -387 0
-388 386 387 0
388 -386 0
388 -387 0
389 -355 -42 0
-389 42 0
-389 355 0
-389 -390 -315 0
389 -390 315 0
-389 390 315 0
389 390 -315 0
-388 -390 -391 0
388 390 -391 0
390 -388 391 0
388 -390 391 0
-388 -390 392 0
390 -392 0
388 -392 0
-389 393 -315 0
-393 315 0
389 -393 0
-394 393 392 0
-392 394 0
-393 394 0
395 -355 -50 0
-395 50 0
-395 355 0
-395 -321 -396 0
395 321 -396 0
-395 321 396 0
395 -321 396 0
-397 -394 -396 0
-397 396 394 0
397 -394 396 0
397 -396 394 0
398 -394 -396 0
396 -398 0
-398 394 0
-395 -321 399 0
-399 321 0
-399 395 0
398 -400 399 0
400 -398 0
-399 400 0
401 -355 -58 0
58 -401 0
-401 355 0
-402 -327 -401 0
401 327 -402 0
402 327 -401 0
401 -327 402 0
-402 -403 -400 0
402 -403 400 0
403 402 -400 0
-402 400 403 0
-402 404 -400 0
402 -404 0
400 -404 0
405 -327 -401 0
327 -405 0
401 -405 0
405 404 -406 0
406 -404 0
406 -405 0
407 -355 -66 0
-407 66 0
-407 355 0
-407 -333 -408 0
333 407 -408 0
333 408 -407 0
407 408 -333 0
-409 -408 -406 0
406 408 -409 0
409 408 -406 0
409 406 -408 0
410 -408 -406 0
408 -410 0
406 -410 0
-407 411 -333 0
333 -411 0
407 -411 0
-412 410 411 0
-410 412 0
-411 412 0
-355 -74 413 0
74 -413 0
-413 355 0
-414 -339 -413 0
339 -414 413 0
339 414 -413 0
414 -339 413 0
-412 -414 -415 0
414 -415 412 0
-412 414 415 0
-414 415 412 0
-412 -414 416 0
414 -416 0
-416 412 0
-339 -413 417 0
339 -417 0
-417 413 0
-418 416 417 0
-416 418 0
-417 418 0
419 -355 -82 0
-419 82 0
-419 355 0
-419 -420 -345 0
-420 419 345 0
-419 345 420 0
419 -345 420 0
-418 -420 -421 0
418 -421 420 0
-418 421 420 0
-420 418 421 0
422 -418 -420 0
-422 420 0
-422 418 0
-419 423 -345 0
345 -423 0
419 -423 0
422 423 -424 0
-422 424 0
424 -423 0
425 -355 -90 0
90 -425 0
355 -425 0
-351 -426 -425 0
351 425 -426 0
351 426 -425 0
425 -351 426 0
-427 -424 -426 0
-427 424 426 0
427 -424 426 0
424 427 -426 0
-424 -426 428 0
-428 426 0
-428 424 0
429 -351 -425 0
351 -429 0
425 -429 0
429 -430 428 0
-428 430 0
430 -429 0
431 -355 -98 0
-431 98 0
-431 355 0
-432 -431 -354 0
-432 431 354 0
354 -431 432 0
431 432 -354 0
-432 -433 -430 0
432 430 -433 0
432 -430 433 0
-432 433 430 0
-432 434 -430 0
432 -434 0
-434 430 0
-431 435 -354 0
354 -435 0
431 -435 0
434 -436 435 0
-434 436 0
-435 436 0
438 -1 -437 0
1 -438 0
437 -438 0
-439 -361 -438 0
438 361 -439 0
439 361 -438 0
438 -361 439 0
440 -361 -438 0
361 -440 0
438 -440 0
441 -4 -437 0
4 -441 0
437 -441 0
-442 -441 -367 0
367 -442 441 0
367 442 -441 0
442 441 -367 0
-440 -442 -443 0
-443 440 442 0
-440 442 443 0
-442 440 443 0
-440 -442 444 0
442 -444 0
440 -444 0
445 -441 -367 0
-445 367 0
-445 441 0
445 -446 444 0
-444 446 0
-445 446 0
-10 447 -437 0
10 -447 0
437 -447 0
-373 -447 -448 0
373 447 -448 0
-447 373 448 0
-373 447 448 0
-449 -446 -448 0
-449 446 448 0
449 -446 448 0
449 446 -448 0
-446 450 -448 0
-450 448 0
-450 446 0
-373 -447 451 0
-451 373 0
-451 447 0
450 451 -452 0
-450 452 0
-451 452 0
453 -18 -437 0
18 -453 0
437 -453 0
-454 -379 -453 0
453 -454 379 0
454 379 -453 0
454 453 -379 0
-454 -455 -452 0
454 -455 452 0
454 455 -452 0
-454 455 452 0
456 -454 -452 0
454 -456 0
-456 452 0
457 -379 -453 0
379 -457 0
453 -457 0
456 457 -458 0
-456 458 0
-457 458 0
-26 459 -437 0
-459 26 0
437 -459 0
-459 -460 -385 0
385 -460 459 0
460 385 -459 0
460 459 -385 0
-461 -460 -458 0
460 458 -461 0
460 461 -458 0
458 461 -460 0
462 -460 -458 0
-462 460 0
-462 458 0
-459 463 -385 0
385 -463 0
-463 459 0
462 463 -464 0
-462 464 0
464 -463 0
465 -34 -437 0
-465 34 0
-465 437 0
-465 -391 -466 0
465 391 -466 0
-465 466 391 0
465 466 -391 0
-467 -464 -466 0
-467 464 466 0
467 466 -464 0
467 464 -466 0
-464 -466 468 0
-468 466 0
-468 464 0
-465 469 -391 0
-469 391 0
465 -469 0
-470 469 468 0
-468 470 0
-469 470 0
471 -42 -437 0
42 -471 0
437 -471 0
-472 -397 -471 0
471 -472 397 0
472 397 -471 0
471 472 -397 0
-473 -472 -470 0
472 -473 470 0
472 -470 473 0
-472 470 473 0
-472 -470 474 0
472 -474 0
-474 470 0
475 -397 -471 0
397 -475 0
471 -475 0
475 474 -476 0
476 -474 0
476 -475 0
-50 477 -437 0
-477 50 0
437 -477 0
-478 -477 -403 0
-478 477 403 0
-477 478 403 0
478 477 -403 0
-476 -478 -479 0
476 478 -479 0
-476 479 478 0
476 479 -478 0
-476 -478 480 0
-480 478 0
476 -480 0
481 -477 -403 0
-481 403 0
-481 477 0
481 480 -482 0
-480 482 0
-481 482 0
483 -437 -58 0
58 -483 0
437 -483 0
-409 -484 -483 0
409 483 -484 0
409 484 -483 0
483 -409 484 0
-485 -482 -484 0
482 484 -485 0
485 484 -482 0
482 485 -484 0
486 -482 -484 0
484 -486 0
482 -486 0
487 -409 -483 0
409 -487 0
483 -487 0
487 -488 486 0
488 -486 0
-487 488 0
489 -437 -66 0
-489 66 0
437 -489 0
-489 -415 -490 0
489 -490 415 0
-489 490 415 0
489 -415 490 0
-490 -491 -488 0
-491 488 490 0
491 -488 490 0
491 -490 488 0
-490 492 -488 0
-492 490 0
-492 488 0
493 -489 -415 0
-493 415 0
489 -493 0
493 492 -494 0
-492 494 0
-493 494 0
-74 495 -437 0
74 -495 0
437 -495 0
-496 -495 -421 0
-496 421 495 0
496 421 -495 0
496 495 -421 0
-496 -497 -494 0
496 -497 494 0
496 497 -494 0
-496 497 494 0
-496 498 -494 0
496 -498 0
-498 494 0
499 -495 -421 0
-499 421 0
-499 495 0
499 498 -500 0
-498 500 0
-499 500 0
-82 501 -437 0
-501 82 0
-501 437 0
-501 -427 -502 0
427 501 -502 0
-501 427 502 0
-427 502 501 0
-500 -503 -502 0
-503 500 502 0
-500 502 503 0
500 503 -502 0
-500 504 -502 0
502 -504 0
500 -504 0
-501 -427 505 0
-505 427 0
-505 501 0
505 504 -506 0
506 -504 0
506 -505 0
-90 507 -437 0
90 -507 0
437 -507 0
-433 -507 -508 0
433 507 -508 0
433 -507 508 0
508 -433 507 0
-509 -506 -508 0
506 -509 508 0
509 508 -506 0
506 509 -508 0
-506 510 -508 0
508 -510 0
506 -510 0
-433 -507 511 0
433 -511 0
-511 507 0
-512 511 510 0
512 -510 0
-511 512 0
513 -98 -437 0
-513 98 0
437 -513 0
-514 -513 -436 0
513 -514 436 0
514 -513 436 0
513 514 -436 0
-515 -512 -514 0
-515 514 512 0
515 -512 514 0
515 -514 512 0
-512 516 -514 0
-516 514 0
-516 512 0
517 -513 -436 0
-517 436 0
513 -517 0
517 -518 516 0
-516 518 0
-517 518 0
-519 -1 520 0
1 -520 0
519 -520 0
-443 -520 -521 0
520 443 -521 0
521 -520 443 0
521 -443 520 0
522 -443 -520 0
443 -522 0
520 -522 0
-4 -519 523 0
-523 4 0
519 -523 0
-449 -523 -524 0
523 -524 449 0
-523 524 449 0
-449 524 523 0
-525 -524 -522 0
-525 522 524 0
525 524 -522 0
525 522 -524 0
526 -524 -522 0
524 -526 0
522 -526 0
-449 527 -523 0
-527 449 0
-527 523 0
526 527 -528 0
528 -526 0
528 -527 0
529 -519 -10 0
10 -529 0
519 -529 0
-530 -455 -529 0
529 -530 455 0
530 -529 455 0
529 530 -455 0
-528 -531 -530 0
528 530 -531 0
-528 530 531 0
528 -530 531 0
-528 -530 532 0
-532 530 0
-532 528 0
533 -455 -529 0
-533 455 0
529 -533 0
533 -534 532 0
-532 534 0
534 -533 0
-519 -18 535 0
18 -535 0
519 -535 0
-461 -536 -535 0
461 -536 535 0
536 461 -535 0
536 -461 535 0
-537 -534 -536 0
536 534 -537 0
536 -534 537 0
534 537 -536 0
-534 -536 538 0
536 -538 0
-538 534 0
-461 539 -535 0
461 -539 0
-539 535 0
-540 539 538 0
540 -538 0
540 -539 0
-26 541 -519 0
-541 26 0
519 -541 0
-467 -542 -541 0
467 541 -542 0
467 542 -541 0
-467 541 542 0
-540 -543 -542 0
540 -543 542 0
-540 542 543 0
540 -542 543 0
-540 -542 544 0
542 -544 0
540 -544 0
-467 545 -541 0
467 -545 0
-545 541 0
545 -546 544 0
546 -544 0
-545 546 0
547 -519 -34 0
34 -547 0
519 -547 0
-473 -548 -547 0
-548 547 473 0
548 -547 473 0
-473 547 548 0
-546 -548 -549 0
-549 546 548 0
-546 549 548 0
549 -548 546 0
-546 -548 550 0
-550 548 0
546 -550 0
-473 -547 551 0
-551 473 0
-551 547 0
-552 550 551 0
552 -550 0
-551 552 0
-519 553 -42 0
42 -553 0
519 -553 0
-479 -554 -553 0
-554 479 553 0
479 554 -553 0
-479 554 553 0
-554 -552 -555 0
-555 554 552 0
-552 555 554 0
-554 555 552 0
-554 -552 556 0
-556 554 0
-556 552 0
-479 557 -553 0
479 -557 0
553 -557 0
557 -558 556 0
-556 558 0
558 -557 0
-519 -50 559 0
-559 50 0
519 -559 0
-560 -559 -485 0
485 559 -560 0
485 -559 560 0
560 559 -485 0
-558 -561 -560 0
-561 558 560 0
561 -558 560 0
561 558 -560 0
562 -558 -560 0
-562 560 0
-562 558 0
563 -559 -485 0
485 -563 0
559 -563 0
562 -564 563 0
-562 564 0
564 -563 0
-519 565 -58 0
-565 58 0
-565 519 0
-565 -566 -491 0
-566 491 565 0
-565 491 566 0
566 -491 565 0
-566 -567 -564 0
564 -567 566 0
566 567 -564 0
-566 567 564 0
-566 568 -564 0
-568 566 0
564 -568 0
-565 569 -491 0
491 -569 0
-569 565 0
569 -570 568 0
570 -568 0
570 -569 0
571 -519 -66 0
-571 66 0
519 -571 0
-572 -497 -571 0
-572 497 571 0
497 572 -571 0
571 -497 572 0
-572 -570 -573 0
570 -573 572 0
573 -570 572 0
570 -572 573 0
574 -572 -570 0
572 -574 0
570 -574 0
575 -497 -571 0
-575 497 0
-575 571 0
574 575 -576 0
576 -574 0
-575 576 0
-519 577 -74 0
74 -577 0
519 -577 0
-578 -503 -577 0
577 -578 503 0
-577 578 503 0
577 578 -503 0
-578 -579 -576 0
578 -579 576 0
578 579 -576 0
-578 579 576 0
-578 580 -576 0
578 -580 0
-580 576 0
581 -503 -577 0
-581 503 0
577 -581 0
581 -582 580 0
-580 582 0
-581 582 0
-519 583 -82 0
-583 82 0
-583 519 0
-509 -583 -584 0
509 583 -584 0
584 509 -583 0
-509 584 583 0
-585 -582 -584 0
-585 584 582 0
584 -582 585 0
585 -584 582 0
-582 -584 586 0
584 -586 0
-586 582 0
-509 -583 587 0
509 -587 0
583 -587 0
587 -588 586 0
588 -586 0
-587 588 0
-90 -519 589 0
90 -589 0
519 -589 0
-590 -515 -589 0
515 589 -590 0
515 590 -589 0
590 589 -515 0
-588 -591 -590 0
590 588 -591 0
590 -588 591 0
591 588 -590 0
-588 592 -590 0
590 -592 0
-592 588 0
-515 593 -589 0
515 -593 0
589 -593 0
-594 592 593 0
594 -592 0
594 -593 0
595 -519 -98 0
-595 98 0
-595 519 0
-595 -518 -596 0
-596 595 518 0
-595 596 518 0
-518 596 595 0
-594 -596 -597 0
594 596 -597 0
-594 597 596 0
597 594 -596 0
-594 -596 598 0
-598 596 0
-598 594 0
-595 -518 599 0
-599 518 0
595 -599 0
599 -600 598 0
600 -598 0
600 -599 0
-601 -1 602 0
1 -602 0
601 -602 0
-603 -525 -602 0
525 -603 602 0
525 603 -602 0
603 -525 602 0
-525 604 -602 0
-604 525 0
-604 602 0
-601 605 -4 0
-605 4 0
601 -605 0
-605 -531 -606 0
605 -606 531 0
-605 606 531 0
-531 605 606 0
-604 -606 -607 0
606 604 -607 0
-604 606 607 0
-606 604 607 0
-604 608 -606 0
606 -608 0
604 -608 0
-605 -531 609 0
-609 531 0
-609 605 0
608 609 -610 0
610 -608 0
610 -609 0
-601 611 -10 0
10 -611 0
601 -611 0
-611 -537 -612 0
611 537 -612 0
-611 537 612 0
612 -537 611 0
-610 -613 -612 0
612 610 -613 0
612 -610 613 0
610 613 -612 0
614 -610 -612 0
612 -614 0
610 -614 0
-611 -537 615 0
-615 537 0
-615 611 0
614 -616 615 0
-614 616 0
-615 616 0
617 -601 -18 0
18 -617 0
601 -617 0
-618 -543 -617 0
-618 617 543 0
618 -617 543 0
-543 617 618 0
-618 -619 -616 0
-619 616 618 0
619 618 -616 0
-618 616 619 0
620 -618 -616 0
-620 618 0
-620 616 0
-543 621 -617 0
-621 543 0
-621 617 0
620 -622 621 0
-620 622 0
-621 622 0
-26 -601 623 0
-623 26 0
601 -623 0
-623 -624 -549 0
-624 623 549 0
-623 549 624 0
624 623 -549 0
-622 -625 -624 0
-625 622 624 0
-622 625 624 0
622 -624 625 0
-622 626 -624 0
-626 624 0
622 -626 0
627 -623 -549 0
-627 549 0
-627 623 0
627 626 -628 0
628 -626 0
-627 628 0
629 -601 -34 0
34 -629 0
601 -629 0
-630 -555 -629 0
629 555 -630 0
555 630 -629 0
629 -555 630 0
-630 -631 -628 0
-631 628 630 0
631 630 -628 0
-630 631 628 0
-630 632 -628 0
-632 630 0
-632 628 0
-555 633 -629 0
-633 555 0
629 -633 0
632 633 -634 0
-632 634 0
-633 634 0
635 -601 -42 0
-635 42 0
601 -635 0
-635 -636 -561 0
561 -636 635 0
-635 561 636 0
635 636 -561 0
-636 -637 -634 0
636 634 -637 0
637 636 -634 0
-636 634 637 0
638 -636 -634 0
636 -638 0
634 -638 0
-635 639 -561 0
561 -639 0
-639 635 0
638 -640 639 0
640 -638 0
640 -639 0
641 -601 -50 0
-641 50 0
601 -641 0
-641 -642 -567 0
641 -642 567 0
-641 567 642 0
641 -567 642 0
-642 -640 -643 0
640 -643 642 0
643 -640 642 0
640 643 -642 0
644 -642 -640 0
-644 642 0
640 -644 0
-641 645 -567 0
567 -645 0
641 -645 0
644 645 -646 0
-644 646 0
646 -645 0
647 -601 -58 0
58 -647 0
601 -647 0
-573 -647 -648 0
573 -648 647 0
573 648 -647 0
647 -573 648 0
-649 -648 -646 0
-649 648 646 0
648 649 -646 0
-648 646 649 0
-648 650 -646 0
-650 648 0
-650 646 0
651 -573 -647 0
573 -651 0
647 -651 0
651 -652 650 0
652 -650 0
652 -651 0
653 -601 -66 0
-653 66 0
601 -653 0
-653 -579 -654 0
653 579 -654 0
654 -653 579 0
654 653 -579 0
-652 -655 -654 0
652 654 -655 0
654 -652 655 0
652 655 -654 0
-652 656 -654 0
654 -656 0
652 -656 0
657 -653 -579 0
-657 579 0
-657 653 0
657 656 -658 0
658 -656 0
-657 658 0
659 -601 -74 0
74 -659 0
601 -659 0
-585 -660 -659 0
659 -660 585 0
-659 660 585 0
-585 659 660 0
-660 -661 -658 0
658 -661 660 0
660 -658 661 0
658 -660 661 0
-660 662 -658 0
-662 660 0
658 -662 0
-585 663 -659 0
-663 585 0
659 -663 0
-664 663 662 0
664 -662 0
664 -663 0
665 -601 -82 0
82 -665 0
601 -665 0
-666 -591 -665 0
591 665 -666 0
666 591 -665 0
666 665 -591 0
-667 -664 -666 0
666 664 -667 0
666 -664 667 0
664 667 -666 0
668 -664 -666 0
666 -668 0
-668 664 0
669 -591 -665 0
-669 591 0
-669 665 0
669 668 -670 0
-668 670 0
-669 670 0
-601 -90 671 0
90 -671 0
601 -671 0
-672 -671 -597 0
597 -672 671 0
597 672 -671 0
671 672 -597 0
-670 -673 -672 0
672 670 -673 0
672 -670 673 0
673 670 -672 0
674 -670 -672 0
-674 672 0
-674 670 0
675 -671 -597 0
-675 597 0
-675 671 0
-676 674 675 0
-674 676 0
-675 676 0
-601 -98 677 0
-677 98 0
601 -677 0
-600 -678 -677 0
600 -678 677 0
600 678 -677 0
678 -600 677 0
-676 -679 -678 0
678 676 -679 0
-676 678 679 0
676 -678 679 0
-676 -678 680 0
678 -680 0
676 -680 0
681 -600 -677 0
600 -681 0
-681 677 0
681 -682 680 0
682 -680 0
682 -681 0
684 -683 -1 0
1 -684 0
683 -684 0
-685 -684 -607 0
-685 684 607 0
-684 685 607 0
684 685 -607 0
-684 686 -607 0
-686 607 0
684 -686 0
687 -4 -683 0
-687 4 0
683 -687 0
-687 -688 -613 0
687 613 -688 0
688 -687 613 0
687 688 -613 0
-686 -688 -689 0
688 -689 686 0
-686 688 689 0
689 -688 686 0
690 -686 -688 0
688 -690 0
686 -690 0
-687 691 -613 0
-691 613 0
-691 687 0
-692 690 691 0
692 -690 0
-691 692 0
693 -683 -10 0
10 -693 0
683 -693 0
-694 -619 -693 0
693 -694 619 0
694 619 -693 0
693 694 -619 0
-692 -694 -695 0
694 -695 692 0
-692 694 695 0
-694 695 692 0
-692 -694 696 0
-696 694 0
-696 692 0
-619 -693 697 0
-697 619 0
693 -697 0
697 -698 696 0
-696 698 0
-697 698 0
699 -683 -18 0
18 -699 0
683 -699 0
-700 -625 -699 0
699 -700 625 0
700 -699 625 0
700 699 -625 0
-700 -701 -698 0
698 700 -701 0
700 701 -698 0
698 -700 701 0
702 -700 -698 0
-702 700 0
-702 698 0
-625 -699 703 0
-703 625 0
699 -703 0
702 703 -704 0
-702 704 0
704 -703 0
-26 -683 705 0
-705 26 0
-705 683 0
-631 -705 -706 0
631 -706 705 0
706 631 -705 0
-631 706 705 0
-707 -706 -704 0
706 -707 704 0
706 -704 707 0
-706 704 707 0
708 -706 -704 0
706 -708 0
704 -708 0
709 -631 -705 0
631 -709 0
705 -709 0
709 708 -710 0
-708 710 0
-709 710 0
711 -683 -34 0
34 -711 0
683 -711 0
-712 -711 -637 0
711 -712 637 0
712 -711 637 0
712 711 -637 0
-713 -712 -710 0
712 -713 710 0
712 713 -710 0
713 -712 710 0
714 -712 -710 0
712 -714 0
710 -714 0
715 -711 -637 0
-715 637 0
711 -715 0
-716 714 715 0
716 -714 0
-715 716 0
-683 -42 717 0
-717 42 0
-717 683 0
-717 -718 -643 0
643 -718 717 0
-717 643 718 0
717 718 -643 0
-716 -718 -719 0
-719 718 716 0
-716 718 719 0
-718 716 719 0
-716 720 -718 0
718 -720 0
-720 716 0
-717 721 -643 0
643 -721 0
-721 717 0
720 721 -722 0
-720 722 0
-721 722 0
723 -683 -50 0
-723 50 0
-723 683 0
-649 -723 -724 0
723 649 -724 0
-723 649 724 0
-649 723 724 0
-722 -725 -724 0
-725 724 722 0
725 -722 724 0
725 -724 722 0
726 -722 -724 0
-726 724 0
-726 722 0
-649 -723 727 0
-727 649 0
723 -727 0
726 -728 727 0
728 -726 0
-727 728 0
-683 729 -58 0
-729 58 0
-729 683 0
-729 -730 -655 0
655 -730 729 0
-729 655 730 0
730 729 -655 0
-728 -730 -731 0
728 730 -731 0
-728 730 731 0
728 -730 731 0
-728 -730 732 0
730 -732 0
728 -732 0
-729 -655 733 0
655 -733 0
-733 729 0
-734 732 733 0
734 -732 0
-733 734 0
-683 735 -66 0
-735 66 0
683 -735 0
-736 -735 -661 0
-736 735 661 0
736 -735 661 0
735 736 -661 0
-736 -737 -734 0
-737 736 734 0
736 -734 737 0
-736 737 734 0
-736 738 -734 0
-738 736 0
-738 734 0
739 -735 -661 0
-739 661 0
-739 735 0
738 739 -740 0
-738 740 0
-739 740 0
741 -683 -74 0
74 -741 0
683 -741 0
-667 -742 -741 0
741 -742 667 0
667 -741 742 0
-667 741 742 0
-742 -740 -743 0
740 742 -743 0
-740 742 743 0
-742 740 743 0
-742 744 -740 0
-744 742 0
740 -744 0
-667 -741 745 0
-745 667 0
741 -745 0
-746 744 745 0
746 -744 0
746 -745 0
-683 -82 747 0
82 -747 0
683 -747 0
-748 -673 -747 0
-748 747 673 0
-747 748 673 0
748 -673 747 0
-746 -748 -749 0
746 748 -749 0
-746 748 749 0
746 -748 749 0
-746 -748 750 0
-750 748 0
746 -750 0
-673 751 -747 0
-751 673 0
-751 747 0
-752 751 750 0
752 -750 0
752 -751 0
753 -90 -683 0
90 -753 0
-753 683 0
-753 -679 -754 0
753 -754 679 0
-753 754 679 0
753 754 -679 0
-752 -755 -754 0
752 754 -755 0
754 755 -752 0
752 755 -754 0
756 -752 -754 0
754 -756 0
752 -756 0
-753 -679 757 0
-757 679 0
753 -757 0
-758 756 757 0
758 -756 0
758 -757 0
759 -683 -98 0
-759 98 0
683 -759 0
-682 -760 -759 0
759 682 -760 0
760 682 -759 0
-682 759 760 0
-760 -758 -761 0
-761 758 760 0
-758 761 760 0
-760 758 761 0
-760 -758 762 0
-762 760 0
-762 758 0
-682 -759 763 0
-763 682 0
759 -763 0
762 -764 763 0
-762 764 0
764 -763 0
766 -765 -1 0
1 -766 0
-766 765 0
-766 -767 -689 0
766 -767 689 0
-766 767 689 0
766 767 -689 0
-766 768 -689 0
-768 689 0
766 -768 0
769 -4 -765 0
4 -769 0
765 -769 0
-770 -695 -769 0
769 -770 695 0
770 695 -769 0
769 770 -695 0
-770 -768 -771 0
768 770 -771 0
771 770 -768 0
-770 768 771 0
-770 772 -768 0
770 -772 0
768 -772 0
773 -695 -769 0
-773 695 0
769 -773 0
773 -774 772 0
-772 774 0
-773 774 0
775 -765 -10 0
10 -775 0
-775 765 0
-775 -776 -701 0
775 701 -776 0
776 -775 701 0
776 775 -701 0
-774 -777 -776 0
776 -777 774 0
776 -774 777 0
777 774 -776 0
-774 778 -776 0
776 -778 0
-778 774 0
779 -775 -701 0
701 -779 0
775 -779 0
-780 779 778 0
-778 780 0
780 -779 0
-765 -18 781 0
18 -781 0
-781 765 0
-782 -707 -781 0
-782 781 707 0
-781 782 707 0
-707 781 782 0
-780 -782 -783 0
-783 782 780 0
-780 783 782 0
-782 783 780 0
-780 -782 784 0
-784 782 0
-784 780 0
785 -707 -781 0
-785 707 0
-785 781 0
784 785 -786 0
-784 786 0
-785 786 0
-26 -765 787 0
-787 26 0
-787 765 0
-713 -787 -788 0
713 787 -788 0
713 -787 788 0
-713 788 787 0
-789 -786 -788 0
-789 786 788 0
-786 789 788 0
789 786 -788 0
-786 -788 790 0
-790 788 0
-790 786 0
791 -713 -787 0
713 -791 0
-791 787 0
791 790 -792 0
792 -790 0
-791 792 0
-765 793 -34 0
34 -793 0
-793 765 0
-719 -794 -793 0
-794 793 719 0
794 -793 719 0
-719 794 793 0
-795 -794 -792 0
792 794 -795 0
794 795 -792 0
792 -794 795 0
796 -794 -792 0
794 -796 0
792 -796 0
-719 797 -793 0
-797 719 0
793 -797 0
796 797 -798 0
798 -796 0
798 -797 0
799 -765 -42 0
-799 42 0
-799 765 0
-799 -725 -800 0
799 -800 725 0
-799 800 725 0
799 800 -725 0
-801 -800 -798 0
-801 798 800 0
801 800 -798 0
801 798 -800 0
802 -800 -798 0
800 -802 0
798 -802 0
-799 -725 803 0
-803 725 0
799 -803 0
802 -804 803 0
804 -802 0
804 -803 0
-765 -50 805 0
-805 50 0
-805 765 0
-805 -731 -806 0
731 -806 805 0
806 -805 731 0
806 -731 805 0
-804 -807 -806 0
806 804 -807 0
-804 806 807 0
804 807 -806 0
-804 808 -806 0
806 -808 0
804 -808 0
-805 809 -731 0
731 -809 0
-809 805 0
808 809 -810 0
810 -808 0
810 -809 0
-765 811 -58 0
58 -811 0
-811 765 0
-737 -811 -812 0
811 737 -812 0
812 737 -811 0
-737 812 811 0
-813 -810 -812 0
810 -813 812 0
813 812 -810 0
810 813 -812 0
814 -810 -812 0
-814 812 0
810 -814 0
-737 815 -811 0
-815 737 0
-815 811 0
814 815 -816 0
-814 816 0
-815 816 0
817 -765 -66 0
-817 66 0
-817 765 0
-818 -817 -743 0
817 -818 743 0
818 -817 743 0
817 818 -743 0
-818 -819 -816 0
818 -819 816 0
818 819 -816 0
-818 819 816 0
-818 820 -816 0
818 -820 0
-820 816 0
-817 821 -743 0
-821 743 0
817 -821 0
820 821 -822 0
822 -820 0
822 -821 0
-765 -74 823 0
74 -823 0
-823 765 0
-824 -823 -749 0
-824 823 749 0
-823 824 749 0
823 824 -749 0
-825 -822 -824 0
822 -825 824 0
825 -822 824 0
822 825 -824 0
826 -822 -824 0
-826 824 0
822 -826 0
827 -823 -749 0
-827 749 0
-827 823 0
827 -828 826 0
-826 828 0
828 -827 0
829 -765 -82 0
-829 82 0
-829 765 0
-829 -755 -830 0
829 755 -830 0
830 -829 755 0
830 829 -755 0
-831 -828 -830 0
830 -831 828 0
830 831 -828 0
831 828 -830 0
-828 832 -830 0
830 -832 0
-832 828 0
-829 -755 833 0
755 -833 0
829 -833 0
-834 832 833 0
834 -832 0
834 -833 0
835 -90 -765 0
90 -835 0
-835 765 0
-835 -836 -761 0
835 761 -836 0
-835 836 761 0
836 835 -761 0
-836 -834 -837 0
834 836 -837 0
836 -834 837 0
834 -836 837 0
838 -836 -834 0
-838 836 0
834 -838 0
-835 839 -761 0
-839 761 0
-839 835 0
839 838 -840 0
-838 840 0
-839 840 0
-765 841 -98 0
-841 98 0
-841 765 0
-841 -842 -764 0
764 -842 841 0
-841 764 842 0
-764 842 841 0
-843 -842 -840 0
-843 840 842 0
843 -840 842 0
-842 840 843 0
844 -842 -840 0
-844 842 0
-844 840 0
-841 845 -764 0
764 -845 0
841 -845 0
845 -846 844 0
-844 846 0
846 -845 0
848 -1 -847 0
1 -848 0
847 -848 0
-848 -771 -849 0
848 771 -849 0
849 771 -848 0
848 849 -771 0
850 -848 -771 0
771 -850 0
848 -850 0
851 -4 -847 0
4 -851 0
847 -851 0
-852 -777 -851 0
777 -852 851 0
777 852 -851 0
852 851 -777 0
-852 -850 -853 0
850 852 -853 0
-850 852 853 0
-852 850 853 0
-852 -850 854 0
852 -854 0
850 -854 0
-777 855 -851 0
777 -855 0
851 -855 0
-856 854 855 0
856 -854 0
856 -855 0
-847 -10 857 0
10 -857 0
-857 847 0
-857 -858 -783 0
783 -858 857 0
-857 783 858 0
-783 858 857 0
-859 -858 -856 0
-859 856 858 0
-856 859 858 0
-858 859 856 0
-858 -856 860 0
-860 858 0
-860 856 0
-857 -783 861 0
-861 783 0
-861 857 0
-862 860 861 0
-860 862 0
-861 862 0
863 -18 -847 0
18 -863 0
847 -863 0
-864 -789 -863 0
789 -864 863 0
789 -863 864 0
-789 863 864 0
-864 -862 -865 0
-865 864 862 0
865 -862 864 0
-864 865 862 0
-864 -862 866 0
-866 864 0
-866 862 0
-789 -863 867 0
789 -867 0
863 -867 0
-868 866 867 0
868 -866 0
868 -867 0
-26 869 -847 0
-869 26 0
847 -869 0
-870 -795 -869 0
-870 869 795 0
870 -869 795 0
-795 869 870 0
-870 -871 -868 0
868 870 -871 0
871 870 -868 0
868 -870 871 0
-870 -868 872 0
870 -872 0
868 -872 0
873 -795 -869 0
-873 795 0
869 -873 0
873 -874 872 0
874 -872 0
-873 874 0
875 -847 -34 0
34 -875 0
847 -875 0
-801 -875 -876 0
801 875 -876 0
801 -875 876 0
-801 875 876 0
-874 -876 -877 0
874 -877 876 0
877 -874 876 0
877 -876 874 0
-874 -876 878 0
-878 876 0
-878 874 0
-801 879 -875 0
801 -879 0
-879 875 0
879 -880 878 0
880 -878 0
880 -879 0
881 -847 -42 0
42 -881 0
847 -881 0
-807 -882 -881 0
807 881 -882 0
882 807 -881 0
882 881 -807 0
-883 -880 -882 0
880 882 -883 0
882 -880 883 0
880 883 -882 0
884 -880 -882 0
882 -884 0
880 -884 0
885 -807 -881 0
807 -885 0
-885 881 0
-886 885 884 0
-884 886 0
-885 886 0
-847 887 -50 0
-887 50 0
847 -887 0
-888 -813 -887 0
-888 813 887 0
813 888 -887 0
-813 888 887 0
-888 -889 -886 0
-889 888 886 0
888 889 -886 0
-888 886 889 0
-888 -886 890 0
888 -890 0
886 -890 0
-813 -887 891 0
813 -891 0
-891 887 0
891 -892 890 0
892 -890 0
892 -891 0
893 -847 -58 0
-893 58 0
847 -893 0
-893 -819 -894 0
893 -894 819 0
-893 894 819 0
-819 894 893 0
-895 -892 -894 0
892 -895 894 0
-892 894 895 0
892 895 -894 0
896 -892 -894 0
-896 894 0
892 -896 0
-893 -819 897 0
-897 819 0
-897 893 0
896 897 -898 0
-896 898 0
898 -897 0
899 -847 -66 0
-899 66 0
847 -899 0
-825 -900 -899 0
825 899 -900 0
825 900 -899 0
-825 899 900 0
-900 -901 -898 0
-901 898 900 0
900 901 -898 0
898 -900 901 0
-900 902 -898 0
900 -902 0
898 -902 0
-825 -899 903 0
825 -903 0
899 -903 0
903 902 -904 0
904 -902 0
904 -903 0
905 -74 -847 0
-905 74 0
-905 847 0
-905 -831 -906 0
831 905 -906 0
-905 831 906 0
-831 905 906 0
-904 -906 -907 0
904 -907 906 0
-904 907 906 0
907 904 -906 0
-904 -906 908 0
-908 906 0
904 -908 0
-905 -831 909 0
831 -909 0
905 -909 0
909 908 -910 0
-908 910 0
-909 910 0
911 -82 -847 0
82 -911 0
847 -911 0
-911 -837 -912 0
911 -912 837 0
912 -911 837 0
912 911 -837 0
-913 -912 -910 0
912 -913 910 0
912 913 -910 0
913 -912 910 0
914 -912 -910 0
912 -914 0
-914 910 0
-911 -837 915 0
-915 837 0
911 -915 0
914 915 -916 0
916 -914 0
916 -915 0
917 -90 -847 0
90 -917 0
847 -917 0
-843 -918 -917 0
-918 917 843 0
918 843 -917 0
-843 917 918 0
-918 -919 -916 0
916 -919 918 0
919 918 -916 0
916 -918 919 0
920 -918 -916 0
-920 918 0
916 -920 0
-843 921 -917 0
843 -921 0
917 -921 0
920 -922 921 0
922 -920 0
922 -921 0
-847 -98 923 0
-923 98 0
847 -923 0
-924 -923 -846 0
-924 846 923 0
-923 846 924 0
924 -846 923 0
-924 -922 -925 0
-925 922 924 0
925 -922 924 0
-924 925 922 0
-924 -922 926 0
-926 924 0
-926 922 0
-923 -846 927 0
-927 846 0
-927 923 0
-928 926 927 0
-926 928 0
-927 928 0
-1 -929 930 0
1 -930 0
929 -930 0
-853 -931 -930 0
930 -931 853 0
931 -930 853 0
-853 931 930 0
932 -853 -930 0
-932 853 0
-932 930 0
933 -4 -929 0
-933 4 0
929 -933 0
-934 -859 -933 0
933 859 -934 0
859 -933 934 0
933 -859 934 0
-934 -935 -932 0
932 -935 934 0
-932 934 935 0
-934 935 932 0
-934 -932 936 0
-936 934 0
932 -936 0
937 -859 -933 0
-937 859 0
933 -937 0
937 -938 936 0
938 -936 0
-937 938 0
939 -10 -929 0
10 -939 0
-939 929 0
-939 -865 -940 0
865 939 -940 0
865 -939 940 0
940 -865 939 0
-941 -938 -940 0
938 940 -941 0
941 940 -938 0
938 -940 941 0
942 -938 -940 0
940 -942 0
938 -942 0
-939 -865 943 0
865 -943 0
-943 939 0
942 -944 943 0
944 -942 0
-943 944 0
-18 -929 945 0
18 -945 0
-945 929 0
-945 -871 -946 0
871 945 -946 0
871 946 -945 0
946 -871 945 0
-947 -946 -944 0
946 -947 944 0
946 947 -944 0
-946 947 944 0
948 -946 -944 0
946 -948 0
-948 944 0
949 -945 -871 0
871 -949 0
-949 945 0
948 -950 949 0
-948 950 0
-949 950 0
-26 951 -929 0
-951 26 0
929 -951 0
-877 -952 -951 0
877 -952 951 0
877 952 -951 0
-877 952 951 0
-953 -952 -950 0
-953 952 950 0
-950 953 952 0
953 -952 950 0
-952 -950 954 0
952 -954 0
-954 950 0
-877 -951 955 0
877 -955 0
951 -955 0
-956 954 955 0
956 -954 0
-955 956 0
957 -929 -34 0
34 -957 0
-957 929 0
-957 -883 -958 0
-958 957 883 0
-957 958 883 0
-883 958 957 0
-959 -958 -956 0
-959 958 956 0
-956 958 959 0
959 -958 956 0
-958 960 -956 0
958 -960 0
-960 956 0
961 -957 -883 0
-961 883 0
-961 957 0
961 -962 960 0
962 -960 0
-961 962 0
963 -929 -42 0
-963 42 0
-963 929 0
-963 -889 -964 0
963 889 -964 0
964 -963 889 0
963 964 -889 0
-962 -965 -964 0
964 962 -965 0
964 -962 965 0
962 -964 965 0
-962 -964 966 0
964 -966 0
962 -966 0
967 -963 -889 0
-967 889 0
963 -967 0
967 -968 966 0
968 -966 0
-967 968 0
969 -50 -929 0
-969 50 0
929 -969 0
-970 -895 -969 0
-970 969 895 0
-969 970 895 0
-895 970 969 0
-970 -971 -968 0
970 968 -971 0
971 970 -968 0
-970 968 971 0
-970 972 -968 0
-972 970 0
-972 968 0
973 -895 -969 0
-973 895 0
-973 969 0
973 -974 972 0
-972 974 0
-973 974 0
-929 975 -58 0
58 -975 0
929 -975 0
-976 -975 -901 0
975 -976 901 0
976 -975 901 0
976 -901 975 0
-976 -977 -974 0
-977 976 974 0
976 977 -974 0
-976 974 977 0
-976 -974 978 0
976 -978 0
-978 974 0
-975 979 -901 0
-979 901 0
-979 975 0
-980 979 978 0
-978 980 0
980 -979 0
981 -929 -66 0
-981 66 0
929 -981 0
-982 -981 -907 0
981 -982 907 0
982 -981 907 0
981 982 -907 0
-980 -983 -982 0
-983 982 980 0
-980 982 983 0
-982 980 983 0
-980 984 -982 0
982 -984 0
-984 980 0
985 -981 -907 0
-985 907 0
981 -985 0
985 984 -986 0
986 -984 0
986 -985 0
987 -74 -929 0
74 -987 0
929 -987 0
-913 -987 -988 0
913 987 -988 0
913 -987 988 0
-913 987 988 0
-989 -986 -988 0
986 -989 988 0
989 -986 988 0
989 986 -988 0
-986 -988 990 0
-990 988 0
986 -990 0
-913 991 -987 0
913 -991 0
-991 987 0
-992 991 990 0
-990 992 0
992 -991 0
993 -82 -929 0
-993 82 0
-993 929 0
-993 -919 -994 0
993 919 -994 0
-993 919 994 0
993 -919 994 0
-992 -995 -994 0
992 994 -995 0
995 -992 994 0
995 992 -994 0
996 -992 -994 0
-996 994 0
-996 992 0
-993 997 -919 0
-997 919 0
-997 993 0
996 -998 997 0
-996 998 0
-997 998 0
-90 -929 999 0
90 -999 0
929 -999 0
-925 -999 -1000 0
925 -1000 999 0
925 -999 1000 0
-925 1000 999 0
-998 -1001 -1000 0
-1001 998 1000 0
-998 1000 1001 0
998 -1000 1001 0
-998 -1000 1002 0
1000 -1002 0
998 -1002 0
-925 -999 1003 0
925 -1003 0
-1003 999 0
-1004 1003 1002 0
1004 -1002 0
1004 -1003 0
1005 -98 -929 0
-1005 98 0
-1005 929 0
-1005 -1006 -928 0
-1006 928 1005 0
-1005 1006 928 0
1006 1005 -928 0
-1006 -1007 -1004 0
1004 1006 -1007 0
1006 -1004 1007 0
-1006 1007 1004 0
-1006 -1004 1008 0
-1008 1006 0
1004 -1008 0
-1005 1009 -928 0
928 -1009 0
-1009 1005 0
1009 -1010 1008 0
-1008 1010 0
1010 -1009 0
-1 -1011 1012 0
1 -1012 0
1011 -1012 0
-935 -1013 -1012 0
-1013 1012 935 0
-1012 1013 935 0
-935 1013 1012 0
-935 -1012 1014 0
-1014 935 0
-1014 1012 0
-4 1015 -1011 0
-1015 4 0
-1015 1011 0
-1015 -941 -1016 0
941 -1016 1015 0
941 -1015 1016 0
-941 1016 1015 0
-1014 -1016 -1017 0
1014 1016 -1017 0
1017 -1014 1016 0
1017 -1016 1014 0
-1014 1018 -1016 0
-1018 1016 0
-1018 1014 0
-1015 -941 1019 0
941 -1019 0
-1019 1015 0
-1020 1018 1019 0
-1018 1020 0
-1019 1020 0
1021 -1011 -10 0
10 -1021 0
1011 -1021 0
-1022 -947 -1021 0
-1022 1021 947 0
1022 -1021 947 0
-947 1022 1021 0
-1023 -1022 -1020 0
-1023 1022 1020 0
-1020 1022 1023 0
-1022 1020 1023 0
-1022 -1020 1024 0
1022 -1024 0
1020 -1024 0
-947 -1021 1025 0
-1025 947 0
-1025 1021 0
-1026 1025 1024 0
1026 -1024 0
-1025 1026 0
1027 -18 -1011 0
18 -1027 0
1011 -1027 0
-1028 -953 -1027 0
953 1027 -1028 0
953 1028 -1027 0
1028 -953 1027 0
-1029 -1028 -1026 0
-1029 1028 1026 0
1028 1029 -1026 0
1029 1026 -1028 0
1030 -1028 -1026 0
1028 -1030 0
1026 -1030 0
-953 1031 -1027 0
-1031 953 0
-1031 1027 0
-1032 1030 1031 0
1032 -1030 0
-1031 1032 0
-26 1033 -1011 0
-1033 26 0
-1033 1011 0
-1034 -959 -1033 0
-1034 1033 959 0
1034 -1033 959 0
1034 -959 1033 0
-1035 -1032 -1034 0
1034 -1035 1032 0
1034 -1032 1035 0
1035 1032 -1034 0
1036 -1032 -1034 0
1034 -1036 0
-1036 1032 0
1037 -959 -1033 0
-1037 959 0
-1037 1033 0
1036 1037 -1038 0
1038 -1036 0
-1037 1038 0
1039 -1011 -34 0
-1039 34 0
-1039 1011 0
-1039 -1040 -965 0
1039 -1040 965 0
-1039 1040 965 0
1039 -965 1040 0
-1038 -1040 -1041 0
1038 -1041 1040 0
-1038 1041 1040 0
-1040 1041 1038 0
-1038 -1040 1042 0
-1042 1040 0
-1042 1038 0
-1039 -965 1043 0
-1043 965 0
1039 -1043 0
1043 -1044 1042 0
-1042 1044 0
1044 -1043 0
-1011 -42 1045 0
42 -1045 0
1011 -1045 0
-1046 -1045 -971 0
971 -1046 1045 0
971 -1045 1046 0
1046 -971 1045 0
-1047 -1044 -1046 0
1044 -1047 1046 0
1047 -1044 1046 0
1044 1047 -1046 0
1048 -1044 -1046 0
1046 -1048 0
1044 -1048 0
1049 -1045 -971 0
971 -1049 0
-1049 1045 0
1048 -1050 1049 0
1050 -1048 0
-1049 1050 0
-1011 1051 -50 0
50 -1051 0
1011 -1051 0
-977 -1052 -1051 0
1051 977 -1052 0
1052 977 -1051 0
-977 1051 1052 0
-1053 -1050 -1052 0
-1053 1050 1052 0
-1050 1052 1053 0
1053 1050 -1052 0
1054 -1050 -1052 0
-1054 1052 0
-1054 1050 0
-977 1055 -1051 0
-1055 977 0
-1055 1051 0
-1056 1054 1055 0
1056 -1054 0
-1055 1056 0
1057 -1011 -58 0
-1057 58 0
-1057 1011 0
-1057 -1058 -983 0
1057 -1058 983 0
-1057 983 1058 0
1057 -983 1058 0
-1056 -1058 -1059 0
1056 -1059 1058 0
1059 -1056 1058 0
1059 1056 -1058 0
-1056 -1058 1060 0
-1060 1058 0
-1060 1056 0
1061 -1057 -983 0
-1061 983 0
1057 -1061 0
1061 -1062 1060 0
-1060 1062 0
-1061 1062 0
1063 -1011 -66 0
-1063 66 0
1011 -1063 0
-1064 -989 -1063 0
989 1063 -1064 0
989 1064 -1063 0
-989 1063 1064 0
-1064 -1062 -1065 0
-1065 1062 1064 0
-1062 1065 1064 0
-1064 1065 1062 0
-1064 -1062 1066 0
-1066 1064 0
-1066 1062 0
-989 1067 -1063 0
989 -1067 0
1063 -1067 0
-1068 1067 1066 0
1068 -1066 0
-1067 1068 0
1069 -74 -1011 0
74 -1069 0
1011 -1069 0
-1070 -995 -1069 0
1069 995 -1070 0
995 -1069 1070 0
1069 -995 1070 0
-1068 -1070 -1071 0
1068 -1071 1070 0
-1068 1071 1070 0
1071 -1070 1068 0
-1068 -1070 1072 0
-1072 1070 0
1068 -1072 0
1073 -995 -1069 0
995 -1073 0
1069 -1073 0
1073 -1074 1072 0
-1072 1074 0
1074 -1073 0
1075 -82 -1011 0
82 -1075 0
1011 -1075 0
-1076 -1075 -1001 0
-1076 1075 1001 0
1076 -1075 1001 0
1076 1075 -1001 0
-1076 -1077 -1074 0
1076 1074 -1077 0
1076 1077 -1074 0
-1076 1074 1077 0
-1076 1078 -1074 0
1076 -1078 0
-1078 1074 0
1079 -1075 -1001 0
-1079 1001 0
-1079 1075 0
1079 -1080 1078 0
-1078 1080 0
-1079 1080 0
1081 -90 -1011 0
90 -1081 0
-1081 1011 0
-1007 -1081 -1082 0
1007 -1082 1081 0
1082 1007 -1081 0
1082 -1007 1081 0
-1083 -1082 -1080 0
1082 -1083 1080 0
1082 1083 -1080 0
1083 -1082 1080 0
-1082 1084 -1080 0
1082 -1084 0
-1084 1080 0
-1007 -1081 1085 0
1007 -1085 0
1081 -1085 0
-1086 1084 1085 0
-1084 1086 0
1086 -1085 0
-1011 1087 -98 0
-1087 98 0
1011 -1087 0
-1010 -1087 -1088 0
1010 1087 -1088 0
1010 1088 -1087 0
1088 1087 -1010 0
-1089 -1086 -1088 0
-1089 1088 1086 0
-1086 1088 1089 0
1089 -1088 1086 0
-1086 1090 -1088 0
1088 -1090 0
1086 -1090 0
1091 -1010 -1087 0
-1091 1010 0
-1091 1087 0
1091 1090 -1092 0
1092 -1090 0
1092 -1091 0
3 0
-8 0
111 0
193 0
275 0
-357 0
-439 0
-521 0
-603 0
-685 0
-767 0
-849 0
931 0
1013 0
-1017 0
-1023 0
-1029 0
-1035 0
-1041 0
-1047 0
-1053 0
-1059 0
-1065 0
-1071 0
-1077 0
-1083 0
-1089 0
-1092 0
