p cnf 1260 4125
-1 3 -2 0
1 -3 0
2 -3 0
-4 -2 5 0
4 -5 0
2 -5 0
-1 7 -6 0
-7 1 0
-7 6 0
-8 -7 -5 0
-8 7 5 0
-7 8 5 0
7 -5 8 0
-7 -5 9 0
-9 5 0
7 -9 0
11 -10 -2 0
-11 10 0
2 -11 0
-4 12 -6 0
4 -12 0
6 -12 0
-11 -13 -12 0
-13 11 12 0
11 -12 13 0
-11 13 12 0
-14 -13 -9 0
9 13 -14 0
14 13 -9 0
9 -13 14 0
15 -13 -9 0
13 -15 0
9 -15 0
-11 -12 16 0
11 -16 0
-16 12 0
-17 15 16 0
17 -15 0
17 -16 0
19 -18 -2 0
18 -19 0
2 -19 0
-10 20 -6 0
-20 10 0
-20 6 0
-21 -20 -19 0
19 20 -21 0
19 -20 21 0
20 -19 21 0
-21 -17 -22 0
-22 21 17 0
-17 21 22 0
-21 22 17 0
-21 -17 23 0
-23 21 0
-23 17 0
-20 -19 24 0
19 -24 0
-24 20 0
24 23 -25 0
25 -23 0
-24 25 0
27 -2 -26 0
26 -27 0
-27 2 0
28 -18 -6 0
18 -28 0
-28 6 0
-29 -27 -28 0
27 28 -29 0
27 -28 29 0
28 -27 29 0
-29 -25 -30 0
25 29 -30 0
30 29 -25 0
-29 25 30 0
-29 -25 31 0
29 -31 0
25 -31 0
-27 -28 32 0
27 -32 0
28 -32 0
32 -33 31 0
33 -31 0
-32 33 0
35 -2 -34 0
34 -35 0
2 -35 0
-6 36 -26 0
26 -36 0
6 -36 0
-37 -36 -35 0
36 -37 35 0
37 -36 35 0
36 37 -35 0
-38 -37 -33 0
33 37 -38 0
38 37 -33 0
33 38 -37 0
39 -37 -33 0
37 -39 0
33 -39 0
40 -36 -35 0
-40 35 0
36 -40 0
-41 39 40 0
41 -39 0
41 -40 0
43 -2 -42 0
-43 42 0
-43 2 0
44 -34 -6 0
34 -44 0
6 -44 0
-43 -45 -44 0
-45 43 44 0
45 43 -44 0
-43 44 45 0
-45 -41 -46 0
41 -46 45 0
-41 46 45 0
-45 46 41 0
-45 -41 47 0
-47 45 0
41 -47 0
-43 48 -44 0
43 -48 0
44 -48 0
-49 48 47 0
49 -47 0
49 -48 0
-50 -2 51 0
50 -51 0
2 -51 0
52 -42 -6 0
42 -52 0
6 -52 0
-53 -51 -52 0
51 52 -53 0
51 53 -52 0
53 52 -51 0
-49 -54 -53 0
-54 53 49 0
-49 53 54 0
49 54 -53 0
55 -49 -53 0
-55 53 0
-55 49 0
56 -51 -52 0
51 -56 0
-56 52 0
55 56 -57 0
-55 57 0
-56 57 0
59 -58 -2 0
58 -59 0
2 -59 0
-50 60 -6 0
-60 50 0
-60 6 0
-60 -59 -61 0
59 60 -61 0
-60 61 59 0
61 60 -59 0
-62 -57 -61 0
61 -62 57 0
62 61 -57 0
62 57 -61 0
63 -57 -61 0
61 -63 0
-63 57 0
-60 64 -59 0
59 -64 0
60 -64 0
64 63 -65 0
65 -63 0
65 -64 0
67 -66 -2 0
66 -67 0
2 -67 0
68 -58 -6 0
58 -68 0
-68 6 0
-69 -68 -67 0
-69 67 68 0
67 -68 69 0
68 -67 69 0
-69 -70 -65 0
65 69 -70 0
69 -65 70 0
-69 65 70 0
-69 -65 71 0
69 -71 0
65 -71 0
-68 -67 72 0
67 -72 0
68 -72 0
-73 72 71 0
73 -71 0
-72 73 0
75 -2 -74 0
74 -75 0
-75 2 0
-66 76 -6 0
66 -76 0
-76 6 0
-75 -76 -77 0
-77 75 76 0
75 -76 77 0
-75 76 77 0
-73 -77 -78 0
73 -78 77 0
-73 78 77 0
-77 78 73 0
-73 -77 79 0
-79 77 0
-79 73 0
-75 -76 80 0
75 -80 0
-80 76 0
79 80 -81 0
-79 81 0
81 -80 0
83 -82 -2 0
-83 82 0
-83 2 0
-6 84 -74 0
74 -84 0
6 -84 0
-83 -85 -84 0
83 -85 84 0
83 85 -84 0
-83 85 84 0
-85 -86 -81 0
81 85 -86 0
86 85 -81 0
86 -85 81 0
87 -85 -81 0
85 -87 0
81 -87 0
-83 88 -84 0
83 -88 0
84 -88 0
-89 88 87 0
-87 89 0
89 -88 0
91 -90 -2 0
-91 90 0
2 -91 0
-82 92 -6 0
-92 82 0
-92 6 0
-92 -93 -91 0
91 -93 92 0
91 93 -92 0
-91 92 93 0
-93 -89 -94 0
-94 93 89 0
94 93 -89 0
-93 94 89 0
-93 -89 95 0
93 -95 0
89 -95 0
-92 -91 96 0
91 -96 0
-96 92 0
-97 95 96 0
97 -95 0
-96 97 0
-98 99 -2 0
-99 98 0
2 -99 0
-90 100 -6 0
90 -100 0
6 -100 0
-101 -100 -99 0
-101 99 100 0
101 99 -100 0
100 101 -99 0
-97 -102 -101 0
-102 101 97 0
-97 101 102 0
97 -101 102 0
-97 103 -101 0
-103 101 0
-103 97 0
-100 -99 104 0
-104 99 0
-104 100 0
103 -105 104 0
-103 105 0
105 -104 0
-106 -2 107 0
106 -107 0
-107 2 0
-98 108 -6 0
-108 98 0
-108 6 0
-107 -108 -109 0
-109 108 107 0
-108 109 107 0
-107 109 108 0
-109 -110 -105 0
105 109 -110 0
110 109 -105 0
110 -109 105 0
111 -109 -105 0
109 -111 0
105 -111 0
112 -107 -108 0
-112 107 0
108 -112 0
111 112 -113 0
113 -111 0
113 -112 0
-106 114 -6 0
106 -114 0
-114 6 0
-113 -115 -114 0
113 -115 114 0
113 -114 115 0
-113 114 115 0
-113 -114 116 0
113 -116 0
-116 114 0
118 -1 -117 0
1 -118 0
-118 117 0
-14 -118 -119 0
118 -119 14 0
-118 119 14 0
118 -14 119 0
120 -14 -118 0
-120 14 0
118 -120 0
121 -4 -117 0
4 -121 0
-121 117 0
-121 -22 -122 0
121 22 -122 0
122 -121 22 0
121 122 -22 0
-120 -123 -122 0
120 122 -123 0
123 122 -120 0
123 120 -122 0
-120 124 -122 0
-124 122 0
-124 120 0
125 -121 -22 0
-125 22 0
121 -125 0
125 124 -126 0
-124 126 0
-125 126 0
-10 127 -117 0
-127 10 0
-127 117 0
-128 -127 -30 0
-128 30 127 0
-127 30 128 0
127 128 -30 0
-128 -129 -126 0
-129 128 126 0
129 128 -126 0
-128 129 126 0
-128 130 -126 0
128 -130 0
-130 126 0
131 -127 -30 0
30 -131 0
-131 127 0
131 -132 130 0
132 -130 0
132 -131 0
-18 133 -117 0
18 -133 0
-133 117 0
-38 -133 -134 0
38 133 -134 0
134 38 -133 0
134 -38 133 0
-132 -134 -135 0
134 132 -135 0
134 -132 135 0
132 135 -134 0
-132 136 -134 0
134 -136 0
132 -136 0
-38 137 -133 0
-137 38 0
-137 133 0
136 -138 137 0
-136 138 0
-137 138 0
139 -117 -26 0
26 -139 0
-139 117 0
-139 -140 -46 0
139 46 -140 0
140 -139 46 0
140 139 -46 0
-141 -138 -140 0
140 -141 138 0
140 -138 141 0
141 -140 138 0
-138 142 -140 0
140 -142 0
-142 138 0
-139 -46 143 0
46 -143 0
139 -143 0
-144 142 143 0
144 -142 0
144 -143 0
145 -34 -117 0
-145 34 0
-145 117 0
-145 -54 -146 0
-146 145 54 0
-145 146 54 0
-54 146 145 0
-146 -144 -147 0
146 144 -147 0
147 -144 146 0
-146 144 147 0
-146 -144 148 0
-148 146 0
-148 144 0
-145 -54 149 0
-149 54 0
-149 145 0
-150 148 149 0
150 -148 0
-149 150 0
151 -42 -117 0
42 -151 0
-151 117 0
-152 -62 -151 0
62 151 -152 0
62 152 -151 0
152 151 -62 0
-153 -150 -152 0
-153 150 152 0
152 -150 153 0
150 153 -152 0
154 -150 -152 0
152 -154 0
150 -154 0
155 -62 -151 0
62 -155 0
-155 151 0
155 154 -156 0
-154 156 0
-155 156 0
-50 -117 157 0
50 -157 0
-157 117 0
-157 -70 -158 0
157 -158 70 0
158 -157 70 0
158 -70 157 0
-156 -159 -158 0
158 -159 156 0
158 159 -156 0
159 156 -158 0
-156 160 -158 0
-160 158 0
-160 156 0
-157 -70 161 0
-161 70 0
-161 157 0
-162 160 161 0
-160 162 0
-161 162 0
-58 163 -117 0
58 -163 0
-163 117 0
-163 -78 -164 0
-164 163 78 0
-163 164 78 0
-78 164 163 0
-162 -165 -164 0
-165 164 162 0
-162 165 164 0
165 -164 162 0
-162 166 -164 0
164 -166 0
-166 162 0
-163 -78 167 0
78 -167 0
163 -167 0
-168 166 167 0
168 -166 0
168 -167 0
-66 -117 169 0
66 -169 0
-169 117 0
-169 -170 -86 0
86 -170 169 0
86 -169 170 0
169 170 -86 0
-168 -171 -170 0
168 170 -171 0
-168 171 170 0
168 171 -170 0
-168 172 -170 0
170 -172 0
168 -172 0
173 -169 -86 0
86 -173 0
-173 169 0
173 172 -174 0
174 -172 0
-173 174 0
175 -117 -74 0
74 -175 0
-175 117 0
-94 -176 -175 0
175 94 -176 0
94 176 -175 0
175 -94 176 0
-174 -176 -177 0
174 -177 176 0
-174 177 176 0
174 -176 177 0
-174 -176 178 0
-178 176 0
174 -178 0
-94 179 -175 0
94 -179 0
175 -179 0
179 -180 178 0
-178 180 0
180 -179 0
-82 181 -117 0
-181 82 0
-181 117 0
-181 -102 -182 0
-182 181 102 0
-181 182 102 0
182 -102 181 0
-180 -183 -182 0
182 -183 180 0
-180 182 183 0
180 183 -182 0
-180 184 -182 0
182 -184 0
-184 180 0
-181 -102 185 0
-185 102 0
-185 181 0
-186 184 185 0
186 -184 0
186 -185 0
-90 -117 187 0
-187 90 0
-187 117 0
-187 -110 -188 0
110 -188 187 0
-187 110 188 0
-110 188 187 0
-186 -189 -188 0
186 -189 188 0
-186 188 189 0
186 189 -188 0
-186 190 -188 0
-190 188 0
-190 186 0
-187 191 -110 0
110 -191 0
-191 187 0
191 -192 190 0
-190 192 0
-191 192 0
-98 -117 193 0
-193 98 0
-193 117 0
-115 -194 -193 0
-194 115 193 0
-193 194 115 0
-115 194 193 0
-195 -192 -194 0
-195 194 192 0
195 -192 194 0
195 -194 192 0
196 -192 -194 0
194 -196 0
-196 192 0
-115 197 -193 0
-197 115 0
-197 193 0
196 197 -198 0
198 -196 0
-197 198 0
199 -106 -117 0
106 -199 0
-199 117 0
-200 -116 -199 0
199 -200 116 0
-199 200 116 0
200 199 -116 0
-198 -200 -201 0
200 198 -201 0
200 201 -198 0
-200 201 198 0
-198 -200 202 0
200 -202 0
-202 198 0
203 -116 -199 0
-203 116 0
199 -203 0
203 -204 202 0
-202 204 0
204 -203 0
206 -205 -1 0
1 -206 0
205 -206 0
-207 -123 -206 0
123 206 -207 0
123 207 -206 0
206 -123 207 0
-123 -206 208 0
123 -208 0
206 -208 0
209 -205 -4 0
4 -209 0
205 -209 0
-210 -209 -129 0
209 129 -210 0
210 129 -209 0
210 209 -129 0
-208 -211 -210 0
210 -211 208 0
210 -208 211 0
211 -210 208 0
-208 -210 212 0
210 -212 0
-212 208 0
213 -209 -129 0
129 -213 0
209 -213 0
213 212 -214 0
214 -212 0
214 -213 0
215 -10 -205 0
-215 10 0
205 -215 0
-216 -215 -135 0
215 -216 135 0
216 -215 135 0
215 216 -135 0
-217 -216 -214 0
214 216 -217 0
217 216 -214 0
214 217 -216 0
-216 218 -214 0
216 -218 0
214 -218 0
-215 219 -135 0
135 -219 0
215 -219 0
219 -220 218 0
220 -218 0
220 -219 0
-205 -18 221 0
18 -221 0
205 -221 0
-141 -222 -221 0
-222 141 221 0
141 -221 222 0
-141 221 222 0
-222 -223 -220 0
220 -223 222 0
-220 223 222 0
-222 220 223 0
-222 -220 224 0
-224 222 0
220 -224 0
-141 225 -221 0
-225 141 0
-225 221 0
225 -226 224 0
226 -224 0
-225 226 0
-205 227 -26 0
26 -227 0
205 -227 0
-227 -228 -147 0
147 -228 227 0
147 -227 228 0
228 227 -147 0
-229 -228 -226 0
-229 228 226 0
228 -226 229 0
-228 226 229 0
230 -228 -226 0
228 -230 0
226 -230 0
-227 231 -147 0
147 -231 0
-231 227 0
230 -232 231 0
232 -230 0
-231 232 0
-205 233 -34 0
34 -233 0
205 -233 0
-234 -153 -233 0
-234 233 153 0
-233 234 153 0
234 -153 233 0
-234 -235 -232 0
234 -235 232 0
234 235 -232 0
-234 235 232 0
-234 236 -232 0
-236 234 0
-236 232 0
237 -153 -233 0
-237 153 0
-237 233 0
237 236 -238 0
-236 238 0
238 -237 0
-205 239 -42 0
42 -239 0
205 -239 0
-239 -159 -240 0
159 239 -240 0
159 -239 240 0
239 -159 240 0
-241 -240 -238 0
238 240 -241 0
241 240 -238 0
238 241 -240 0
242 -240 -238 0
-242 240 0
238 -242 0
-239 -159 243 0
-243 159 0
-243 239 0
-244 243 242 0
-242 244 0
-243 244 0
-50 245 -205 0
50 -245 0
205 -245 0
-165 -246 -245 0
165 -246 245 0
246 165 -245 0
246 -165 245 0
-244 -247 -246 0
246 -247 244 0
246 -244 247 0
247 -246 244 0
-244 248 -246 0
246 -248 0
-248 244 0
-165 249 -245 0
165 -249 0
245 -249 0
248 -250 249 0
-248 250 0
250 -249 0
-205 -58 251 0
58 -251 0
-251 205 0
-251 -252 -171 0
-252 171 251 0
-251 252 171 0
252 251 -171 0
-252 -253 -250 0
252 250 -253 0
252 253 -250 0
-252 250 253 0
-252 254 -250 0
252 -254 0
-254 250 0
-251 255 -171 0
171 -255 0
-255 251 0
254 255 -256 0
-254 256 0
-255 256 0
-205 -66 257 0
-257 66 0
205 -257 0
-257 -177 -258 0
257 -258 177 0
-257 177 258 0
-177 257 258 0
-259 -258 -256 0
-259 256 258 0
-256 259 258 0
259 256 -258 0
260 -258 -256 0
-260 258 0
256 -260 0
-257 261 -177 0
177 -261 0
257 -261 0
-262 261 260 0
262 -260 0
262 -261 0
-205 263 -74 0
74 -263 0
205 -263 0
-264 -183 -263 0
-264 263 183 0
264 183 -263 0
263 264 -183 0
-264 -262 -265 0
264 262 -265 0
265 -262 264 0
-264 262 265 0
-264 -262 266 0
264 -266 0
-266 262 0
-183 267 -263 0
183 -267 0
263 -267 0
-268 266 267 0
268 -266 0
268 -267 0
-205 -82 269 0
82 -269 0
205 -269 0
-270 -189 -269 0
-270 269 189 0
270 189 -269 0
-189 269 270 0
-270 -268 -271 0
268 -271 270 0
-268 271 270 0
-270 271 268 0
-270 272 -268 0
-272 270 0
268 -272 0
273 -189 -269 0
-273 189 0
269 -273 0
272 273 -274 0
274 -272 0
274 -273 0
-90 275 -205 0
-275 90 0
205 -275 0
-276 -195 -275 0
195 275 -276 0
195 -275 276 0
275 -195 276 0
-277 -276 -274 0
-277 274 276 0
277 276 -274 0
277 -276 274 0
278 -276 -274 0
-278 276 0
-278 274 0
279 -195 -275 0
195 -279 0
275 -279 0
278 279 -280 0
280 -278 0
280 -279 0
-98 -205 281 0
-281 98 0
205 -281 0
-282 -281 -201 0
-282 201 281 0
201 282 -281 0
282 281 -201 0
-283 -282 -280 0
-283 280 282 0
283 282 -280 0
-282 283 280 0
284 -282 -280 0
-284 282 0
280 -284 0
285 -281 -201 0
-285 201 0
-285 281 0
284 -286 285 0
-284 286 0
286 -285 0
287 -205 -106 0
106 -287 0
-287 205 0
-287 -288 -204 0
287 204 -288 0
-287 204 288 0
287 288 -204 0
-289 -286 -288 0
286 288 -289 0
289 288 -286 0
289 286 -288 0
-286 290 -288 0
-290 288 0
-290 286 0
-287 291 -204 0
-291 204 0
287 -291 0
291 290 -292 0
-290 292 0
-291 292 0
294 -1 -293 0
-294 1 0
293 -294 0
-294 -211 -295 0
294 211 -295 0
-294 295 211 0
294 295 -211 0
-294 -211 296 0
-296 211 0
294 -296 0
-293 -4 297 0
-297 4 0
293 -297 0
-297 -217 -298 0
-298 217 297 0
-297 217 298 0
298 -217 297 0
-298 -296 -299 0
298 -299 296 0
298 -296 299 0
-298 296 299 0
-298 -296 300 0
298 -300 0
296 -300 0
-297 -217 301 0
217 -301 0
-301 297 0
-302 300 301 0
302 -300 0
-301 302 0
-10 303 -293 0
-303 10 0
293 -303 0
-223 -303 -304 0
223 303 -304 0
223 304 -303 0
-223 304 303 0
-302 -304 -305 0
-305 304 302 0
-302 304 305 0
-304 302 305 0
-302 -304 306 0
304 -306 0
302 -306 0
-223 -303 307 0
-307 223 0
-307 303 0
-308 307 306 0
308 -306 0
-307 308 0
309 -18 -293 0
-309 18 0
293 -309 0
-229 -309 -310 0
309 -310 229 0
-309 310 229 0
-229 309 310 0
-308 -311 -310 0
310 -311 308 0
310 -308 311 0
311 -310 308 0
-308 -310 312 0
310 -312 0
308 -312 0
-229 -309 313 0
-313 229 0
309 -313 0
-314 313 312 0
-312 314 0
-313 314 0
315 -293 -26 0
26 -315 0
293 -315 0
-316 -235 -315 0
235 315 -316 0
316 235 -315 0
316 -235 315 0
-314 -316 -317 0
316 314 -317 0
316 317 -314 0
317 314 -316 0
-314 318 -316 0
316 -318 0
-318 314 0
319 -235 -315 0
235 -319 0
315 -319 0
319 318 -320 0
-318 320 0
320 -319 0
-293 321 -34 0
34 -321 0
293 -321 0
-322 -321 -241 0
241 -322 321 0
241 -321 322 0
321 -241 322 0
-323 -322 -320 0
-323 320 322 0
323 -320 322 0
-322 323 320 0
324 -322 -320 0
-324 322 0
320 -324 0
-321 -241 325 0
241 -325 0
-325 321 0
324 325 -326 0
326 -324 0
-325 326 0
327 -293 -42 0
-327 42 0
293 -327 0
-327 -247 -328 0
327 247 -328 0
-327 247 328 0
327 -247 328 0
-329 -328 -326 0
-329 328 326 0
329 328 -326 0
329 326 -328 0
330 -328 -326 0
-330 328 0
-330 326 0
-327 -247 331 0
247 -331 0
327 -331 0
330 -332 331 0
-330 332 0
-331 332 0
333 -50 -293 0
50 -333 0
293 -333 0
-334 -333 -253 0
333 253 -334 0
253 334 -333 0
333 334 -253 0
-332 -335 -334 0
-335 334 332 0
-332 334 335 0
335 -334 332 0
-332 -334 336 0
334 -336 0
-336 332 0
337 -333 -253 0
253 -337 0
333 -337 0
337 336 -338 0
338 -336 0
338 -337 0
-293 339 -58 0
58 -339 0
293 -339 0
-339 -340 -259 0
339 259 -340 0
259 -339 340 0
339 340 -259 0
-341 -338 -340 0
-341 338 340 0
341 -338 340 0
341 338 -340 0
342 -338 -340 0
-342 340 0
338 -342 0
-339 343 -259 0
259 -343 0
339 -343 0
342 -344 343 0
344 -342 0
-343 344 0
-293 -66 345 0
-345 66 0
293 -345 0
-346 -345 -265 0
-346 265 345 0
265 -345 346 0
346 345 -265 0
-346 -344 -347 0
-347 346 344 0
-344 346 347 0
-346 347 344 0
-346 -344 348 0
346 -348 0
344 -348 0
349 -345 -265 0
265 -349 0
345 -349 0
348 349 -350 0
350 -348 0
350 -349 0
-293 351 -74 0
74 -351 0
293 -351 0
-352 -351 -271 0
271 -352 351 0
352 271 -351 0
352 351 -271 0
-350 -352 -353 0
350 352 -353 0
352 -350 353 0
350 353 -352 0
354 -350 -352 0
352 -354 0
350 -354 0
355 -351 -271 0
271 -355 0
-355 351 0
354 -356 355 0
356 -354 0
356 -355 0
357 -293 -82 0
-357 82 0
293 -357 0
-277 -358 -357 0
357 277 -358 0
358 277 -357 0
-277 357 358 0
-359 -358 -356 0
356 358 -359 0
358 359 -356 0
356 -358 359 0
-358 -356 360 0
358 -360 0
356 -360 0
-277 361 -357 0
277 -361 0
357 -361 0
-362 361 360 0
362 -360 0
362 -361 0
363 -90 -293 0
90 -363 0
293 -363 0
-283 -364 -363 0
363 -364 283 0
283 364 -363 0
-283 363 364 0
-364 -362 -365 0
362 364 -365 0
-362 364 365 0
362 -364 365 0
-364 -362 366 0
-366 364 0
362 -366 0
-283 367 -363 0
-367 283 0
363 -367 0
-368 367 366 0
368 -366 0
-367 368 0
-98 -293 369 0
-369 98 0
293 -369 0
-289 -369 -370 0
289 369 -370 0
289 370 -369 0
370 -289 369 0
-368 -370 -371 0
370 368 -371 0
370 -368 371 0
371 368 -370 0
-368 372 -370 0
370 -372 0
-372 368 0
373 -289 -369 0
289 -373 0
-373 369 0
373 -374 372 0
-372 374 0
374 -373 0
-293 375 -106 0
106 -375 0
293 -375 0
-376 -375 -292 0
-376 375 292 0
-375 376 292 0
376 375 -292 0
-376 -374 -377 0
374 376 -377 0
-374 377 376 0
-376 377 374 0
-376 -374 378 0
-378 376 0
374 -378 0
379 -375 -292 0
-379 292 0
375 -379 0
379 -380 378 0
-378 380 0
380 -379 0
-381 -1 382 0
-382 1 0
381 -382 0
-299 -382 -383 0
382 299 -383 0
-382 383 299 0
383 -299 382 0
-299 -382 384 0
-384 299 0
-384 382 0
-381 -4 385 0
4 -385 0
381 -385 0
-305 -386 -385 0
-386 305 385 0
305 -385 386 0
-305 386 385 0
-384 -386 -387 0
-387 386 384 0
-384 386 387 0
-386 387 384 0
388 -384 -386 0
-388 386 0
-388 384 0
-305 389 -385 0
305 -389 0
-389 385 0
388 -390 389 0
-388 390 0
-389 390 0
-10 391 -381 0
-391 10 0
-391 381 0
-391 -311 -392 0
311 391 -392 0
-391 311 392 0
391 -311 392 0
-390 -393 -392 0
-393 392 390 0
393 -390 392 0
393 -392 390 0
-390 394 -392 0
-394 392 0
-394 390 0
-391 -311 395 0
-395 311 0
-395 391 0
394 395 -396 0
-394 396 0
-395 396 0
-381 -18 397 0
-397 18 0
-397 381 0
-397 -398 -317 0
397 317 -398 0
-397 317 398 0
397 398 -317 0
-399 -398 -396 0
-399 398 396 0
398 399 -396 0
396 399 -398 0
400 -398 -396 0
398 -400 0
396 -400 0
-397 401 -317 0
-401 317 0
397 -401 0
-402 400 401 0
-400 402 0
-401 402 0
-381 403 -26 0
26 -403 0
381 -403 0
-403 -404 -323 0
-404 323 403 0
323 -403 404 0
403 404 -323 0
-405 -402 -404 0
-405 404 402 0
-402 404 405 0
405 -404 402 0
406 -402 -404 0
404 -406 0
-406 402 0
407 -403 -323 0
323 -407 0
403 -407 0
-408 407 406 0
408 -406 0
408 -407 0
-381 409 -34 0
34 -409 0
381 -409 0
-329 -410 -409 0
329 -410 409 0
329 410 -409 0
-329 410 409 0
-408 -410 -411 0
410 408 -411 0
-408 411 410 0
411 -410 408 0
-408 412 -410 0
410 -412 0
-412 408 0
-329 -409 413 0
329 -413 0
409 -413 0
-414 412 413 0
414 -412 0
414 -413 0
415 -381 -42 0
42 -415 0
381 -415 0
-335 -416 -415 0
415 335 -416 0
335 416 -415 0
415 -335 416 0
-416 -414 -417 0
414 -417 416 0
-414 417 416 0
414 -416 417 0
418 -416 -414 0
-418 416 0
414 -418 0
-335 419 -415 0
335 -419 0
415 -419 0
-420 418 419 0
-418 420 0
-419 420 0
-50 421 -381 0
50 -421 0
-421 381 0
-341 -421 -422 0
341 -422 421 0
341 -421 422 0
-341 422 421 0
-420 -422 -423 0
422 420 -423 0
-420 423 422 0
423 -422 420 0
-420 424 -422 0
422 -424 0
-424 420 0
-341 -421 425 0
-425 341 0
-425 421 0
-426 424 425 0
426 -424 0
-425 426 0
-381 -58 427 0
58 -427 0
-427 381 0
-427 -347 -428 0
427 347 -428 0
-427 428 347 0
427 -347 428 0
-426 -429 -428 0
428 426 -429 0
-426 429 428 0
429 426 -428 0
-426 -428 430 0
-430 428 0
-430 426 0
-427 -347 431 0
-431 347 0
427 -431 0
-432 430 431 0
-430 432 0
432 -431 0
-381 -66 433 0
66 -433 0
381 -433 0
-433 -434 -353 0
-434 353 433 0
434 353 -433 0
433 434 -353 0
-434 -432 -435 0
432 434 -435 0
-432 434 435 0
-434 432 435 0
-434 -432 436 0
-436 434 0
-436 432 0
-433 437 -353 0
-437 353 0
-437 433 0
-438 436 437 0
-436 438 0
-437 438 0
-381 439 -74 0
74 -439 0
381 -439 0
-359 -439 -440 0
439 359 -440 0
359 -439 440 0
-359 439 440 0
-441 -438 -440 0
-441 440 438 0
440 -438 441 0
438 441 -440 0
442 -438 -440 0
440 -442 0
-442 438 0
-359 443 -439 0
359 -443 0
439 -443 0
443 -444 442 0
444 -442 0
444 -443 0
445 -381 -82 0
-445 82 0
-445 381 0
-445 -365 -446 0
445 -446 365 0
-445 446 365 0
445 -365 446 0
-444 -446 -447 0
444 -447 446 0
447 -444 446 0
444 447 -446 0
-444 -446 448 0
-448 446 0
444 -448 0
-445 449 -365 0
-449 365 0
445 -449 0
449 -450 448 0
450 -448 0
-449 450 0
-90 451 -381 0
-451 90 0
-451 381 0
-451 -452 -371 0
371 451 -452 0
371 452 -451 0
452 451 -371 0
-453 -452 -450 0
452 -453 450 0
453 452 -450 0
453 -452 450 0
454 -452 -450 0
452 -454 0
-454 450 0
-451 455 -371 0
371 -455 0
451 -455 0
-456 454 455 0
-454 456 0
456 -455 0
-98 -381 457 0
-457 98 0
381 -457 0
-458 -457 -377 0
-458 377 457 0
458 377 -457 0
458 457 -377 0
-458 -456 -459 0
458 456 -459 0
458 -456 459 0
-458 456 459 0
-458 -456 460 0
458 -460 0
456 -460 0
461 -457 -377 0
377 -461 0
457 -461 0
-462 460 461 0
462 -460 0
462 -461 0
-381 463 -106 0
106 -463 0
-463 381 0
-380 -464 -463 0
-464 463 380 0
-463 380 464 0
-380 463 464 0
-462 -464 -465 0
462 -465 464 0
-462 465 464 0
465 -464 462 0
-462 -464 466 0
-466 464 0
462 -466 0
-380 -463 467 0
-467 380 0
463 -467 0
-468 466 467 0
468 -466 0
-467 468 0
-1 470 -469 0
-470 1 0
469 -470 0
-471 -470 -387 0
-471 470 387 0
471 -470 387 0
470 471 -387 0
472 -470 -387 0
-472 387 0
470 -472 0
-469 -4 473 0
4 -473 0
-473 469 0
-474 -473 -393 0
-474 393 473 0
393 -473 474 0
474 -393 473 0
-474 -475 -472 0
-475 472 474 0
-472 474 475 0
-474 472 475 0
-474 -472 476 0
474 -476 0
472 -476 0
-473 477 -393 0
393 -477 0
-477 473 0
-478 477 476 0
478 -476 0
478 -477 0
-10 -469 479 0
-479 10 0
469 -479 0
-399 -479 -480 0
479 399 -480 0
480 399 -479 0
480 479 -399 0
-481 -480 -478 0
480 478 -481 0
480 481 -478 0
481 478 -480 0
482 -480 -478 0
480 -482 0
478 -482 0
-399 483 -479 0
399 -483 0
479 -483 0
-484 482 483 0
484 -482 0
484 -483 0
-18 485 -469 0
18 -485 0
469 -485 0
-405 -486 -485 0
-486 485 405 0
486 -485 405 0
-405 486 485 0
-484 -486 -487 0
484 486 -487 0
-484 486 487 0
487 484 -486 0
-484 488 -486 0
486 -488 0
484 -488 0
-405 489 -485 0
-489 405 0
485 -489 0
-490 488 489 0
490 -488 0
490 -489 0
-469 491 -26 0
26 -491 0
469 -491 0
-492 -491 -411 0
-492 411 491 0
411 492 -491 0
491 492 -411 0
-492 -493 -490 0
490 492 -493 0
493 492 -490 0
490 493 -492 0
-492 -490 494 0
492 -494 0
490 -494 0
495 -491 -411 0
411 -495 0
491 -495 0
495 -496 494 0
496 -494 0
496 -495 0
497 -469 -34 0
-497 34 0
-497 469 0
-497 -417 -498 0
497 -498 417 0
-497 498 417 0
497 498 -417 0
-496 -498 -499 0
498 496 -499 0
498 499 -496 0
499 496 -498 0
-496 500 -498 0
498 -500 0
496 -500 0
-497 501 -417 0
-501 417 0
497 -501 0
-502 500 501 0
502 -500 0
-501 502 0
503 -469 -42 0
42 -503 0
-503 469 0
-503 -504 -423 0
423 503 -504 0
423 504 -503 0
504 503 -423 0
-502 -505 -504 0
504 -505 502 0
-502 504 505 0
502 -504 505 0
-502 -504 506 0
504 -506 0
502 -506 0
-503 507 -423 0
423 -507 0
503 -507 0
506 -508 507 0
508 -506 0
508 -507 0
-50 -469 509 0
50 -509 0
469 -509 0
-510 -509 -429 0
-510 429 509 0
510 429 -509 0
510 509 -429 0
-510 -511 -508 0
510 508 -511 0
510 -508 511 0
511 -510 508 0
-510 512 -508 0
510 -512 0
-512 508 0
-509 -429 513 0
429 -513 0
509 -513 0
-514 512 513 0
-512 514 0
-513 514 0
515 -469 -58 0
58 -515 0
-515 469 0
-515 -516 -435 0
515 -516 435 0
-515 516 435 0
515 516 -435 0
-514 -516 -517 0
516 -517 514 0
-514 516 517 0
-516 514 517 0
-514 518 -516 0
516 -518 0
-518 514 0
-515 519 -435 0
-519 435 0
515 -519 0
518 -520 519 0
-518 520 0
-519 520 0
-469 521 -66 0
-521 66 0
-521 469 0
-441 -521 -522 0
521 441 -522 0
-521 441 522 0
-441 521 522 0
-523 -520 -522 0
-523 520 522 0
523 -520 522 0
523 520 -522 0
524 -520 -522 0
-524 522 0
-524 520 0
-441 525 -521 0
-525 441 0
521 -525 0
-526 525 524 0
526 -524 0
526 -525 0
-469 527 -74 0
74 -527 0
469 -527 0
-528 -527 -447 0
-528 447 527 0
528 447 -527 0
528 -447 527 0
-528 -526 -529 0
526 528 -529 0
-526 528 529 0
-528 526 529 0
-528 -526 530 0
528 -530 0
526 -530 0
531 -527 -447 0
447 -531 0
527 -531 0
531 530 -532 0
532 -530 0
532 -531 0
-469 -82 533 0
-533 82 0
-533 469 0
-533 -453 -534 0
453 533 -534 0
453 -533 534 0
533 -453 534 0
-532 -535 -534 0
-535 532 534 0
-532 535 534 0
535 532 -534 0
-532 536 -534 0
-536 534 0
532 -536 0
-533 537 -453 0
453 -537 0
533 -537 0
-538 537 536 0
538 -536 0
538 -537 0
-90 -469 539 0
-539 90 0
-539 469 0
-540 -539 -459 0
539 459 -540 0
540 -539 459 0
540 539 -459 0
-538 -541 -540 0
540 538 -541 0
540 541 -538 0
538 -540 541 0
-538 542 -540 0
540 -542 0
538 -542 0
543 -539 -459 0
459 -543 0
539 -543 0
542 -544 543 0
-542 544 0
544 -543 0
-98 -469 545 0
-545 98 0
469 -545 0
-465 -545 -546 0
545 465 -546 0
465 -545 546 0
545 -465 546 0
-544 -546 -547 0
-547 544 546 0
547 -544 546 0
544 547 -546 0
-544 -546 548 0
-548 546 0
544 -548 0
-465 -545 549 0
465 -549 0
545 -549 0
-550 549 548 0
550 -548 0
550 -549 0
-469 551 -106 0
106 -551 0
469 -551 0
-468 -551 -552 0
551 468 -552 0
552 -551 468 0
-468 551 552 0
-550 -552 -553 0
552 550 -553 0
552 -550 553 0
550 -552 553 0
-550 -552 554 0
552 -554 0
550 -554 0
-468 -551 555 0
-555 468 0
-555 551 0
555 -556 554 0
-554 556 0
-555 556 0
558 -1 -557 0
1 -558 0
557 -558 0
-475 -559 -558 0
558 -559 475 0
559 -558 475 0
558 -475 559 0
-475 560 -558 0
-560 475 0
558 -560 0
-4 561 -557 0
4 -561 0
557 -561 0
-562 -561 -481 0
481 -562 561 0
481 -561 562 0
-481 562 561 0
-562 -563 -560 0
-563 560 562 0
563 562 -560 0
-562 563 560 0
-562 -560 564 0
-564 562 0
560 -564 0
-561 -481 565 0
481 -565 0
-565 561 0
-566 565 564 0
-564 566 0
-565 566 0
-10 567 -557 0
-567 10 0
557 -567 0
-567 -568 -487 0
567 487 -568 0
-567 487 568 0
567 568 -487 0
-566 -569 -568 0
566 -569 568 0
-566 569 568 0
566 569 -568 0
-566 570 -568 0
-570 568 0
-570 566 0
571 -567 -487 0
-571 487 0
-571 567 0
571 -572 570 0
-570 572 0
-571 572 0
573 -18 -557 0
-573 18 0
557 -573 0
-573 -493 -574 0
493 573 -574 0
493 -573 574 0
573 -493 574 0
-572 -575 -574 0
-575 572 574 0
575 -572 574 0
575 572 -574 0
576 -572 -574 0
-576 574 0
572 -576 0
-573 577 -493 0
493 -577 0
573 -577 0
576 -578 577 0
578 -576 0
578 -577 0
579 -557 -26 0
26 -579 0
557 -579 0
-580 -579 -499 0
579 499 -580 0
499 580 -579 0
579 580 -499 0
-580 -578 -581 0
580 578 -581 0
581 580 -578 0
581 -580 578 0
-580 582 -578 0
580 -582 0
578 -582 0
-579 583 -499 0
-583 499 0
579 -583 0
-584 582 583 0
584 -582 0
-583 584 0
585 -34 -557 0
-585 34 0
557 -585 0
-585 -505 -586 0
585 505 -586 0
-585 586 505 0
-505 586 585 0
-587 -584 -586 0
-587 584 586 0
587 -584 586 0
587 584 -586 0
588 -584 -586 0
-588 586 0
584 -588 0
-585 -505 589 0
-589 505 0
-589 585 0
588 -590 589 0
590 -588 0
590 -589 0
591 -42 -557 0
-591 42 0
557 -591 0
-591 -511 -592 0
511 591 -592 0
511 -591 592 0
592 591 -511 0
-593 -590 -592 0
590 592 -593 0
592 -590 593 0
590 593 -592 0
594 -590 -592 0
-594 592 0
-594 590 0
-591 -511 595 0
511 -595 0
591 -595 0
594 -596 595 0
-594 596 0
596 -595 0
-50 597 -557 0
50 -597 0
557 -597 0
-597 -517 -598 0
597 -598 517 0
-597 598 517 0
597 -517 598 0
-599 -596 -598 0
596 -599 598 0
599 -596 598 0
596 599 -598 0
600 -596 -598 0
-600 598 0
596 -600 0
-597 601 -517 0
-601 517 0
-601 597 0
-602 601 600 0
-600 602 0
-601 602 0
-58 603 -557 0
58 -603 0
557 -603 0
-523 -603 -604 0
523 603 -604 0
523 -603 604 0
-523 603 604 0
-605 -602 -604 0
-605 602 604 0
-602 605 604 0
605 602 -604 0
-602 606 -604 0
-606 604 0
-606 602 0
-523 -603 607 0
523 -607 0
603 -607 0
-608 606 607 0
608 -606 0
608 -607 0
609 -66 -557 0
66 -609 0
557 -609 0
-610 -529 -609 0
-610 529 609 0
529 610 -609 0
609 -529 610 0
-610 -611 -608 0
-611 608 610 0
611 -608 610 0
-610 608 611 0
-610 -608 612 0
610 -612 0
608 -612 0
613 -529 -609 0
-613 529 0
-613 609 0
613 -614 612 0
614 -612 0
614 -613 0
-557 615 -74 0
74 -615 0
557 -615 0
-616 -535 -615 0
-616 535 615 0
535 616 -615 0
-535 616 615 0
-616 -617 -614 0
614 -617 616 0
616 617 -614 0
-616 614 617 0
-616 -614 618 0
-618 616 0
614 -618 0
-535 -615 619 0
-619 535 0
-619 615 0
618 -620 619 0
-618 620 0
-619 620 0
-82 621 -557 0
-621 82 0
557 -621 0
-541 -621 -622 0
541 621 -622 0
622 541 -621 0
622 -541 621 0
-623 -620 -622 0
622 620 -623 0
622 623 -620 0
623 620 -622 0
624 -620 -622 0
622 -624 0
620 -624 0
-541 -621 625 0
541 -625 0
-625 621 0
624 -626 625 0
626 -624 0
626 -625 0
-90 627 -557 0
90 -627 0
557 -627 0
-628 -627 -547 0
627 -628 547 0
628 547 -627 0
627 628 -547 0
-629 -628 -626 0
-629 628 626 0
629 628 -626 0
629 -628 626 0
630 -628 -626 0
628 -630 0
626 -630 0
631 -627 -547 0
547 -631 0
627 -631 0
630 631 -632 0
632 -630 0
632 -631 0
-98 633 -557 0
-633 98 0
557 -633 0
-634 -633 -553 0
-634 633 553 0
-633 634 553 0
634 633 -553 0
-634 -635 -632 0
632 634 -635 0
635 634 -632 0
-634 632 635 0
-634 636 -632 0
634 -636 0
632 -636 0
-633 -553 637 0
-637 553 0
-637 633 0
-638 636 637 0
638 -636 0
638 -637 0
639 -106 -557 0
106 -639 0
557 -639 0
-556 -639 -640 0
639 556 -640 0
-639 556 640 0
-556 639 640 0
-641 -638 -640 0
638 -641 640 0
641 -638 640 0
638 641 -640 0
642 -638 -640 0
-642 640 0
638 -642 0
-556 -639 643 0
-643 556 0
-643 639 0
642 -644 643 0
644 -642 0
-643 644 0
646 -1 -645 0
-646 1 0
645 -646 0
-563 -646 -647 0
646 563 -647 0
563 -646 647 0
-563 647 646 0
-563 -646 648 0
563 -648 0
646 -648 0
649 -645 -4 0
4 -649 0
645 -649 0
-650 -649 -569 0
649 569 -650 0
-649 569 650 0
649 -569 650 0
-650 -651 -648 0
-651 648 650 0
651 -648 650 0
-650 651 648 0
-650 652 -648 0
-652 650 0
-652 648 0
-649 -569 653 0
-653 569 0
-653 649 0
652 -654 653 0
-652 654 0
-653 654 0
-10 -645 655 0
-655 10 0
-655 645 0
-655 -656 -575 0
575 655 -656 0
575 -655 656 0
656 655 -575 0
-657 -654 -656 0
656 -657 654 0
656 -654 657 0
654 657 -656 0
-654 658 -656 0
656 -658 0
654 -658 0
-655 659 -575 0
575 -659 0
655 -659 0
659 -660 658 0
660 -658 0
660 -659 0
-18 -645 661 0
-661 18 0
-661 645 0
-661 -662 -581 0
581 661 -662 0
581 -661 662 0
661 -581 662 0
-662 -660 -663 0
660 -663 662 0
-660 663 662 0
-662 660 663 0
-662 -660 664 0
-664 662 0
660 -664 0
-661 665 -581 0
581 -665 0
-665 661 0
-666 664 665 0
-664 666 0
-665 666 0
-645 667 -26 0
26 -667 0
645 -667 0
-667 -587 -668 0
587 667 -668 0
-667 587 668 0
668 -587 667 0
-669 -666 -668 0
668 -669 666 0
668 669 -666 0
666 669 -668 0
670 -666 -668 0
668 -670 0
-670 666 0
671 -667 -587 0
-671 587 0
-671 667 0
670 671 -672 0
672 -670 0
672 -671 0
-645 673 -34 0
-673 34 0
645 -673 0
-674 -673 -593 0
-674 673 593 0
-673 674 593 0
673 674 -593 0
-674 -672 -675 0
672 -675 674 0
-672 675 674 0
672 -674 675 0
676 -674 -672 0
-676 674 0
672 -676 0
677 -673 -593 0
-677 593 0
-677 673 0
-678 677 676 0
678 -676 0
-677 678 0
679 -645 -42 0
-679 42 0
-679 645 0
-679 -680 -599 0
679 599 -680 0
-679 599 680 0
679 680 -599 0
-681 -678 -680 0
-681 678 680 0
-678 681 680 0
678 681 -680 0
682 -678 -680 0
-682 680 0
-682 678 0
-679 683 -599 0
599 -683 0
679 -683 0
682 683 -684 0
684 -682 0
684 -683 0
-50 -645 685 0
50 -685 0
645 -685 0
-605 -686 -685 0
605 -686 685 0
686 605 -685 0
-605 685 686 0
-686 -684 -687 0
686 684 -687 0
686 687 -684 0
-686 684 687 0
688 -686 -684 0
686 -688 0
-688 684 0
-605 -685 689 0
605 -689 0
685 -689 0
-690 688 689 0
-688 690 0
690 -689 0
-645 -58 691 0
58 -691 0
645 -691 0
-611 -691 -692 0
611 691 -692 0
611 -691 692 0
-611 691 692 0
-693 -690 -692 0
690 692 -693 0
692 -690 693 0
690 693 -692 0
694 -690 -692 0
692 -694 0
690 -694 0
-611 -691 695 0
611 -695 0
691 -695 0
694 -696 695 0
-694 696 0
-695 696 0
697 -645 -66 0
66 -697 0
645 -697 0
-617 -697 -698 0
697 617 -698 0
617 -697 698 0
-617 697 698 0
-696 -699 -698 0
-699 698 696 0
699 -696 698 0
699 696 -698 0
700 -696 -698 0
-700 698 0
-700 696 0
-617 701 -697 0
-701 617 0
697 -701 0
700 701 -702 0
702 -700 0
-701 702 0
-645 703 -74 0
74 -703 0
645 -703 0
-623 -704 -703 0
623 -704 703 0
623 -703 704 0
-623 704 703 0
-702 -705 -704 0
-705 702 704 0
-702 705 704 0
705 -704 702 0
706 -702 -704 0
-706 704 0
702 -706 0
-623 -703 707 0
623 -707 0
-707 703 0
706 -708 707 0
708 -706 0
708 -707 0
-645 -82 709 0
-709 82 0
645 -709 0
-629 -710 -709 0
629 709 -710 0
629 -709 710 0
710 -629 709 0
-711 -710 -708 0
710 708 -711 0
710 711 -708 0
708 -710 711 0
712 -710 -708 0
710 -712 0
708 -712 0
-629 713 -709 0
629 -713 0
-713 709 0
-714 712 713 0
-712 714 0
-713 714 0
-90 -645 715 0
-715 90 0
645 -715 0
-715 -716 -635 0
-716 715 635 0
716 -715 635 0
716 715 -635 0
-716 -717 -714 0
716 -717 714 0
716 717 -714 0
-716 717 714 0
-716 718 -714 0
716 -718 0
714 -718 0
-715 719 -635 0
635 -719 0
715 -719 0
719 -720 718 0
-718 720 0
720 -719 0
-98 -645 721 0
-721 98 0
-721 645 0
-721 -641 -722 0
-722 721 641 0
-721 722 641 0
722 -641 721 0
-723 -720 -722 0
722 -723 720 0
722 -720 723 0
723 -722 720 0
724 -720 -722 0
722 -724 0
-724 720 0
-721 725 -641 0
-725 641 0
-725 721 0
724 725 -726 0
-724 726 0
-725 726 0
727 -645 -106 0
106 -727 0
645 -727 0
-728 -727 -644 0
727 -728 644 0
-727 644 728 0
727 728 -644 0
-728 -726 -729 0
-729 728 726 0
729 -726 728 0
729 -728 726 0
-728 -726 730 0
728 -730 0
726 -730 0
-727 -644 731 0
644 -731 0
727 -731 0
731 -732 730 0
732 -730 0
732 -731 0
734 -733 -1 0
-734 1 0
-734 733 0
-735 -651 -734 0
734 651 -735 0
735 651 -734 0
734 -651 735 0
736 -651 -734 0
-736 651 0
734 -736 0
-733 -4 737 0
4 -737 0
733 -737 0
-738 -657 -737 0
-738 657 737 0
738 -737 657 0
738 -657 737 0
-736 -738 -739 0
-739 736 738 0
739 -736 738 0
736 -738 739 0
-736 -738 740 0
-740 738 0
736 -740 0
741 -657 -737 0
-741 657 0
-741 737 0
-742 741 740 0
742 -740 0
742 -741 0
-733 -10 743 0
-743 10 0
733 -743 0
-743 -744 -663 0
743 663 -744 0
744 663 -743 0
744 743 -663 0
-742 -745 -744 0
744 -745 742 0
744 -742 745 0
742 745 -744 0
-742 746 -744 0
744 -746 0
742 -746 0
747 -743 -663 0
663 -747 0
743 -747 0
-748 746 747 0
-746 748 0
748 -747 0
749 -733 -18 0
-749 18 0
-749 733 0
-749 -669 -750 0
749 -750 669 0
-749 669 750 0
749 -669 750 0
-751 -750 -748 0
748 -751 750 0
751 -748 750 0
751 -750 748 0
752 -750 -748 0
-752 750 0
-752 748 0
-749 -669 753 0
-753 669 0
749 -753 0
-754 752 753 0
-752 754 0
-753 754 0
-733 755 -26 0
26 -755 0
733 -755 0
-756 -755 -675 0
755 675 -756 0
756 675 -755 0
756 755 -675 0
-757 -754 -756 0
756 -757 754 0
756 757 -754 0
754 757 -756 0
758 -754 -756 0
756 -758 0
-758 754 0
759 -755 -675 0
675 -759 0
755 -759 0
-760 758 759 0
760 -758 0
760 -759 0
-733 761 -34 0
34 -761 0
733 -761 0
-681 -762 -761 0
-762 681 761 0
762 681 -761 0
-681 761 762 0
-762 -760 -763 0
760 -763 762 0
763 -760 762 0
-762 763 760 0
-762 764 -760 0
-764 762 0
-764 760 0
-681 765 -761 0
681 -765 0
761 -765 0
-766 765 764 0
-764 766 0
766 -765 0
-733 767 -42 0
-767 42 0
-767 733 0
-767 -768 -687 0
-768 767 687 0
-767 687 768 0
768 767 -687 0
-766 -768 -769 0
768 -769 766 0
768 -766 769 0
-768 766 769 0
-766 -768 770 0
768 -770 0
766 -770 0
-767 771 -687 0
-771 687 0
767 -771 0
770 771 -772 0
772 -770 0
-771 772 0
-733 -50 773 0
50 -773 0
733 -773 0
-693 -773 -774 0
773 693 -774 0
693 774 -773 0
773 -693 774 0
-775 -772 -774 0
-775 772 774 0
775 -772 774 0
775 772 -774 0
-772 776 -774 0
-776 774 0
-776 772 0
777 -693 -773 0
-777 693 0
-777 773 0
777 -778 776 0
-776 778 0
-777 778 0
-733 -58 779 0
58 -779 0
733 -779 0
-780 -699 -779 0
699 779 -780 0
699 780 -779 0
779 -699 780 0
-780 -778 -781 0
-781 780 778 0
781 780 -778 0
-780 781 778 0
-780 -778 782 0
780 -782 0
-782 778 0
783 -699 -779 0
699 -783 0
-783 779 0
-784 783 782 0
-782 784 0
-783 784 0
-733 785 -66 0
-785 66 0
-785 733 0
-785 -705 -786 0
705 785 -786 0
786 705 -785 0
786 -705 785 0
-784 -787 -786 0
786 -787 784 0
786 -784 787 0
787 -786 784 0
-784 788 -786 0
786 -788 0
-788 784 0
-785 -705 789 0
705 -789 0
785 -789 0
789 788 -790 0
-788 790 0
790 -789 0
-733 791 -74 0
74 -791 0
733 -791 0
-792 -791 -711 0
791 711 -792 0
-791 792 711 0
792 791 -711 0
-790 -793 -792 0
790 792 -793 0
793 -790 792 0
790 793 -792 0
-790 794 -792 0
-794 792 0
790 -794 0
-791 795 -711 0
-795 711 0
-795 791 0
-796 795 794 0
-794 796 0
-795 796 0
-733 -82 797 0
-797 82 0
733 -797 0
-717 -797 -798 0
797 717 -798 0
-797 717 798 0
-717 797 798 0
-799 -796 -798 0
796 -799 798 0
799 -796 798 0
799 -798 796 0
-796 -798 800 0
-800 798 0
-800 796 0
801 -717 -797 0
-801 717 0
797 -801 0
-802 801 800 0
802 -800 0
802 -801 0
-733 -90 803 0
-803 90 0
-803 733 0
-803 -723 -804 0
-804 723 803 0
-803 804 723 0
804 -723 803 0
-804 -805 -802 0
804 -805 802 0
805 804 -802 0
805 -804 802 0
806 -804 -802 0
804 -806 0
-806 802 0
-803 -723 807 0
-807 723 0
-807 803 0
806 -808 807 0
-806 808 0
-807 808 0
-98 -733 809 0
-809 98 0
733 -809 0
-810 -809 -729 0
729 809 -810 0
729 -809 810 0
809 -729 810 0
-811 -810 -808 0
-811 808 810 0
-808 811 810 0
-810 811 808 0
812 -810 -808 0
-812 810 0
-812 808 0
-809 -729 813 0
729 -813 0
-813 809 0
812 -814 813 0
-812 814 0
-813 814 0
815 -733 -106 0
106 -815 0
733 -815 0
-815 -732 -816 0
732 815 -816 0
732 -815 816 0
815 -732 816 0
-817 -816 -814 0
-817 814 816 0
817 816 -814 0
817 814 -816 0
818 -816 -814 0
-818 816 0
-818 814 0
-815 -732 819 0
732 -819 0
815 -819 0
819 818 -820 0
820 -818 0
-819 820 0
-1 822 -821 0
-822 1 0
-822 821 0
-739 -822 -823 0
739 822 -823 0
-822 739 823 0
-739 822 823 0
-739 -822 824 0
739 -824 0
822 -824 0
-4 825 -821 0
4 -825 0
-825 821 0
-825 -745 -826 0
825 745 -826 0
826 -825 745 0
826 825 -745 0
-827 -824 -826 0
826 -827 824 0
826 827 -824 0
827 824 -826 0
828 -824 -826 0
826 -828 0
-828 824 0
829 -825 -745 0
-829 745 0
-829 825 0
829 -830 828 0
830 -828 0
830 -829 0
-10 831 -821 0
10 -831 0
821 -831 0
-832 -751 -831 0
751 -832 831 0
751 832 -831 0
831 -751 832 0
-833 -832 -830 0
-833 830 832 0
833 -830 832 0
833 830 -832 0
-832 -830 834 0
-834 832 0
830 -834 0
835 -751 -831 0
751 -835 0
-835 831 0
835 -836 834 0
836 -834 0
836 -835 0
837 -18 -821 0
18 -837 0
-837 821 0
-837 -838 -757 0
837 757 -838 0
757 -837 838 0
837 -757 838 0
-838 -839 -836 0
-839 836 838 0
839 838 -836 0
836 -838 839 0
-838 840 -836 0
-840 838 0
-840 836 0
-837 841 -757 0
-841 757 0
837 -841 0
841 840 -842 0
-840 842 0
-841 842 0
843 -821 -26 0
26 -843 0
-843 821 0
-843 -844 -763 0
843 763 -844 0
763 -843 844 0
843 -763 844 0
-845 -844 -842 0
-845 842 844 0
-842 845 844 0
845 -844 842 0
846 -844 -842 0
-846 844 0
-846 842 0
847 -843 -763 0
763 -847 0
843 -847 0
846 847 -848 0
-846 848 0
-847 848 0
-821 -34 849 0
34 -849 0
821 -849 0
-850 -769 -849 0
-850 769 849 0
850 769 -849 0
-769 850 849 0
-851 -848 -850 0
848 -851 850 0
851 -848 850 0
851 848 -850 0
852 -848 -850 0
-852 850 0
-852 848 0
853 -769 -849 0
769 -853 0
-853 849 0
853 852 -854 0
-852 854 0
854 -853 0
855 -821 -42 0
42 -855 0
-855 821 0
-775 -855 -856 0
-856 775 855 0
856 775 -855 0
856 -775 855 0
-857 -856 -854 0
856 854 -857 0
856 857 -854 0
854 857 -856 0
858 -856 -854 0
856 -858 0
854 -858 0
-775 859 -855 0
-859 775 0
-859 855 0
858 859 -860 0
-858 860 0
-859 860 0
861 -50 -821 0
-861 50 0
-861 821 0
-781 -861 -862 0
781 -862 861 0
781 -861 862 0
-781 862 861 0
-863 -862 -860 0
-863 862 860 0
863 862 -860 0
863 -862 860 0
864 -862 -860 0
-864 862 0
-864 860 0
-781 -861 865 0
781 -865 0
861 -865 0
864 865 -866 0
-864 866 0
-865 866 0
-58 -821 867 0
58 -867 0
-867 821 0
-867 -787 -868 0
787 -868 867 0
787 -867 868 0
-787 868 867 0
-866 -869 -868 0
-869 866 868 0
869 -866 868 0
869 -868 866 0
-866 870 -868 0
-870 868 0
-870 866 0
871 -867 -787 0
787 -871 0
-871 867 0
871 870 -872 0
-870 872 0
872 -871 0
873 -66 -821 0
-873 66 0
-873 821 0
-874 -873 -793 0
-874 793 873 0
874 793 -873 0
874 873 -793 0
-874 -872 -875 0
874 872 -875 0
874 -872 875 0
-874 872 875 0
-874 -872 876 0
874 -876 0
872 -876 0
-873 -793 877 0
793 -877 0
-877 873 0
-878 876 877 0
-876 878 0
-877 878 0
879 -821 -74 0
74 -879 0
-879 821 0
-880 -879 -799 0
-880 879 799 0
799 -879 880 0
879 -799 880 0
-880 -878 -881 0
-881 880 878 0
-878 880 881 0
-880 878 881 0
-880 882 -878 0
-882 880 0
-882 878 0
-879 -799 883 0
799 -883 0
879 -883 0
882 -884 883 0
-882 884 0
884 -883 0
885 -82 -821 0
-885 82 0
-885 821 0
-885 -805 -886 0
805 885 -886 0
805 886 -885 0
885 -805 886 0
-886 -887 -884 0
-887 886 884 0
887 886 -884 0
-886 884 887 0
-886 888 -884 0
-888 886 0
-888 884 0
-885 -805 889 0
805 -889 0
-889 885 0
-890 889 888 0
890 -888 0
-889 890 0
-90 891 -821 0
-891 90 0
-891 821 0
-811 -891 -892 0
891 811 -892 0
892 -891 811 0
-811 892 891 0
-892 -893 -890 0
890 892 -893 0
892 -890 893 0
890 -892 893 0
894 -892 -890 0
892 -894 0
890 -894 0
-811 895 -891 0
811 -895 0
891 -895 0
894 895 -896 0
-894 896 0
-895 896 0
-98 897 -821 0
-897 98 0
821 -897 0
-817 -898 -897 0
897 817 -898 0
817 898 -897 0
-817 898 897 0
-899 -898 -896 0
898 896 -899 0
899 898 -896 0
899 -898 896 0
-898 -896 900 0
898 -900 0
-900 896 0
-817 901 -897 0
817 -901 0
897 -901 0
-902 901 900 0
-900 902 0
902 -901 0
903 -821 -106 0
106 -903 0
-903 821 0
-820 -903 -904 0
820 903 -904 0
820 904 -903 0
903 -820 904 0
-905 -904 -902 0
904 902 -905 0
905 904 -902 0
905 902 -904 0
906 -904 -902 0
904 -906 0
902 -906 0
907 -820 -903 0
820 -907 0
903 -907 0
907 -908 906 0
908 -906 0
908 -907 0
910 -1 -909 0
-910 1 0
909 -910 0
-911 -910 -827 0
-911 910 827 0
-910 827 911 0
910 -827 911 0
-910 -827 912 0
-912 827 0
910 -912 0
913 -4 -909 0
-913 4 0
-913 909 0
-833 -913 -914 0
833 913 -914 0
-913 833 914 0
-833 914 913 0
-915 -912 -914 0
-915 914 912 0
914 915 -912 0
912 915 -914 0
-912 916 -914 0
914 -916 0
-916 912 0
-833 -913 917 0
-917 833 0
-917 913 0
-918 916 917 0
918 -916 0
918 -917 0
-10 -909 919 0
-919 10 0
909 -919 0
-920 -919 -839 0
-920 839 919 0
-919 839 920 0
919 -839 920 0
-918 -921 -920 0
918 -921 920 0
-918 921 920 0
918 -920 921 0
922 -918 -920 0
-922 920 0
918 -922 0
923 -919 -839 0
-923 839 0
-923 919 0
922 923 -924 0
924 -922 0
924 -923 0
-18 925 -909 0
18 -925 0
909 -925 0
-845 -926 -925 0
845 925 -926 0
926 845 -925 0
926 -845 925 0
-927 -924 -926 0
924 926 -927 0
926 927 -924 0
924 927 -926 0
928 -924 -926 0
926 -928 0
924 -928 0
-845 929 -925 0
845 -929 0
925 -929 0
929 928 -930 0
-928 930 0
930 -929 0
931 -909 -26 0
26 -931 0
-931 909 0
-931 -932 -851 0
851 -932 931 0
-931 851 932 0
931 932 -851 0
-933 -932 -930 0
-933 930 932 0
933 932 -930 0
930 -932 933 0
-932 934 -930 0
-934 932 0
930 -934 0
-931 935 -851 0
851 -935 0
931 -935 0
-936 935 934 0
936 -934 0
936 -935 0
937 -909 -34 0
34 -937 0
909 -937 0
-938 -857 -937 0
857 -938 937 0
857 938 -937 0
937 -857 938 0
-936 -938 -939 0
936 -939 938 0
-936 938 939 0
936 -938 939 0
-936 -938 940 0
-940 938 0
-940 936 0
941 -857 -937 0
857 -941 0
937 -941 0
-942 941 940 0
-940 942 0
-941 942 0
943 -909 -42 0
42 -943 0
909 -943 0
-863 -944 -943 0
863 943 -944 0
863 944 -943 0
-863 944 943 0
-942 -944 -945 0
942 -945 944 0
-942 945 944 0
-944 942 945 0
-942 946 -944 0
944 -946 0
942 -946 0
-863 947 -943 0
863 -947 0
943 -947 0
946 -948 947 0
948 -946 0
948 -947 0
-50 -909 949 0
50 -949 0
909 -949 0
-869 -950 -949 0
869 -950 949 0
869 950 -949 0
-869 950 949 0
-950 -951 -948 0
950 -951 948 0
950 951 -948 0
-950 948 951 0
952 -950 -948 0
950 -952 0
948 -952 0
-869 953 -949 0
869 -953 0
-953 949 0
952 -954 953 0
-952 954 0
-953 954 0
955 -58 -909 0
58 -955 0
909 -955 0
-956 -955 -875 0
955 875 -956 0
-955 956 875 0
955 956 -875 0
-957 -956 -954 0
-957 956 954 0
956 957 -954 0
-956 954 957 0
958 -956 -954 0
-958 956 0
-958 954 0
-955 -875 959 0
-959 875 0
955 -959 0
958 -960 959 0
960 -958 0
960 -959 0
-66 961 -909 0
66 -961 0
909 -961 0
-962 -961 -881 0
-962 961 881 0
962 -961 881 0
962 961 -881 0
-963 -960 -962 0
960 -963 962 0
963 962 -960 0
960 963 -962 0
-960 964 -962 0
962 -964 0
960 -964 0
-961 965 -881 0
-965 881 0
-965 961 0
964 -966 965 0
-964 966 0
-965 966 0
967 -909 -74 0
74 -967 0
909 -967 0
-887 -967 -968 0
887 967 -968 0
887 968 -967 0
-887 967 968 0
-969 -966 -968 0
-969 968 966 0
968 -966 969 0
966 969 -968 0
970 -966 -968 0
968 -970 0
966 -970 0
-887 971 -967 0
887 -971 0
-971 967 0
970 971 -972 0
972 -970 0
972 -971 0
973 -82 -909 0
82 -973 0
909 -973 0
-893 -973 -974 0
973 893 -974 0
893 -973 974 0
973 -893 974 0
-975 -972 -974 0
972 -975 974 0
975 -972 974 0
972 975 -974 0
976 -972 -974 0
-976 974 0
972 -976 0
-893 977 -973 0
893 -977 0
973 -977 0
977 976 -978 0
-976 978 0
-977 978 0
-90 979 -909 0
-979 90 0
-979 909 0
-979 -980 -899 0
979 -980 899 0
-979 980 899 0
980 979 -899 0
-981 -980 -978 0
980 -981 978 0
980 981 -978 0
981 -980 978 0
982 -980 -978 0
980 -982 0
-982 978 0
-979 983 -899 0
-983 899 0
979 -983 0
-984 982 983 0
984 -982 0
984 -983 0
-98 -909 985 0
-985 98 0
909 -985 0
-905 -985 -986 0
905 985 -986 0
905 -985 986 0
-905 985 986 0
-984 -987 -986 0
984 -987 986 0
-984 987 986 0
984 987 -986 0
-984 988 -986 0
-988 986 0
984 -988 0
989 -905 -985 0
905 -989 0
985 -989 0
988 989 -990 0
990 -988 0
990 -989 0
991 -909 -106 0
106 -991 0
909 -991 0
-908 -992 -991 0
908 991 -992 0
908 992 -991 0
-908 991 992 0
-993 -990 -992 0
990 -993 992 0
993 -990 992 0
990 993 -992 0
994 -990 -992 0
-994 992 0
-994 990 0
995 -908 -991 0
908 -995 0
991 -995 0
995 994 -996 0
-994 996 0
-995 996 0
-997 -1 998 0
-998 1 0
-998 997 0
-998 -999 -915 0
915 998 -999 0
999 915 -998 0
999 998 -915 0
-998 1000 -915 0
915 -1000 0
998 -1000 0
-997 -4 1001 0
4 -1001 0
-1001 997 0
-921 -1001 -1002 0
-1002 921 1001 0
-1001 921 1002 0
-921 1001 1002 0
-1003 -1002 -1000 0
-1003 1002 1000 0
1003 1002 -1000 0
1003 -1002 1000 0
1004 -1002 -1000 0
-1004 1002 0
-1004 1000 0
-921 1005 -1001 0
-1005 921 0
-1005 1001 0
-1006 1004 1005 0
-1004 1006 0
-1005 1006 0
1007 -10 -997 0
-1007 10 0
-1007 997 0
-927 -1008 -1007 0
1007 927 -1008 0
927 1008 -1007 0
1007 -927 1008 0
-1008 -1006 -1009 0
1006 1008 -1009 0
-1006 1008 1009 0
-1008 1009 1006 0
-1008 1010 -1006 0
1008 -1010 0
1006 -1010 0
1011 -927 -1007 0
-1011 927 0
1007 -1011 0
1011 1010 -1012 0
1012 -1010 0
-1011 1012 0
1013 -997 -18 0
18 -1013 0
997 -1013 0
-933 -1014 -1013 0
1013 933 -1014 0
933 1014 -1013 0
1013 -933 1014 0
-1012 -1014 -1015 0
1012 1014 -1015 0
-1012 1014 1015 0
-1014 1012 1015 0
-1012 -1014 1016 0
-1016 1014 0
-1016 1012 0
-933 1017 -1013 0
933 -1017 0
1013 -1017 0
1017 -1018 1016 0
-1016 1018 0
-1017 1018 0
-997 1019 -26 0
26 -1019 0
-1019 997 0
-1020 -1019 -939 0
-1020 1019 939 0
-1019 1020 939 0
1019 -939 1020 0
-1020 -1021 -1018 0
-1021 1020 1018 0
1021 1020 -1018 0
-1020 1021 1018 0
-1020 -1018 1022 0
-1022 1020 0
-1022 1018 0
-1019 -939 1023 0
-1023 939 0
-1023 1019 0
-1024 1023 1022 0
1024 -1022 0
1024 -1023 0
-997 1025 -34 0
34 -1025 0
997 -1025 0
-1026 -945 -1025 0
-1026 945 1025 0
945 1026 -1025 0
1026 -945 1025 0
-1026 -1024 -1027 0
1024 1026 -1027 0
-1024 1026 1027 0
1024 -1026 1027 0
-1026 1028 -1024 0
1026 -1028 0
1024 -1028 0
1029 -945 -1025 0
945 -1029 0
1025 -1029 0
1029 1028 -1030 0
1030 -1028 0
1030 -1029 0
-997 1031 -42 0
-1031 42 0
-1031 997 0
-1031 -951 -1032 0
1031 951 -1032 0
-1031 1032 951 0
-951 1032 1031 0
-1033 -1030 -1032 0
-1033 1032 1030 0
1032 1033 -1030 0
1033 1030 -1032 0
-1030 1034 -1032 0
1032 -1034 0
-1034 1030 0
-1031 -951 1035 0
-1035 951 0
-1035 1031 0
-1036 1035 1034 0
1036 -1034 0
-1035 1036 0
-50 -997 1037 0
50 -1037 0
-1037 997 0
-957 -1038 -1037 0
-1038 957 1037 0
1038 -1037 957 0
-957 1038 1037 0
-1036 -1039 -1038 0
1036 1038 -1039 0
1039 1038 -1036 0
1039 1036 -1038 0
-1036 1040 -1038 0
-1040 1038 0
-1040 1036 0
-957 -1037 1041 0
-1041 957 0
-1041 1037 0
-1042 1040 1041 0
-1040 1042 0
1042 -1041 0
-997 1043 -58 0
58 -1043 0
-1043 997 0
-963 -1043 -1044 0
1043 963 -1044 0
-1043 963 1044 0
-963 1043 1044 0
-1042 -1045 -1044 0
1042 -1045 1044 0
-1042 1045 1044 0
1042 1045 -1044 0
-1042 -1044 1046 0
-1046 1044 0
1042 -1046 0
-963 1047 -1043 0
963 -1047 0
1043 -1047 0
1047 -1048 1046 0
-1046 1048 0
1048 -1047 0
-997 1049 -66 0
66 -1049 0
997 -1049 0
-969 -1050 -1049 0
1049 969 -1050 0
1050 969 -1049 0
1050 -969 1049 0
-1048 -1051 -1050 0
1050 1048 -1051 0
1050 1051 -1048 0
1048 1051 -1050 0
1052 -1048 -1050 0
1050 -1052 0
1048 -1052 0
-969 1053 -1049 0
-1053 969 0
-1053 1049 0
1052 1053 -1054 0
-1052 1054 0
-1053 1054 0
-997 1055 -74 0
74 -1055 0
997 -1055 0
-1056 -975 -1055 0
975 -1056 1055 0
975 1056 -1055 0
1056 -975 1055 0
-1056 -1054 -1057 0
1056 1054 -1057 0
1056 -1054 1057 0
1057 -1056 1054 0
1058 -1056 -1054 0
-1058 1056 0
-1058 1054 0
1059 -975 -1055 0
975 -1059 0
-1059 1055 0
1058 -1060 1059 0
-1058 1060 0
1060 -1059 0
-997 -82 1061 0
-1061 82 0
-1061 997 0
-1062 -1061 -981 0
981 -1062 1061 0
981 -1061 1062 0
1061 -981 1062 0
-1062 -1063 -1060 0
-1063 1060 1062 0
1063 -1060 1062 0
-1062 1060 1063 0
-1062 -1060 1064 0
-1064 1062 0
-1064 1060 0
1065 -1061 -981 0
-1065 981 0
-1065 1061 0
1065 -1066 1064 0
-1064 1066 0
-1065 1066 0
-90 -997 1067 0
-1067 90 0
-1067 997 0
-1068 -987 -1067 0
-1068 1067 987 0
1068 -1067 987 0
-987 1067 1068 0
-1068 -1069 -1066 0
-1069 1068 1066 0
1069 1068 -1066 0
-1068 1069 1066 0
-1068 1070 -1066 0
-1070 1068 0
-1070 1066 0
1071 -987 -1067 0
987 -1071 0
1067 -1071 0
1071 1070 -1072 0
-1070 1072 0
1072 -1071 0
-98 -997 1073 0
-1073 98 0
-1073 997 0
-993 -1074 -1073 0
1073 -1074 993 0
-1073 1074 993 0
1073 -993 1074 0
-1072 -1074 -1075 0
1072 1074 -1075 0
-1072 1075 1074 0
1072 -1074 1075 0
-1072 -1074 1076 0
-1076 1074 0
1072 -1076 0
-993 -1073 1077 0
-1077 993 0
-1077 1073 0
-1078 1076 1077 0
1078 -1076 0
-1077 1078 0
-997 -106 1079 0
106 -1079 0
997 -1079 0
-996 -1080 -1079 0
996 -1080 1079 0
1080 996 -1079 0
1080 -996 1079 0
-1078 -1080 -1081 0
1080 1078 -1081 0
-1078 1080 1081 0
1081 1078 -1080 0
-1078 -1080 1082 0
-1082 1080 0
-1082 1078 0
1083 -996 -1079 0
996 -1083 0
1079 -1083 0
-1084 1083 1082 0
1084 -1082 0
1084 -1083 0
-1 -1085 1086 0
-1086 1 0
-1086 1085 0
-1086 -1087 -1003 0
-1087 1003 1086 0
-1086 1087 1003 0
1087 1086 -1003 0
-1086 1088 -1003 0
1003 -1088 0
1086 -1088 0
1089 -4 -1085 0
-1089 4 0
-1089 1085 0
-1089 -1090 -1009 0
1089 1009 -1090 0
-1089 1090 1009 0
1089 1090 -1009 0
-1090 -1091 -1088 0
1088 -1091 1090 0
1091 1090 -1088 0
1088 -1090 1091 0
-1090 -1088 1092 0
-1092 1090 0
1088 -1092 0
-1089 1093 -1009 0
-1093 1009 0
1089 -1093 0
-1094 1093 1092 0
-1092 1094 0
1094 -1093 0
-10 1095 -1085 0
-1095 10 0
-1095 1085 0
-1095 -1096 -1015 0
-1096 1095 1015 0
-1095 1096 1015 0
1095 1096 -1015 0
-1094 -1096 -1097 0
-1097 1096 1094 0
-1094 1096 1097 0
-1096 1094 1097 0
-1094 -1096 1098 0
1096 -1098 0
1094 -1098 0
-1095 1099 -1015 0
-1099 1015 0
1095 -1099 0
-1100 1098 1099 0
1100 -1098 0
1100 -1099 0
1101 -18 -1085 0
18 -1101 0
1085 -1101 0
-1021 -1101 -1102 0
1101 1021 -1102 0
1021 -1101 1102 0
1101 -1021 1102 0
-1100 -1103 -1102 0
1100 -1103 1102 0
-1100 1103 1102 0
1100 -1102 1103 0
-1100 -1102 1104 0
-1104 1102 0
-1104 1100 0
-1021 -1101 1105 0
1021 -1105 0
1101 -1105 0
-1106 1105 1104 0
-1104 1106 0
-1105 1106 0
1107 -1085 -26 0
26 -1107 0
1085 -1107 0
-1108 -1107 -1027 0
-1108 1107 1027 0
1108 -1107 1027 0
1108 1107 -1027 0
-1109 -1108 -1106 0
1108 -1109 1106 0
1108 -1106 1109 0
-1108 1109 1106 0
-1108 1110 -1106 0
1108 -1110 0
-1110 1106 0
1111 -1107 -1027 0
-1111 1027 0
-1111 1107 0
1111 1110 -1112 0
1112 -1110 0
1112 -1111 0
-1085 -34 1113 0
-1113 34 0
-1113 1085 0
-1113 -1114 -1033 0
-1114 1033 1113 0
-1113 1114 1033 0
1113 1114 -1033 0
-1115 -1114 -1112 0
-1115 1112 1114 0
1114 -1112 1115 0
1112 -1114 1115 0
1116 -1114 -1112 0
-1116 1114 0
-1116 1112 0
-1113 1117 -1033 0
1033 -1117 0
-1117 1113 0
-1118 1116 1117 0
-1116 1118 0
1118 -1117 0
1119 -1085 -42 0
42 -1119 0
1085 -1119 0
-1120 -1039 -1119 0
1039 -1120 1119 0
1039 -1119 1120 0
-1039 1119 1120 0
-1120 -1121 -1118 0
-1121 1120 1118 0
-1118 1120 1121 0
-1120 1118 1121 0
-1120 1122 -1118 0
-1122 1120 0
-1122 1118 0
-1039 -1119 1123 0
1039 -1123 0
1119 -1123 0
-1124 1122 1123 0
-1122 1124 0
-1123 1124 0
-50 -1085 1125 0
50 -1125 0
1085 -1125 0
-1126 -1045 -1125 0
1045 -1126 1125 0
1045 1126 -1125 0
-1045 1126 1125 0
-1124 -1126 -1127 0
-1127 1126 1124 0
-1124 1126 1127 0
-1126 1124 1127 0
-1124 -1126 1128 0
1126 -1128 0
-1128 1124 0
1129 -1045 -1125 0
-1129 1045 0
-1129 1125 0
-1130 1128 1129 0
1130 -1128 0
-1129 1130 0
1131 -58 -1085 0
58 -1131 0
1085 -1131 0
-1132 -1131 -1051 0
1131 1051 -1132 0
1132 1051 -1131 0
1131 1132 -1051 0
-1130 -1132 -1133 0
1132 1130 -1133 0
1132 -1130 1133 0
1130 -1132 1133 0
1134 -1130 -1132 0
-1134 1132 0
-1134 1130 0
1135 -1131 -1051 0
-1135 1051 0
-1135 1131 0
1134 -1136 1135 0
-1134 1136 0
1136 -1135 0
-66 -1085 1137 0
66 -1137 0
1085 -1137 0
-1138 -1137 -1057 0
-1138 1057 1137 0
1138 1057 -1137 0
1138 1137 -1057 0
-1138 -1139 -1136 0
1138 -1139 1136 0
1138 -1136 1139 0
-1138 1136 1139 0
-1138 1140 -1136 0
1138 -1140 0
1136 -1140 0
-1137 1141 -1057 0
1057 -1141 0
1137 -1141 0
1140 1141 -1142 0
-1140 1142 0
-1141 1142 0
-1085 1143 -74 0
74 -1143 0
1085 -1143 0
-1144 -1063 -1143 0
-1144 1063 1143 0
1144 1063 -1143 0
1144 -1063 1143 0
-1145 -1144 -1142 0
1144 -1145 1142 0
-1142 1144 1145 0
-1144 1145 1142 0
-1144 -1142 1146 0
1144 -1146 0
-1146 1142 0
-1063 1147 -1143 0
-1147 1063 0
-1147 1143 0
-1148 1147 1146 0
1148 -1146 0
1148 -1147 0
-82 1149 -1085 0
-1149 82 0
-1149 1085 0
-1149 -1150 -1069 0
1069 -1150 1149 0
1150 1069 -1149 0
1150 1149 -1069 0
-1148 -1150 -1151 0
1150 1148 -1151 0
1150 -1148 1151 0
1148 -1150 1151 0
1152 -1148 -1150 0
1150 -1152 0
-1152 1148 0
-1149 1153 -1069 0
1069 -1153 0
1149 -1153 0
1152 1153 -1154 0
-1152 1154 0
1154 -1153 0
-90 -1085 1155 0
-1155 90 0
-1155 1085 0
-1156 -1155 -1075 0
1075 1155 -1156 0
-1155 1075 1156 0
1156 1155 -1075 0
-1157 -1154 -1156 0
1154 -1157 1156 0
-1154 1157 1156 0
1157 1154 -1156 0
1158 -1154 -1156 0
-1158 1156 0
1154 -1158 0
1159 -1155 -1075 0
-1159 1075 0
-1159 1155 0
1159 1158 -1160 0
1160 -1158 0
1160 -1159 0
-98 1161 -1085 0
-1161 98 0
-1161 1085 0
-1162 -1161 -1081 0
-1162 1161 1081 0
-1161 1081 1162 0
1161 -1081 1162 0
-1162 -1163 -1160 0
1162 1160 -1163 0
-1160 1162 1163 0
-1162 1160 1163 0
-1162 1164 -1160 0
1162 -1164 0
1160 -1164 0
-1161 1165 -1081 0
-1165 1081 0
1161 -1165 0
-1166 1164 1165 0
1166 -1164 0
-1165 1166 0
-106 -1085 1167 0
106 -1167 0
1085 -1167 0
-1084 -1167 -1168 0
1084 1167 -1168 0
1084 1168 -1167 0
-1084 1168 1167 0
-1166 -1169 -1168 0
1168 -1169 1166 0
-1166 1168 1169 0
1166 -1168 1169 0
-1166 1170 -1168 0
-1170 1168 0
-1170 1166 0
-1084 1171 -1167 0
1084 -1171 0
-1171 1167 0
1170 -1172 1171 0
-1170 1172 0
-1171 1172 0
-1173 -1 1174 0
-1174 1 0
1173 -1174 0
-1091 -1175 -1174 0
1091 -1175 1174 0
1175 1091 -1174 0
1175 -1091 1174 0
1176 -1091 -1174 0
1091 -1176 0
-1176 1174 0
-1173 -4 1177 0
-1177 4 0
-1177 1173 0
-1177 -1097 -1178 0
-1178 1177 1097 0
-1177 1178 1097 0
-1097 1177 1178 0
-1178 -1176 -1179 0
1178 -1179 1176 0
1178 -1176 1179 0
1176 -1178 1179 0
-1178 1180 -1176 0
1178 -1180 0
1176 -1180 0
-1177 -1097 1181 0
1097 -1181 0
1177 -1181 0
1180 1181 -1182 0
-1180 1182 0
1182 -1181 0
-10 -1173 1183 0
-1183 10 0
1173 -1183 0
-1184 -1103 -1183 0
-1184 1103 1183 0
1103 -1183 1184 0
-1103 1184 1183 0
-1185 -1184 -1182 0
-1185 1182 1184 0
1185 -1182 1184 0
-1184 1185 1182 0
-1184 -1182 1186 0
-1186 1184 0
-1186 1182 0
1187 -1103 -1183 0
1103 -1187 0
-1187 1183 0
1187 -1188 1186 0
1188 -1186 0
1188 -1187 0
-1173 -18 1189 0
18 -1189 0
1173 -1189 0
-1190 -1109 -1189 0
-1190 1109 1189 0
1190 -1189 1109 0
-1109 1190 1189 0
-1190 -1191 -1188 0
1188 1190 -1191 0
1190 1191 -1188 0
-1190 1188 1191 0
-1190 1192 -1188 0
1190 -1192 0
1188 -1192 0
-1109 -1189 1193 0
1109 -1193 0
-1193 1189 0
-1194 1193 1192 0
-1192 1194 0
1194 -1193 0
-1173 1195 -26 0
26 -1195 0
1173 -1195 0
-1115 -1196 -1195 0
1195 -1196 1115 0
1196 -1195 1115 0
-1115 1195 1196 0
-1197 -1194 -1196 0
-1197 1194 1196 0
1197 -1194 1196 0
1197 -1196 1194 0
-1194 -1196 1198 0
1196 -1198 0
1194 -1198 0
-1115 -1195 1199 0
-1199 1115 0
1195 -1199 0
-1200 1198 1199 0
1200 -1198 0
1200 -1199 0
-1173 1201 -34 0
-1201 34 0
1173 -1201 0
-1201 -1121 -1202 0
-1202 1201 1121 0
1202 -1201 1121 0
1202 1201 -1121 0
-1200 -1203 -1202 0
-1203 1202 1200 0
1203 1202 -1200 0
1203 1200 -1202 0
1204 -1200 -1202 0
1202 -1204 0
-1204 1200 0
1205 -1201 -1121 0
-1205 1121 0
1201 -1205 0
1204 1205 -1206 0
1206 -1204 0
1206 -1205 0
-1173 1207 -42 0
42 -1207 0
1173 -1207 0
-1127 -1208 -1207 0
1207 1127 -1208 0
-1207 1208 1127 0
1207 -1127 1208 0
-1209 -1206 -1208 0
-1209 1206 1208 0
1209 1208 -1206 0
1206 1209 -1208 0
1210 -1206 -1208 0
-1210 1208 0
-1210 1206 0
-1127 1211 -1207 0
-1211 1127 0
1207 -1211 0
1210 -1212 1211 0
-1210 1212 0
1212 -1211 0
-50 1213 -1173 0
50 -1213 0
1173 -1213 0
-1133 -1213 -1214 0
1213 -1214 1133 0
1214 -1213 1133 0
1213 -1133 1214 0
-1215 -1212 -1214 0
-1215 1212 1214 0
-1212 1215 1214 0
1212 1215 -1214 0
1216 -1212 -1214 0
-1216 1214 0
-1216 1212 0
-1133 -1213 1217 0
-1217 1133 0
-1217 1213 0
-1218 1216 1217 0
-1216 1218 0
-1217 1218 0
-1173 -58 1219 0
58 -1219 0
-1219 1173 0
-1219 -1139 -1220 0
-1220 1219 1139 0
-1219 1220 1139 0
-1139 1219 1220 0
-1221 -1218 -1220 0
-1221 1218 1220 0
1221 -1218 1220 0
1221 1218 -1220 0
1222 -1218 -1220 0
-1222 1220 0
-1222 1218 0
-1219 -1139 1223 0
-1223 1139 0
1219 -1223 0
1222 -1224 1223 0
1224 -1222 0
1224 -1223 0
-1173 1225 -66 0
66 -1225 0
1173 -1225 0
-1226 -1145 -1225 0
1145 1225 -1226 0
1226 1145 -1225 0
1226 1225 -1145 0
-1224 -1226 -1227 0
1224 1226 -1227 0
-1224 1226 1227 0
1224 1227 -1226 0
-1224 -1226 1228 0
1226 -1228 0
1224 -1228 0
1229 -1145 -1225 0
1145 -1229 0
-1229 1225 0
1229 -1230 1228 0
1230 -1228 0
1230 -1229 0
1231 -1173 -74 0
-1231 74 0
-1231 1173 0
-1231 -1151 -1232 0
1231 1151 -1232 0
-1231 1151 1232 0
1231 1232 -1151 0
-1233 -1230 -1232 0
1232 1230 -1233 0
1232 1233 -1230 0
1233 1230 -1232 0
-1230 1234 -1232 0
1232 -1234 0
1230 -1234 0
-1231 1235 -1151 0
1151 -1235 0
1231 -1235 0
1235 -1236 1234 0
-1234 1236 0
1236 -1235 0
1237 -1173 -82 0
82 -1237 0
1173 -1237 0
-1238 -1157 -1237 0
1237 1157 -1238 0
1157 1238 -1237 0
1237 1238 -1157 0
-1238 -1239 -1236 0
1238 -1239 1236 0
1239 1238 -1236 0
-1238 1239 1236 0
1240 -1238 -1236 0
-1240 1238 0
-1240 1236 0
1241 -1157 -1237 0
-1241 1157 0
1237 -1241 0
1240 1241 -1242 0
-1240 1242 0
-1241 1242 0
-90 1243 -1173 0
90 -1243 0
1173 -1243 0
-1244 -1163 -1243 0
1163 1243 -1244 0
1163 1244 -1243 0
1244 -1163 1243 0
-1242 -1245 -1244 0
1244 1242 -1245 0
1244 1245 -1242 0
1242 1245 -1244 0
-1242 1246 -1244 0
1244 -1246 0
1242 -1246 0
1247 -1163 -1243 0
1163 -1247 0
-1247 1243 0
1246 -1248 1247 0
1248 -1246 0
-1247 1248 0
-98 -1173 1249 0
-1249 98 0
1173 -1249 0
-1169 -1250 -1249 0
1249 -1250 1169 0
1250 -1249 1169 0
1250 1249 -1169 0
-1251 -1250 -1248 0
1250 -1251 1248 0
1251 1250 -1248 0
1251 1248 -1250 0
-1250 -1248 1252 0
1250 -1252 0
-1252 1248 0
1253 -1169 -1249 0
-1253 1169 0
1249 -1253 0
-1254 1253 1252 0
-1252 1254 0
1254 -1253 0
-1173 1255 -106 0
106 -1255 0
1173 -1255 0
-1256 -1255 -1172 0
-1256 1255 1172 0
-1255 1172 1256 0
1255 -1172 1256 0
-1256 -1257 -1254 0
-1257 1254 1256 0
-1254 1257 1256 0
-1256 1257 1254 0
1258 -1256 -1254 0
-1258 1256 0
-1258 1254 0
1259 -1255 -1172 0
-1259 1172 0
1255 -1259 0
1258 1259 -1260 0
-1258 1260 0
1260 -1259 0
3 0
-8 0
-119 0
-207 0
295 0
-383 0
-471 0
-559 0
647 0
-735 0
-823 0
911 0
999 0
-1087 0
-1175 0
1179 0
-1185 0
-1191 0
-1197 0
1203 0
-1209 0
1215 0
-1221 0
-1227 0
-1233 0
-1239 0
-1245 0
-1251 0
1257 0
-1260 0
