p cnf 1440 4720
-2 3 -1 0
1 -3 0
-3 2 0
5 -4 -2 0
-5 4 0
-5 2 0
-6 7 -1 0
1 -7 0
6 -7 0
-8 -7 -5 0
-8 5 7 0
8 5 -7 0
8 -5 7 0
-7 9 -5 0
-9 5 0
-9 7 0
-10 11 -2 0
-11 10 0
-11 2 0
-6 -4 12 0
-12 4 0
-12 6 0
-12 -11 -13 0
11 -13 12 0
-12 11 13 0
-11 13 12 0
-9 -14 -13 0
-14 9 13 0
-9 14 13 0
14 9 -13 0
-9 15 -13 0
-15 13 0
9 -15 0
-12 -11 16 0
11 -16 0
-16 12 0
15 16 -17 0
-15 17 0
-16 17 0
-2 19 -18 0
-19 18 0
-19 2 0
-10 -6 20 0
10 -20 0
6 -20 0
-21 -19 -20 0
-21 19 20 0
21 19 -20 0
21 -19 20 0
-17 -21 -22 0
21 -22 17 0
21 22 -17 0
22 -21 17 0
23 -17 -21 0
21 -23 0
-23 17 0
-19 24 -20 0
-24 19 0
-24 20 0
23 24 -25 0
25 -23 0
-24 25 0
-26 27 -2 0
26 -27 0
-27 2 0
-6 28 -18 0
-28 18 0
6 -28 0
-27 -29 -28 0
27 -29 28 0
27 29 -28 0
-27 28 29 0
-30 -29 -25 0
-30 25 29 0
30 29 -25 0
-29 25 30 0
-29 31 -25 0
29 -31 0
25 -31 0
-27 32 -28 0
27 -32 0
-32 28 0
-33 32 31 0
33 -31 0
-32 33 0
35 -2 -34 0
-35 34 0
-35 2 0
-26 -6 36 0
26 -36 0
-36 6 0
-36 -37 -35 0
36 35 -37 0
-36 35 37 0
36 37 -35 0
-38 -37 -33 0
37 -38 33 0
37 -33 38 0
-37 33 38 0
39 -37 -33 0
37 -39 0
-39 33 0
40 -36 -35 0
-40 35 0
36 -40 0
40 39 -41 0
-39 41 0
-40 41 0
-42 43 -2 0
-43 42 0
-43 2 0
-6 44 -34 0
-44 34 0
-44 6 0
-45 -44 -43 0
-45 44 43 0
-44 43 45 0
44 -43 45 0
-45 -46 -41 0
-46 45 41 0
46 -41 45 0
-45 46 41 0
-45 -41 47 0
-47 45 0
-47 41 0
-44 -43 48 0
-48 43 0
44 -48 0
48 -49 47 0
49 -47 0
49 -48 0
-50 51 -2 0
-51 50 0
-51 2 0
-42 -6 52 0
-52 42 0
-52 6 0
-52 -51 -53 0
51 -53 52 0
-52 51 53 0
-51 53 52 0
-49 -53 -54 0
49 53 -54 0
-49 53 54 0
54 49 -53 0
55 -49 -53 0
53 -55 0
49 -55 0
-52 -51 56 0
51 -56 0
-56 52 0
55 -57 56 0
57 -55 0
57 -56 0
-58 59 -2 0
-59 58 0
-59 2 0
-50 -6 60 0
-60 50 0
6 -60 0
-61 -59 -60 0
-61 60 59 0
61 -60 59 0
61 -59 60 0
-62 -61 -57 0
-62 57 61 0
61 62 -57 0
57 -61 62 0
-61 63 -57 0
-63 61 0
57 -63 0
64 -59 -60 0
-64 59 0
-64 60 0
-65 64 63 0
65 -63 0
65 -64 0
-2 67 -66 0
-67 66 0
-67 2 0
-6 -58 68 0
-68 58 0
6 -68 0
-68 -67 -69 0
68 -69 67 0
-68 69 67 0
-67 69 68 0
-70 -65 -69 0
-70 65 69 0
-65 70 69 0
65 70 -69 0
-65 71 -69 0
-71 69 0
65 -71 0
72 -68 -67 0
-72 67 0
-72 68 0
72 -73 71 0
73 -71 0
73 -72 0
-74 75 -2 0
-75 74 0
-75 2 0
-6 76 -66 0
-76 66 0
-76 6 0
-75 -77 -76 0
-77 75 76 0
-76 77 75 0
-75 77 76 0
-77 -73 -78 0
73 77 -78 0
77 -73 78 0
73 -77 78 0
-77 -73 79 0
77 -79 0
73 -79 0
-75 -76 80 0
75 -80 0
76 -80 0
79 80 -81 0
81 -79 0
81 -80 0
83 -2 -82 0
82 -83 0
-83 2 0
-74 -6 84 0
74 -84 0
6 -84 0
-84 -83 -85 0
83 -85 84 0
83 85 -84 0
85 -83 84 0
-81 -85 -86 0
81 85 -86 0
85 -81 86 0
81 -85 86 0
-81 -85 87 0
85 -87 0
81 -87 0
-84 -83 88 0
83 -88 0
84 -88 0
-89 88 87 0
89 -87 0
89 -88 0
-90 91 -2 0
90 -91 0
-91 2 0
-6 92 -82 0
-92 82 0
-92 6 0
-92 -93 -91 0
-93 92 91 0
-92 91 93 0
93 92 -91 0
-89 -93 -94 0
93 89 -94 0
93 94 -89 0
94 89 -93 0
-89 -93 95 0
93 -95 0
89 -95 0
-92 96 -91 0
91 -96 0
92 -96 0
96 -97 95 0
97 -95 0
-96 97 0
99 -98 -2 0
98 -99 0
-99 2 0
-90 -6 100 0
-100 90 0
-100 6 0
-101 -100 -99 0
99 100 -101 0
99 -100 101 0
100 101 -99 0
-97 -102 -101 0
-102 101 97 0
-97 101 102 0
-101 97 102 0
-97 -101 103 0
101 -103 0
97 -103 0
104 -100 -99 0
99 -104 0
-104 100 0
104 103 -105 0
105 -103 0
-104 105 0
107 -106 -2 0
106 -107 0
-107 2 0
108 -6 -98 0
98 -108 0
6 -108 0
-109 -107 -108 0
108 107 -109 0
109 107 -108 0
109 108 -107 0
-109 -105 -110 0
109 -110 105 0
109 -105 110 0
110 -109 105 0
111 -109 -105 0
109 -111 0
-111 105 0
112 -107 -108 0
107 -112 0
108 -112 0
112 111 -113 0
113 -111 0
-112 113 0
-114 115 -2 0
114 -115 0
-115 2 0
-6 -106 116 0
106 -116 0
-116 6 0
-117 -116 -115 0
-117 116 115 0
-116 115 117 0
116 -115 117 0
-117 -118 -113 0
-118 113 117 0
118 117 -113 0
-117 113 118 0
-117 119 -113 0
-119 117 0
113 -119 0
-116 120 -115 0
-120 115 0
-120 116 0
-121 119 120 0
-119 121 0
-120 121 0
-6 -114 122 0
-122 114 0
-122 6 0
-122 -121 -123 0
-123 122 121 0
-122 123 121 0
-121 123 122 0
-122 -121 124 0
-124 121 0
-124 122 0
-125 126 -1 0
1 -126 0
-126 125 0
-126 -14 -127 0
-127 14 126 0
-126 14 127 0
127 -14 126 0
-126 -14 128 0
-128 14 0
-128 126 0
129 -4 -125 0
-129 4 0
125 -129 0
-130 -129 -22 0
-130 22 129 0
130 22 -129 0
130 129 -22 0
-130 -131 -128 0
130 -131 128 0
130 131 -128 0
-130 131 128 0
-130 -128 132 0
130 -132 0
-132 128 0
-129 133 -22 0
-133 22 0
-133 129 0
132 133 -134 0
-132 134 0
-133 134 0
-10 135 -125 0
-135 10 0
-135 125 0
-30 -136 -135 0
-136 30 135 0
-135 30 136 0
-30 136 135 0
-137 -136 -134 0
134 -137 136 0
137 -134 136 0
137 -136 134 0
138 -136 -134 0
-138 136 0
-138 134 0
139 -30 -135 0
-139 30 0
-139 135 0
138 139 -140 0
-138 140 0
-139 140 0
-125 141 -18 0
-141 18 0
125 -141 0
-38 -141 -142 0
141 -142 38 0
142 -141 38 0
142 -38 141 0
-142 -140 -143 0
142 140 -143 0
142 -140 143 0
140 -142 143 0
144 -142 -140 0
142 -144 0
140 -144 0
-38 -141 145 0
38 -145 0
141 -145 0
145 -146 144 0
146 -144 0
146 -145 0
-26 147 -125 0
26 -147 0
-147 125 0
-147 -148 -46 0
-148 147 46 0
148 -147 46 0
148 -46 147 0
-146 -148 -149 0
148 -149 146 0
-146 148 149 0
-148 146 149 0
-146 -148 150 0
-150 148 0
-150 146 0
-147 -46 151 0
-151 46 0
-151 147 0
150 151 -152 0
-150 152 0
-151 152 0
153 -125 -34 0
-153 34 0
-153 125 0
-153 -154 -54 0
54 153 -154 0
54 -153 154 0
153 154 -54 0
-155 -152 -154 0
-155 152 154 0
-152 154 155 0
152 155 -154 0
-152 156 -154 0
-156 154 0
-156 152 0
157 -153 -54 0
54 -157 0
153 -157 0
157 156 -158 0
-156 158 0
-157 158 0
-42 159 -125 0
42 -159 0
125 -159 0
-62 -160 -159 0
159 62 -160 0
160 62 -159 0
160 -62 159 0
-158 -160 -161 0
160 158 -161 0
160 -158 161 0
158 -160 161 0
162 -158 -160 0
-162 160 0
-162 158 0
-62 163 -159 0
62 -163 0
159 -163 0
162 -164 163 0
-162 164 0
164 -163 0
-50 165 -125 0
-165 50 0
-165 125 0
-70 -165 -166 0
165 70 -166 0
-165 166 70 0
-70 166 165 0
-164 -167 -166 0
166 -167 164 0
-164 166 167 0
-166 164 167 0
-164 -166 168 0
166 -168 0
-168 164 0
-70 -165 169 0
-169 70 0
165 -169 0
169 168 -170 0
-168 170 0
-169 170 0
-58 171 -125 0
-171 58 0
125 -171 0
-78 -172 -171 0
171 -172 78 0
-171 172 78 0
-78 172 171 0
-173 -170 -172 0
-173 172 170 0
-170 173 172 0
-172 173 170 0
174 -170 -172 0
-174 172 0
-174 170 0
-78 -171 175 0
-175 78 0
-175 171 0
175 174 -176 0
-174 176 0
-175 176 0
177 -125 -66 0
66 -177 0
125 -177 0
-178 -86 -177 0
177 -178 86 0
-177 178 86 0
178 -86 177 0
-178 -179 -176 0
178 176 -179 0
178 179 -176 0
-178 179 176 0
180 -178 -176 0
-180 178 0
-180 176 0
181 -86 -177 0
-181 86 0
-181 177 0
180 181 -182 0
-180 182 0
182 -181 0
183 -74 -125 0
74 -183 0
-183 125 0
-183 -94 -184 0
94 183 -184 0
94 -183 184 0
183 184 -94 0
-182 -185 -184 0
182 -185 184 0
185 -182 184 0
185 182 -184 0
-182 186 -184 0
-186 184 0
-186 182 0
187 -183 -94 0
94 -187 0
183 -187 0
187 -188 186 0
188 -186 0
-187 188 0
189 -125 -82 0
82 -189 0
125 -189 0
-102 -189 -190 0
-190 189 102 0
190 -189 102 0
190 -102 189 0
-188 -191 -190 0
190 188 -191 0
190 -188 191 0
188 191 -190 0
-188 192 -190 0
190 -192 0
188 -192 0
193 -102 -189 0
-193 102 0
-193 189 0
193 192 -194 0
-192 194 0
194 -193 0
-90 195 -125 0
90 -195 0
125 -195 0
-196 -110 -195 0
195 -196 110 0
196 110 -195 0
195 -110 196 0
-197 -196 -194 0
-197 194 196 0
-194 197 196 0
197 194 -196 0
198 -196 -194 0
-198 196 0
-198 194 0
199 -110 -195 0
-199 110 0
-199 195 0
-200 199 198 0
200 -198 0
-199 200 0
201 -98 -125 0
98 -201 0
125 -201 0
-118 -202 -201 0
201 118 -202 0
202 118 -201 0
-118 201 202 0
-200 -203 -202 0
200 -203 202 0
-200 202 203 0
203 200 -202 0
-200 204 -202 0
-204 202 0
200 -204 0
-118 205 -201 0
-205 118 0
201 -205 0
205 204 -206 0
-204 206 0
-205 206 0
207 -106 -125 0
106 -207 0
125 -207 0
-123 -208 -207 0
207 123 -208 0
208 123 -207 0
207 -123 208 0
-209 -206 -208 0
-209 208 206 0
209 208 -206 0
209 -208 206 0
-206 -208 210 0
-210 208 0
-210 206 0
211 -123 -207 0
-211 123 0
-211 207 0
211 -212 210 0
212 -210 0
-211 212 0
213 -114 -125 0
-213 114 0
-213 125 0
-124 -213 -214 0
124 -214 213 0
124 -213 214 0
-124 213 214 0
-215 -214 -212 0
212 -215 214 0
215 214 -212 0
212 -214 215 0
-214 216 -212 0
-216 214 0
212 -216 0
-124 -213 217 0
124 -217 0
-217 213 0
217 -218 216 0
-216 218 0
-217 218 0
-219 220 -1 0
1 -220 0
219 -220 0
-131 -221 -220 0
131 220 -221 0
131 221 -220 0
-131 220 221 0
222 -131 -220 0
-222 131 0
-222 220 0
-219 223 -4 0
-223 4 0
-223 219 0
-223 -224 -137 0
137 -224 223 0
137 224 -223 0
-137 223 224 0
-222 -224 -225 0
222 224 -225 0
-222 225 224 0
222 225 -224 0
-222 226 -224 0
-226 224 0
222 -226 0
-223 -137 227 0
137 -227 0
-227 223 0
226 227 -228 0
-226 228 0
-227 228 0
-10 -219 229 0
-229 10 0
-229 219 0
-229 -143 -230 0
229 -230 143 0
-229 230 143 0
230 229 -143 0
-231 -228 -230 0
-231 228 230 0
231 -228 230 0
231 228 -230 0
232 -228 -230 0
-232 230 0
228 -232 0
-229 -143 233 0
-233 143 0
229 -233 0
232 -234 233 0
234 -232 0
-233 234 0
-219 235 -18 0
-235 18 0
-235 219 0
-236 -235 -149 0
-236 235 149 0
-235 149 236 0
235 -149 236 0
-236 -234 -237 0
234 -237 236 0
-234 237 236 0
-236 234 237 0
-236 -234 238 0
-238 236 0
-238 234 0
239 -235 -149 0
-239 149 0
-239 235 0
238 -240 239 0
-238 240 0
-239 240 0
-26 -219 241 0
26 -241 0
219 -241 0
-155 -241 -242 0
241 155 -242 0
242 -241 155 0
-155 241 242 0
-240 -243 -242 0
-243 240 242 0
-240 243 242 0
240 243 -242 0
-240 244 -242 0
-244 242 0
-244 240 0
-155 -241 245 0
-245 155 0
-245 241 0
-246 245 244 0
246 -244 0
246 -245 0
247 -219 -34 0
-247 34 0
219 -247 0
-248 -247 -161 0
247 161 -248 0
-247 248 161 0
247 248 -161 0
-246 -249 -248 0
246 -249 248 0
-246 248 249 0
246 249 -248 0
-246 250 -248 0
248 -250 0
246 -250 0
251 -247 -161 0
-251 161 0
247 -251 0
-252 251 250 0
-250 252 0
-251 252 0
-42 253 -219 0
-253 42 0
-253 219 0
-253 -167 -254 0
253 -254 167 0
-253 254 167 0
253 -167 254 0
-255 -254 -252 0
-255 254 252 0
254 255 -252 0
-254 255 252 0
-254 256 -252 0
254 -256 0
-256 252 0
-253 257 -167 0
-257 167 0
-257 253 0
-258 257 256 0
258 -256 0
-257 258 0
-50 -219 259 0
-259 50 0
-259 219 0
-259 -260 -173 0
-260 173 259 0
-259 173 260 0
260 -173 259 0
-258 -260 -261 0
260 -261 258 0
260 261 -258 0
-260 258 261 0
-258 262 -260 0
260 -262 0
258 -262 0
-259 -173 263 0
-263 173 0
-263 259 0
262 -264 263 0
264 -262 0
264 -263 0
265 -58 -219 0
-265 58 0
-265 219 0
-266 -265 -179 0
265 179 -266 0
-265 179 266 0
265 -179 266 0
-264 -266 -267 0
-267 264 266 0
267 -264 266 0
264 267 -266 0
-264 268 -266 0
-268 266 0
264 -268 0
-265 269 -179 0
179 -269 0
265 -269 0
-270 268 269 0
270 -268 0
270 -269 0
-219 271 -66 0
-271 66 0
219 -271 0
-272 -185 -271 0
185 -272 271 0
185 272 -271 0
271 -185 272 0
-272 -270 -273 0
270 272 -273 0
-270 273 272 0
-272 270 273 0
-272 -270 274 0
-274 272 0
-274 270 0
275 -185 -271 0
185 -275 0
271 -275 0
-276 275 274 0
-274 276 0
-275 276 0
-74 -219 277 0
74 -277 0
-277 219 0
-278 -277 -191 0
-278 277 191 0
-277 278 191 0
278 277 -191 0
-279 -278 -276 0
-279 278 276 0
279 278 -276 0
-278 279 276 0
-278 280 -276 0
-280 278 0
-280 276 0
281 -277 -191 0
191 -281 0
277 -281 0
281 -282 280 0
-280 282 0
282 -281 0
283 -219 -82 0
82 -283 0
-283 219 0
-284 -197 -283 0
-284 283 197 0
284 -283 197 0
283 -197 284 0
-284 -282 -285 0
284 -285 282 0
-282 284 285 0
-284 285 282 0
-284 -282 286 0
284 -286 0
-286 282 0
-197 -283 287 0
-287 197 0
-287 283 0
-288 287 286 0
288 -286 0
288 -287 0
-90 -219 289 0
-289 90 0
-289 219 0
-289 -203 -290 0
203 289 -290 0
203 -289 290 0
289 290 -203 0
-291 -290 -288 0
288 290 -291 0
291 290 -288 0
288 291 -290 0
292 -290 -288 0
290 -292 0
288 -292 0
293 -289 -203 0
203 -293 0
-293 289 0
292 -294 293 0
294 -292 0
-293 294 0
-219 -98 295 0
98 -295 0
219 -295 0
-209 -296 -295 0
209 -296 295 0
209 296 -295 0
-209 295 296 0
-294 -296 -297 0
294 296 -297 0
-294 296 297 0
294 -296 297 0
298 -294 -296 0
-298 296 0
294 -298 0
-209 299 -295 0
209 -299 0
-299 295 0
299 298 -300 0
-298 300 0
-299 300 0
-106 -219 301 0
106 -301 0
219 -301 0
-302 -215 -301 0
-302 215 301 0
215 302 -301 0
-215 302 301 0
-302 -300 -303 0
300 302 -303 0
-300 302 303 0
-302 300 303 0
-302 -300 304 0
-304 302 0
-304 300 0
-215 305 -301 0
215 -305 0
-305 301 0
305 304 -306 0
-304 306 0
-305 306 0
-219 -114 307 0
-307 114 0
-307 219 0
-307 -308 -218 0
-308 307 218 0
-307 308 218 0
-218 307 308 0
-308 -309 -306 0
-309 308 306 0
309 308 -306 0
309 -308 306 0
310 -308 -306 0
-310 308 0
-310 306 0
-307 311 -218 0
-311 218 0
307 -311 0
310 311 -312 0
-310 312 0
312 -311 0
314 -313 -1 0
1 -314 0
-314 313 0
-314 -315 -225 0
225 -315 314 0
-314 225 315 0
314 315 -225 0
-314 316 -225 0
-316 225 0
-316 314 0
317 -313 -4 0
-317 4 0
313 -317 0
-231 -318 -317 0
317 231 -318 0
231 318 -317 0
317 -231 318 0
-316 -319 -318 0
318 -319 316 0
-316 318 319 0
319 -318 316 0
-316 320 -318 0
318 -320 0
-320 316 0
-231 321 -317 0
231 -321 0
317 -321 0
320 321 -322 0
322 -320 0
-321 322 0
-10 -313 323 0
10 -323 0
313 -323 0
-324 -323 -237 0
323 -324 237 0
324 -323 237 0
323 324 -237 0
-322 -325 -324 0
322 324 -325 0
324 325 -322 0
322 -324 325 0
326 -322 -324 0
324 -326 0
322 -326 0
327 -323 -237 0
-327 237 0
323 -327 0
-328 326 327 0
328 -326 0
328 -327 0
-313 329 -18 0
-329 18 0
-329 313 0
-329 -330 -243 0
-330 243 329 0
-329 330 243 0
330 -243 329 0
-330 -328 -331 0
328 -331 330 0
-328 330 331 0
328 -330 331 0
-330 -328 332 0
330 -332 0
328 -332 0
-329 333 -243 0
-333 243 0
-333 329 0
-334 332 333 0
334 -332 0
-333 334 0
335 -26 -313 0
26 -335 0
313 -335 0
-335 -249 -336 0
335 -336 249 0
336 -335 249 0
335 336 -249 0
-334 -337 -336 0
-337 336 334 0
-334 336 337 0
337 334 -336 0
-334 338 -336 0
336 -338 0
-338 334 0
-335 339 -249 0
-339 249 0
335 -339 0
339 -340 338 0
-338 340 0
-339 340 0
341 -313 -34 0
-341 34 0
313 -341 0
-342 -341 -255 0
-342 341 255 0
-341 342 255 0
341 -255 342 0
-342 -343 -340 0
-343 340 342 0
343 342 -340 0
-342 340 343 0
-342 344 -340 0
342 -344 0
340 -344 0
-341 -255 345 0
-345 255 0
341 -345 0
345 -346 344 0
346 -344 0
346 -345 0
-42 -313 347 0
-347 42 0
313 -347 0
-261 -347 -348 0
-348 261 347 0
-347 261 348 0
-261 348 347 0
-346 -349 -348 0
346 -349 348 0
349 -346 348 0
346 349 -348 0
350 -346 -348 0
-350 348 0
346 -350 0
351 -261 -347 0
261 -351 0
-351 347 0
-352 351 350 0
-350 352 0
-351 352 0
-50 -313 353 0
-353 50 0
313 -353 0
-354 -353 -267 0
267 353 -354 0
267 -353 354 0
353 354 -267 0
-352 -354 -355 0
-355 354 352 0
-352 355 354 0
-354 355 352 0
-352 -354 356 0
354 -356 0
-356 352 0
-353 357 -267 0
267 -357 0
353 -357 0
357 356 -358 0
358 -356 0
358 -357 0
359 -58 -313 0
-359 58 0
313 -359 0
-360 -359 -273 0
359 273 -360 0
360 273 -359 0
359 360 -273 0
-360 -361 -358 0
360 358 -361 0
360 361 -358 0
-360 358 361 0
-360 362 -358 0
360 -362 0
358 -362 0
-359 363 -273 0
-363 273 0
359 -363 0
-364 362 363 0
364 -362 0
-363 364 0
365 -313 -66 0
66 -365 0
313 -365 0
-279 -366 -365 0
-366 365 279 0
366 279 -365 0
-279 365 366 0
-366 -367 -364 0
364 366 -367 0
367 366 -364 0
-366 367 364 0
-366 368 -364 0
-368 366 0
364 -368 0
-279 369 -365 0
-369 279 0
365 -369 0
-370 369 368 0
-368 370 0
-369 370 0
-74 -313 371 0
74 -371 0
313 -371 0
-371 -372 -285 0
371 -372 285 0
372 285 -371 0
372 371 -285 0
-372 -370 -373 0
372 370 -373 0
372 -370 373 0
-372 373 370 0
374 -372 -370 0
372 -374 0
-374 370 0
-371 375 -285 0
285 -375 0
371 -375 0
374 375 -376 0
376 -374 0
376 -375 0
-313 377 -82 0
82 -377 0
313 -377 0
-377 -378 -291 0
291 -378 377 0
-377 291 378 0
378 -291 377 0
-378 -376 -379 0
376 378 -379 0
378 379 -376 0
376 -378 379 0
380 -378 -376 0
378 -380 0
376 -380 0
-377 -291 381 0
-381 291 0
-381 377 0
380 381 -382 0
382 -380 0
382 -381 0
-90 -313 383 0
90 -383 0
313 -383 0
-383 -384 -297 0
383 -384 297 0
-383 384 297 0
383 384 -297 0
-382 -385 -384 0
382 -385 384 0
-382 385 384 0
382 385 -384 0
-382 386 -384 0
-386 384 0
382 -386 0
-383 387 -297 0
-387 297 0
-387 383 0
386 387 -388 0
-386 388 0
388 -387 0
-313 -98 389 0
98 -389 0
313 -389 0
-390 -303 -389 0
-390 389 303 0
390 -389 303 0
390 -303 389 0
-391 -390 -388 0
390 388 -391 0
391 390 -388 0
388 -390 391 0
392 -390 -388 0
-392 390 0
-392 388 0
393 -303 -389 0
-393 303 0
-393 389 0
392 393 -394 0
-392 394 0
-393 394 0
-106 -313 395 0
106 -395 0
313 -395 0
-395 -309 -396 0
309 395 -396 0
309 -395 396 0
395 -309 396 0
-396 -397 -394 0
394 396 -397 0
397 396 -394 0
397 394 -396 0
-396 398 -394 0
-398 396 0
-398 394 0
-395 399 -309 0
309 -399 0
-399 395 0
399 -400 398 0
-398 400 0
-399 400 0
-313 401 -114 0
114 -401 0
313 -401 0
-402 -312 -401 0
-402 312 401 0
402 312 -401 0
402 -312 401 0
-402 -400 -403 0
402 -403 400 0
402 -400 403 0
-402 403 400 0
-402 404 -400 0
402 -404 0
-404 400 0
-312 405 -401 0
312 -405 0
401 -405 0
404 -406 405 0
-404 406 0
406 -405 0
408 -407 -1 0
1 -408 0
-408 407 0
-409 -408 -319 0
-409 408 319 0
409 -408 319 0
409 408 -319 0
-408 -319 410 0
319 -410 0
408 -410 0
-407 -4 411 0
-411 4 0
407 -411 0
-412 -325 -411 0
411 -412 325 0
412 -411 325 0
412 -325 411 0
-412 -413 -410 0
410 -413 412 0
413 -410 412 0
413 -412 410 0
414 -412 -410 0
-414 412 0
410 -414 0
415 -325 -411 0
-415 325 0
-415 411 0
415 -416 414 0
416 -414 0
416 -415 0
-10 417 -407 0
-417 10 0
-417 407 0
-417 -331 -418 0
417 331 -418 0
-417 418 331 0
-331 417 418 0
-419 -416 -418 0
416 418 -419 0
418 -416 419 0
416 419 -418 0
420 -416 -418 0
418 -420 0
416 -420 0
-417 -331 421 0
331 -421 0
417 -421 0
-422 420 421 0
422 -420 0
422 -421 0
423 -407 -18 0
-423 18 0
-423 407 0
-337 -423 -424 0
337 -424 423 0
424 -423 337 0
-337 423 424 0
-425 -424 -422 0
424 422 -425 0
424 425 -422 0
422 425 -424 0
426 -424 -422 0
424 -426 0
422 -426 0
-337 -423 427 0
-427 337 0
-427 423 0
426 -428 427 0
428 -426 0
428 -427 0
429 -26 -407 0
26 -429 0
407 -429 0
-343 -430 -429 0
-430 429 343 0
430 -429 343 0
430 -343 429 0
-431 -430 -428 0
430 -431 428 0
430 431 -428 0
428 -430 431 0
432 -430 -428 0
430 -432 0
428 -432 0
-343 433 -429 0
-433 343 0
-433 429 0
432 -434 433 0
434 -432 0
434 -433 0
435 -407 -34 0
-435 34 0
-435 407 0
-435 -436 -349 0
349 435 -436 0
-435 349 436 0
436 435 -349 0
-434 -437 -436 0
436 -437 434 0
436 -434 437 0
434 -436 437 0
-434 438 -436 0
436 -438 0
-438 434 0
-435 -349 439 0
-439 349 0
-439 435 0
-440 438 439 0
-438 440 0
-439 440 0
-42 -407 441 0
-441 42 0
-441 407 0
-441 -442 -355 0
-442 355 441 0
-441 442 355 0
442 -355 441 0
-440 -442 -443 0
442 440 -443 0
-440 442 443 0
443 -442 440 0
-440 444 -442 0
-444 442 0
-444 440 0
-441 -355 445 0
-445 355 0
-445 441 0
-446 444 445 0
-444 446 0
-445 446 0
-50 -407 447 0
-447 50 0
-447 407 0
-447 -448 -361 0
-448 447 361 0
-447 448 361 0
448 -361 447 0
-448 -446 -449 0
-449 448 446 0
-446 448 449 0
-448 449 446 0
450 -448 -446 0
448 -450 0
-450 446 0
-447 451 -361 0
-451 361 0
-451 447 0
450 451 -452 0
452 -450 0
-451 452 0
-58 453 -407 0
-453 58 0
-453 407 0
-454 -367 -453 0
-454 367 453 0
367 -453 454 0
453 -367 454 0
-454 -455 -452 0
-455 454 452 0
455 -452 454 0
-454 455 452 0
-454 -452 456 0
454 -456 0
-456 452 0
-367 457 -453 0
-457 367 0
-457 453 0
-458 457 456 0
458 -456 0
-457 458 0
459 -407 -66 0
-459 66 0
-459 407 0
-459 -460 -373 0
459 373 -460 0
-459 373 460 0
459 460 -373 0
-458 -461 -460 0
458 460 -461 0
461 -458 460 0
461 458 -460 0
462 -458 -460 0
460 -462 0
458 -462 0
-459 463 -373 0
-463 373 0
459 -463 0
463 462 -464 0
464 -462 0
-463 464 0
-74 465 -407 0
74 -465 0
-465 407 0
-466 -465 -379 0
-466 379 465 0
-465 379 466 0
466 465 -379 0
-466 -467 -464 0
466 464 -467 0
466 467 -464 0
-466 467 464 0
-466 468 -464 0
466 -468 0
-468 464 0
469 -465 -379 0
379 -469 0
465 -469 0
469 468 -470 0
470 -468 0
470 -469 0
-407 471 -82 0
-471 82 0
-471 407 0
-471 -472 -385 0
-472 385 471 0
-471 385 472 0
472 -385 471 0
-472 -470 -473 0
472 470 -473 0
472 -470 473 0
-472 470 473 0
-472 -470 474 0
472 -474 0
-474 470 0
-471 -385 475 0
385 -475 0
-475 471 0
-476 474 475 0
-474 476 0
-475 476 0
-90 477 -407 0
90 -477 0
-477 407 0
-391 -477 -478 0
-478 391 477 0
478 391 -477 0
478 -391 477 0
-478 -476 -479 0
478 476 -479 0
478 -476 479 0
-478 476 479 0
-478 -476 480 0
478 -480 0
-480 476 0
-391 481 -477 0
-481 391 0
-481 477 0
480 -482 481 0
-480 482 0
-481 482 0
-407 -98 483 0
-483 98 0
-483 407 0
-483 -484 -397 0
397 483 -484 0
-483 397 484 0
484 483 -397 0
-485 -484 -482 0
-485 484 482 0
-482 485 484 0
-484 485 482 0
-484 486 -482 0
-486 484 0
-486 482 0
-483 487 -397 0
397 -487 0
-487 483 0
-488 486 487 0
488 -486 0
488 -487 0
-106 489 -407 0
106 -489 0
-489 407 0
-490 -403 -489 0
-490 489 403 0
490 403 -489 0
489 -403 490 0
-490 -488 -491 0
488 -491 490 0
491 490 -488 0
488 491 -490 0
492 -490 -488 0
-492 490 0
488 -492 0
493 -403 -489 0
403 -493 0
489 -493 0
492 -494 493 0
-492 494 0
494 -493 0
495 -114 -407 0
-495 114 0
-495 407 0
-495 -406 -496 0
495 -496 406 0
-495 496 406 0
495 -406 496 0
-496 -497 -494 0
494 -497 496 0
496 -494 497 0
494 -496 497 0
498 -496 -494 0
496 -498 0
494 -498 0
-495 -406 499 0
406 -499 0
495 -499 0
499 -500 498 0
500 -498 0
500 -499 0
502 -501 -1 0
1 -502 0
-502 501 0
-502 -503 -413 0
413 -503 502 0
503 -502 413 0
503 -413 502 0
-502 504 -413 0
413 -504 0
-504 502 0
505 -501 -4 0
-505 4 0
-505 501 0
-506 -505 -419 0
505 -506 419 0
-505 506 419 0
505 506 -419 0
-506 -504 -507 0
506 504 -507 0
506 -504 507 0
-506 507 504 0
-506 -504 508 0
506 -508 0
504 -508 0
509 -505 -419 0
-509 419 0
505 -509 0
509 -510 508 0
510 -508 0
-509 510 0
-10 511 -501 0
-511 10 0
-511 501 0
-511 -425 -512 0
425 511 -512 0
425 -511 512 0
511 -425 512 0
-513 -510 -512 0
-513 510 512 0
-510 513 512 0
510 513 -512 0
-510 514 -512 0
-514 512 0
510 -514 0
-511 -425 515 0
425 -515 0
511 -515 0
515 514 -516 0
516 -514 0
516 -515 0
-501 517 -18 0
-517 18 0
-517 501 0
-517 -431 -518 0
-518 431 517 0
-517 518 431 0
518 -431 517 0
-519 -518 -516 0
516 518 -519 0
518 519 -516 0
516 -518 519 0
520 -518 -516 0
518 -520 0
516 -520 0
-517 -431 521 0
431 -521 0
-521 517 0
520 521 -522 0
522 -520 0
522 -521 0
-26 -501 523 0
26 -523 0
-523 501 0
-524 -437 -523 0
523 -524 437 0
-523 437 524 0
523 -437 524 0
-522 -524 -525 0
522 -525 524 0
525 -522 524 0
522 525 -524 0
-522 526 -524 0
524 -526 0
522 -526 0
527 -437 -523 0
-527 437 0
523 -527 0
527 526 -528 0
528 -526 0
-527 528 0
529 -501 -34 0
-529 34 0
-529 501 0
-530 -529 -443 0
-530 443 529 0
-529 443 530 0
529 530 -443 0
-530 -528 -531 0
528 530 -531 0
-528 531 530 0
-530 531 528 0
-530 -528 532 0
-532 530 0
-532 528 0
-529 533 -443 0
443 -533 0
-533 529 0
-534 533 532 0
-532 534 0
-533 534 0
-42 535 -501 0
-535 42 0
-535 501 0
-449 -535 -536 0
535 -536 449 0
536 -535 449 0
535 -449 536 0
-534 -536 -537 0
536 534 -537 0
-534 537 536 0
537 -536 534 0
538 -534 -536 0
536 -538 0
-538 534 0
539 -449 -535 0
-539 449 0
535 -539 0
539 538 -540 0
540 -538 0
-539 540 0
-50 541 -501 0
-541 50 0
-541 501 0
-541 -455 -542 0
541 455 -542 0
542 -541 455 0
542 541 -455 0
-543 -542 -540 0
542 -543 540 0
542 543 -540 0
-542 543 540 0
544 -542 -540 0
542 -544 0
540 -544 0
545 -541 -455 0
455 -545 0
541 -545 0
545 544 -546 0
546 -544 0
546 -545 0
-58 547 -501 0
-547 58 0
-547 501 0
-548 -547 -461 0
461 -548 547 0
461 -547 548 0
547 -461 548 0
-548 -549 -546 0
546 -549 548 0
549 -546 548 0
546 -548 549 0
-548 -546 550 0
-550 548 0
546 -550 0
551 -547 -461 0
461 -551 0
547 -551 0
551 -552 550 0
-550 552 0
552 -551 0
-501 553 -66 0
66 -553 0
501 -553 0
-554 -467 -553 0
467 553 -554 0
554 467 -553 0
554 -467 553 0
-555 -552 -554 0
-555 552 554 0
554 555 -552 0
552 555 -554 0
556 -552 -554 0
554 -556 0
552 -556 0
557 -467 -553 0
-557 467 0
-557 553 0
557 -558 556 0
558 -556 0
-557 558 0
-74 -501 559 0
74 -559 0
-559 501 0
-559 -473 -560 0
-560 473 559 0
560 -559 473 0
560 -473 559 0
-561 -558 -560 0
560 558 -561 0
560 -558 561 0
558 561 -560 0
562 -558 -560 0
560 -562 0
558 -562 0
-559 -473 563 0
473 -563 0
-563 559 0
-564 563 562 0
564 -562 0
564 -563 0
565 -501 -82 0
82 -565 0
-565 501 0
-565 -566 -479 0
565 479 -566 0
566 -565 479 0
566 565 -479 0
-564 -567 -566 0
564 566 -567 0
-564 566 567 0
564 567 -566 0
-564 568 -566 0
566 -568 0
564 -568 0
569 -565 -479 0
-569 479 0
565 -569 0
569 568 -570 0
-568 570 0
570 -569 0
-90 571 -501 0
90 -571 0
501 -571 0
-485 -572 -571 0
-572 485 571 0
485 572 -571 0
-485 571 572 0
-573 -572 -570 0
570 572 -573 0
-570 572 573 0
570 -572 573 0
574 -572 -570 0
-574 572 0
570 -574 0
-485 575 -571 0
-575 485 0
-575 571 0
-576 574 575 0
-574 576 0
-575 576 0
-98 -501 577 0
-577 98 0
-577 501 0
-577 -578 -491 0
-578 491 577 0
-577 578 491 0
578 -491 577 0
-578 -576 -579 0
578 576 -579 0
-576 579 578 0
-578 579 576 0
-578 -576 580 0
-580 578 0
-580 576 0
-577 581 -491 0
-581 491 0
-581 577 0
580 581 -582 0
-580 582 0
582 -581 0
583 -106 -501 0
106 -583 0
501 -583 0
-497 -584 -583 0
583 -584 497 0
-583 584 497 0
583 584 -497 0
-585 -582 -584 0
582 584 -585 0
585 584 -582 0
582 585 -584 0
586 -582 -584 0
584 -586 0
582 -586 0
587 -497 -583 0
-587 497 0
583 -587 0
586 -588 587 0
588 -586 0
-587 588 0
-114 -501 589 0
-589 114 0
-589 501 0
-589 -500 -590 0
500 -590 589 0
-589 500 590 0
-500 590 589 0
-591 -588 -590 0
-591 588 590 0
591 -588 590 0
591 588 -590 0
-588 592 -590 0
-592 590 0
-592 588 0
-589 -500 593 0
500 -593 0
-593 589 0
-594 593 592 0
594 -592 0
594 -593 0
596 -595 -1 0
1 -596 0
595 -596 0
-597 -596 -507 0
-597 507 596 0
597 507 -596 0
596 597 -507 0
-596 598 -507 0
507 -598 0
-598 596 0
599 -595 -4 0
-599 4 0
595 -599 0
-513 -600 -599 0
599 -600 513 0
513 600 -599 0
599 -513 600 0
-600 -601 -598 0
598 -601 600 0
601 -598 600 0
601 -600 598 0
602 -600 -598 0
-602 600 0
598 -602 0
603 -513 -599 0
513 -603 0
599 -603 0
602 -604 603 0
-602 604 0
-603 604 0
-10 -595 605 0
-605 10 0
-605 595 0
-606 -519 -605 0
-606 605 519 0
-605 606 519 0
606 -519 605 0
-606 -607 -604 0
-607 604 606 0
607 -604 606 0
-606 607 604 0
-606 -604 608 0
606 -608 0
604 -608 0
609 -519 -605 0
-609 519 0
605 -609 0
609 608 -610 0
610 -608 0
610 -609 0
611 -595 -18 0
-611 18 0
-611 595 0
-611 -612 -525 0
-612 525 611 0
-611 525 612 0
611 -525 612 0
-612 -613 -610 0
-613 610 612 0
613 612 -610 0
-612 613 610 0
-612 614 -610 0
612 -614 0
610 -614 0
-611 615 -525 0
-615 525 0
-615 611 0
615 614 -616 0
616 -614 0
-615 616 0
617 -26 -595 0
26 -617 0
595 -617 0
-618 -531 -617 0
617 531 -618 0
618 531 -617 0
617 618 -531 0
-619 -616 -618 0
618 616 -619 0
618 619 -616 0
619 616 -618 0
620 -616 -618 0
618 -620 0
616 -620 0
621 -531 -617 0
531 -621 0
617 -621 0
621 620 -622 0
622 -620 0
622 -621 0
623 -595 -34 0
-623 34 0
-623 595 0
-623 -537 -624 0
623 537 -624 0
-623 624 537 0
623 624 -537 0
-625 -622 -624 0
622 624 -625 0
624 -622 625 0
622 625 -624 0
626 -622 -624 0
624 -626 0
622 -626 0
-623 627 -537 0
-627 537 0
623 -627 0
626 -628 627 0
628 -626 0
-627 628 0
-42 -595 629 0
-629 42 0
-629 595 0
-543 -629 -630 0
-630 543 629 0
543 -629 630 0
-543 630 629 0
-630 -628 -631 0
628 630 -631 0
631 -628 630 0
-630 628 631 0
-630 -628 632 0
-632 630 0
628 -632 0
-543 -629 633 0
543 -633 0
-633 629 0
-634 633 632 0
-632 634 0
-633 634 0
-50 635 -595 0
-635 50 0
-635 595 0
-635 -636 -549 0
549 635 -636 0
-635 549 636 0
635 -549 636 0
-636 -634 -637 0
-637 636 634 0
-634 637 636 0
-636 637 634 0
-636 -634 638 0
636 -638 0
-638 634 0
-635 -549 639 0
549 -639 0
635 -639 0
639 -640 638 0
640 -638 0
640 -639 0
-58 -595 641 0
-641 58 0
-641 595 0
-555 -642 -641 0
-642 641 555 0
642 555 -641 0
-555 642 641 0
-642 -640 -643 0
642 640 -643 0
642 -640 643 0
-642 640 643 0
-642 -640 644 0
642 -644 0
640 -644 0
-555 645 -641 0
-645 555 0
641 -645 0
645 644 -646 0
646 -644 0
646 -645 0
647 -595 -66 0
-647 66 0
-647 595 0
-648 -647 -561 0
-648 647 561 0
-647 648 561 0
647 648 -561 0
-648 -646 -649 0
646 648 -649 0
-646 648 649 0
-648 646 649 0
650 -648 -646 0
648 -650 0
646 -650 0
-647 651 -561 0
-651 561 0
-651 647 0
650 -652 651 0
652 -650 0
-651 652 0
-74 653 -595 0
74 -653 0
-653 595 0
-653 -654 -567 0
567 -654 653 0
654 567 -653 0
654 653 -567 0
-655 -652 -654 0
654 -655 652 0
654 -652 655 0
655 -654 652 0
-652 -654 656 0
654 -656 0
-656 652 0
-653 657 -567 0
-657 567 0
-657 653 0
656 657 -658 0
658 -656 0
-657 658 0
659 -595 -82 0
-659 82 0
-659 595 0
-659 -573 -660 0
-660 659 573 0
-659 573 660 0
-573 659 660 0
-661 -660 -658 0
658 -661 660 0
661 660 -658 0
658 661 -660 0
-660 662 -658 0
-662 660 0
658 -662 0
-659 -573 663 0
-663 573 0
-663 659 0
663 662 -664 0
664 -662 0
664 -663 0
-90 665 -595 0
90 -665 0
-665 595 0
-666 -665 -579 0
579 -666 665 0
666 579 -665 0
666 665 -579 0
-666 -664 -667 0
664 666 -667 0
666 667 -664 0
664 667 -666 0
668 -666 -664 0
666 -668 0
664 -668 0
669 -665 -579 0
-669 579 0
-669 665 0
668 -670 669 0
670 -668 0
-669 670 0
-595 -98 671 0
98 -671 0
-671 595 0
-585 -671 -672 0
585 671 -672 0
672 585 -671 0
672 -585 671 0
-673 -670 -672 0
672 670 -673 0
672 -670 673 0
670 -672 673 0
-670 -672 674 0
672 -674 0
670 -674 0
675 -585 -671 0
-675 585 0
-675 671 0
675 -676 674 0
-674 676 0
-675 676 0
-106 -595 677 0
106 -677 0
595 -677 0
-678 -591 -677 0
-678 677 591 0
678 591 -677 0
-591 678 677 0
-678 -676 -679 0
678 676 -679 0
-676 679 678 0
-678 679 676 0
-678 -676 680 0
678 -680 0
676 -680 0
681 -591 -677 0
-681 591 0
677 -681 0
681 -682 680 0
-680 682 0
-681 682 0
683 -114 -595 0
114 -683 0
595 -683 0
-684 -594 -683 0
-684 594 683 0
594 684 -683 0
683 -594 684 0
-684 -685 -682 0
-685 684 682 0
-682 684 685 0
-684 685 682 0
-684 686 -682 0
-686 684 0
-686 682 0
687 -594 -683 0
-687 594 0
-687 683 0
687 686 -688 0
-686 688 0
-687 688 0
690 -689 -1 0
1 -690 0
-690 689 0
-690 -691 -601 0
601 690 -691 0
601 691 -690 0
691 690 -601 0
-690 692 -601 0
601 -692 0
-692 690 0
693 -4 -689 0
-693 4 0
-693 689 0
-607 -693 -694 0
607 -694 693 0
694 607 -693 0
-607 694 693 0
-692 -694 -695 0
-695 694 692 0
-692 695 694 0
-694 695 692 0
-692 696 -694 0
694 -696 0
-696 692 0
-607 697 -693 0
607 -697 0
693 -697 0
-698 696 697 0
-696 698 0
-697 698 0
-10 699 -689 0
10 -699 0
-699 689 0
-700 -613 -699 0
699 -700 613 0
700 613 -699 0
700 699 -613 0
-698 -700 -701 0
700 -701 698 0
-698 701 700 0
701 -700 698 0
-698 -700 702 0
-702 700 0
-702 698 0
703 -613 -699 0
613 -703 0
699 -703 0
702 -704 703 0
-702 704 0
704 -703 0
705 -689 -18 0
-705 18 0
-705 689 0
-619 -705 -706 0
619 -706 705 0
619 706 -705 0
-619 706 705 0
-707 -704 -706 0
704 706 -707 0
706 -704 707 0
704 707 -706 0
708 -704 -706 0
706 -708 0
704 -708 0
-619 709 -705 0
619 -709 0
-709 705 0
-710 708 709 0
-708 710 0
710 -709 0
711 -26 -689 0
26 -711 0
-711 689 0
-711 -712 -625 0
711 625 -712 0
712 -711 625 0
711 712 -625 0
-710 -712 -713 0
712 -713 710 0
712 -710 713 0
713 -712 710 0
714 -710 -712 0
712 -714 0
-714 710 0
715 -711 -625 0
-715 625 0
711 -715 0
715 714 -716 0
-714 716 0
-715 716 0
717 -689 -34 0
-717 34 0
689 -717 0
-718 -631 -717 0
717 631 -718 0
631 718 -717 0
717 718 -631 0
-719 -716 -718 0
-719 718 716 0
718 -716 719 0
719 -718 716 0
720 -716 -718 0
-720 718 0
-720 716 0
721 -631 -717 0
631 -721 0
717 -721 0
720 721 -722 0
-720 722 0
722 -721 0
-42 723 -689 0
42 -723 0
689 -723 0
-724 -637 -723 0
723 637 -724 0
637 724 -723 0
723 -637 724 0
-724 -725 -722 0
722 -725 724 0
725 -722 724 0
-724 722 725 0
-724 -722 726 0
-726 724 0
-726 722 0
727 -637 -723 0
637 -727 0
723 -727 0
727 -728 726 0
-726 728 0
728 -727 0
-50 729 -689 0
-729 50 0
-729 689 0
-729 -730 -643 0
729 -730 643 0
-729 730 643 0
729 730 -643 0
-728 -730 -731 0
730 728 -731 0
731 -728 730 0
731 -730 728 0
-728 -730 732 0
730 -732 0
728 -732 0
-729 733 -643 0
-733 643 0
729 -733 0
733 -734 732 0
734 -732 0
-733 734 0
-58 735 -689 0
-735 58 0
-735 689 0
-649 -736 -735 0
735 -736 649 0
736 -735 649 0
736 -649 735 0
-737 -736 -734 0
-737 736 734 0
736 -734 737 0
-736 734 737 0
738 -736 -734 0
736 -738 0
-738 734 0
-649 739 -735 0
-739 649 0
735 -739 0
738 739 -740 0
740 -738 0
740 -739 0
741 -689 -66 0
-741 66 0
-741 689 0
-741 -655 -742 0
655 741 -742 0
-741 655 742 0
-655 741 742 0
-742 -743 -740 0
740 -743 742 0
-740 743 742 0
-742 740 743 0
744 -742 -740 0
-744 742 0
740 -744 0
-741 -655 745 0
655 -745 0
741 -745 0
745 744 -746 0
-744 746 0
-745 746 0
-74 747 -689 0
74 -747 0
-747 689 0
-661 -748 -747 0
661 -748 747 0
661 -747 748 0
-661 747 748 0
-748 -746 -749 0
-749 748 746 0
-746 748 749 0
749 -748 746 0
-748 -746 750 0
-750 748 0
-750 746 0
-661 -747 751 0
-751 661 0
-751 747 0
751 -752 750 0
-750 752 0
-751 752 0
753 -689 -82 0
82 -753 0
-753 689 0
-753 -754 -667 0
667 753 -754 0
667 -753 754 0
754 753 -667 0
-755 -754 -752 0
-755 754 752 0
755 754 -752 0
755 -754 752 0
-754 756 -752 0
754 -756 0
-756 752 0
-753 757 -667 0
667 -757 0
753 -757 0
-758 757 756 0
758 -756 0
758 -757 0
-90 759 -689 0
-759 90 0
-759 689 0
-673 -759 -760 0
759 -760 673 0
-759 760 673 0
-673 759 760 0
-761 -760 -758 0
-761 758 760 0
-758 761 760 0
758 -760 761 0
-760 -758 762 0
-762 760 0
-762 758 0
-673 -759 763 0
-763 673 0
759 -763 0
763 -764 762 0
-762 764 0
-763 764 0
-98 765 -689 0
-765 98 0
-765 689 0
-765 -766 -679 0
679 -766 765 0
-765 679 766 0
766 -679 765 0
-766 -764 -767 0
764 766 -767 0
-764 766 767 0
-766 764 767 0
-766 -764 768 0
766 -768 0
764 -768 0
769 -765 -679 0
-769 679 0
-769 765 0
769 -770 768 0
770 -768 0
-769 770 0
-106 771 -689 0
106 -771 0
-771 689 0
-685 -771 -772 0
-772 771 685 0
-771 772 685 0
-685 771 772 0
-770 -772 -773 0
770 772 -773 0
773 -770 772 0
770 -772 773 0
-770 -772 774 0
-774 772 0
770 -774 0
-685 -771 775 0
-775 685 0
-775 771 0
774 775 -776 0
776 -774 0
776 -775 0
777 -114 -689 0
114 -777 0
-777 689 0
-778 -688 -777 0
-778 688 777 0
688 -777 778 0
778 -688 777 0
-778 -779 -776 0
776 -779 778 0
-776 779 778 0
776 -778 779 0
-778 780 -776 0
-780 778 0
776 -780 0
-688 -777 781 0
688 -781 0
777 -781 0
781 780 -782 0
782 -780 0
782 -781 0
784 -783 -1 0
1 -784 0
-784 783 0
-785 -784 -695 0
784 695 -785 0
785 695 -784 0
785 784 -695 0
786 -784 -695 0
695 -786 0
784 -786 0
-783 787 -4 0
-787 4 0
-787 783 0
-701 -788 -787 0
701 787 -788 0
701 788 -787 0
788 -701 787 0
-789 -788 -786 0
788 786 -789 0
788 789 -786 0
789 786 -788 0
-788 -786 790 0
788 -790 0
786 -790 0
791 -701 -787 0
701 -791 0
787 -791 0
-792 791 790 0
-790 792 0
792 -791 0
-10 793 -783 0
10 -793 0
-793 783 0
-794 -707 -793 0
-794 707 793 0
707 794 -793 0
-707 793 794 0
-792 -794 -795 0
792 -795 794 0
-792 795 794 0
-794 795 792 0
-792 -794 796 0
794 -796 0
792 -796 0
-707 797 -793 0
-797 707 0
-797 793 0
-798 797 796 0
798 -796 0
-797 798 0
799 -783 -18 0
-799 18 0
-799 783 0
-799 -713 -800 0
799 713 -800 0
-799 800 713 0
799 800 -713 0
-801 -798 -800 0
-801 798 800 0
801 800 -798 0
798 801 -800 0
802 -798 -800 0
-802 800 0
-802 798 0
-799 803 -713 0
713 -803 0
799 -803 0
802 803 -804 0
-802 804 0
804 -803 0
-26 805 -783 0
26 -805 0
-805 783 0
-719 -806 -805 0
805 719 -806 0
806 719 -805 0
-719 805 806 0
-804 -806 -807 0
806 804 -807 0
806 -804 807 0
-806 804 807 0
808 -804 -806 0
806 -808 0
804 -808 0
-719 809 -805 0
719 -809 0
805 -809 0
809 808 -810 0
810 -808 0
810 -809 0
811 -783 -34 0
-811 34 0
-811 783 0
-811 -725 -812 0
725 -812 811 0
-811 812 725 0
812 -725 811 0
-813 -810 -812 0
-813 812 810 0
813 812 -810 0
813 810 -812 0
814 -810 -812 0
812 -814 0
810 -814 0
-811 -725 815 0
725 -815 0
-815 811 0
-816 814 815 0
816 -814 0
816 -815 0
-42 817 -783 0
-817 42 0
-817 783 0
-817 -818 -731 0
731 817 -818 0
-817 731 818 0
817 818 -731 0
-818 -819 -816 0
816 818 -819 0
-816 818 819 0
816 -818 819 0
-818 820 -816 0
-820 818 0
816 -820 0
-817 821 -731 0
731 -821 0
817 -821 0
821 -822 820 0
-820 822 0
822 -821 0
-50 823 -783 0
50 -823 0
-823 783 0
-737 -824 -823 0
-824 823 737 0
824 -823 737 0
-737 824 823 0
-825 -822 -824 0
-825 824 822 0
-822 824 825 0
-824 822 825 0
-822 -824 826 0
824 -826 0
822 -826 0
-737 827 -823 0
-827 737 0
-827 823 0
-828 827 826 0
828 -826 0
-827 828 0
829 -58 -783 0
-829 58 0
-829 783 0
-830 -743 -829 0
743 -830 829 0
743 -829 830 0
-743 829 830 0
-828 -831 -830 0
828 -831 830 0
-828 831 830 0
828 -830 831 0
-828 -830 832 0
-832 830 0
828 -832 0
833 -743 -829 0
-833 743 0
-833 829 0
833 832 -834 0
-832 834 0
-833 834 0
835 -783 -66 0
-835 66 0
-835 783 0
-835 -836 -749 0
-836 835 749 0
-835 836 749 0
836 835 -749 0
-837 -836 -834 0
-837 836 834 0
836 -834 837 0
-836 837 834 0
838 -836 -834 0
836 -838 0
-838 834 0
839 -835 -749 0
-839 749 0
-839 835 0
839 -840 838 0
840 -838 0
840 -839 0
-74 -783 841 0
74 -841 0
-841 783 0
-755 -841 -842 0
755 -842 841 0
755 -841 842 0
842 -755 841 0
-840 -842 -843 0
842 840 -843 0
842 -840 843 0
840 -842 843 0
-840 -842 844 0
842 -844 0
840 -844 0
-755 -841 845 0
755 -845 0
-845 841 0
844 845 -846 0
846 -844 0
846 -845 0
847 -783 -82 0
82 -847 0
-847 783 0
-761 -847 -848 0
847 -848 761 0
848 -847 761 0
-761 848 847 0
-849 -846 -848 0
846 -849 848 0
849 848 -846 0
846 849 -848 0
-846 -848 850 0
848 -850 0
846 -850 0
-761 851 -847 0
761 -851 0
847 -851 0
-852 851 850 0
852 -850 0
852 -851 0
-90 -783 853 0
-853 90 0
-853 783 0
-854 -853 -767 0
-854 767 853 0
854 -853 767 0
853 854 -767 0
-854 -852 -855 0
-855 852 854 0
855 -852 854 0
855 -854 852 0
-854 -852 856 0
854 -856 0
852 -856 0
-853 857 -767 0
-857 767 0
-857 853 0
-858 857 856 0
858 -856 0
-857 858 0
859 -98 -783 0
98 -859 0
-859 783 0
-860 -859 -773 0
-860 859 773 0
860 -859 773 0
860 859 -773 0
-861 -860 -858 0
-861 860 858 0
860 -858 861 0
-860 858 861 0
862 -860 -858 0
860 -862 0
858 -862 0
-859 863 -773 0
-863 773 0
-863 859 0
862 -864 863 0
-862 864 0
-863 864 0
-106 865 -783 0
106 -865 0
-865 783 0
-866 -779 -865 0
-866 865 779 0
866 779 -865 0
-779 865 866 0
-867 -864 -866 0
-867 864 866 0
867 -864 866 0
867 864 -866 0
868 -864 -866 0
-868 866 0
-868 864 0
-779 -865 869 0
-869 779 0
-869 865 0
868 -870 869 0
-868 870 0
870 -869 0
871 -114 -783 0
114 -871 0
-871 783 0
-872 -871 -782 0
-872 782 871 0
782 -871 872 0
871 872 -782 0
-873 -872 -870 0
870 -873 872 0
873 872 -870 0
870 -872 873 0
-872 874 -870 0
-874 872 0
-874 870 0
875 -871 -782 0
782 -875 0
871 -875 0
875 874 -876 0
-874 876 0
876 -875 0
-877 878 -1 0
1 -878 0
-878 877 0
-879 -789 -878 0
-879 878 789 0
879 -878 789 0
879 -789 878 0
880 -789 -878 0
-880 789 0
-880 878 0
-877 881 -4 0
-881 4 0
-881 877 0
-881 -795 -882 0
881 795 -882 0
882 -881 795 0
882 881 -795 0
-883 -880 -882 0
882 880 -883 0
882 -880 883 0
880 883 -882 0
884 -880 -882 0
882 -884 0
880 -884 0
885 -881 -795 0
-885 795 0
881 -885 0
-886 884 885 0
886 -884 0
886 -885 0
-877 -10 887 0
-887 10 0
-887 877 0
-801 -888 -887 0
-888 887 801 0
-887 801 888 0
-801 887 888 0
-886 -889 -888 0
886 -889 888 0
-886 889 888 0
886 889 -888 0
-886 -888 890 0
-890 888 0
886 -890 0
-801 891 -887 0
-891 801 0
-891 887 0
-892 890 891 0
892 -890 0
-891 892 0
-877 893 -18 0
-893 18 0
-893 877 0
-893 -894 -807 0
807 893 -894 0
-893 894 807 0
894 893 -807 0
-895 -892 -894 0
894 -895 892 0
894 -892 895 0
895 892 -894 0
-892 896 -894 0
894 -896 0
892 -896 0
897 -893 -807 0
807 -897 0
-897 893 0
897 -898 896 0
898 -896 0
898 -897 0
-877 -26 899 0
26 -899 0
-899 877 0
-813 -899 -900 0
813 899 -900 0
813 900 -899 0
-813 900 899 0
-901 -898 -900 0
900 898 -901 0
900 901 -898 0
898 901 -900 0
902 -898 -900 0
900 -902 0
898 -902 0
-813 903 -899 0
813 -903 0
-903 899 0
902 903 -904 0
-902 904 0
-903 904 0
-877 905 -34 0
-905 34 0
-905 877 0
-905 -906 -819 0
905 -906 819 0
-905 906 819 0
906 905 -819 0
-906 -907 -904 0
906 904 -907 0
906 -904 907 0
-906 907 904 0
-906 908 -904 0
906 -908 0
904 -908 0
-905 909 -819 0
-909 819 0
905 -909 0
909 908 -910 0
-908 910 0
-909 910 0
-42 -877 911 0
-911 42 0
-911 877 0
-825 -911 -912 0
911 -912 825 0
912 -911 825 0
-825 912 911 0
-910 -913 -912 0
912 -913 910 0
912 913 -910 0
913 910 -912 0
914 -910 -912 0
912 -914 0
-914 910 0
-825 -911 915 0
-915 825 0
-915 911 0
915 914 -916 0
-914 916 0
-915 916 0
-877 -50 917 0
-917 50 0
-917 877 0
-918 -917 -831 0
-918 917 831 0
-917 918 831 0
-831 917 918 0
-919 -918 -916 0
916 918 -919 0
919 918 -916 0
916 -918 919 0
920 -918 -916 0
-920 918 0
916 -920 0
-917 -831 921 0
-921 831 0
-921 917 0
-922 920 921 0
-920 922 0
-921 922 0
-877 -58 923 0
-923 58 0
-923 877 0
-837 -924 -923 0
-924 923 837 0
924 -923 837 0
-837 924 923 0
-922 -925 -924 0
924 -925 922 0
924 -922 925 0
925 -924 922 0
-922 926 -924 0
924 -926 0
-926 922 0
-837 927 -923 0
-927 837 0
923 -927 0
-928 927 926 0
928 -926 0
928 -927 0
-877 929 -66 0
-929 66 0
-929 877 0
-930 -929 -843 0
-930 843 929 0
843 930 -929 0
930 -843 929 0
-930 -928 -931 0
928 930 -931 0
-928 930 931 0
928 -930 931 0
932 -930 -928 0
930 -932 0
928 -932 0
933 -929 -843 0
843 -933 0
-933 929 0
932 933 -934 0
-932 934 0
-933 934 0
-877 -74 935 0
74 -935 0
-935 877 0
-849 -936 -935 0
849 -936 935 0
849 936 -935 0
936 -849 935 0
-937 -934 -936 0
936 -937 934 0
936 937 -934 0
934 937 -936 0
938 -934 -936 0
936 -938 0
-938 934 0
-849 939 -935 0
849 -939 0
-939 935 0
939 938 -940 0
-938 940 0
-939 940 0
-877 941 -82 0
82 -941 0
-941 877 0
-855 -941 -942 0
941 855 -942 0
942 855 -941 0
-855 942 941 0
-940 -943 -942 0
942 -943 940 0
942 943 -940 0
943 940 -942 0
-940 944 -942 0
942 -944 0
940 -944 0
-855 945 -941 0
855 -945 0
941 -945 0
944 945 -946 0
946 -944 0
946 -945 0
-90 -877 947 0
90 -947 0
-947 877 0
-861 -948 -947 0
861 -948 947 0
861 948 -947 0
-861 948 947 0
-948 -949 -946 0
948 946 -949 0
949 948 -946 0
-948 949 946 0
-948 950 -946 0
-950 948 0
-950 946 0
-861 -947 951 0
861 -951 0
947 -951 0
-952 950 951 0
-950 952 0
952 -951 0
-877 953 -98 0
98 -953 0
-953 877 0
-954 -867 -953 0
867 953 -954 0
867 954 -953 0
-867 954 953 0
-954 -952 -955 0
952 954 -955 0
-952 954 955 0
-954 952 955 0
-954 -952 956 0
-956 954 0
952 -956 0
957 -867 -953 0
867 -957 0
-957 953 0
957 -958 956 0
-956 958 0
-957 958 0
-877 -106 959 0
106 -959 0
-959 877 0
-959 -873 -960 0
959 873 -960 0
-959 873 960 0
-873 959 960 0
-961 -958 -960 0
958 -961 960 0
961 -958 960 0
961 958 -960 0
-958 -960 962 0
-962 960 0
-962 958 0
-959 -873 963 0
-963 873 0
-963 959 0
963 -964 962 0
-962 964 0
-963 964 0
-877 -114 965 0
114 -965 0
-965 877 0
-965 -966 -876 0
876 -966 965 0
966 -965 876 0
966 965 -876 0
-964 -967 -966 0
966 -967 964 0
966 967 -964 0
967 -966 964 0
-964 -966 968 0
966 -968 0
-968 964 0
-965 969 -876 0
876 -969 0
-969 965 0
-970 969 968 0
-968 970 0
970 -969 0
972 -971 -1 0
1 -972 0
971 -972 0
-883 -973 -972 0
972 883 -973 0
973 883 -972 0
-883 972 973 0
-883 974 -972 0
883 -974 0
972 -974 0
-971 -4 975 0
-975 4 0
971 -975 0
-975 -889 -976 0
889 -976 975 0
889 -975 976 0
976 -889 975 0
-977 -976 -974 0
-977 976 974 0
976 977 -974 0
974 -976 977 0
-976 978 -974 0
976 -978 0
974 -978 0
979 -975 -889 0
889 -979 0
-979 975 0
979 -980 978 0
980 -978 0
-979 980 0
-10 -971 981 0
-981 10 0
971 -981 0
-895 -981 -982 0
981 -982 895 0
-981 982 895 0
-895 981 982 0
-980 -983 -982 0
-983 980 982 0
-980 983 982 0
980 983 -982 0
-980 984 -982 0
982 -984 0
980 -984 0
985 -895 -981 0
-985 895 0
-985 981 0
985 -986 984 0
986 -984 0
-985 986 0
-971 987 -18 0
-987 18 0
971 -987 0
-901 -988 -987 0
901 -988 987 0
988 901 -987 0
988 -901 987 0
-986 -989 -988 0
988 -989 986 0
988 -986 989 0
989 986 -988 0
990 -986 -988 0
988 -990 0
-990 986 0
-901 991 -987 0
-991 901 0
-991 987 0
990 -992 991 0
-990 992 0
-991 992 0
-26 993 -971 0
26 -993 0
971 -993 0
-994 -993 -907 0
-994 993 907 0
907 -993 994 0
993 994 -907 0
-994 -992 -995 0
994 992 -995 0
-992 994 995 0
-994 992 995 0
996 -994 -992 0
-996 994 0
-996 992 0
-993 -907 997 0
-997 907 0
993 -997 0
996 997 -998 0
-996 998 0
998 -997 0
-971 999 -34 0
-999 34 0
971 -999 0
-999 -1000 -913 0
913 999 -1000 0
1000 913 -999 0
1000 999 -913 0
-998 -1001 -1000 0
1000 998 -1001 0
1000 1001 -998 0
998 1001 -1000 0
-998 1002 -1000 0
1000 -1002 0
998 -1002 0
-999 1003 -913 0
-1003 913 0
-1003 999 0
1003 -1004 1002 0
-1002 1004 0
-1003 1004 0
-42 1005 -971 0
-1005 42 0
971 -1005 0
-919 -1005 -1006 0
1005 -1006 919 0
-1005 1006 919 0
-919 1006 1005 0
-1006 -1004 -1007 0
-1007 1004 1006 0
1007 -1004 1006 0
1007 -1006 1004 0
-1006 -1004 1008 0
-1008 1006 0
-1008 1004 0
-919 -1005 1009 0
-1009 919 0
1005 -1009 0
1009 -1010 1008 0
-1008 1010 0
1010 -1009 0
-50 -971 1011 0
-1011 50 0
971 -1011 0
-925 -1011 -1012 0
1011 -1012 925 0
1012 -1011 925 0
1012 -925 1011 0
-1013 -1010 -1012 0
1012 1010 -1013 0
1013 1012 -1010 0
1013 1010 -1012 0
-1010 1014 -1012 0
1012 -1014 0
-1014 1010 0
-925 -1011 1015 0
-1015 925 0
-1015 1011 0
-1016 1014 1015 0
1016 -1014 0
1016 -1015 0
-58 -971 1017 0
-1017 58 0
971 -1017 0
-1017 -1018 -931 0
1017 931 -1018 0
-1017 931 1018 0
1017 1018 -931 0
-1016 -1019 -1018 0
-1019 1016 1018 0
-1016 1019 1018 0
1019 1016 -1018 0
1020 -1016 -1018 0
1018 -1020 0
1016 -1020 0
-1017 1021 -931 0
-1021 931 0
-1021 1017 0
1020 1021 -1022 0
1022 -1020 0
1022 -1021 0
-971 1023 -66 0
-1023 66 0
971 -1023 0
-1024 -1023 -937 0
-1024 1023 937 0
-1023 1024 937 0
1024 1023 -937 0
-1024 -1025 -1022 0
1022 1024 -1025 0
1024 -1022 1025 0
-1024 1022 1025 0
-1024 1026 -1022 0
1024 -1026 0
1022 -1026 0
1027 -1023 -937 0
937 -1027 0
1023 -1027 0
1026 1027 -1028 0
1028 -1026 0
1028 -1027 0
1029 -74 -971 0
74 -1029 0
971 -1029 0
-1030 -943 -1029 0
1029 943 -1030 0
943 1030 -1029 0
1029 1030 -943 0
-1031 -1028 -1030 0
-1031 1028 1030 0
1031 -1028 1030 0
1028 1031 -1030 0
-1028 -1030 1032 0
-1032 1030 0
1028 -1032 0
1033 -943 -1029 0
-1033 943 0
-1033 1029 0
-1034 1033 1032 0
-1032 1034 0
-1033 1034 0
-971 1035 -82 0
82 -1035 0
971 -1035 0
-1036 -1035 -949 0
-1036 949 1035 0
1036 949 -1035 0
1036 1035 -949 0
-1037 -1034 -1036 0
-1037 1036 1034 0
1036 -1034 1037 0
1037 -1036 1034 0
1038 -1034 -1036 0
1036 -1038 0
-1038 1034 0
1039 -1035 -949 0
949 -1039 0
1035 -1039 0
1038 -1040 1039 0
-1038 1040 0
1040 -1039 0
-90 -971 1041 0
-1041 90 0
971 -1041 0
-1042 -1041 -955 0
-1042 1041 955 0
-1041 1042 955 0
1042 1041 -955 0
-1043 -1042 -1040 0
-1043 1042 1040 0
1043 -1040 1042 0
1043 -1042 1040 0
-1042 -1040 1044 0
-1044 1042 0
-1044 1040 0
-1041 1045 -955 0
-1045 955 0
-1045 1041 0
-1046 1045 1044 0
-1044 1046 0
-1045 1046 0
1047 -971 -98 0
98 -1047 0
971 -1047 0
-1047 -961 -1048 0
1047 961 -1048 0
1048 961 -1047 0
1048 1047 -961 0
-1048 -1046 -1049 0
1048 1046 -1049 0
1048 1049 -1046 0
1049 -1048 1046 0
-1048 -1046 1050 0
1048 -1050 0
-1050 1046 0
-1047 -961 1051 0
961 -1051 0
1047 -1051 0
-1052 1051 1050 0
-1050 1052 0
-1051 1052 0
-106 -971 1053 0
106 -1053 0
971 -1053 0
-967 -1053 -1054 0
967 -1054 1053 0
1054 -1053 967 0
-967 1054 1053 0
-1052 -1055 -1054 0
-1055 1054 1052 0
-1052 1054 1055 0
1055 1052 -1054 0
-1052 1056 -1054 0
-1056 1054 0
-1056 1052 0
-967 -1053 1057 0
967 -1057 0
1053 -1057 0
1056 -1058 1057 0
-1056 1058 0
1058 -1057 0
1059 -971 -114 0
114 -1059 0
971 -1059 0
-970 -1059 -1060 0
1059 970 -1060 0
1060 -1059 970 0
-970 1059 1060 0
-1058 -1061 -1060 0
1060 -1061 1058 0
1060 -1058 1061 0
1058 1061 -1060 0
-1058 1062 -1060 0
1060 -1062 0
-1062 1058 0
-970 1063 -1059 0
-1063 970 0
-1063 1059 0
1063 1062 -1064 0
-1062 1064 0
-1063 1064 0
1066 -1065 -1 0
1 -1066 0
1065 -1066 0
-977 -1066 -1067 0
-1067 1066 977 0
977 1067 -1066 0
-977 1066 1067 0
-977 1068 -1066 0
977 -1068 0
1066 -1068 0
1069 -1065 -4 0
-1069 4 0
1065 -1069 0
-1069 -983 -1070 0
1069 -1070 983 0
-1069 983 1070 0
1069 -983 1070 0
-1070 -1068 -1071 0
1068 1070 -1071 0
-1068 1070 1071 0
-1070 1068 1071 0
1072 -1070 -1068 0
-1072 1070 0
-1072 1068 0
-1069 -983 1073 0
-1073 983 0
1069 -1073 0
1072 1073 -1074 0
-1072 1074 0
-1073 1074 0
-10 -1065 1075 0
10 -1075 0
1065 -1075 0
-1076 -989 -1075 0
1075 989 -1076 0
1076 989 -1075 0
1075 1076 -989 0
-1076 -1074 -1077 0
1076 1074 -1077 0
1077 1076 -1074 0
-1076 1074 1077 0
1078 -1076 -1074 0
-1078 1076 0
-1078 1074 0
-989 1079 -1075 0
-1079 989 0
-1079 1075 0
1078 -1080 1079 0
-1078 1080 0
-1079 1080 0
-1065 1081 -18 0
-1081 18 0
1065 -1081 0
-1082 -1081 -995 0
1081 -1082 995 0
1082 -1081 995 0
1081 1082 -995 0
-1080 -1082 -1083 0
1080 -1083 1082 0
-1080 1082 1083 0
1080 -1082 1083 0
1084 -1080 -1082 0
1082 -1084 0
1080 -1084 0
1085 -1081 -995 0
-1085 995 0
1081 -1085 0
1084 1085 -1086 0
1086 -1084 0
1086 -1085 0
-26 -1065 1087 0
26 -1087 0
1065 -1087 0
-1088 -1001 -1087 0
1087 -1088 1001 0
1088 1001 -1087 0
1087 -1001 1088 0
-1089 -1086 -1088 0
-1089 1088 1086 0
-1086 1088 1089 0
1089 -1088 1086 0
1090 -1086 -1088 0
1088 -1090 0
-1090 1086 0
1091 -1001 -1087 0
1001 -1091 0
1087 -1091 0
1090 1091 -1092 0
-1090 1092 0
1092 -1091 0
1093 -1065 -34 0
-1093 34 0
1065 -1093 0
-1093 -1094 -1007 0
1007 -1094 1093 0
1007 1094 -1093 0
1093 1094 -1007 0
-1095 -1094 -1092 0
1094 -1095 1092 0
1095 1094 -1092 0
1095 -1094 1092 0
1096 -1094 -1092 0
1094 -1096 0
-1096 1092 0
1097 -1093 -1007 0
1007 -1097 0
1093 -1097 0
1096 1097 -1098 0
1098 -1096 0
-1097 1098 0
-42 -1065 1099 0
-1099 42 0
1065 -1099 0
-1099 -1013 -1100 0
1013 -1100 1099 0
1013 -1099 1100 0
-1013 1099 1100 0
-1101 -1100 -1098 0
-1101 1098 1100 0
1101 1100 -1098 0
1098 1101 -1100 0
1102 -1100 -1098 0
-1102 1100 0
1098 -1102 0
-1099 -1013 1103 0
-1103 1013 0
-1103 1099 0
1102 1103 -1104 0
-1102 1104 0
-1103 1104 0
-50 -1065 1105 0
-1105 50 0
-1105 1065 0
-1105 -1019 -1106 0
1019 1105 -1106 0
-1105 1019 1106 0
1105 1106 -1019 0
-1107 -1104 -1106 0
1106 -1107 1104 0
1106 -1104 1107 0
1104 1107 -1106 0
1108 -1104 -1106 0
1106 -1108 0
1104 -1108 0
-1105 -1019 1109 0
-1109 1019 0
-1109 1105 0
-1110 1108 1109 0
-1108 1110 0
-1109 1110 0
1111 -58 -1065 0
-1111 58 0
1065 -1111 0
-1112 -1025 -1111 0
1111 -1112 1025 0
-1111 1112 1025 0
1112 1111 -1025 0
-1113 -1110 -1112 0
1112 -1113 1110 0
1112 -1110 1113 0
-1112 1113 1110 0
-1110 -1112 1114 0
1112 -1114 0
-1114 1110 0
-1025 -1111 1115 0
-1115 1025 0
-1115 1111 0
-1116 1114 1115 0
1116 -1114 0
1116 -1115 0
-1065 1117 -66 0
-1117 66 0
1065 -1117 0
-1031 -1118 -1117 0
-1118 1031 1117 0
1031 1118 -1117 0
-1031 1118 1117 0
-1118 -1119 -1116 0
1116 -1119 1118 0
-1116 1118 1119 0
1116 -1118 1119 0
-1118 1120 -1116 0
-1120 1118 0
1116 -1120 0
-1031 -1117 1121 0
1031 -1121 0
-1121 1117 0
1120 -1122 1121 0
-1120 1122 0
1122 -1121 0
-74 -1065 1123 0
74 -1123 0
1065 -1123 0
-1037 -1124 -1123 0
1123 1037 -1124 0
1037 -1123 1124 0
-1037 1123 1124 0
-1124 -1125 -1122 0
1122 -1125 1124 0
1125 -1122 1124 0
-1124 1122 1125 0
-1124 1126 -1122 0
-1126 1124 0
-1126 1122 0
-1037 1127 -1123 0
1037 -1127 0
1123 -1127 0
1126 1127 -1128 0
-1126 1128 0
1128 -1127 0
-1065 1129 -82 0
82 -1129 0
1065 -1129 0
-1130 -1043 -1129 0
1043 1129 -1130 0
1043 1130 -1129 0
1129 -1043 1130 0
-1131 -1130 -1128 0
-1131 1128 1130 0
1131 -1128 1130 0
1128 -1130 1131 0
-1130 -1128 1132 0
-1132 1130 0
-1132 1128 0
-1043 1133 -1129 0
1043 -1133 0
1129 -1133 0
-1134 1133 1132 0
1134 -1132 0
1134 -1133 0
-90 1135 -1065 0
-1135 90 0
1065 -1135 0
-1135 -1049 -1136 0
1135 1049 -1136 0
1136 1049 -1135 0
1135 1136 -1049 0
-1134 -1137 -1136 0
1136 1134 -1137 0
1136 1137 -1134 0
1134 1137 -1136 0
1138 -1134 -1136 0
1136 -1138 0
-1138 1134 0
-1135 1139 -1049 0
1049 -1139 0
1135 -1139 0
-1140 1138 1139 0
-1138 1140 0
1140 -1139 0
1141 -1065 -98 0
98 -1141 0
1065 -1141 0
-1142 -1055 -1141 0
-1142 1055 1141 0
1142 1055 -1141 0
1142 -1055 1141 0
-1142 -1140 -1143 0
1142 1140 -1143 0
1142 -1140 1143 0
-1142 1143 1140 0
1144 -1142 -1140 0
1142 -1144 0
1140 -1144 0
1145 -1055 -1141 0
1055 -1145 0
1141 -1145 0
1144 1145 -1146 0
1146 -1144 0
1146 -1145 0
-106 1147 -1065 0
106 -1147 0
1065 -1147 0
-1148 -1061 -1147 0
1147 1061 -1148 0
1061 -1147 1148 0
1147 -1061 1148 0
-1146 -1149 -1148 0
1146 -1149 1148 0
-1146 1149 1148 0
1146 -1148 1149 0
-1146 1150 -1148 0
-1150 1148 0
1146 -1150 0
1151 -1061 -1147 0
1061 -1151 0
1147 -1151 0
1150 1151 -1152 0
-1150 1152 0
1152 -1151 0
1153 -1065 -114 0
114 -1153 0
1065 -1153 0
-1154 -1064 -1153 0
1153 -1154 1064 0
1064 1154 -1153 0
1153 -1064 1154 0
-1155 -1152 -1154 0
-1155 1152 1154 0
1155 -1152 1154 0
1155 -1154 1152 0
-1152 -1154 1156 0
-1156 1154 0
1152 -1156 0
1157 -1064 -1153 0
-1157 1064 0
1153 -1157 0
-1158 1157 1156 0
1158 -1156 0
-1157 1158 0
-1159 1160 -1 0
1 -1160 0
1159 -1160 0
-1160 -1161 -1071 0
1160 -1161 1071 0
-1160 1161 1071 0
1161 1160 -1071 0
-1160 1162 -1071 0
-1162 1071 0
-1162 1160 0
-1159 1163 -4 0
-1163 4 0
1159 -1163 0
-1164 -1077 -1163 0
-1164 1077 1163 0
1164 1077 -1163 0
1164 1163 -1077 0
-1164 -1162 -1165 0
1164 1162 -1165 0
1165 1164 -1162 0
-1164 1165 1162 0
-1164 -1162 1166 0
1164 -1166 0
-1166 1162 0
1167 -1077 -1163 0
1077 -1167 0
-1167 1163 0
-1168 1167 1166 0
1168 -1166 0
1168 -1167 0
-10 -1159 1169 0
-1169 10 0
-1169 1159 0
-1169 -1083 -1170 0
-1170 1083 1169 0
-1169 1083 1170 0
-1083 1170 1169 0
-1171 -1170 -1168 0
1168 -1171 1170 0
1171 1170 -1168 0
1171 1168 -1170 0
1172 -1170 -1168 0
-1172 1170 0
1168 -1172 0
-1169 -1083 1173 0
-1173 1083 0
-1173 1169 0
1172 -1174 1173 0
1174 -1172 0
-1173 1174 0
-1159 1175 -18 0
-1175 18 0
1159 -1175 0
-1089 -1175 -1176 0
-1176 1089 1175 0
1089 1176 -1175 0
-1089 1176 1175 0
-1177 -1174 -1176 0
1174 1176 -1177 0
1176 -1174 1177 0
1177 1174 -1176 0
1178 -1174 -1176 0
-1178 1176 0
-1178 1174 0
-1089 1179 -1175 0
1089 -1179 0
-1179 1175 0
1179 -1180 1178 0
-1178 1180 0
1180 -1179 0
-26 -1159 1181 0
26 -1181 0
-1181 1159 0
-1181 -1095 -1182 0
1095 1181 -1182 0
1095 1182 -1181 0
1182 -1095 1181 0
-1183 -1180 -1182 0
1182 -1183 1180 0
1182 1183 -1180 0
1183 1180 -1182 0
1184 -1180 -1182 0
1182 -1184 0
-1184 1180 0
-1181 -1095 1185 0
1095 -1185 0
1181 -1185 0
1184 -1186 1185 0
1186 -1184 0
-1185 1186 0
-1159 1187 -34 0
-1187 34 0
1159 -1187 0
-1101 -1188 -1187 0
1101 -1188 1187 0
1101 1188 -1187 0
-1101 1187 1188 0
-1188 -1186 -1189 0
1186 1188 -1189 0
1189 1188 -1186 0
1186 -1188 1189 0
1190 -1188 -1186 0
1188 -1190 0
1186 -1190 0
-1101 1191 -1187 0
1101 -1191 0
-1191 1187 0
1191 -1192 1190 0
1192 -1190 0
1192 -1191 0
-42 -1159 1193 0
-1193 42 0
1159 -1193 0
-1194 -1193 -1107 0
-1194 1193 1107 0
1194 -1193 1107 0
1194 -1107 1193 0
-1192 -1194 -1195 0
1194 1192 -1195 0
1194 -1192 1195 0
1192 -1194 1195 0
-1192 -1194 1196 0
1194 -1196 0
1192 -1196 0
-1193 -1107 1197 0
-1197 1107 0
-1197 1193 0
-1198 1196 1197 0
-1196 1198 0
-1197 1198 0
-50 -1159 1199 0
-1199 50 0
-1199 1159 0
-1199 -1113 -1200 0
1199 -1200 1113 0
-1199 1200 1113 0
1199 -1113 1200 0
-1198 -1201 -1200 0
-1201 1198 1200 0
-1198 1201 1200 0
1201 -1200 1198 0
-1198 1202 -1200 0
-1202 1200 0
-1202 1198 0
-1199 -1113 1203 0
-1203 1113 0
1199 -1203 0
1202 -1204 1203 0
1204 -1202 0
1204 -1203 0
-58 -1159 1205 0
-1205 58 0
1159 -1205 0
-1119 -1206 -1205 0
1205 -1206 1119 0
1206 -1205 1119 0
1206 -1119 1205 0
-1206 -1204 -1207 0
1206 1204 -1207 0
1206 -1204 1207 0
1204 -1206 1207 0
-1206 -1204 1208 0
-1208 1206 0
-1208 1204 0
1209 -1119 -1205 0
-1209 1119 0
-1209 1205 0
1209 -1210 1208 0
-1208 1210 0
1210 -1209 0
1211 -1159 -66 0
-1211 66 0
1159 -1211 0
-1212 -1211 -1125 0
1211 -1212 1125 0
1212 -1211 1125 0
1211 1212 -1125 0
-1213 -1210 -1212 0
-1213 1210 1212 0
-1210 1212 1213 0
-1212 1210 1213 0
-1210 -1212 1214 0
-1214 1212 0
-1214 1210 0
1215 -1211 -1125 0
-1215 1125 0
1211 -1215 0
-1216 1215 1214 0
-1214 1216 0
1216 -1215 0
-74 -1159 1217 0
74 -1217 0
1159 -1217 0
-1131 -1217 -1218 0
1131 1217 -1218 0
1131 1218 -1217 0
-1131 1217 1218 0
-1216 -1219 -1218 0
1216 1218 -1219 0
-1216 1219 1218 0
1216 1219 -1218 0
-1216 1220 -1218 0
-1220 1218 0
1216 -1220 0
-1131 1221 -1217 0
1131 -1221 0
-1221 1217 0
1221 -1222 1220 0
1222 -1220 0
1222 -1221 0
-1159 1223 -82 0
82 -1223 0
1159 -1223 0
-1224 -1137 -1223 0
1137 -1224 1223 0
1137 1224 -1223 0
1224 1223 -1137 0
-1222 -1225 -1224 0
-1225 1224 1222 0
1224 1225 -1222 0
1222 -1224 1225 0
-1222 1226 -1224 0
1224 -1226 0
1222 -1226 0
1227 -1137 -1223 0
1137 -1227 0
-1227 1223 0
1227 1226 -1228 0
1228 -1226 0
1228 -1227 0
-90 -1159 1229 0
-1229 90 0
1159 -1229 0
-1229 -1143 -1230 0
1143 1229 -1230 0
1230 1143 -1229 0
1230 -1143 1229 0
-1231 -1230 -1228 0
-1231 1228 1230 0
1231 1230 -1228 0
1228 -1230 1231 0
1232 -1230 -1228 0
-1232 1230 0
-1232 1228 0
-1229 1233 -1143 0
1143 -1233 0
1229 -1233 0
1232 -1234 1233 0
-1232 1234 0
1234 -1233 0
1235 -1159 -98 0
98 -1235 0
1159 -1235 0
-1236 -1235 -1149 0
1149 1235 -1236 0
1149 -1235 1236 0
1235 -1149 1236 0
-1237 -1236 -1234 0
-1237 1234 1236 0
-1234 1237 1236 0
-1236 1237 1234 0
-1236 -1234 1238 0
-1238 1236 0
-1238 1234 0
-1235 -1149 1239 0
1149 -1239 0
-1239 1235 0
1239 -1240 1238 0
1240 -1238 0
-1239 1240 0
-106 -1159 1241 0
106 -1241 0
-1241 1159 0
-1241 -1242 -1155 0
-1242 1155 1241 0
-1241 1155 1242 0
-1155 1242 1241 0
-1242 -1240 -1243 0
1240 1242 -1243 0
1242 -1240 1243 0
-1242 1240 1243 0
-1242 1244 -1240 0
1242 -1244 0
1240 -1244 0
-1241 -1155 1245 0
1155 -1245 0
-1245 1241 0
1244 -1246 1245 0
1246 -1244 0
-1245 1246 0
-1159 -114 1247 0
114 -1247 0
1159 -1247 0
-1158 -1247 -1248 0
1158 1247 -1248 0
1248 1158 -1247 0
-1158 1247 1248 0
-1249 -1246 -1248 0
1248 -1249 1246 0
1248 -1246 1249 0
1246 -1248 1249 0
1250 -1246 -1248 0
1248 -1250 0
-1250 1246 0
-1158 1251 -1247 0
-1251 1158 0
-1251 1247 0
-1252 1251 1250 0
-1250 1252 0
-1251 1252 0
1254 -1253 -1 0
1 -1254 0
1253 -1254 0
-1254 -1255 -1165 0
1165 1254 -1255 0
1165 1255 -1254 0
1255 1254 -1165 0
-1254 1256 -1165 0
1165 -1256 0
-1256 1254 0
1257 -1253 -4 0
-1257 4 0
-1257 1253 0
-1258 -1257 -1171 0
1171 1257 -1258 0
1171 -1257 1258 0
1257 -1171 1258 0
-1259 -1256 -1258 0
-1259 1256 1258 0
-1256 1259 1258 0
-1258 1259 1256 0
-1256 -1258 1260 0
-1260 1258 0
-1260 1256 0
-1257 -1171 1261 0
1171 -1261 0
1257 -1261 0
1260 1261 -1262 0
-1260 1262 0
1262 -1261 0
-10 -1253 1263 0
-1263 10 0
-1263 1253 0
-1264 -1263 -1177 0
-1264 1263 1177 0
1264 -1263 1177 0
1263 1264 -1177 0
-1265 -1264 -1262 0
-1265 1262 1264 0
1265 1264 -1262 0
-1264 1262 1265 0
-1264 1266 -1262 0
-1266 1264 0
-1266 1262 0
1267 -1263 -1177 0
-1267 1177 0
-1267 1263 0
-1268 1267 1266 0
-1266 1268 0
-1267 1268 0
-1253 1269 -18 0
-1269 18 0
-1269 1253 0
-1270 -1183 -1269 0
-1270 1183 1269 0
1183 1270 -1269 0
-1183 1270 1269 0
-1271 -1270 -1268 0
-1271 1270 1268 0
1271 1270 -1268 0
-1270 1268 1271 0
-1270 -1268 1272 0
1270 -1272 0
1268 -1272 0
-1183 -1269 1273 0
1183 -1273 0
-1273 1269 0
-1274 1272 1273 0
-1272 1274 0
-1273 1274 0
-26 -1253 1275 0
26 -1275 0
-1275 1253 0
-1275 -1276 -1189 0
1189 -1276 1275 0
-1275 1189 1276 0
1276 1275 -1189 0
-1274 -1277 -1276 0
1276 -1277 1274 0
-1274 1276 1277 0
1277 -1276 1274 0
-1274 1278 -1276 0
1276 -1278 0
-1278 1274 0
1279 -1275 -1189 0
-1279 1189 0
-1279 1275 0
1278 1279 -1280 0
-1278 1280 0
-1279 1280 0
-1253 1281 -34 0
-1281 34 0
-1281 1253 0
-1195 -1282 -1281 0
1195 -1282 1281 0
-1281 1195 1282 0
-1195 1282 1281 0
-1283 -1282 -1280 0
-1283 1282 1280 0
1283 1282 -1280 0
1283 1280 -1282 0
-1282 1284 -1280 0
1282 -1284 0
-1284 1280 0
1285 -1195 -1281 0
-1285 1195 0
-1285 1281 0
1285 1284 -1286 0
1286 -1284 0
-1285 1286 0
-42 -1253 1287 0
-1287 42 0
-1287 1253 0
-1287 -1288 -1201 0
1287 -1288 1201 0
-1287 1201 1288 0
1287 -1201 1288 0
-1288 -1286 -1289 0
1286 1288 -1289 0
-1286 1289 1288 0
1286 -1288 1289 0
1290 -1288 -1286 0
1288 -1290 0
1286 -1290 0
-1287 1291 -1201 0
-1291 1201 0
-1291 1287 0
-1292 1291 1290 0
1292 -1290 0
1292 -1291 0
-50 -1253 1293 0
-1293 50 0
-1293 1253 0
-1293 -1294 -1207 0
1207 -1294 1293 0
-1293 1294 1207 0
1293 1294 -1207 0
-1292 -1294 -1295 0
1292 1294 -1295 0
-1292 1294 1295 0
1292 1295 -1294 0
-1292 1296 -1294 0
1294 -1296 0
1292 -1296 0
-1293 1297 -1207 0
1207 -1297 0
-1297 1293 0
-1298 1297 1296 0
1298 -1296 0
1298 -1297 0
-58 -1253 1299 0
-1299 58 0
-1299 1253 0
-1213 -1300 -1299 0
-1300 1299 1213 0
1300 -1299 1213 0
-1213 1300 1299 0
-1298 -1300 -1301 0
1300 1298 -1301 0
-1298 1300 1301 0
-1300 1298 1301 0
-1298 -1300 1302 0
1300 -1302 0
1298 -1302 0
-1213 -1299 1303 0
-1303 1213 0
1299 -1303 0
-1304 1303 1302 0
-1302 1304 0
-1303 1304 0
-1253 1305 -66 0
-1305 66 0
-1305 1253 0
-1305 -1219 -1306 0
1219 1305 -1306 0
1219 -1305 1306 0
1306 1305 -1219 0
-1307 -1306 -1304 0
1306 -1307 1304 0
1307 1306 -1304 0
1307 -1306 1304 0
1308 -1306 -1304 0
1306 -1308 0
-1308 1304 0
1309 -1305 -1219 0
-1309 1219 0
-1309 1305 0
1309 1308 -1310 0
1310 -1308 0
-1309 1310 0
-74 -1253 1311 0
74 -1311 0
-1311 1253 0
-1312 -1225 -1311 0
-1312 1225 1311 0
-1311 1225 1312 0
-1225 1312 1311 0
-1312 -1313 -1310 0
1310 1312 -1313 0
1313 1312 -1310 0
-1312 1310 1313 0
-1312 1314 -1310 0
-1314 1312 0
1310 -1314 0
-1225 -1311 1315 0
1225 -1315 0
-1315 1311 0
1314 -1316 1315 0
1316 -1314 0
1316 -1315 0
1317 -1253 -82 0
82 -1317 0
-1317 1253 0
-1231 -1317 -1318 0
1317 1231 -1318 0
1231 -1317 1318 0
-1231 1317 1318 0
-1319 -1316 -1318 0
1316 1318 -1319 0
1319 -1316 1318 0
1319 1316 -1318 0
-1316 -1318 1320 0
1318 -1320 0
1316 -1320 0
-1231 1321 -1317 0
1231 -1321 0
1317 -1321 0
1321 -1322 1320 0
1322 -1320 0
-1321 1322 0
-90 1323 -1253 0
90 -1323 0
-1323 1253 0
-1237 -1324 -1323 0
1323 -1324 1237 0
-1323 1324 1237 0
-1237 1323 1324 0
-1325 -1324 -1322 0
1324 -1325 1322 0
1325 1324 -1322 0
1325 -1324 1322 0
1326 -1324 -1322 0
1324 -1326 0
1322 -1326 0
-1237 1327 -1323 0
-1327 1237 0
1323 -1327 0
1326 1327 -1328 0
1328 -1326 0
-1327 1328 0
-1253 -98 1329 0
98 -1329 0
-1329 1253 0
-1330 -1329 -1243 0
-1330 1329 1243 0
1330 -1329 1243 0
1330 1329 -1243 0
-1331 -1328 -1330 0
1330 1328 -1331 0
1330 1331 -1328 0
1331 1328 -1330 0
1332 -1328 -1330 0
1330 -1332 0
-1332 1328 0
1333 -1329 -1243 0
-1333 1243 0
-1333 1329 0
1332 1333 -1334 0
-1332 1334 0
-1333 1334 0
1335 -106 -1253 0
106 -1335 0
-1335 1253 0
-1249 -1335 -1336 0
1335 -1336 1249 0
1336 -1335 1249 0
1335 -1249 1336 0
-1337 -1336 -1334 0
-1337 1336 1334 0
1337 1336 -1334 0
1337 -1336 1334 0
1338 -1336 -1334 0
1336 -1338 0
-1338 1334 0
1339 -1249 -1335 0
-1339 1249 0
1335 -1339 0
1339 -1340 1338 0
1340 -1338 0
-1339 1340 0
-1253 -114 1341 0
114 -1341 0
-1341 1253 0
-1252 -1342 -1341 0
-1342 1252 1341 0
-1341 1252 1342 0
-1252 1342 1341 0
-1343 -1342 -1340 0
-1343 1340 1342 0
-1340 1343 1342 0
-1342 1340 1343 0
1344 -1342 -1340 0
1342 -1344 0
1340 -1344 0
1345 -1252 -1341 0
1252 -1345 0
1341 -1345 0
1344 1345 -1346 0
-1344 1346 0
1346 -1345 0
1348 -1347 -1 0
1 -1348 0
1347 -1348 0
-1259 -1349 -1348 0
1348 -1349 1259 0
1259 1349 -1348 0
-1259 1349 1348 0
-1259 1350 -1348 0
-1350 1259 0
1348 -1350 0
-1347 1351 -4 0
-1351 4 0
1347 -1351 0
-1265 -1352 -1351 0
1351 -1352 1265 0
1352 -1351 1265 0
-1265 1351 1352 0
-1350 -1352 -1353 0
1352 1350 -1353 0
1352 -1350 1353 0
1350 -1352 1353 0
1354 -1350 -1352 0
1352 -1354 0
-1354 1350 0
-1265 1355 -1351 0
-1355 1265 0
1351 -1355 0
1355 1354 -1356 0
1356 -1354 0
1356 -1355 0
-10 -1347 1357 0
-1357 10 0
-1357 1347 0
-1271 -1358 -1357 0
-1358 1271 1357 0
1271 -1357 1358 0
-1271 1357 1358 0
-1358 -1356 -1359 0
1356 1358 -1359 0
-1356 1358 1359 0
-1358 1356 1359 0
-1358 1360 -1356 0
-1360 1358 0
1356 -1360 0
-1271 1361 -1357 0
1271 -1361 0
1357 -1361 0
1360 1361 -1362 0
1362 -1360 0
1362 -1361 0
-1347 1363 -18 0
-1363 18 0
-1363 1347 0
-1363 -1277 -1364 0
-1364 1277 1363 0
1364 -1363 1277 0
1364 -1277 1363 0
-1362 -1365 -1364 0
1364 1362 -1365 0
1364 -1362 1365 0
1362 -1364 1365 0
1366 -1362 -1364 0
1364 -1366 0
1362 -1366 0
-1363 -1277 1367 0
1277 -1367 0
-1367 1363 0
1366 1367 -1368 0
1368 -1366 0
1368 -1367 0
-26 -1347 1369 0
26 -1369 0
1347 -1369 0
-1283 -1370 -1369 0
1283 -1370 1369 0
1283 1370 -1369 0
-1283 1370 1369 0
-1368 -1371 -1370 0
-1371 1368 1370 0
-1368 1370 1371 0
1368 -1370 1371 0
-1368 -1370 1372 0
1370 -1372 0
1368 -1372 0
-1283 1373 -1369 0
1283 -1373 0
-1373 1369 0
-1374 1372 1373 0
1374 -1372 0
1374 -1373 0
1375 -1347 -34 0
-1375 34 0
-1375 1347 0
-1375 -1376 -1289 0
1289 -1376 1375 0
-1375 1376 1289 0
1375 1376 -1289 0
-1377 -1374 -1376 0
1374 1376 -1377 0
1377 1376 -1374 0
1374 1377 -1376 0
-1374 -1376 1378 0
1376 -1378 0
1374 -1378 0
-1375 1379 -1289 0
-1379 1289 0
-1379 1375 0
-1380 1379 1378 0
1380 -1378 0
1380 -1379 0
-42 -1347 1381 0
42 -1381 0
1347 -1381 0
-1382 -1295 -1381 0
-1382 1295 1381 0
1382 1295 -1381 0
1382 -1295 1381 0
-1383 -1380 -1382 0
-1383 1380 1382 0
1382 -1380 1383 0
1380 -1382 1383 0
1384 -1380 -1382 0
-1384 1382 0
-1384 1380 0
1385 -1295 -1381 0
-1385 1295 0
-1385 1381 0
-1386 1384 1385 0
-1384 1386 0
-1385 1386 0
-50 -1347 1387 0
-1387 50 0
-1387 1347 0
-1387 -1388 -1301 0
-1388 1301 1387 0
-1387 1301 1388 0
1388 1387 -1301 0
-1386 -1389 -1388 0
-1389 1386 1388 0
-1386 1389 1388 0
1389 1386 -1388 0
1390 -1386 -1388 0
-1390 1388 0
-1390 1386 0
1391 -1387 -1301 0
1301 -1391 0
1387 -1391 0
1390 1391 -1392 0
-1390 1392 0
1392 -1391 0
1393 -58 -1347 0
-1393 58 0
1347 -1393 0
-1394 -1307 -1393 0
1393 -1394 1307 0
1394 1307 -1393 0
1393 1394 -1307 0
-1394 -1392 -1395 0
1392 1394 -1395 0
-1392 1394 1395 0
-1394 1392 1395 0
-1394 -1392 1396 0
-1396 1394 0
-1396 1392 0
1397 -1307 -1393 0
1307 -1397 0
1393 -1397 0
-1398 1397 1396 0
-1396 1398 0
1398 -1397 0
-1347 1399 -66 0
-1399 66 0
-1399 1347 0
-1399 -1400 -1313 0
1313 -1400 1399 0
-1399 1313 1400 0
1400 -1313 1399 0
-1401 -1398 -1400 0
-1401 1400 1398 0
-1398 1400 1401 0
1401 -1400 1398 0
1402 -1398 -1400 0
-1402 1400 0
-1402 1398 0
-1399 1403 -1313 0
1313 -1403 0
-1403 1399 0
-1404 1403 1402 0
1404 -1402 0
1404 -1403 0
-74 1405 -1347 0
-1405 74 0
-1405 1347 0
-1405 -1319 -1406 0
1319 -1406 1405 0
-1405 1319 1406 0
1405 -1319 1406 0
-1407 -1404 -1406 0
-1407 1404 1406 0
-1404 1407 1406 0
1404 1407 -1406 0
-1404 1408 -1406 0
1406 -1408 0
1404 -1408 0
-1405 -1319 1409 0
-1409 1319 0
-1409 1405 0
-1410 1408 1409 0
1410 -1408 0
1410 -1409 0
-1347 1411 -82 0
82 -1411 0
-1411 1347 0
-1411 -1325 -1412 0
1325 1411 -1412 0
1325 1412 -1411 0
1412 1411 -1325 0
-1410 -1413 -1412 0
1410 1412 -1413 0
-1410 1412 1413 0
1410 1413 -1412 0
-1410 1414 -1412 0
1412 -1414 0
1410 -1414 0
-1411 -1325 1415 0
1325 -1415 0
1411 -1415 0
-1416 1414 1415 0
1416 -1414 0
1416 -1415 0
-90 -1347 1417 0
-1417 90 0
-1417 1347 0
-1417 -1418 -1331 0
-1418 1331 1417 0
-1417 1331 1418 0
1418 1417 -1331 0
-1418 -1419 -1416 0
1416 -1419 1418 0
1419 -1416 1418 0
1416 -1418 1419 0
-1418 -1416 1420 0
-1420 1418 0
1416 -1420 0
-1417 1421 -1331 0
-1421 1331 0
-1421 1417 0
-1422 1421 1420 0
1422 -1420 0
-1421 1422 0
-1347 -98 1423 0
98 -1423 0
-1423 1347 0
-1423 -1337 -1424 0
1337 -1424 1423 0
1424 1337 -1423 0
1424 -1337 1423 0
-1425 -1424 -1422 0
-1425 1424 1422 0
1425 1424 -1422 0
1425 1422 -1424 0
-1424 -1422 1426 0
1424 -1426 0
-1426 1422 0
-1423 1427 -1337 0
-1427 1337 0
-1427 1423 0
1427 -1428 1426 0
-1426 1428 0
-1427 1428 0
-106 -1347 1429 0
106 -1429 0
-1429 1347 0
-1343 -1429 -1430 0
-1430 1343 1429 0
-1429 1430 1343 0
-1343 1430 1429 0
-1430 -1428 -1431 0
1430 1428 -1431 0
1430 1431 -1428 0
-1430 1428 1431 0
1432 -1430 -1428 0
-1432 1430 0
-1432 1428 0
-1343 -1429 1433 0
-1433 1343 0
-1433 1429 0
1433 1432 -1434 0
-1432 1434 0
-1433 1434 0
1435 -1347 -114 0
114 -1435 0
-1435 1347 0
-1436 -1435 -1346 0
1435 1346 -1436 0
1436 -1435 1346 0
1435 1436 -1346 0
-1436 -1437 -1434 0
1436 -1437 1434 0
1436 -1434 1437 0
-1436 1434 1437 0
-1436 -1434 1438 0
1436 -1438 0
-1438 1434 0
1439 -1435 -1346 0
1346 -1439 0
1435 -1439 0
1439 -1440 1438 0
-1438 1440 0
1440 -1439 0
3 0
-8 0
-127 0
221 0
-315 0
409 0
503 0
597 0
691 0
785 0
-879 0
973 0
1067 0
-1161 0
-1255 0
1349 0
-1353 0
-1359 0
-1365 0
-1371 0
-1377 0
-1383 0
-1389 0
-1395 0
-1401 0
-1407 0
-1413 0
-1419 0
-1425 0
-1431 0
-1437 0
-1440 0
