p cnf 1440 4720
-2 -1 3 0
1 -3 0
-3 2 0
5 -2 -4 0
-5 4 0
-5 2 0
-6 7 -1 0
1 -7 0
6 -7 0
-8 -5 -7 0
-8 5 7 0
5 8 -7 0
7 -5 8 0
9 -5 -7 0
5 -9 0
7 -9 0
-2 -10 11 0
10 -11 0
2 -11 0
-4 -6 12 0
-12 4 0
6 -12 0
-13 -12 -11 0
-13 12 11 0
13 -12 11 0
13 12 -11 0
-13 -9 -14 0
9 13 -14 0
14 -9 13 0
14 -13 9 0
15 -13 -9 0
13 -15 0
9 -15 0
16 -12 -11 0
-16 11 0
-16 12 0
15 16 -17 0
17 -15 0
17 -16 0
-2 -18 19 0
18 -19 0
-19 2 0
-6 -10 20 0
10 -20 0
-20 6 0
-19 -20 -21 0
-21 20 19 0
21 -20 19 0
-19 21 20 0
-22 -21 -17 0
21 17 -22 0
22 21 -17 0
22 17 -21 0
-21 23 -17 0
21 -23 0
17 -23 0
24 -19 -20 0
-24 19 0
20 -24 0
24 -25 23 0
25 -23 0
25 -24 0
-26 -2 27 0
-27 26 0
-27 2 0
-6 -18 28 0
18 -28 0
-28 6 0
-28 -29 -27 0
28 -29 27 0
-28 29 27 0
28 -27 29 0
-29 -25 -30 0
29 25 -30 0
30 29 -25 0
30 25 -29 0
31 -29 -25 0
-31 29 0
-31 25 0
-28 -27 32 0
-32 27 0
-32 28 0
31 32 -33 0
-31 33 0
33 -32 0
-2 35 -34 0
34 -35 0
2 -35 0
36 -26 -6 0
-36 26 0
6 -36 0
-37 -36 -35 0
36 35 -37 0
37 35 -36 0
36 37 -35 0
-38 -33 -37 0
33 -38 37 0
38 -33 37 0
38 33 -37 0
39 -33 -37 0
-39 37 0
-39 33 0
40 -36 -35 0
35 -40 0
36 -40 0
39 40 -41 0
-39 41 0
41 -40 0
-2 43 -42 0
-43 42 0
-43 2 0
-6 44 -34 0
34 -44 0
-44 6 0
-43 -44 -45 0
43 44 -45 0
43 -44 45 0
-43 44 45 0
-46 -41 -45 0
41 -46 45 0
46 -41 45 0
46 41 -45 0
47 -41 -45 0
-47 45 0
41 -47 0
-43 -44 48 0
-48 43 0
-48 44 0
-49 47 48 0
49 -47 0
-48 49 0
-2 51 -50 0
-51 50 0
-51 2 0
52 -6 -42 0
42 -52 0
6 -52 0
-51 -52 -53 0
52 51 -53 0
51 53 -52 0
52 -51 53 0
-53 -49 -54 0
49 53 -54 0
53 -49 54 0
-53 49 54 0
55 -53 -49 0
53 -55 0
49 -55 0
-51 56 -52 0
51 -56 0
52 -56 0
55 56 -57 0
-55 57 0
57 -56 0
59 -2 -58 0
-59 58 0
-59 2 0
60 -6 -50 0
-60 50 0
-60 6 0
-59 -60 -61 0
59 -61 60 0
59 61 -60 0
-59 61 60 0
-62 -61 -57 0
-62 61 57 0
62 61 -57 0
62 -61 57 0
63 -61 -57 0
61 -63 0
57 -63 0
-59 -60 64 0
59 -64 0
60 -64 0
64 63 -65 0
65 -63 0
65 -64 0
-2 67 -66 0
-67 66 0
-67 2 0
-6 68 -58 0
58 -68 0
6 -68 0
-67 -69 -68 0
68 -69 67 0
67 -68 69 0
-67 68 69 0
-69 -65 -70 0
-70 65 69 0
-65 70 69 0
65 -69 70 0
71 -69 -65 0
-71 69 0
65 -71 0
-67 72 -68 0
-72 67 0
-72 68 0
71 72 -73 0
-71 73 0
73 -72 0
-2 -74 75 0
74 -75 0
2 -75 0
76 -6 -66 0
-76 66 0
-76 6 0
-77 -76 -75 0
-77 76 75 0
-76 75 77 0
76 77 -75 0
-77 -73 -78 0
-78 73 77 0
78 -73 77 0
-77 78 73 0
-77 79 -73 0
-79 77 0
-79 73 0
-76 80 -75 0
-80 75 0
76 -80 0
79 80 -81 0
-79 81 0
81 -80 0
-2 -82 83 0
-83 82 0
-83 2 0
-6 -74 84 0
74 -84 0
-84 6 0
-84 -83 -85 0
84 -85 83 0
-84 85 83 0
-83 85 84 0
-86 -81 -85 0
-86 81 85 0
-81 85 86 0
81 86 -85 0
-81 -85 87 0
85 -87 0
81 -87 0
-84 -83 88 0
-88 83 0
-88 84 0
88 -89 87 0
-87 89 0
-88 89 0
91 -2 -90 0
90 -91 0
-91 2 0
-6 -82 92 0
82 -92 0
6 -92 0
-91 -93 -92 0
91 -93 92 0
91 93 -92 0
-91 92 93 0
-94 -89 -93 0
-94 93 89 0
93 -89 94 0
-93 94 89 0
-89 95 -93 0
93 -95 0
89 -95 0
-91 96 -92 0
91 -96 0
92 -96 0
96 95 -97 0
-95 97 0
-96 97 0
99 -2 -98 0
-99 98 0
-99 2 0
-90 -6 100 0
90 -100 0
6 -100 0
-99 -101 -100 0
99 -101 100 0
99 101 -100 0
-99 101 100 0
-101 -97 -102 0
101 -102 97 0
101 -97 102 0
-101 102 97 0
-101 103 -97 0
101 -103 0
-103 97 0
-99 104 -100 0
99 -104 0
-104 100 0
-105 103 104 0
105 -103 0
-104 105 0
-2 -106 107 0
106 -107 0
-107 2 0
108 -6 -98 0
-108 98 0
6 -108 0
-107 -108 -109 0
108 107 -109 0
-108 109 107 0
108 -107 109 0
-110 -105 -109 0
-110 109 105 0
-105 109 110 0
110 105 -109 0
111 -105 -109 0
109 -111 0
105 -111 0
112 -107 -108 0
107 -112 0
108 -112 0
111 112 -113 0
113 -111 0
113 -112 0
-114 -2 115 0
-115 114 0
2 -115 0
116 -6 -106 0
-116 106 0
-116 6 0
-116 -117 -115 0
116 115 -117 0
-116 115 117 0
116 117 -115 0
-113 -118 -117 0
-118 113 117 0
-113 117 118 0
113 118 -117 0
-113 119 -117 0
-119 117 0
113 -119 0
-116 120 -115 0
115 -120 0
116 -120 0
120 -121 119 0
-119 121 0
121 -120 0
-114 -6 122 0
-122 114 0
6 -122 0
-123 -121 -122 0
122 121 -123 0
123 121 -122 0
-121 122 123 0
-121 124 -122 0
-124 121 0
-124 122 0
126 -1 -125 0
1 -126 0
125 -126 0
-127 -14 -126 0
14 126 -127 0
14 127 -126 0
126 127 -14 0
128 -14 -126 0
14 -128 0
126 -128 0
-4 -125 129 0
-129 4 0
125 -129 0
-130 -129 -22 0
22 -130 129 0
22 130 -129 0
130 -22 129 0
-130 -131 -128 0
130 128 -131 0
130 131 -128 0
-130 128 131 0
-130 132 -128 0
130 -132 0
128 -132 0
-129 -22 133 0
22 -133 0
-133 129 0
132 -134 133 0
134 -132 0
134 -133 0
-125 -10 135 0
10 -135 0
125 -135 0
-136 -135 -30 0
30 -136 135 0
30 -135 136 0
136 135 -30 0
-137 -136 -134 0
136 134 -137 0
136 137 -134 0
-136 134 137 0
-136 -134 138 0
136 -138 0
134 -138 0
-135 139 -30 0
30 -139 0
-139 135 0
-140 138 139 0
-138 140 0
140 -139 0
-18 -125 141 0
18 -141 0
125 -141 0
-142 -141 -38 0
38 -142 141 0
38 142 -141 0
142 141 -38 0
-143 -140 -142 0
-143 142 140 0
142 -140 143 0
143 140 -142 0
144 -140 -142 0
142 -144 0
140 -144 0
145 -141 -38 0
38 -145 0
-145 141 0
-146 145 144 0
-144 146 0
-145 146 0
-26 -125 147 0
-147 26 0
125 -147 0
-147 -46 -148 0
-148 147 46 0
-147 148 46 0
-46 148 147 0
-146 -149 -148 0
-149 148 146 0
-146 149 148 0
149 -148 146 0
-146 150 -148 0
-150 148 0
-150 146 0
151 -147 -46 0
-151 46 0
-151 147 0
151 150 -152 0
-150 152 0
152 -151 0
153 -125 -34 0
-153 34 0
125 -153 0
-153 -54 -154 0
153 -154 54 0
-153 154 54 0
153 -54 154 0
-155 -154 -152 0
-155 154 152 0
-152 154 155 0
-154 155 152 0
-154 -152 156 0
-156 154 0
-156 152 0
-153 -54 157 0
-157 54 0
153 -157 0
157 -158 156 0
-156 158 0
-157 158 0
159 -125 -42 0
-159 42 0
125 -159 0
-62 -159 -160 0
62 159 -160 0
62 -159 160 0
-62 159 160 0
-158 -161 -160 0
-161 160 158 0
161 -158 160 0
158 161 -160 0
-158 162 -160 0
160 -162 0
158 -162 0
-62 -159 163 0
62 -163 0
159 -163 0
-164 162 163 0
164 -162 0
-163 164 0
165 -125 -50 0
-165 50 0
125 -165 0
-166 -165 -70 0
165 -166 70 0
-165 166 70 0
165 166 -70 0
-164 -167 -166 0
164 166 -167 0
-164 166 167 0
164 -166 167 0
-164 -166 168 0
-168 166 0
-168 164 0
169 -165 -70 0
-169 70 0
165 -169 0
-170 168 169 0
-168 170 0
170 -169 0
-125 171 -58 0
58 -171 0
125 -171 0
-172 -171 -78 0
78 171 -172 0
172 78 -171 0
172 171 -78 0
-170 -173 -172 0
172 -173 170 0
172 -170 173 0
170 173 -172 0
-170 174 -172 0
172 -174 0
170 -174 0
175 -171 -78 0
-175 78 0
-175 171 0
175 174 -176 0
176 -174 0
176 -175 0
177 -125 -66 0
-177 66 0
125 -177 0
-177 -86 -178 0
177 86 -178 0
-177 86 178 0
-86 177 178 0
-179 -178 -176 0
176 -179 178 0
179 -176 178 0
176 -178 179 0
180 -178 -176 0
-180 178 0
176 -180 0
-177 -86 181 0
86 -181 0
177 -181 0
180 -182 181 0
-180 182 0
182 -181 0
183 -74 -125 0
74 -183 0
125 -183 0
-94 -184 -183 0
183 -184 94 0
184 94 -183 0
-94 183 184 0
-182 -184 -185 0
182 184 -185 0
185 -182 184 0
185 182 -184 0
-182 186 -184 0
184 -186 0
182 -186 0
-94 187 -183 0
-187 94 0
-187 183 0
-188 186 187 0
188 -186 0
-187 188 0
189 -82 -125 0
-189 82 0
125 -189 0
-189 -190 -102 0
-190 189 102 0
190 -189 102 0
190 189 -102 0
-188 -190 -191 0
190 -191 188 0
190 -188 191 0
-190 188 191 0
-188 -190 192 0
190 -192 0
-192 188 0
-189 193 -102 0
-193 102 0
-193 189 0
-194 193 192 0
194 -192 0
-193 194 0
195 -90 -125 0
90 -195 0
125 -195 0
-110 -195 -196 0
195 -196 110 0
-195 196 110 0
-110 195 196 0
-194 -196 -197 0
194 196 -197 0
196 197 -194 0
194 197 -196 0
-194 -196 198 0
-198 196 0
194 -198 0
-110 -195 199 0
-199 110 0
195 -199 0
199 -200 198 0
-198 200 0
200 -199 0
201 -125 -98 0
-201 98 0
125 -201 0
-202 -201 -118 0
201 -202 118 0
202 -201 118 0
202 201 -118 0
-202 -200 -203 0
202 200 -203 0
202 203 -200 0
200 203 -202 0
-202 -200 204 0
202 -204 0
200 -204 0
205 -201 -118 0
-205 118 0
201 -205 0
-206 205 204 0
206 -204 0
206 -205 0
207 -125 -106 0
106 -207 0
125 -207 0
-123 -207 -208 0
-208 207 123 0
208 -207 123 0
-123 208 207 0
-206 -209 -208 0
206 208 -209 0
-206 208 209 0
206 209 -208 0
-206 210 -208 0
208 -210 0
206 -210 0
-123 211 -207 0
-211 123 0
-211 207 0
211 210 -212 0
212 -210 0
212 -211 0
213 -114 -125 0
-213 114 0
125 -213 0
-213 -214 -124 0
213 124 -214 0
-213 214 124 0
213 214 -124 0
-212 -214 -215 0
214 212 -215 0
-212 214 215 0
212 -214 215 0
-212 216 -214 0
-216 214 0
-216 212 0
-213 217 -124 0
124 -217 0
213 -217 0
217 216 -218 0
-216 218 0
218 -217 0
220 -1 -219 0
1 -220 0
219 -220 0
-131 -221 -220 0
220 131 -221 0
221 131 -220 0
-131 220 221 0
-131 -220 222 0
-222 131 0
220 -222 0
-4 -219 223 0
-223 4 0
-223 219 0
-223 -137 -224 0
137 223 -224 0
-223 137 224 0
224 -137 223 0
-222 -225 -224 0
-225 224 222 0
-222 224 225 0
225 222 -224 0
-222 226 -224 0
-226 224 0
-226 222 0
-223 227 -137 0
-227 137 0
-227 223 0
-228 227 226 0
-226 228 0
-227 228 0
-219 -10 229 0
10 -229 0
219 -229 0
-143 -230 -229 0
-230 143 229 0
-229 230 143 0
230 -143 229 0
-231 -228 -230 0
-231 228 230 0
-228 230 231 0
228 -230 231 0
232 -228 -230 0
230 -232 0
228 -232 0
233 -143 -229 0
143 -233 0
229 -233 0
233 232 -234 0
234 -232 0
234 -233 0
235 -18 -219 0
18 -235 0
-235 219 0
-149 -235 -236 0
-236 235 149 0
236 -235 149 0
-149 235 236 0
-236 -234 -237 0
236 234 -237 0
237 236 -234 0
-236 234 237 0
-236 238 -234 0
236 -238 0
234 -238 0
-149 -235 239 0
-239 149 0
235 -239 0
-240 238 239 0
240 -238 0
-239 240 0
-26 -219 241 0
-241 26 0
219 -241 0
-155 -242 -241 0
-242 155 241 0
242 155 -241 0
-155 241 242 0
-240 -242 -243 0
240 -243 242 0
-240 243 242 0
-242 240 243 0
-240 -242 244 0
-244 242 0
-244 240 0
-155 245 -241 0
155 -245 0
-245 241 0
-246 244 245 0
-244 246 0
-245 246 0
247 -219 -34 0
34 -247 0
219 -247 0
-248 -161 -247 0
247 161 -248 0
161 248 -247 0
247 -161 248 0
-246 -248 -249 0
-249 248 246 0
-246 248 249 0
249 -248 246 0
-246 -248 250 0
-250 248 0
-250 246 0
251 -161 -247 0
-251 161 0
-251 247 0
251 -252 250 0
-250 252 0
-251 252 0
253 -219 -42 0
42 -253 0
-253 219 0
-254 -253 -167 0
-254 253 167 0
254 -253 167 0
254 253 -167 0
-252 -254 -255 0
254 252 -255 0
254 255 -252 0
255 -254 252 0
-252 -254 256 0
254 -256 0
252 -256 0
257 -253 -167 0
-257 167 0
-257 253 0
257 -258 256 0
258 -256 0
-257 258 0
-219 259 -50 0
50 -259 0
219 -259 0
-173 -260 -259 0
259 173 -260 0
260 173 -259 0
260 -173 259 0
-258 -260 -261 0
260 -261 258 0
260 -258 261 0
261 -260 258 0
262 -258 -260 0
260 -262 0
-262 258 0
263 -173 -259 0
173 -263 0
259 -263 0
-264 263 262 0
-262 264 0
264 -263 0
-219 265 -58 0
-265 58 0
-265 219 0
-266 -179 -265 0
179 -266 265 0
179 -265 266 0
-179 265 266 0
-264 -266 -267 0
264 -267 266 0
-264 267 266 0
267 -266 264 0
-264 -266 268 0
-268 266 0
-268 264 0
-179 -265 269 0
179 -269 0
-269 265 0
-270 268 269 0
270 -268 0
270 -269 0
-219 271 -66 0
-271 66 0
-271 219 0
-272 -271 -185 0
185 -272 271 0
272 185 -271 0
271 272 -185 0
-272 -270 -273 0
272 270 -273 0
272 -270 273 0
270 -272 273 0
274 -272 -270 0
272 -274 0
270 -274 0
275 -271 -185 0
185 -275 0
-275 271 0
274 275 -276 0
276 -274 0
276 -275 0
-74 -219 277 0
74 -277 0
219 -277 0
-191 -278 -277 0
-278 277 191 0
278 -277 191 0
-191 277 278 0
-279 -278 -276 0
-279 276 278 0
-276 279 278 0
-278 279 276 0
280 -278 -276 0
-280 278 0
-280 276 0
-191 281 -277 0
-281 191 0
277 -281 0
281 -282 280 0
-280 282 0
282 -281 0
283 -82 -219 0
82 -283 0
219 -283 0
-284 -283 -197 0
283 197 -284 0
284 197 -283 0
283 284 -197 0
-285 -284 -282 0
282 284 -285 0
284 -282 285 0
282 -284 285 0
286 -284 -282 0
284 -286 0
282 -286 0
287 -283 -197 0
-287 197 0
283 -287 0
287 286 -288 0
288 -286 0
288 -287 0
-90 -219 289 0
90 -289 0
-289 219 0
-290 -289 -203 0
-290 203 289 0
-289 290 203 0
290 -203 289 0
-290 -291 -288 0
288 290 -291 0
290 291 -288 0
288 -290 291 0
-290 292 -288 0
290 -292 0
288 -292 0
-289 293 -203 0
203 -293 0
-293 289 0
292 -294 293 0
294 -292 0
294 -293 0
295 -219 -98 0
98 -295 0
219 -295 0
-209 -296 -295 0
295 209 -296 0
296 209 -295 0
295 296 -209 0
-297 -294 -296 0
-297 296 294 0
296 -294 297 0
297 294 -296 0
-294 -296 298 0
-298 296 0
-298 294 0
-209 299 -295 0
-299 209 0
295 -299 0
299 -300 298 0
-298 300 0
300 -299 0
301 -219 -106 0
106 -301 0
-301 219 0
-301 -215 -302 0
301 -302 215 0
302 -301 215 0
302 301 -215 0
-303 -300 -302 0
300 302 -303 0
303 302 -300 0
300 -302 303 0
-300 -302 304 0
302 -304 0
300 -304 0
305 -301 -215 0
-305 215 0
-305 301 0
305 -306 304 0
306 -304 0
306 -305 0
307 -114 -219 0
-307 114 0
-307 219 0
-307 -218 -308 0
218 -308 307 0
-307 218 308 0
-218 308 307 0
-306 -308 -309 0
306 308 -309 0
-306 308 309 0
306 -308 309 0
-306 -308 310 0
308 -310 0
306 -310 0
-307 -218 311 0
218 -311 0
-311 307 0
311 -312 310 0
312 -310 0
312 -311 0
-313 314 -1 0
1 -314 0
313 -314 0
-225 -314 -315 0
314 225 -315 0
-314 225 315 0
-225 314 315 0
-225 316 -314 0
-316 225 0
-316 314 0
-313 -4 317 0
-317 4 0
313 -317 0
-231 -317 -318 0
-318 231 317 0
318 -317 231 0
-231 318 317 0
-319 -316 -318 0
318 316 -319 0
318 -316 319 0
316 -318 319 0
-316 320 -318 0
318 -320 0
-320 316 0
-231 -317 321 0
-321 231 0
-321 317 0
321 320 -322 0
-320 322 0
322 -321 0
-313 323 -10 0
10 -323 0
-323 313 0
-324 -323 -237 0
-324 323 237 0
-323 324 237 0
324 323 -237 0
-324 -325 -322 0
-325 324 322 0
324 325 -322 0
-324 322 325 0
-324 326 -322 0
324 -326 0
-326 322 0
-323 327 -237 0
-327 237 0
-327 323 0
326 -328 327 0
-326 328 0
-327 328 0
-313 329 -18 0
18 -329 0
-329 313 0
-329 -330 -243 0
329 243 -330 0
-329 330 243 0
329 330 -243 0
-330 -328 -331 0
330 -331 328 0
331 -328 330 0
331 -330 328 0
332 -330 -328 0
-332 330 0
-332 328 0
-329 333 -243 0
-333 243 0
329 -333 0
333 -334 332 0
334 -332 0
334 -333 0
-26 -313 335 0
-335 26 0
-335 313 0
-249 -336 -335 0
-336 335 249 0
336 -335 249 0
-249 336 335 0
-336 -334 -337 0
336 334 -337 0
336 337 -334 0
334 -336 337 0
338 -336 -334 0
336 -338 0
334 -338 0
-249 -335 339 0
-339 249 0
-339 335 0
339 338 -340 0
-338 340 0
-339 340 0
-313 -34 341 0
34 -341 0
313 -341 0
-342 -341 -255 0
255 -342 341 0
255 -341 342 0
342 -255 341 0
-340 -342 -343 0
-343 340 342 0
-340 343 342 0
343 -342 340 0
-340 -342 344 0
-344 342 0
-344 340 0
345 -341 -255 0
255 -345 0
-345 341 0
345 -346 344 0
346 -344 0
-345 346 0
-313 347 -42 0
-347 42 0
-347 313 0
-347 -261 -348 0
347 -348 261 0
348 -347 261 0
348 347 -261 0
-349 -346 -348 0
-349 348 346 0
349 -346 348 0
349 -348 346 0
-346 350 -348 0
348 -350 0
-350 346 0
-347 351 -261 0
-351 261 0
347 -351 0
351 350 -352 0
-350 352 0
-351 352 0
353 -313 -50 0
-353 50 0
-353 313 0
-354 -353 -267 0
267 353 -354 0
267 354 -353 0
353 354 -267 0
-355 -352 -354 0
-355 354 352 0
354 -352 355 0
352 355 -354 0
356 -352 -354 0
354 -356 0
-356 352 0
-353 357 -267 0
267 -357 0
353 -357 0
356 357 -358 0
-356 358 0
-357 358 0
359 -313 -58 0
-359 58 0
-359 313 0
-359 -360 -273 0
359 -360 273 0
-359 273 360 0
359 360 -273 0
-358 -361 -360 0
358 -361 360 0
-358 361 360 0
361 358 -360 0
-358 362 -360 0
-362 360 0
-362 358 0
-359 363 -273 0
-363 273 0
359 -363 0
-364 363 362 0
-362 364 0
-363 364 0
-313 365 -66 0
-365 66 0
-365 313 0
-365 -279 -366 0
-366 279 365 0
-365 366 279 0
366 -279 365 0
-366 -364 -367 0
366 364 -367 0
366 367 -364 0
367 -366 364 0
-366 -364 368 0
366 -368 0
364 -368 0
-365 -279 369 0
-369 279 0
-369 365 0
-370 369 368 0
370 -368 0
-369 370 0
-313 371 -74 0
74 -371 0
313 -371 0
-372 -285 -371 0
-372 371 285 0
372 285 -371 0
372 371 -285 0
-370 -372 -373 0
372 370 -373 0
-370 372 373 0
-372 370 373 0
-370 -372 374 0
372 -374 0
370 -374 0
-285 375 -371 0
-375 285 0
-375 371 0
374 -376 375 0
376 -374 0
-375 376 0
-313 377 -82 0
-377 82 0
-377 313 0
-377 -291 -378 0
-378 377 291 0
-377 378 291 0
378 377 -291 0
-378 -376 -379 0
378 -379 376 0
-376 378 379 0
-378 376 379 0
-378 -376 380 0
378 -380 0
376 -380 0
-377 -291 381 0
291 -381 0
377 -381 0
-382 381 380 0
-380 382 0
382 -381 0
-313 -90 383 0
90 -383 0
313 -383 0
-297 -383 -384 0
383 297 -384 0
384 -383 297 0
-297 384 383 0
-385 -382 -384 0
-385 384 382 0
385 -382 384 0
385 382 -384 0
386 -382 -384 0
-386 384 0
-386 382 0
-297 -383 387 0
297 -387 0
383 -387 0
-388 386 387 0
388 -386 0
388 -387 0
389 -313 -98 0
-389 98 0
-389 313 0
-303 -390 -389 0
303 -390 389 0
303 -389 390 0
389 -303 390 0
-388 -390 -391 0
388 390 -391 0
390 -388 391 0
388 -390 391 0
-388 -390 392 0
390 -392 0
388 -392 0
-303 393 -389 0
303 -393 0
389 -393 0
-394 393 392 0
-392 394 0
-393 394 0
395 -313 -106 0
106 -395 0
313 -395 0
-395 -396 -309 0
395 309 -396 0
-395 309 396 0
395 396 -309 0
-397 -394 -396 0
-397 396 394 0
397 -394 396 0
397 -396 394 0
398 -394 -396 0
396 -398 0
-398 394 0
399 -395 -309 0
-399 309 0
-399 395 0
398 -400 399 0
400 -398 0
-399 400 0
-114 -313 401 0
-401 114 0
313 -401 0
-402 -312 -401 0
312 -402 401 0
312 402 -401 0
402 401 -312 0
-402 -403 -400 0
402 -403 400 0
403 402 -400 0
-402 400 403 0
-402 404 -400 0
402 -404 0
400 -404 0
405 -312 -401 0
312 -405 0
401 -405 0
405 404 -406 0
406 -404 0
406 -405 0
-407 408 -1 0
1 -408 0
407 -408 0
-319 -409 -408 0
408 -409 319 0
409 -408 319 0
-319 409 408 0
-319 410 -408 0
-410 319 0
408 -410 0
-407 -4 411 0
-411 4 0
407 -411 0
-412 -325 -411 0
-412 411 325 0
-411 325 412 0
-325 412 411 0
-412 -413 -410 0
410 -413 412 0
413 -410 412 0
-412 413 410 0
-412 414 -410 0
-414 412 0
410 -414 0
-325 -411 415 0
-415 325 0
-415 411 0
414 415 -416 0
-414 416 0
416 -415 0
-407 -10 417 0
10 -417 0
407 -417 0
-418 -417 -331 0
-418 331 417 0
331 -417 418 0
418 -331 417 0
-418 -416 -419 0
-419 416 418 0
419 -416 418 0
-418 416 419 0
-418 -416 420 0
-420 418 0
-420 416 0
-417 421 -331 0
331 -421 0
-421 417 0
-422 421 420 0
422 -420 0
422 -421 0
-407 423 -18 0
18 -423 0
407 -423 0
-424 -423 -337 0
337 423 -424 0
337 424 -423 0
424 423 -337 0
-422 -424 -425 0
422 424 -425 0
425 -422 424 0
425 422 -424 0
-422 -424 426 0
424 -426 0
422 -426 0
427 -423 -337 0
-427 337 0
-427 423 0
-428 427 426 0
-426 428 0
-427 428 0
-407 -26 429 0
-429 26 0
407 -429 0
-343 -430 -429 0
343 429 -430 0
343 430 -429 0
-343 430 429 0
-428 -431 -430 0
430 -431 428 0
-428 430 431 0
431 -430 428 0
-428 432 -430 0
-432 430 0
-432 428 0
-343 433 -429 0
343 -433 0
-433 429 0
432 -434 433 0
-432 434 0
434 -433 0
-407 435 -34 0
34 -435 0
407 -435 0
-349 -435 -436 0
349 -436 435 0
349 -435 436 0
-349 436 435 0
-434 -436 -437 0
434 436 -437 0
-434 437 436 0
434 437 -436 0
438 -434 -436 0
-438 436 0
434 -438 0
-349 439 -435 0
349 -439 0
-439 435 0
438 -440 439 0
440 -438 0
440 -439 0
-407 441 -42 0
42 -441 0
407 -441 0
-442 -355 -441 0
-442 441 355 0
442 -441 355 0
442 -355 441 0
-440 -442 -443 0
-443 440 442 0
-440 442 443 0
-442 440 443 0
-440 -442 444 0
442 -444 0
440 -444 0
-355 -441 445 0
-445 355 0
-445 441 0
445 -446 444 0
-444 446 0
-445 446 0
-407 -50 447 0
-447 50 0
407 -447 0
-361 -447 -448 0
361 447 -448 0
361 -447 448 0
-361 447 448 0
-449 -446 -448 0
-449 446 448 0
449 -446 448 0
449 446 -448 0
-446 450 -448 0
-450 448 0
-450 446 0
-361 -447 451 0
361 -451 0
-451 447 0
450 451 -452 0
-450 452 0
-451 452 0
-407 453 -58 0
58 -453 0
407 -453 0
-454 -453 -367 0
367 -454 453 0
454 367 -453 0
454 453 -367 0
-454 -455 -452 0
454 -455 452 0
454 455 -452 0
-454 455 452 0
456 -454 -452 0
454 -456 0
-456 452 0
457 -453 -367 0
367 -457 0
453 -457 0
456 457 -458 0
-456 458 0
-457 458 0
-407 459 -66 0
-459 66 0
407 -459 0
-459 -373 -460 0
-460 373 459 0
460 -459 373 0
460 -373 459 0
-461 -460 -458 0
460 458 -461 0
460 461 -458 0
458 461 -460 0
462 -460 -458 0
-462 460 0
-462 458 0
-459 -373 463 0
373 -463 0
-463 459 0
462 463 -464 0
-462 464 0
464 -463 0
-407 465 -74 0
-465 74 0
-465 407 0
-465 -379 -466 0
465 379 -466 0
-465 466 379 0
465 466 -379 0
-467 -464 -466 0
-467 464 466 0
467 466 -464 0
467 464 -466 0
-464 -466 468 0
-468 466 0
-468 464 0
-465 -379 469 0
-469 379 0
465 -469 0
-470 469 468 0
-468 470 0
-469 470 0
-407 471 -82 0
82 -471 0
407 -471 0
-472 -471 -385 0
471 385 -472 0
472 385 -471 0
471 472 -385 0
-473 -472 -470 0
472 -473 470 0
472 -470 473 0
-472 470 473 0
-472 -470 474 0
472 -474 0
-474 470 0
475 -471 -385 0
385 -475 0
471 -475 0
475 474 -476 0
476 -474 0
476 -475 0
-407 -90 477 0
90 -477 0
407 -477 0
-478 -477 -391 0
-478 391 477 0
-477 391 478 0
478 -391 477 0
-476 -478 -479 0
476 478 -479 0
-476 479 478 0
476 479 -478 0
-476 -478 480 0
-480 478 0
476 -480 0
481 -477 -391 0
-481 391 0
-481 477 0
481 480 -482 0
-480 482 0
-481 482 0
-407 483 -98 0
98 -483 0
407 -483 0
-397 -484 -483 0
483 397 -484 0
397 484 -483 0
484 483 -397 0
-485 -482 -484 0
482 484 -485 0
485 484 -482 0
482 485 -484 0
486 -482 -484 0
484 -486 0
482 -486 0
487 -397 -483 0
397 -487 0
483 -487 0
487 -488 486 0
488 -486 0
-487 488 0
-407 489 -106 0
106 -489 0
407 -489 0
-490 -489 -403 0
489 -490 403 0
-489 490 403 0
489 490 -403 0
-490 -491 -488 0
-491 488 490 0
491 -488 490 0
491 -490 488 0
-490 492 -488 0
-492 490 0
-492 488 0
493 -489 -403 0
-493 403 0
489 -493 0
493 492 -494 0
-492 494 0
-493 494 0
-407 -114 495 0
-495 114 0
407 -495 0
-496 -495 -406 0
-496 406 495 0
496 406 -495 0
496 495 -406 0
-496 -497 -494 0
496 -497 494 0
496 497 -494 0
-496 497 494 0
-496 498 -494 0
496 -498 0
-498 494 0
499 -495 -406 0
-499 406 0
-499 495 0
499 498 -500 0
-498 500 0
-499 500 0
-501 -1 502 0
1 -502 0
501 -502 0
-413 -503 -502 0
-503 502 413 0
503 413 -502 0
-413 502 503 0
-413 504 -502 0
413 -504 0
502 -504 0
-501 -4 505 0
-505 4 0
-505 501 0
-419 -505 -506 0
419 505 -506 0
506 419 -505 0
506 -419 505 0
-507 -504 -506 0
506 -507 504 0
506 507 -504 0
507 504 -506 0
508 -504 -506 0
506 -508 0
504 -508 0
-419 -505 509 0
-509 419 0
-509 505 0
509 508 -510 0
510 -508 0
-509 510 0
-501 -10 511 0
10 -511 0
-511 501 0
-512 -511 -425 0
425 -512 511 0
425 -511 512 0
512 511 -425 0
-512 -513 -510 0
510 -513 512 0
513 -510 512 0
-512 513 510 0
-512 514 -510 0
-514 512 0
-514 510 0
515 -511 -425 0
425 -515 0
-515 511 0
515 -516 514 0
516 -514 0
516 -515 0
-501 517 -18 0
18 -517 0
-517 501 0
-518 -431 -517 0
431 517 -518 0
431 -517 518 0
517 -431 518 0
-516 -518 -519 0
-519 516 518 0
-516 519 518 0
519 -518 516 0
-516 -518 520 0
-520 518 0
-520 516 0
521 -431 -517 0
431 -521 0
517 -521 0
521 520 -522 0
522 -520 0
522 -521 0
-26 -501 523 0
-523 26 0
-523 501 0
-523 -524 -437 0
437 -524 523 0
437 -523 524 0
523 524 -437 0
-525 -524 -522 0
-525 522 524 0
525 524 -522 0
525 522 -524 0
526 -524 -522 0
524 -526 0
522 -526 0
527 -523 -437 0
437 -527 0
-527 523 0
526 527 -528 0
528 -526 0
528 -527 0
529 -501 -34 0
34 -529 0
-529 501 0
-530 -443 -529 0
529 -530 443 0
530 -529 443 0
529 -443 530 0
-528 -531 -530 0
528 530 -531 0
-528 530 531 0
528 -530 531 0
-528 -530 532 0
-532 530 0
-532 528 0
533 -443 -529 0
443 -533 0
529 -533 0
533 -534 532 0
-532 534 0
534 -533 0
-501 -42 535 0
42 -535 0
-535 501 0
-449 -536 -535 0
535 -536 449 0
536 -535 449 0
-449 536 535 0
-537 -534 -536 0
536 534 -537 0
536 -534 537 0
534 537 -536 0
-534 -536 538 0
536 -538 0
-538 534 0
-449 539 -535 0
-539 449 0
-539 535 0
-540 539 538 0
540 -538 0
540 -539 0
-501 541 -50 0
50 -541 0
501 -541 0
-542 -455 -541 0
541 -542 455 0
542 455 -541 0
541 -455 542 0
-540 -543 -542 0
540 -543 542 0
-540 542 543 0
540 -542 543 0
-540 -542 544 0
542 -544 0
540 -544 0
545 -455 -541 0
-545 455 0
-545 541 0
545 -546 544 0
546 -544 0
-545 546 0
-501 547 -58 0
58 -547 0
-547 501 0
-461 -548 -547 0
461 -548 547 0
461 -547 548 0
-461 547 548 0
-546 -548 -549 0
-549 546 548 0
-546 549 548 0
549 -548 546 0
-546 -548 550 0
-550 548 0
546 -550 0
-461 551 -547 0
461 -551 0
-551 547 0
-552 550 551 0
552 -550 0
-551 552 0
-501 553 -66 0
-553 66 0
-553 501 0
-554 -467 -553 0
-554 467 553 0
467 554 -553 0
-467 554 553 0
-554 -552 -555 0
-555 554 552 0
-552 555 554 0
-554 555 552 0
-554 -552 556 0
-556 554 0
-556 552 0
-467 -553 557 0
467 -557 0
553 -557 0
557 -558 556 0
-556 558 0
558 -557 0
-501 -74 559 0
74 -559 0
-559 501 0
-473 -559 -560 0
-560 559 473 0
-559 560 473 0
-473 560 559 0
-558 -561 -560 0
-561 558 560 0
561 -558 560 0
561 558 -560 0
562 -558 -560 0
-562 560 0
-562 558 0
-473 -559 563 0
-563 473 0
559 -563 0
562 -564 563 0
-562 564 0
564 -563 0
-501 -82 565 0
-565 82 0
-565 501 0
-479 -565 -566 0
479 -566 565 0
566 479 -565 0
-479 566 565 0
-566 -567 -564 0
564 -567 566 0
566 567 -564 0
-566 567 564 0
-566 568 -564 0
-568 566 0
564 -568 0
-479 -565 569 0
479 -569 0
-569 565 0
569 -570 568 0
570 -568 0
570 -569 0
-501 -90 571 0
90 -571 0
-571 501 0
-572 -571 -485 0
485 -572 571 0
485 572 -571 0
571 572 -485 0
-572 -570 -573 0
570 -573 572 0
573 -570 572 0
570 -572 573 0
574 -572 -570 0
572 -574 0
570 -574 0
575 -571 -485 0
485 -575 0
-575 571 0
574 575 -576 0
576 -574 0
-575 576 0
577 -501 -98 0
98 -577 0
501 -577 0
-578 -491 -577 0
577 -578 491 0
578 491 -577 0
577 578 -491 0
-578 -579 -576 0
578 -579 576 0
578 579 -576 0
-578 579 576 0
-578 580 -576 0
578 -580 0
-580 576 0
581 -491 -577 0
491 -581 0
577 -581 0
581 -582 580 0
-580 582 0
-581 582 0
-501 583 -106 0
-583 106 0
-583 501 0
-583 -497 -584 0
497 -584 583 0
-583 584 497 0
584 583 -497 0
-585 -582 -584 0
-585 584 582 0
584 -582 585 0
585 -584 582 0
-582 -584 586 0
584 -586 0
-586 582 0
587 -583 -497 0
497 -587 0
583 -587 0
587 -588 586 0
588 -586 0
-587 588 0
-114 -501 589 0
-589 114 0
501 -589 0
-500 -590 -589 0
-590 500 589 0
590 500 -589 0
590 -500 589 0
-588 -591 -590 0
590 588 -591 0
590 -588 591 0
591 588 -590 0
-588 592 -590 0
590 -592 0
-592 588 0
-500 593 -589 0
500 -593 0
589 -593 0
-594 592 593 0
594 -592 0
594 -593 0
596 -595 -1 0
1 -596 0
-596 595 0
-507 -596 -597 0
596 507 -597 0
597 -596 507 0
597 -507 596 0
-507 -596 598 0
-598 507 0
-598 596 0
-595 -4 599 0
4 -599 0
595 -599 0
-600 -513 -599 0
513 -600 599 0
600 513 -599 0
600 -513 599 0
-601 -598 -600 0
600 -601 598 0
601 600 -598 0
601 -600 598 0
-598 -600 602 0
600 -602 0
-602 598 0
603 -513 -599 0
513 -603 0
-603 599 0
-604 603 602 0
604 -602 0
-603 604 0
-595 605 -10 0
10 -605 0
-605 595 0
-605 -606 -519 0
519 605 -606 0
-605 519 606 0
605 606 -519 0
-604 -606 -607 0
606 604 -607 0
-604 606 607 0
-606 604 607 0
-604 608 -606 0
606 -608 0
604 -608 0
-605 609 -519 0
-609 519 0
-609 605 0
608 609 -610 0
610 -608 0
610 -609 0
-595 -18 611 0
18 -611 0
-611 595 0
-611 -525 -612 0
525 611 -612 0
-611 525 612 0
612 -525 611 0
-610 -613 -612 0
612 610 -613 0
612 -610 613 0
610 613 -612 0
614 -610 -612 0
612 -614 0
610 -614 0
-611 -525 615 0
525 -615 0
-615 611 0
614 -616 615 0
-614 616 0
-615 616 0
-26 617 -595 0
-617 26 0
-617 595 0
-618 -531 -617 0
-618 617 531 0
-617 618 531 0
-531 617 618 0
-618 -619 -616 0
-619 616 618 0
619 618 -616 0
-618 616 619 0
620 -618 -616 0
-620 618 0
-620 616 0
-531 621 -617 0
-621 531 0
-621 617 0
620 -622 621 0
-620 622 0
-621 622 0
-595 623 -34 0
34 -623 0
-623 595 0
-537 -623 -624 0
-624 623 537 0
-623 537 624 0
-537 623 624 0
-622 -625 -624 0
-625 622 624 0
-622 625 624 0
622 -624 625 0
-622 626 -624 0
-626 624 0
622 -626 0
627 -537 -623 0
-627 537 0
-627 623 0
627 626 -628 0
628 -626 0
-627 628 0
629 -595 -42 0
42 -629 0
595 -629 0
-630 -543 -629 0
629 -630 543 0
630 543 -629 0
629 -543 630 0
-630 -631 -628 0
-631 628 630 0
631 630 -628 0
-630 631 628 0
-630 632 -628 0
-632 630 0
-632 628 0
-543 633 -629 0
-633 543 0
629 -633 0
632 633 -634 0
-632 634 0
-633 634 0
-595 -50 635 0
-635 50 0
-635 595 0
-635 -636 -549 0
635 -636 549 0
-635 636 549 0
636 635 -549 0
-636 -637 -634 0
636 634 -637 0
637 636 -634 0
-636 634 637 0
638 -636 -634 0
636 -638 0
634 -638 0
-635 639 -549 0
-639 549 0
-639 635 0
638 -640 639 0
640 -638 0
640 -639 0
-595 641 -58 0
-641 58 0
-641 595 0
-642 -641 -555 0
641 -642 555 0
-641 555 642 0
641 -555 642 0
-642 -640 -643 0
640 -643 642 0
643 -640 642 0
640 643 -642 0
644 -642 -640 0
-644 642 0
640 -644 0
-641 -555 645 0
555 -645 0
641 -645 0
644 645 -646 0
-644 646 0
646 -645 0
647 -595 -66 0
-647 66 0
-647 595 0
-648 -647 -561 0
647 561 -648 0
561 648 -647 0
647 648 -561 0
-649 -648 -646 0
-649 648 646 0
648 649 -646 0
-648 646 649 0
-648 650 -646 0
-650 648 0
-650 646 0
651 -647 -561 0
561 -651 0
647 -651 0
651 -652 650 0
652 -650 0
652 -651 0
-595 653 -74 0
74 -653 0
-653 595 0
-653 -567 -654 0
653 567 -654 0
654 -653 567 0
654 653 -567 0
-652 -655 -654 0
652 654 -655 0
654 -652 655 0
652 655 -654 0
-652 656 -654 0
654 -656 0
652 -656 0
657 -653 -567 0
-657 567 0
-657 653 0
657 656 -658 0
658 -656 0
-657 658 0
-595 659 -82 0
82 -659 0
595 -659 0
-573 -659 -660 0
573 659 -660 0
573 660 -659 0
659 -573 660 0
-660 -661 -658 0
658 -661 660 0
660 -658 661 0
658 -660 661 0
-660 662 -658 0
-662 660 0
658 -662 0
-573 663 -659 0
573 -663 0
659 -663 0
-664 663 662 0
664 -662 0
664 -663 0
-595 -90 665 0
90 -665 0
595 -665 0
-579 -666 -665 0
579 665 -666 0
666 579 -665 0
666 -579 665 0
-667 -664 -666 0
666 664 -667 0
666 -664 667 0
664 667 -666 0
668 -664 -666 0
666 -668 0
-668 664 0
669 -579 -665 0
-669 579 0
-669 665 0
669 668 -670 0
-668 670 0
-669 670 0
-595 -98 671 0
98 -671 0
595 -671 0
-585 -672 -671 0
-672 585 671 0
672 585 -671 0
-585 672 671 0
-670 -673 -672 0
672 670 -673 0
672 -670 673 0
673 670 -672 0
674 -670 -672 0
-674 672 0
-674 670 0
-585 675 -671 0
-675 585 0
-675 671 0
-676 674 675 0
-674 676 0
-675 676 0
677 -595 -106 0
106 -677 0
-677 595 0
-677 -678 -591 0
591 -678 677 0
591 678 -677 0
678 -591 677 0
-676 -679 -678 0
678 676 -679 0
-676 678 679 0
676 -678 679 0
-676 -678 680 0
678 -680 0
676 -680 0
681 -677 -591 0
591 -681 0
-681 677 0
681 -682 680 0
682 -680 0
682 -681 0
-114 683 -595 0
-683 114 0
-683 595 0
-594 -684 -683 0
683 594 -684 0
684 594 -683 0
-594 684 683 0
-682 -684 -685 0
-685 684 682 0
-682 684 685 0
-684 685 682 0
-682 -684 686 0
684 -686 0
-686 682 0
-594 687 -683 0
594 -687 0
683 -687 0
687 -688 686 0
688 -686 0
688 -687 0
690 -1 -689 0
1 -690 0
689 -690 0
-691 -601 -690 0
601 690 -691 0
601 691 -690 0
-601 690 691 0
-601 692 -690 0
601 -692 0
-692 690 0
693 -4 -689 0
4 -693 0
-693 689 0
-694 -693 -607 0
693 -694 607 0
694 -693 607 0
693 694 -607 0
-692 -694 -695 0
694 -695 692 0
-692 694 695 0
-694 695 692 0
-692 -694 696 0
-696 694 0
-696 692 0
697 -693 -607 0
-697 607 0
693 -697 0
697 -698 696 0
-696 698 0
-697 698 0
699 -689 -10 0
10 -699 0
-699 689 0
-700 -699 -613 0
699 -700 613 0
700 613 -699 0
699 700 -613 0
-700 -701 -698 0
698 700 -701 0
700 701 -698 0
698 -700 701 0
702 -700 -698 0
-702 700 0
-702 698 0
-699 703 -613 0
613 -703 0
699 -703 0
702 703 -704 0
-702 704 0
704 -703 0
705 -18 -689 0
18 -705 0
-705 689 0
-705 -706 -619 0
705 -706 619 0
706 -705 619 0
705 706 -619 0
-707 -706 -704 0
706 -707 704 0
706 -704 707 0
-706 704 707 0
708 -706 -704 0
706 -708 0
704 -708 0
709 -705 -619 0
-709 619 0
705 -709 0
709 708 -710 0
-708 710 0
-709 710 0
-26 711 -689 0
-711 26 0
689 -711 0
-712 -625 -711 0
711 -712 625 0
712 -711 625 0
712 711 -625 0
-713 -712 -710 0
712 -713 710 0
712 713 -710 0
713 -712 710 0
714 -712 -710 0
712 -714 0
710 -714 0
-625 715 -711 0
-715 625 0
711 -715 0
-716 714 715 0
716 -714 0
-715 716 0
-689 -34 717 0
-717 34 0
-717 689 0
-717 -631 -718 0
631 -718 717 0
-717 631 718 0
-631 718 717 0
-716 -718 -719 0
-719 718 716 0
-716 718 719 0
-718 716 719 0
-716 720 -718 0
718 -720 0
-720 716 0
-717 -631 721 0
631 -721 0
-721 717 0
720 721 -722 0
-720 722 0
-721 722 0
723 -689 -42 0
-723 42 0
-723 689 0
-723 -724 -637 0
723 -724 637 0
-723 724 637 0
723 724 -637 0
-722 -725 -724 0
-725 724 722 0
725 -722 724 0
725 -724 722 0
726 -722 -724 0
-726 724 0
-726 722 0
-723 727 -637 0
-727 637 0
723 -727 0
726 -728 727 0
728 -726 0
-727 728 0
-689 729 -50 0
-729 50 0
-729 689 0
-729 -730 -643 0
643 -730 729 0
-729 643 730 0
730 729 -643 0
-728 -730 -731 0
728 730 -731 0
-728 730 731 0
728 -730 731 0
-728 -730 732 0
730 -732 0
728 -732 0
-729 733 -643 0
643 -733 0
-733 729 0
-734 732 733 0
734 -732 0
-733 734 0
735 -689 -58 0
-735 58 0
-735 689 0
-649 -735 -736 0
735 649 -736 0
736 -735 649 0
-649 736 735 0
-736 -737 -734 0
-737 736 734 0
736 -734 737 0
-736 737 734 0
-736 738 -734 0
-738 736 0
-738 734 0
-649 739 -735 0
-739 649 0
-739 735 0
738 739 -740 0
-738 740 0
-739 740 0
741 -689 -66 0
-741 66 0
-741 689 0
-742 -741 -655 0
-742 655 741 0
655 -741 742 0
741 742 -655 0
-742 -740 -743 0
740 742 -743 0
-740 742 743 0
-742 740 743 0
-742 744 -740 0
-744 742 0
740 -744 0
-741 -655 745 0
655 -745 0
741 -745 0
-746 744 745 0
746 -744 0
746 -745 0
-74 -689 747 0
74 -747 0
689 -747 0
-748 -661 -747 0
-748 747 661 0
-747 748 661 0
748 -661 747 0
-746 -748 -749 0
746 748 -749 0
-746 748 749 0
746 -748 749 0
-746 -748 750 0
-750 748 0
746 -750 0
-661 751 -747 0
-751 661 0
-751 747 0
-752 751 750 0
752 -750 0
752 -751 0
753 -82 -689 0
-753 82 0
-753 689 0
-667 -753 -754 0
753 667 -754 0
-753 667 754 0
-667 753 754 0
-752 -755 -754 0
752 754 -755 0
754 755 -752 0
752 755 -754 0
756 -752 -754 0
754 -756 0
752 -756 0
-667 -753 757 0
-757 667 0
753 -757 0
-758 756 757 0
758 -756 0
758 -757 0
759 -90 -689 0
90 -759 0
-759 689 0
-760 -673 -759 0
759 -760 673 0
760 -759 673 0
759 760 -673 0
-760 -758 -761 0
-761 758 760 0
-758 761 760 0
-760 758 761 0
-760 -758 762 0
-762 760 0
-762 758 0
-673 -759 763 0
-763 673 0
759 -763 0
762 -764 763 0
-762 764 0
764 -763 0
-689 -98 765 0
-765 98 0
-765 689 0
-766 -679 -765 0
-766 765 679 0
766 -765 679 0
766 -679 765 0
-766 -764 -767 0
766 764 -767 0
766 767 -764 0
-766 767 764 0
-766 768 -764 0
766 -768 0
764 -768 0
769 -679 -765 0
-769 679 0
765 -769 0
769 -770 768 0
770 -768 0
770 -769 0
771 -689 -106 0
106 -771 0
-771 689 0
-685 -772 -771 0
771 685 -772 0
685 772 -771 0
-685 771 772 0
-773 -770 -772 0
-773 770 772 0
773 -770 772 0
773 770 -772 0
-770 -772 774 0
-774 772 0
-774 770 0
-685 775 -771 0
-775 685 0
771 -775 0
775 774 -776 0
776 -774 0
776 -775 0
777 -114 -689 0
-777 114 0
-777 689 0
-778 -688 -777 0
777 688 -778 0
688 -777 778 0
777 -688 778 0
-779 -778 -776 0
776 -779 778 0
779 -776 778 0
776 779 -778 0
-778 780 -776 0
-780 778 0
776 -780 0
781 -688 -777 0
-781 688 0
777 -781 0
-782 781 780 0
-780 782 0
-781 782 0
784 -783 -1 0
1 -784 0
-784 783 0
-785 -784 -695 0
784 695 -785 0
-784 785 695 0
784 785 -695 0
-784 786 -695 0
-786 695 0
784 -786 0
-4 -783 787 0
-787 4 0
783 -787 0
-787 -788 -701 0
701 787 -788 0
-787 788 701 0
788 787 -701 0
-789 -786 -788 0
-789 786 788 0
-786 789 788 0
789 786 -788 0
-786 -788 790 0
-790 788 0
-790 786 0
791 -787 -701 0
-791 701 0
-791 787 0
791 790 -792 0
792 -790 0
-791 792 0
-783 793 -10 0
10 -793 0
783 -793 0
-707 -793 -794 0
-794 793 707 0
794 -793 707 0
794 -707 793 0
-795 -794 -792 0
792 794 -795 0
794 795 -792 0
792 -794 795 0
796 -794 -792 0
794 -796 0
792 -796 0
797 -707 -793 0
-797 707 0
793 -797 0
796 797 -798 0
798 -796 0
798 -797 0
799 -783 -18 0
18 -799 0
-799 783 0
-799 -713 -800 0
713 799 -800 0
713 -799 800 0
799 -713 800 0
-801 -800 -798 0
-801 798 800 0
801 800 -798 0
801 798 -800 0
802 -800 -798 0
800 -802 0
798 -802 0
-799 -713 803 0
713 -803 0
799 -803 0
802 -804 803 0
804 -802 0
804 -803 0
-26 -783 805 0
-805 26 0
783 -805 0
-719 -805 -806 0
-806 719 805 0
806 -805 719 0
-719 806 805 0
-804 -807 -806 0
806 804 -807 0
-804 806 807 0
804 807 -806 0
-804 808 -806 0
806 -808 0
804 -808 0
-719 -805 809 0
719 -809 0
-809 805 0
808 809 -810 0
810 -808 0
810 -809 0
-783 811 -34 0
34 -811 0
783 -811 0
-725 -811 -812 0
811 725 -812 0
812 -811 725 0
811 812 -725 0
-813 -810 -812 0
810 -813 812 0
813 812 -810 0
810 813 -812 0
814 -810 -812 0
-814 812 0
810 -814 0
-725 815 -811 0
-815 725 0
-815 811 0
814 815 -816 0
-814 816 0
-815 816 0
817 -783 -42 0
-817 42 0
783 -817 0
-818 -817 -731 0
817 731 -818 0
818 -817 731 0
817 818 -731 0
-818 -819 -816 0
818 -819 816 0
818 819 -816 0
-818 819 816 0
-818 820 -816 0
818 -820 0
-820 816 0
-817 821 -731 0
-821 731 0
817 -821 0
820 821 -822 0
822 -820 0
822 -821 0
-783 -50 823 0
-823 50 0
783 -823 0
-737 -823 -824 0
-824 737 823 0
-823 737 824 0
-737 824 823 0
-825 -822 -824 0
822 -825 824 0
825 -822 824 0
822 825 -824 0
826 -822 -824 0
-826 824 0
822 -826 0
-737 827 -823 0
737 -827 0
-827 823 0
827 -828 826 0
-826 828 0
828 -827 0
829 -783 -58 0
-829 58 0
-829 783 0
-829 -830 -743 0
-830 829 743 0
830 -829 743 0
830 829 -743 0
-831 -828 -830 0
830 -831 828 0
830 831 -828 0
831 828 -830 0
-828 832 -830 0
830 -832 0
-832 828 0
833 -829 -743 0
-833 743 0
829 -833 0
-834 832 833 0
834 -832 0
834 -833 0
835 -783 -66 0
-835 66 0
-835 783 0
-835 -836 -749 0
835 -836 749 0
-835 836 749 0
836 835 -749 0
-836 -834 -837 0
834 836 -837 0
836 -834 837 0
834 -836 837 0
838 -836 -834 0
-838 836 0
834 -838 0
-835 839 -749 0
-839 749 0
-839 835 0
839 838 -840 0
-838 840 0
-839 840 0
-783 -74 841 0
-841 74 0
-841 783 0
-841 -842 -755 0
-842 755 841 0
-841 755 842 0
842 841 -755 0
-843 -842 -840 0
-843 840 842 0
843 -840 842 0
-842 840 843 0
844 -842 -840 0
-844 842 0
-844 840 0
-841 845 -755 0
755 -845 0
841 -845 0
845 -846 844 0
-844 846 0
846 -845 0
847 -783 -82 0
82 -847 0
783 -847 0
-848 -761 -847 0
847 761 -848 0
848 761 -847 0
848 847 -761 0
-846 -848 -849 0
848 846 -849 0
848 849 -846 0
849 -848 846 0
-846 850 -848 0
848 -850 0
-850 846 0
851 -761 -847 0
761 -851 0
847 -851 0
-852 850 851 0
-850 852 0
852 -851 0
-90 -783 853 0
90 -853 0
783 -853 0
-767 -853 -854 0
767 -854 853 0
767 -853 854 0
-767 854 853 0
-855 -852 -854 0
852 854 -855 0
-852 854 855 0
852 855 -854 0
-852 856 -854 0
-856 854 0
852 -856 0
-767 -853 857 0
-857 767 0
-857 853 0
-858 856 857 0
-856 858 0
-857 858 0
-783 859 -98 0
-859 98 0
-859 783 0
-773 -860 -859 0
773 -860 859 0
773 -859 860 0
-773 859 860 0
-861 -860 -858 0
-861 860 858 0
-858 860 861 0
-860 858 861 0
-860 -858 862 0
-862 860 0
-862 858 0
-773 -859 863 0
773 -863 0
-863 859 0
-864 863 862 0
-862 864 0
-863 864 0
865 -783 -106 0
-865 106 0
-865 783 0
-865 -866 -779 0
865 779 -866 0
-865 779 866 0
865 866 -779 0
-864 -866 -867 0
-867 866 864 0
-864 866 867 0
-866 867 864 0
-864 -866 868 0
866 -868 0
-868 864 0
869 -865 -779 0
779 -869 0
865 -869 0
868 -870 869 0
870 -868 0
870 -869 0
871 -114 -783 0
-871 114 0
783 -871 0
-782 -871 -872 0
871 782 -872 0
782 872 -871 0
871 -782 872 0
-870 -873 -872 0
870 -873 872 0
873 -870 872 0
873 870 -872 0
-870 874 -872 0
-874 872 0
870 -874 0
875 -782 -871 0
-875 782 0
871 -875 0
-876 875 874 0
-874 876 0
-875 876 0
-877 -1 878 0
1 -878 0
877 -878 0
-789 -879 -878 0
789 -879 878 0
789 879 -878 0
-789 879 878 0
-789 880 -878 0
789 -880 0
-880 878 0
-877 -4 881 0
4 -881 0
877 -881 0
-795 -882 -881 0
881 795 -882 0
882 795 -881 0
-795 882 881 0
-883 -880 -882 0
880 882 -883 0
882 -880 883 0
880 883 -882 0
884 -880 -882 0
882 -884 0
880 -884 0
-795 885 -881 0
-885 795 0
-885 881 0
-886 885 884 0
-884 886 0
-885 886 0
-877 887 -10 0
10 -887 0
877 -887 0
-801 -888 -887 0
-888 801 887 0
801 888 -887 0
-801 888 887 0
-888 -889 -886 0
-889 888 886 0
888 889 -886 0
-888 886 889 0
-888 -886 890 0
888 -890 0
886 -890 0
-801 891 -887 0
801 -891 0
-891 887 0
891 -892 890 0
892 -890 0
892 -891 0
-877 -18 893 0
18 -893 0
877 -893 0
-893 -807 -894 0
807 -894 893 0
807 -893 894 0
894 -807 893 0
-895 -892 -894 0
892 -895 894 0
-892 894 895 0
892 895 -894 0
896 -892 -894 0
-896 894 0
892 -896 0
-893 -807 897 0
807 -897 0
-897 893 0
896 897 -898 0
-896 898 0
898 -897 0
-26 899 -877 0
-899 26 0
877 -899 0
-813 -900 -899 0
813 899 -900 0
813 900 -899 0
-813 899 900 0
-900 -901 -898 0
-901 898 900 0
900 901 -898 0
898 -900 901 0
-900 902 -898 0
900 -902 0
898 -902 0
-813 903 -899 0
813 -903 0
899 -903 0
903 902 -904 0
904 -902 0
904 -903 0
-877 905 -34 0
-905 34 0
-905 877 0
-905 -819 -906 0
905 -906 819 0
-905 906 819 0
905 -819 906 0
-904 -906 -907 0
904 -907 906 0
-904 907 906 0
907 904 -906 0
-904 -906 908 0
-908 906 0
904 -908 0
-905 -819 909 0
-909 819 0
905 -909 0
909 908 -910 0
-908 910 0
-909 910 0
911 -877 -42 0
-911 42 0
877 -911 0
-825 -911 -912 0
911 825 -912 0
912 825 -911 0
912 911 -825 0
-913 -912 -910 0
912 -913 910 0
912 913 -910 0
913 -912 910 0
914 -912 -910 0
912 -914 0
-914 910 0
-825 -911 915 0
825 -915 0
911 -915 0
914 915 -916 0
916 -914 0
916 -915 0
-877 917 -50 0
-917 50 0
877 -917 0
-831 -918 -917 0
831 917 -918 0
831 918 -917 0
-831 917 918 0
-918 -919 -916 0
916 -919 918 0
919 918 -916 0
916 -918 919 0
920 -918 -916 0
-920 918 0
916 -920 0
-831 921 -917 0
831 -921 0
917 -921 0
920 -922 921 0
922 -920 0
922 -921 0
-877 923 -58 0
-923 58 0
877 -923 0
-924 -923 -837 0
-924 923 837 0
924 -923 837 0
924 -837 923 0
-924 -922 -925 0
-925 922 924 0
925 -922 924 0
-924 925 922 0
-924 -922 926 0
-926 924 0
-926 922 0
-923 -837 927 0
-927 837 0
-927 923 0
-928 926 927 0
-926 928 0
-927 928 0
-877 929 -66 0
-929 66 0
877 -929 0
-843 -930 -929 0
-930 929 843 0
930 843 -929 0
-843 929 930 0
-931 -930 -928 0
-931 928 930 0
931 -928 930 0
928 -930 931 0
932 -930 -928 0
-932 930 0
-932 928 0
933 -843 -929 0
-933 843 0
929 -933 0
932 -934 933 0
-932 934 0
-933 934 0
-877 -74 935 0
74 -935 0
877 -935 0
-935 -936 -849 0
849 -936 935 0
849 -935 936 0
936 -849 935 0
-934 -937 -936 0
-937 936 934 0
-934 937 936 0
937 934 -936 0
-934 938 -936 0
-938 936 0
-938 934 0
-935 939 -849 0
849 -939 0
-939 935 0
938 939 -940 0
940 -938 0
-939 940 0
941 -877 -82 0
82 -941 0
877 -941 0
-941 -855 -942 0
941 855 -942 0
942 -941 855 0
941 942 -855 0
-943 -940 -942 0
942 -943 940 0
942 -940 943 0
940 943 -942 0
944 -940 -942 0
942 -944 0
940 -944 0
-941 945 -855 0
-945 855 0
941 -945 0
945 -946 944 0
946 -944 0
946 -945 0
-877 -90 947 0
90 -947 0
877 -947 0
-861 -947 -948 0
-948 947 861 0
948 -947 861 0
-861 947 948 0
-949 -948 -946 0
948 946 -949 0
948 949 -946 0
946 -948 949 0
-948 -946 950 0
948 -950 0
946 -950 0
-861 -947 951 0
-951 861 0
-951 947 0
951 -952 950 0
952 -950 0
952 -951 0
-877 953 -98 0
-953 98 0
877 -953 0
-953 -867 -954 0
953 867 -954 0
954 -953 867 0
953 -867 954 0
-952 -955 -954 0
952 954 -955 0
-952 954 955 0
952 955 -954 0
956 -952 -954 0
-956 954 0
-956 952 0
-953 -867 957 0
-957 867 0
-957 953 0
-958 957 956 0
-956 958 0
-957 958 0
-877 -106 959 0
106 -959 0
877 -959 0
-960 -959 -873 0
873 -960 959 0
873 -959 960 0
960 -873 959 0
-961 -958 -960 0
-961 960 958 0
961 -958 960 0
961 958 -960 0
-958 962 -960 0
-962 960 0
-962 958 0
963 -959 -873 0
873 -963 0
-963 959 0
963 962 -964 0
964 -962 0
964 -963 0
-114 -877 965 0
-965 114 0
877 -965 0
-965 -876 -966 0
965 -966 876 0
966 -965 876 0
966 -876 965 0
-967 -964 -966 0
-967 964 966 0
967 -964 966 0
967 964 -966 0
968 -964 -966 0
-968 966 0
964 -968 0
-965 -876 969 0
-969 876 0
-969 965 0
-970 969 968 0
970 -968 0
-969 970 0
-1 -971 972 0
1 -972 0
-972 971 0
-972 -883 -973 0
-973 883 972 0
-972 973 883 0
973 -883 972 0
-972 974 -883 0
-974 883 0
-974 972 0
975 -4 -971 0
-975 4 0
971 -975 0
-976 -889 -975 0
-976 889 975 0
976 -975 889 0
976 -889 975 0
-976 -977 -974 0
-977 976 974 0
976 977 -974 0
-976 974 977 0
-976 -974 978 0
976 -978 0
-978 974 0
-889 979 -975 0
889 -979 0
-979 975 0
-980 979 978 0
-978 980 0
980 -979 0
981 -10 -971 0
10 -981 0
971 -981 0
-895 -982 -981 0
981 -982 895 0
982 -981 895 0
982 981 -895 0
-980 -983 -982 0
-983 982 980 0
-980 982 983 0
-982 980 983 0
-980 984 -982 0
982 -984 0
-984 980 0
985 -895 -981 0
-985 895 0
981 -985 0
985 984 -986 0
986 -984 0
986 -985 0
-18 987 -971 0
18 -987 0
971 -987 0
-901 -987 -988 0
987 901 -988 0
988 901 -987 0
987 -901 988 0
-989 -986 -988 0
986 -989 988 0
989 -986 988 0
989 986 -988 0
-986 -988 990 0
-990 988 0
986 -990 0
-901 -987 991 0
-991 901 0
-991 987 0
-992 991 990 0
-990 992 0
992 -991 0
-26 993 -971 0
-993 26 0
-993 971 0
-993 -994 -907 0
993 907 -994 0
-993 994 907 0
993 994 -907 0
-992 -995 -994 0
992 994 -995 0
995 -992 994 0
995 992 -994 0
996 -992 -994 0
-996 994 0
-996 992 0
-993 997 -907 0
-997 907 0
-997 993 0
996 -998 997 0
-996 998 0
-997 998 0
-971 -34 999 0
34 -999 0
971 -999 0
-913 -1000 -999 0
913 -1000 999 0
913 -999 1000 0
-913 1000 999 0
-998 -1001 -1000 0
-1001 998 1000 0
-998 1000 1001 0
998 -1000 1001 0
-998 -1000 1002 0
1000 -1002 0
998 -1002 0
-913 1003 -999 0
913 -1003 0
-1003 999 0
-1004 1003 1002 0
1004 -1002 0
1004 -1003 0
-971 1005 -42 0
-1005 42 0
-1005 971 0
-1005 -919 -1006 0
-1006 919 1005 0
-1005 1006 919 0
1006 -919 1005 0
-1006 -1007 -1004 0
1004 1006 -1007 0
1006 -1004 1007 0
-1006 1007 1004 0
-1006 -1004 1008 0
-1008 1006 0
1004 -1008 0
-1005 1009 -919 0
919 -1009 0
-1009 1005 0
1009 -1010 1008 0
-1008 1010 0
1010 -1009 0
1011 -50 -971 0
-1011 50 0
971 -1011 0
-925 -1012 -1011 0
925 1011 -1012 0
925 -1011 1012 0
-925 1011 1012 0
-1013 -1010 -1012 0
-1013 1010 1012 0
-1010 1013 1012 0
1010 -1012 1013 0
-1010 -1012 1014 0
-1014 1012 0
-1014 1010 0
-925 1015 -1011 0
925 -1015 0
-1015 1011 0
-1016 1014 1015 0
-1014 1016 0
-1015 1016 0
1017 -971 -58 0
58 -1017 0
971 -1017 0
-931 -1018 -1017 0
1017 -1018 931 0
1018 -1017 931 0
1017 1018 -931 0
-1018 -1016 -1019 0
1018 -1019 1016 0
1018 1019 -1016 0
-1018 1019 1016 0
-1018 -1016 1020 0
-1020 1018 0
-1020 1016 0
1021 -931 -1017 0
-1021 931 0
1017 -1021 0
-1022 1021 1020 0
-1020 1022 0
1022 -1021 0
1023 -971 -66 0
-1023 66 0
-1023 971 0
-937 -1023 -1024 0
937 1023 -1024 0
-1023 937 1024 0
-937 1023 1024 0
-1025 -1022 -1024 0
-1025 1022 1024 0
-1022 1025 1024 0
1022 1025 -1024 0
-1022 1026 -1024 0
-1026 1024 0
1022 -1026 0
-937 -1023 1027 0
937 -1027 0
1023 -1027 0
1026 1027 -1028 0
1028 -1026 0
1028 -1027 0
1029 -74 -971 0
74 -1029 0
-1029 971 0
-1029 -943 -1030 0
943 1029 -1030 0
943 -1029 1030 0
1029 -943 1030 0
-1031 -1028 -1030 0
-1031 1028 1030 0
-1028 1030 1031 0
1028 1031 -1030 0
-1028 1032 -1030 0
-1032 1030 0
1028 -1032 0
-1029 -943 1033 0
943 -1033 0
-1033 1029 0
-1034 1033 1032 0
1034 -1032 0
1034 -1033 0
1035 -82 -971 0
-1035 82 0
-1035 971 0
-1035 -949 -1036 0
1035 949 -1036 0
-1035 1036 949 0
-949 1035 1036 0
-1037 -1036 -1034 0
1034 1036 -1037 0
1036 1037 -1034 0
1034 1037 -1036 0
1038 -1036 -1034 0
1036 -1038 0
1034 -1038 0
-1035 -949 1039 0
-1039 949 0
-1039 1035 0
-1040 1039 1038 0
-1038 1040 0
-1039 1040 0
-90 1041 -971 0
90 -1041 0
971 -1041 0
-1042 -955 -1041 0
-1042 1041 955 0
-1041 1042 955 0
1041 -955 1042 0
-1042 -1040 -1043 0
-1043 1042 1040 0
1043 -1040 1042 0
1043 -1042 1040 0
-1042 1044 -1040 0
-1044 1042 0
-1044 1040 0
-955 -1041 1045 0
-1045 955 0
-1045 1041 0
1044 -1046 1045 0
-1044 1046 0
1046 -1045 0
1047 -98 -971 0
-1047 98 0
971 -1047 0
-961 -1047 -1048 0
961 1047 -1048 0
961 -1047 1048 0
-961 1048 1047 0
-1049 -1046 -1048 0
1048 -1049 1046 0
1048 -1046 1049 0
1046 1049 -1048 0
1050 -1046 -1048 0
1048 -1050 0
-1050 1046 0
-961 -1047 1051 0
961 -1051 0
1047 -1051 0
1051 1050 -1052 0
-1050 1052 0
1052 -1051 0
-971 -106 1053 0
106 -1053 0
971 -1053 0
-967 -1054 -1053 0
967 -1054 1053 0
967 -1053 1054 0
-967 1054 1053 0
-1055 -1054 -1052 0
-1055 1054 1052 0
1054 1055 -1052 0
-1054 1052 1055 0
1056 -1054 -1052 0
-1056 1054 0
-1056 1052 0
-967 1057 -1053 0
967 -1057 0
-1057 1053 0
1057 1056 -1058 0
-1056 1058 0
-1057 1058 0
1059 -114 -971 0
-1059 114 0
971 -1059 0
-1060 -970 -1059 0
1059 -1060 970 0
-1059 970 1060 0
1059 -970 1060 0
-1060 -1058 -1061 0
-1061 1058 1060 0
1061 -1058 1060 0
1061 -1060 1058 0
-1060 -1058 1062 0
-1062 1060 0
-1062 1058 0
1063 -970 -1059 0
970 -1063 0
1059 -1063 0
-1064 1063 1062 0
-1062 1064 0
1064 -1063 0
1066 -1 -1065 0
1 -1066 0
1065 -1066 0
-977 -1067 -1066 0
-1067 977 1066 0
1067 977 -1066 0
-977 1067 1066 0
-977 1068 -1066 0
-1068 977 0
-1068 1066 0
1069 -4 -1065 0
-1069 4 0
1065 -1069 0
-1070 -1069 -983 0
1069 -1070 983 0
-1069 983 1070 0
1069 -983 1070 0
-1068 -1070 -1071 0
1068 -1071 1070 0
-1068 1071 1070 0
1071 -1070 1068 0
-1068 -1070 1072 0
-1072 1070 0
1068 -1072 0
1073 -1069 -983 0
983 -1073 0
1069 -1073 0
1073 -1074 1072 0
-1072 1074 0
1074 -1073 0
1075 -1065 -10 0
10 -1075 0
1065 -1075 0
-989 -1076 -1075 0
989 -1076 1075 0
989 1076 -1075 0
-989 1076 1075 0
-1076 -1077 -1074 0
1076 1074 -1077 0
1076 1077 -1074 0
-1076 1074 1077 0
-1076 1078 -1074 0
1076 -1078 0
-1078 1074 0
1079 -989 -1075 0
989 -1079 0
-1079 1075 0
1079 -1080 1078 0
-1078 1080 0
-1079 1080 0
1081 -18 -1065 0
18 -1081 0
-1081 1065 0
-1081 -1082 -995 0
995 1081 -1082 0
1082 995 -1081 0
1082 1081 -995 0
-1083 -1082 -1080 0
1082 -1083 1080 0
1082 1083 -1080 0
1083 -1082 1080 0
-1082 1084 -1080 0
1082 -1084 0
-1084 1080 0
-1081 -995 1085 0
995 -1085 0
1081 -1085 0
-1086 1084 1085 0
-1084 1086 0
1086 -1085 0
-26 1087 -1065 0
-1087 26 0
1065 -1087 0
-1088 -1001 -1087 0
1087 1001 -1088 0
-1087 1088 1001 0
1088 1087 -1001 0
-1089 -1086 -1088 0
-1089 1088 1086 0
-1086 1088 1089 0
1089 -1088 1086 0
-1086 1090 -1088 0
1088 -1090 0
1086 -1090 0
1091 -1001 -1087 0
-1091 1001 0
-1091 1087 0
1091 1090 -1092 0
1092 -1090 0
1092 -1091 0
-1065 1093 -34 0
34 -1093 0
1065 -1093 0
-1007 -1094 -1093 0
1007 -1094 1093 0
1007 1094 -1093 0
-1007 1094 1093 0
-1094 -1095 -1092 0
1094 -1095 1092 0
1095 1094 -1092 0
1095 1092 -1094 0
-1094 1096 -1092 0
1094 -1096 0
1092 -1096 0
-1007 1097 -1093 0
-1097 1007 0
-1097 1093 0
1097 -1098 1096 0
1098 -1096 0
-1097 1098 0
1099 -1065 -42 0
42 -1099 0
1065 -1099 0
-1013 -1100 -1099 0
-1100 1013 1099 0
1100 1013 -1099 0
-1013 1100 1099 0
-1101 -1098 -1100 0
-1101 1098 1100 0
-1098 1100 1101 0
1098 1101 -1100 0
1102 -1098 -1100 0
1100 -1102 0
1098 -1102 0
-1013 1103 -1099 0
1013 -1103 0
1099 -1103 0
1102 -1104 1103 0
1104 -1102 0
1104 -1103 0
1105 -1065 -50 0
-1105 50 0
-1105 1065 0
-1105 -1019 -1106 0
1019 1105 -1106 0
1106 -1105 1019 0
1106 -1019 1105 0
-1106 -1104 -1107 0
1106 1104 -1107 0
1106 -1104 1107 0
1107 1104 -1106 0
-1106 -1104 1108 0
1106 -1108 0
-1108 1104 0
-1105 -1019 1109 0
-1109 1019 0
-1109 1105 0
1108 1109 -1110 0
-1108 1110 0
-1109 1110 0
1111 -1065 -58 0
58 -1111 0
1065 -1111 0
-1025 -1112 -1111 0
-1112 1111 1025 0
1025 1112 -1111 0
-1025 1111 1112 0
-1112 -1113 -1110 0
-1113 1112 1110 0
1113 -1110 1112 0
1113 -1112 1110 0
-1112 1114 -1110 0
-1114 1112 0
-1114 1110 0
-1025 1115 -1111 0
-1115 1025 0
1111 -1115 0
-1116 1114 1115 0
-1114 1116 0
-1115 1116 0
-1065 1117 -66 0
-1117 66 0
1065 -1117 0
-1031 -1118 -1117 0
1117 -1118 1031 0
-1117 1031 1118 0
-1031 1117 1118 0
-1119 -1116 -1118 0
-1119 1116 1118 0
-1116 1119 1118 0
1119 -1118 1116 0
1120 -1116 -1118 0
1118 -1120 0
1116 -1120 0
-1031 1121 -1117 0
-1121 1031 0
-1121 1117 0
1120 -1122 1121 0
1122 -1120 0
-1121 1122 0
-74 -1065 1123 0
74 -1123 0
-1123 1065 0
-1123 -1037 -1124 0
1037 -1124 1123 0
1037 -1123 1124 0
-1037 1124 1123 0
-1124 -1122 -1125 0
1122 1124 -1125 0
1124 -1122 1125 0
1122 -1124 1125 0
1126 -1124 -1122 0
1124 -1126 0
1122 -1126 0
-1123 1127 -1037 0
1037 -1127 0
-1127 1123 0
1127 1126 -1128 0
1128 -1126 0
-1127 1128 0
1129 -82 -1065 0
82 -1129 0
1065 -1129 0
-1130 -1043 -1129 0
1043 1129 -1130 0
1043 1130 -1129 0
1129 1130 -1043 0
-1131 -1128 -1130 0
-1131 1130 1128 0
-1128 1130 1131 0
1131 -1130 1128 0
-1128 -1130 1132 0
1130 -1132 0
1128 -1132 0
1133 -1043 -1129 0
1043 -1133 0
1129 -1133 0
-1134 1133 1132 0
1134 -1132 0
-1133 1134 0
1135 -90 -1065 0
90 -1135 0
-1135 1065 0
-1135 -1049 -1136 0
1135 -1136 1049 0
-1135 1136 1049 0
1135 -1049 1136 0
-1134 -1136 -1137 0
1136 -1137 1134 0
1137 -1134 1136 0
1137 -1136 1134 0
-1134 -1136 1138 0
-1138 1136 0
-1138 1134 0
-1135 -1049 1139 0
-1139 1049 0
1135 -1139 0
1139 -1140 1138 0
1140 -1138 0
-1139 1140 0
-1065 -98 1141 0
-1141 98 0
-1141 1065 0
-1055 -1141 -1142 0
-1142 1141 1055 0
-1141 1142 1055 0
-1055 1142 1141 0
-1143 -1142 -1140 0
1140 1142 -1143 0
1143 1142 -1140 0
1143 1140 -1142 0
1144 -1142 -1140 0
-1144 1142 0
1140 -1144 0
-1055 -1141 1145 0
-1145 1055 0
1141 -1145 0
1145 1144 -1146 0
1146 -1144 0
1146 -1145 0
-1065 -106 1147 0
-1147 106 0
-1147 1065 0
-1147 -1061 -1148 0
1061 -1148 1147 0
1061 1148 -1147 0
-1061 1148 1147 0
-1149 -1146 -1148 0
1146 -1149 1148 0
-1146 1149 1148 0
1146 -1148 1149 0
-1146 -1148 1150 0
-1150 1148 0
1146 -1150 0
-1147 -1061 1151 0
1061 -1151 0
-1151 1147 0
1150 -1152 1151 0
-1150 1152 0
-1151 1152 0
-114 1153 -1065 0
-1153 114 0
1065 -1153 0
-1064 -1154 -1153 0
1153 -1154 1064 0
-1153 1154 1064 0
-1064 1153 1154 0
-1154 -1152 -1155 0
-1155 1154 1152 0
1154 -1152 1155 0
-1154 1155 1152 0
-1154 -1152 1156 0
-1156 1154 0
-1156 1152 0
-1064 1157 -1153 0
-1157 1064 0
1153 -1157 0
-1158 1157 1156 0
-1156 1158 0
-1157 1158 0
-1159 -1 1160 0
1 -1160 0
1159 -1160 0
-1161 -1071 -1160 0
1071 -1161 1160 0
1161 1071 -1160 0
1161 -1071 1160 0
1162 -1071 -1160 0
-1162 1071 0
-1162 1160 0
-1159 -4 1163 0
-1163 4 0
-1163 1159 0
-1077 -1163 -1164 0
-1164 1077 1163 0
-1163 1077 1164 0
-1077 1164 1163 0
-1162 -1164 -1165 0
-1165 1162 1164 0
-1162 1164 1165 0
-1164 1162 1165 0
-1162 -1164 1166 0
-1166 1164 0
-1166 1162 0
1167 -1077 -1163 0
-1167 1077 0
-1167 1163 0
1167 -1168 1166 0
-1166 1168 0
-1167 1168 0
1169 -1159 -10 0
10 -1169 0
-1169 1159 0
-1169 -1083 -1170 0
1083 1169 -1170 0
-1169 1083 1170 0
-1083 1169 1170 0
-1171 -1170 -1168 0
1170 -1171 1168 0
1170 -1168 1171 0
-1170 1168 1171 0
1172 -1170 -1168 0
1170 -1172 0
-1172 1168 0
-1169 -1083 1173 0
1083 -1173 0
1169 -1173 0
1172 -1174 1173 0
-1172 1174 0
-1173 1174 0
-1159 -18 1175 0
18 -1175 0
-1175 1159 0
-1089 -1175 -1176 0
1089 -1176 1175 0
1176 -1175 1089 0
-1089 1176 1175 0
-1177 -1174 -1176 0
-1177 1176 1174 0
1177 1176 -1174 0
1177 1174 -1176 0
1178 -1174 -1176 0
1176 -1178 0
1174 -1178 0
1179 -1089 -1175 0
-1179 1089 0
-1179 1175 0
1178 -1180 1179 0
1180 -1178 0
-1179 1180 0
-26 -1159 1181 0
-1181 26 0
1159 -1181 0
-1095 -1182 -1181 0
1095 1181 -1182 0
1095 1182 -1181 0
1182 -1095 1181 0
-1183 -1180 -1182 0
-1183 1182 1180 0
1183 1182 -1180 0
1183 1180 -1182 0
1184 -1180 -1182 0
1182 -1184 0
1180 -1184 0
-1095 1185 -1181 0
1095 -1185 0
-1185 1181 0
1184 -1186 1185 0
-1184 1186 0
1186 -1185 0
1187 -1159 -34 0
34 -1187 0
-1187 1159 0
-1188 -1101 -1187 0
-1188 1187 1101 0
1188 1101 -1187 0
1188 -1101 1187 0
-1188 -1189 -1186 0
1188 -1189 1186 0
1188 -1186 1189 0
-1188 1186 1189 0
-1188 1190 -1186 0
1188 -1190 0
-1190 1186 0
1191 -1101 -1187 0
1101 -1191 0
1187 -1191 0
1190 1191 -1192 0
1192 -1190 0
1192 -1191 0
1193 -1159 -42 0
-1193 42 0
-1193 1159 0
-1193 -1194 -1107 0
1107 1193 -1194 0
1107 1194 -1193 0
1193 1194 -1107 0
-1194 -1195 -1192 0
1192 1194 -1195 0
1194 1195 -1192 0
1192 -1194 1195 0
-1194 1196 -1192 0
1194 -1196 0
1192 -1196 0
-1193 1197 -1107 0
1107 -1197 0
1193 -1197 0
-1198 1196 1197 0
-1196 1198 0
-1197 1198 0
-1159 1199 -50 0
-1199 50 0
-1199 1159 0
-1200 -1113 -1199 0
1113 -1200 1199 0
1113 1200 -1199 0
-1113 1200 1199 0
-1200 -1198 -1201 0
-1201 1200 1198 0
1201 -1198 1200 0
-1200 1201 1198 0
-1200 -1198 1202 0
-1202 1200 0
-1202 1198 0
1203 -1113 -1199 0
1113 -1203 0
-1203 1199 0
1203 -1204 1202 0
-1202 1204 0
-1203 1204 0
1205 -1159 -58 0
-1205 58 0
-1205 1159 0
-1205 -1119 -1206 0
1205 1119 -1206 0
-1205 1119 1206 0
-1119 1206 1205 0
-1206 -1207 -1204 0
1206 -1207 1204 0
1207 1206 -1204 0
-1206 1207 1204 0
-1206 -1204 1208 0
1206 -1208 0
-1208 1204 0
-1205 -1119 1209 0
-1209 1119 0
1205 -1209 0
-1210 1209 1208 0
1210 -1208 0
-1209 1210 0
-1159 1211 -66 0
-1211 66 0
-1211 1159 0
-1211 -1125 -1212 0
-1212 1211 1125 0
1212 -1211 1125 0
1212 1211 -1125 0
-1213 -1210 -1212 0
1212 1210 -1213 0
1212 1213 -1210 0
1213 1210 -1212 0
1214 -1210 -1212 0
1212 -1214 0
-1214 1210 0
1215 -1211 -1125 0
-1215 1125 0
1211 -1215 0
1215 -1216 1214 0
1216 -1214 0
1216 -1215 0
-1159 1217 -74 0
74 -1217 0
-1217 1159 0
-1131 -1218 -1217 0
-1218 1131 1217 0
1218 1131 -1217 0
-1131 1218 1217 0
-1218 -1216 -1219 0
1218 1216 -1219 0
1218 1219 -1216 0
-1218 1219 1216 0
-1218 -1216 1220 0
1218 -1220 0
1216 -1220 0
-1131 1221 -1217 0
-1221 1131 0
-1221 1217 0
-1222 1221 1220 0
1222 -1220 0
-1221 1222 0
-1159 -82 1223 0
82 -1223 0
-1223 1159 0
-1223 -1224 -1137 0
1137 1223 -1224 0
1137 1224 -1223 0
1224 1223 -1137 0
-1225 -1222 -1224 0
1222 1224 -1225 0
1225 1224 -1222 0
1225 1222 -1224 0
1226 -1222 -1224 0
-1226 1224 0
1222 -1226 0
1227 -1223 -1137 0
1137 -1227 0
1223 -1227 0
1226 -1228 1227 0
-1226 1228 0
1228 -1227 0
-1159 -90 1229 0
90 -1229 0
-1229 1159 0
-1143 -1229 -1230 0
1143 -1230 1229 0
1143 1230 -1229 0
-1143 1229 1230 0
-1231 -1228 -1230 0
-1231 1228 1230 0
1231 1230 -1228 0
1228 -1230 1231 0
-1228 -1230 1232 0
1230 -1232 0
1228 -1232 0
-1143 -1229 1233 0
1143 -1233 0
-1233 1229 0
-1234 1232 1233 0
1234 -1232 0
1234 -1233 0
-1159 -98 1235 0
98 -1235 0
1159 -1235 0
-1149 -1236 -1235 0
1149 -1236 1235 0
1236 1149 -1235 0
-1149 1236 1235 0
-1234 -1237 -1236 0
1234 -1237 1236 0
-1234 1236 1237 0
1234 -1236 1237 0
-1234 -1236 1238 0
1236 -1238 0
1234 -1238 0
-1149 1239 -1235 0
-1239 1149 0
-1239 1235 0
1239 -1240 1238 0
1240 -1238 0
1240 -1239 0
1241 -1159 -106 0
106 -1241 0
-1241 1159 0
-1242 -1155 -1241 0
-1242 1241 1155 0
1242 -1241 1155 0
-1155 1241 1242 0
-1243 -1242 -1240 0
1240 -1243 1242 0
-1240 1243 1242 0
1240 -1242 1243 0
-1242 -1240 1244 0
-1244 1242 0
1240 -1244 0
1245 -1155 -1241 0
-1245 1155 0
-1245 1241 0
-1246 1245 1244 0
1246 -1244 0
-1245 1246 0
-114 -1159 1247 0
-1247 114 0
-1247 1159 0
-1158 -1247 -1248 0
1247 1158 -1248 0
-1247 1248 1158 0
-1158 1248 1247 0
-1249 -1246 -1248 0
-1249 1248 1246 0
1249 1248 -1246 0
1249 1246 -1248 0
1250 -1246 -1248 0
1248 -1250 0
-1250 1246 0
-1158 1251 -1247 0
-1251 1158 0
-1251 1247 0
1250 1251 -1252 0
1252 -1250 0
1252 -1251 0
-1253 -1 1254 0
1 -1254 0
-1254 1253 0
-1255 -1165 -1254 0
-1255 1254 1165 0
1255 -1254 1165 0
1255 -1165 1254 0
-1165 -1254 1256 0
-1256 1165 0
-1256 1254 0
-1253 -4 1257 0
-1257 4 0
-1257 1253 0
-1257 -1258 -1171 0
-1258 1171 1257 0
-1257 1258 1171 0
-1171 1258 1257 0
-1258 -1259 -1256 0
1256 -1259 1258 0
-1256 1258 1259 0
-1258 1259 1256 0
1260 -1258 -1256 0
-1260 1258 0
1256 -1260 0
-1257 -1171 1261 0
-1261 1171 0
-1261 1257 0
1260 1261 -1262 0
1262 -1260 0
1262 -1261 0
-1253 1263 -10 0
10 -1263 0
-1263 1253 0
-1177 -1264 -1263 0
-1264 1177 1263 0
1177 -1263 1264 0
-1177 1263 1264 0
-1264 -1265 -1262 0
-1265 1262 1264 0
1265 1264 -1262 0
-1264 1262 1265 0
-1264 1266 -1262 0
-1266 1264 0
-1266 1262 0
-1177 1267 -1263 0
1177 -1267 0
1263 -1267 0
1267 1266 -1268 0
-1266 1268 0
1268 -1267 0
-1253 1269 -18 0
18 -1269 0
-1269 1253 0
-1183 -1270 -1269 0
1183 -1270 1269 0
1183 -1269 1270 0
-1183 1269 1270 0
-1270 -1271 -1268 0
1268 -1271 1270 0
1271 -1268 1270 0
1271 -1270 1268 0
-1270 1272 -1268 0
-1272 1270 0
1268 -1272 0
-1183 -1269 1273 0
1183 -1273 0
1269 -1273 0
1273 -1274 1272 0
1274 -1272 0
1274 -1273 0
-1253 -26 1275 0
-1275 26 0
-1275 1253 0
-1275 -1189 -1276 0
-1276 1275 1189 0
-1275 1276 1189 0
1276 -1189 1275 0
-1277 -1274 -1276 0
1274 -1277 1276 0
1276 -1274 1277 0
1274 1277 -1276 0
-1274 -1276 1278 0
-1278 1276 0
1274 -1278 0
-1275 1279 -1189 0
-1279 1189 0
-1279 1275 0
1279 1278 -1280 0
1280 -1278 0
-1279 1280 0
-1253 1281 -34 0
34 -1281 0
-1281 1253 0
-1282 -1195 -1281 0
-1282 1281 1195 0
1282 -1281 1195 0
1282 -1195 1281 0
-1282 -1280 -1283 0
1280 1282 -1283 0
1282 -1280 1283 0
1280 -1282 1283 0
-1282 -1280 1284 0
1282 -1284 0
1280 -1284 0
1285 -1195 -1281 0
-1285 1195 0
-1285 1281 0
1285 -1286 1284 0
1286 -1284 0
1286 -1285 0
-1253 1287 -42 0
42 -1287 0
1253 -1287 0
-1288 -1201 -1287 0
-1288 1201 1287 0
1201 1288 -1287 0
-1201 1287 1288 0
-1288 -1286 -1289 0
1286 -1289 1288 0
-1286 1288 1289 0
-1288 1286 1289 0
-1288 -1286 1290 0
-1290 1288 0
1286 -1290 0
1291 -1201 -1287 0
-1291 1201 0
-1291 1287 0
1291 -1292 1290 0
1292 -1290 0
1292 -1291 0
-1253 1293 -50 0
50 -1293 0
1253 -1293 0
-1294 -1207 -1293 0
-1294 1293 1207 0
1294 1207 -1293 0
1294 1293 -1207 0
-1294 -1295 -1292 0
1292 -1295 1294 0
1295 -1292 1294 0
1292 -1294 1295 0
-1294 -1292 1296 0
1294 -1296 0
1292 -1296 0
-1207 1297 -1293 0
1207 -1297 0
1293 -1297 0
-1298 1297 1296 0
-1296 1298 0
-1297 1298 0
-1253 1299 -58 0
58 -1299 0
1253 -1299 0
-1300 -1213 -1299 0
-1300 1213 1299 0
1213 1300 -1299 0
-1213 1299 1300 0
-1300 -1301 -1298 0
-1301 1300 1298 0
1301 -1298 1300 0
-1300 1301 1298 0
-1300 -1298 1302 0
1300 -1302 0
-1302 1298 0
-1213 1303 -1299 0
-1303 1213 0
-1303 1299 0
-1304 1303 1302 0
1304 -1302 0
-1303 1304 0
-1253 1305 -66 0
-1305 66 0
1253 -1305 0
-1306 -1219 -1305 0
-1306 1305 1219 0
1219 -1305 1306 0
1305 -1219 1306 0
-1307 -1306 -1304 0
-1307 1304 1306 0
1307 -1304 1306 0
1307 -1306 1304 0
1308 -1306 -1304 0
-1308 1306 0
1304 -1308 0
1309 -1219 -1305 0
-1309 1219 0
-1309 1305 0
1308 1309 -1310 0
1310 -1308 0
-1309 1310 0
-1253 1311 -74 0
74 -1311 0
-1311 1253 0
-1312 -1311 -1225 0
1225 1311 -1312 0
1225 1312 -1311 0
1311 1312 -1225 0
-1313 -1312 -1310 0
1310 1312 -1313 0
1312 -1310 1313 0
1310 -1312 1313 0
1314 -1312 -1310 0
1312 -1314 0
1310 -1314 0
1315 -1311 -1225 0
1225 -1315 0
1311 -1315 0
1314 -1316 1315 0
1316 -1314 0
-1315 1316 0
-1253 1317 -82 0
82 -1317 0
-1317 1253 0
-1231 -1317 -1318 0
1317 1231 -1318 0
1318 -1317 1231 0
1317 1318 -1231 0
-1319 -1316 -1318 0
1318 -1319 1316 0
1318 1319 -1316 0
1319 -1318 1316 0
1320 -1316 -1318 0
1318 -1320 0
-1320 1316 0
-1231 -1317 1321 0
-1321 1231 0
1317 -1321 0
1320 1321 -1322 0
1322 -1320 0
-1321 1322 0
-1253 -90 1323 0
90 -1323 0
-1323 1253 0
-1323 -1324 -1237 0
-1324 1323 1237 0
-1323 1324 1237 0
1324 1323 -1237 0
-1325 -1324 -1322 0
1324 1322 -1325 0
1324 1325 -1322 0
1322 1325 -1324 0
-1324 -1322 1326 0
1324 -1326 0
1322 -1326 0
-1323 1327 -1237 0
-1327 1237 0
1323 -1327 0
1326 -1328 1327 0
1328 -1326 0
1328 -1327 0
-1253 -98 1329 0
-1329 98 0
-1329 1253 0
-1243 -1330 -1329 0
-1330 1243 1329 0
1330 -1329 1243 0
-1243 1330 1329 0
-1330 -1328 -1331 0
1328 1330 -1331 0
1330 1331 -1328 0
1328 -1330 1331 0
1332 -1330 -1328 0
-1332 1330 0
1328 -1332 0
-1243 -1329 1333 0
-1333 1243 0
-1333 1329 0
1332 1333 -1334 0
-1332 1334 0
1334 -1333 0
-1253 1335 -106 0
106 -1335 0
-1335 1253 0
-1249 -1336 -1335 0
1249 1335 -1336 0
1249 -1335 1336 0
-1249 1335 1336 0
-1336 -1334 -1337 0
1334 -1337 1336 0
1337 -1334 1336 0
1337 1334 -1336 0
1338 -1336 -1334 0
-1338 1336 0
-1338 1334 0
-1249 -1335 1339 0
1249 -1339 0
-1339 1335 0
-1340 1338 1339 0
-1338 1340 0
1340 -1339 0
-1253 -114 1341 0
-1341 114 0
-1341 1253 0
-1341 -1252 -1342 0
1252 1341 -1342 0
1252 -1341 1342 0
1342 1341 -1252 0
-1340 -1343 -1342 0
1342 1340 -1343 0
1342 -1340 1343 0
1340 1343 -1342 0
-1340 1344 -1342 0
1342 -1344 0
1340 -1344 0
-1341 -1252 1345 0
1252 -1345 0
1341 -1345 0
-1346 1344 1345 0
1346 -1344 0
1346 -1345 0
1348 -1 -1347 0
1 -1348 0
-1348 1347 0
-1348 -1259 -1349 0
1348 1259 -1349 0
1259 -1348 1349 0
1348 1349 -1259 0
-1348 -1259 1350 0
1259 -1350 0
1348 -1350 0
1351 -4 -1347 0
-1351 4 0
-1351 1347 0
-1351 -1265 -1352 0
-1352 1265 1351 0
-1351 1352 1265 0
-1265 1352 1351 0
-1353 -1352 -1350 0
1350 -1353 1352 0
-1350 1352 1353 0
1350 -1352 1353 0
1354 -1352 -1350 0
-1354 1352 0
1350 -1354 0
-1351 -1265 1355 0
-1355 1265 0
-1355 1351 0
1354 -1356 1355 0
-1354 1356 0
-1355 1356 0
1357 -10 -1347 0
10 -1357 0
1347 -1357 0
-1358 -1271 -1357 0
-1358 1271 1357 0
1358 1271 -1357 0
1358 -1271 1357 0
-1356 -1359 -1358 0
1358 -1359 1356 0
1358 1359 -1356 0
1359 -1358 1356 0
-1356 -1358 1360 0
1358 -1360 0
-1360 1356 0
1361 -1271 -1357 0
1271 -1361 0
-1361 1357 0
1360 -1362 1361 0
-1360 1362 0
-1361 1362 0
-18 1363 -1347 0
18 -1363 0
-1363 1347 0
-1363 -1277 -1364 0
1277 -1364 1363 0
-1363 1277 1364 0
-1277 1364 1363 0
-1365 -1364 -1362 0
-1365 1364 1362 0
1365 1364 -1362 0
1365 -1364 1362 0
1366 -1364 -1362 0
1364 -1366 0
-1366 1362 0
-1363 -1277 1367 0
1277 -1367 0
1363 -1367 0
1367 1366 -1368 0
1368 -1366 0
1368 -1367 0
-26 1369 -1347 0
-1369 26 0
-1369 1347 0
-1369 -1370 -1283 0
-1370 1369 1283 0
1370 -1369 1283 0
1369 -1283 1370 0
-1368 -1370 -1371 0
1368 -1371 1370 0
-1368 1371 1370 0
1368 -1370 1371 0
-1368 -1370 1372 0
-1372 1370 0
1368 -1372 0
1373 -1369 -1283 0
-1373 1283 0
-1373 1369 0
1373 -1374 1372 0
-1372 1374 0
-1373 1374 0
1375 -34 -1347 0
34 -1375 0
1347 -1375 0
-1289 -1376 -1375 0
1375 1289 -1376 0
1289 1376 -1375 0
-1289 1375 1376 0
-1374 -1376 -1377 0
1374 -1377 1376 0
-1374 1377 1376 0
1374 -1376 1377 0
-1374 1378 -1376 0
-1378 1376 0
-1378 1374 0
1379 -1289 -1375 0
-1379 1289 0
-1379 1375 0
1379 1378 -1380 0
-1378 1380 0
-1379 1380 0
1381 -42 -1347 0
42 -1381 0
-1381 1347 0
-1295 -1381 -1382 0
1295 -1382 1381 0
1295 -1381 1382 0
1382 -1295 1381 0
-1383 -1380 -1382 0
1382 -1383 1380 0
1382 1383 -1380 0
1383 -1382 1380 0
-1380 -1382 1384 0
1382 -1384 0
-1384 1380 0
-1295 -1381 1385 0
1295 -1385 0
-1385 1381 0
1385 1384 -1386 0
-1384 1386 0
-1385 1386 0
1387 -50 -1347 0
-1387 50 0
-1387 1347 0
-1301 -1387 -1388 0
1387 -1388 1301 0
1388 -1387 1301 0
1387 -1301 1388 0
-1388 -1386 -1389 0
1388 1386 -1389 0
1388 -1386 1389 0
-1388 1386 1389 0
-1388 -1386 1390 0
1388 -1390 0
1386 -1390 0
1391 -1301 -1387 0
-1391 1301 0
1387 -1391 0
1391 -1392 1390 0
1392 -1390 0
1392 -1391 0
1393 -1347 -58 0
-1393 58 0
-1393 1347 0
-1307 -1393 -1394 0
1307 1393 -1394 0
1394 1307 -1393 0
1394 -1307 1393 0
-1395 -1394 -1392 0
1394 1392 -1395 0
1394 1395 -1392 0
1392 -1394 1395 0
1396 -1394 -1392 0
1394 -1396 0
-1396 1392 0
-1307 -1393 1397 0
-1397 1307 0
-1397 1393 0
1397 1396 -1398 0
-1396 1398 0
-1397 1398 0
1399 -1347 -66 0
-1399 66 0
-1399 1347 0
-1313 -1399 -1400 0
1399 -1400 1313 0
-1399 1400 1313 0
-1313 1400 1399 0
-1400 -1401 -1398 0
1400 1398 -1401 0
1400 1401 -1398 0
1398 1401 -1400 0
1402 -1400 -1398 0
1400 -1402 0
1398 -1402 0
-1313 1403 -1399 0
-1403 1313 0
-1403 1399 0
1402 1403 -1404 0
1404 -1402 0
1404 -1403 0
-74 1405 -1347 0
74 -1405 0
-1405 1347 0
-1406 -1319 -1405 0
-1406 1319 1405 0
1319 1406 -1405 0
-1319 1406 1405 0
-1406 -1407 -1404 0
1404 -1407 1406 0
1407 1406 -1404 0
-1406 1404 1407 0
-1406 -1404 1408 0
-1408 1406 0
1404 -1408 0
1409 -1319 -1405 0
-1409 1319 0
-1409 1405 0
1408 1409 -1410 0
-1408 1410 0
-1409 1410 0
1411 -82 -1347 0
82 -1411 0
-1411 1347 0
-1325 -1412 -1411 0
1325 1411 -1412 0
1325 -1411 1412 0
-1325 1411 1412 0
-1413 -1412 -1410 0
-1413 1410 1412 0
-1410 1413 1412 0
-1412 1413 1410 0
-1412 1414 -1410 0
-1414 1412 0
1410 -1414 0
-1325 -1411 1415 0
1325 -1415 0
1411 -1415 0
-1416 1414 1415 0
1416 -1414 0
1416 -1415 0
1417 -90 -1347 0
90 -1417 0
-1417 1347 0
-1418 -1417 -1331 0
1417 1331 -1418 0
1331 -1417 1418 0
1417 1418 -1331 0
-1419 -1416 -1418 0
-1419 1416 1418 0
1419 -1416 1418 0
1419 -1418 1416 0
-1416 -1418 1420 0
-1420 1418 0
1416 -1420 0
1421 -1417 -1331 0
-1421 1331 0
1417 -1421 0
1421 -1422 1420 0
-1420 1422 0
-1421 1422 0
-98 1423 -1347 0
-1423 98 0
-1423 1347 0
-1423 -1337 -1424 0
1337 1423 -1424 0
1424 -1423 1337 0
1424 -1337 1423 0
-1422 -1425 -1424 0
1424 -1425 1422 0
1424 -1422 1425 0
1425 -1424 1422 0
-1422 1426 -1424 0
1424 -1426 0
-1426 1422 0
1427 -1423 -1337 0
-1427 1337 0
-1427 1423 0
-1428 1426 1427 0
-1426 1428 0
-1427 1428 0
1429 -106 -1347 0
106 -1429 0
-1429 1347 0
-1343 -1430 -1429 0
1429 -1430 1343 0
1430 1343 -1429 0
-1343 1430 1429 0
-1431 -1430 -1428 0
-1431 1430 1428 0
1430 -1428 1431 0
1431 -1430 1428 0
1432 -1430 -1428 0
1430 -1432 0
-1432 1428 0
-1343 1433 -1429 0
-1433 1343 0
1429 -1433 0
-1434 1432 1433 0
1434 -1432 0
1434 -1433 0
-114 1435 -1347 0
-1435 114 0
-1435 1347 0
-1346 -1436 -1435 0
1435 1346 -1436 0
1346 -1435 1436 0
-1346 1435 1436 0
-1434 -1437 -1436 0
-1437 1434 1436 0
-1434 1437 1436 0
1437 1434 -1436 0
1438 -1434 -1436 0
-1438 1436 0
1434 -1438 0
-1346 1439 -1435 0
1346 -1439 0
1435 -1439 0
1438 1439 -1440 0
-1438 1440 0
1440 -1439 0
3 0
-8 0
-127 0
221 0
-315 0
-409 0
-503 0
597 0
-691 0
-785 0
-879 0
-973 0
1067 0
-1161 0
-1255 0
1349 0
-1353 0
-1359 0
-1365 0
-1371 0
-1377 0
-1383 0
-1389 0
-1395 0
-1401 0
-1407 0
-1413 0
-1419 0
-1425 0
-1431 0
-1437 0
-1440 0
