p cnf 1836 6030
-2 -1 3 0
1 -3 0
-3 2 0
5 -2 -4 0
-5 4 0
-5 2 0
-6 7 -1 0
1 -7 0
6 -7 0
-8 -5 -7 0
-8 5 7 0
5 8 -7 0
7 -5 8 0
9 -5 -7 0
5 -9 0
7 -9 0
-2 -10 11 0
10 -11 0
2 -11 0
-4 -6 12 0
-12 4 0
6 -12 0
-13 -12 -11 0
-13 12 11 0
13 -12 11 0
13 12 -11 0
-13 -9 -14 0
9 13 -14 0
14 -9 13 0
14 -13 9 0
15 -13 -9 0
13 -15 0
9 -15 0
16 -12 -11 0
-16 11 0
-16 12 0
15 16 -17 0
17 -15 0
17 -16 0
-2 -18 19 0
18 -19 0
-19 2 0
-6 -10 20 0
10 -20 0
-20 6 0
-19 -20 -21 0
-21 20 19 0
21 -20 19 0
-19 21 20 0
-22 -21 -17 0
21 17 -22 0
22 21 -17 0
22 17 -21 0
-21 23 -17 0
21 -23 0
17 -23 0
24 -19 -20 0
-24 19 0
20 -24 0
24 -25 23 0
25 -23 0
25 -24 0
-26 -2 27 0
-27 26 0
-27 2 0
-6 -18 28 0
18 -28 0
-28 6 0
-28 -29 -27 0
28 -29 27 0
-28 29 27 0
28 -27 29 0
-29 -25 -30 0
29 25 -30 0
30 29 -25 0
30 25 -29 0
31 -29 -25 0
-31 29 0
-31 25 0
-28 -27 32 0
-32 27 0
-32 28 0
31 32 -33 0
-31 33 0
33 -32 0
-2 35 -34 0
34 -35 0
2 -35 0
36 -26 -6 0
-36 26 0
6 -36 0
-37 -36 -35 0
36 35 -37 0
37 35 -36 0
36 37 -35 0
-38 -33 -37 0
33 -38 37 0
38 -33 37 0
38 33 -37 0
39 -33 -37 0
-39 37 0
-39 33 0
40 -36 -35 0
35 -40 0
36 -40 0
39 40 -41 0
-39 41 0
41 -40 0
-2 43 -42 0
-43 42 0
-43 2 0
-6 44 -34 0
34 -44 0
-44 6 0
-43 -44 -45 0
43 44 -45 0
43 -44 45 0
-43 44 45 0
-46 -41 -45 0
41 -46 45 0
46 -41 45 0
46 41 -45 0
47 -41 -45 0
-47 45 0
41 -47 0
-43 -44 48 0
-48 43 0
-48 44 0
-49 47 48 0
49 -47 0
-48 49 0
-2 51 -50 0
-51 50 0
-51 2 0
52 -6 -42 0
42 -52 0
6 -52 0
-51 -52 -53 0
52 51 -53 0
51 53 -52 0
52 -51 53 0
-53 -49 -54 0
49 53 -54 0
53 -49 54 0
-53 49 54 0
55 -53 -49 0
53 -55 0
49 -55 0
-51 56 -52 0
51 -56 0
52 -56 0
55 56 -57 0
-55 57 0
57 -56 0
59 -2 -58 0
-59 58 0
-59 2 0
60 -6 -50 0
-60 50 0
-60 6 0
-59 -60 -61 0
59 -61 60 0
59 61 -60 0
-59 61 60 0
-62 -61 -57 0
-62 61 57 0
62 61 -57 0
62 -61 57 0
63 -61 -57 0
61 -63 0
57 -63 0
-59 -60 64 0
59 -64 0
60 -64 0
64 63 -65 0
65 -63 0
65 -64 0
-2 67 -66 0
-67 66 0
-67 2 0
-6 68 -58 0
58 -68 0
6 -68 0
-67 -69 -68 0
68 -69 67 0
67 -68 69 0
-67 68 69 0
-69 -65 -70 0
-70 65 69 0
-65 70 69 0
65 -69 70 0
71 -69 -65 0
-71 69 0
65 -71 0
-67 72 -68 0
-72 67 0
-72 68 0
71 72 -73 0
-71 73 0
73 -72 0
-2 -74 75 0
74 -75 0
2 -75 0
76 -6 -66 0
-76 66 0
-76 6 0
-77 -76 -75 0
-77 76 75 0
-76 75 77 0
76 77 -75 0
-77 -73 -78 0
-78 73 77 0
78 -73 77 0
-77 78 73 0
-77 79 -73 0
-79 77 0
-79 73 0
-76 80 -75 0
-80 75 0
76 -80 0
79 80 -81 0
-79 81 0
81 -80 0
-2 -82 83 0
-83 82 0
-83 2 0
-6 -74 84 0
74 -84 0
-84 6 0
-84 -83 -85 0
84 -85 83 0
-84 85 83 0
-83 85 84 0
-86 -81 -85 0
-86 81 85 0
-81 85 86 0
81 86 -85 0
-81 -85 87 0
85 -87 0
81 -87 0
-84 -83 88 0
-88 83 0
-88 84 0
88 -89 87 0
-87 89 0
-88 89 0
91 -2 -90 0
90 -91 0
-91 2 0
-6 -82 92 0
82 -92 0
6 -92 0
-91 -93 -92 0
91 -93 92 0
91 93 -92 0
-91 92 93 0
-94 -89 -93 0
-94 93 89 0
93 -89 94 0
-93 94 89 0
-89 95 -93 0
93 -95 0
89 -95 0
-91 96 -92 0
91 -96 0
92 -96 0
96 95 -97 0
-95 97 0
-96 97 0
99 -2 -98 0
-99 98 0
-99 2 0
-90 -6 100 0
90 -100 0
6 -100 0
-99 -101 -100 0
99 -101 100 0
99 101 -100 0
-99 101 100 0
-101 -97 -102 0
101 -102 97 0
101 -97 102 0
-101 102 97 0
-101 103 -97 0
101 -103 0
-103 97 0
-99 104 -100 0
99 -104 0
-104 100 0
-105 103 104 0
105 -103 0
-104 105 0
-2 -106 107 0
106 -107 0
-107 2 0
108 -6 -98 0
-108 98 0
6 -108 0
-107 -108 -109 0
108 107 -109 0
-108 109 107 0
108 -107 109 0
-110 -105 -109 0
-110 109 105 0
-105 109 110 0
110 105 -109 0
111 -105 -109 0
109 -111 0
105 -111 0
112 -107 -108 0
107 -112 0
108 -112 0
111 112 -113 0
113 -111 0
113 -112 0
-114 -2 115 0
-115 114 0
2 -115 0
116 -6 -106 0
-116 106 0
-116 6 0
-116 -117 -115 0
116 115 -117 0
-116 115 117 0
116 117 -115 0
-113 -118 -117 0
-118 113 117 0
-113 117 118 0
113 118 -117 0
-113 119 -117 0
-119 117 0
113 -119 0
-116 120 -115 0
115 -120 0
116 -120 0
120 -121 119 0
-119 121 0
121 -120 0
123 -2 -122 0
-123 122 0
-123 2 0
-114 124 -6 0
-124 114 0
6 -124 0
-123 -124 -125 0
124 -125 123 0
125 -124 123 0
-123 124 125 0
-121 -125 -126 0
125 121 -126 0
125 -121 126 0
126 -125 121 0
127 -121 -125 0
125 -127 0
121 -127 0
-123 128 -124 0
-128 123 0
124 -128 0
127 128 -129 0
129 -127 0
-128 129 0
-130 -2 131 0
130 -131 0
-131 2 0
132 -6 -122 0
122 -132 0
6 -132 0
-133 -131 -132 0
131 -133 132 0
131 -132 133 0
-131 132 133 0
-129 -134 -133 0
-134 129 133 0
-129 134 133 0
129 134 -133 0
-129 135 -133 0
-135 133 0
-135 129 0
-131 136 -132 0
-136 131 0
-136 132 0
136 -137 135 0
-135 137 0
-136 137 0
-130 -6 138 0
130 -138 0
6 -138 0
-138 -137 -139 0
137 138 -139 0
137 139 -138 0
-137 139 138 0
-138 140 -137 0
137 -140 0
-140 138 0
142 -1 -141 0
1 -142 0
-142 141 0
-143 -14 -142 0
14 -143 142 0
14 -142 143 0
142 -14 143 0
144 -14 -142 0
14 -144 0
142 -144 0
145 -4 -141 0
-145 4 0
-145 141 0
-145 -146 -22 0
22 145 -146 0
22 146 -145 0
145 -22 146 0
-147 -146 -144 0
-147 144 146 0
147 -144 146 0
-146 144 147 0
-146 148 -144 0
-148 146 0
144 -148 0
-145 -22 149 0
22 -149 0
145 -149 0
-150 149 148 0
150 -148 0
-149 150 0
151 -141 -10 0
10 -151 0
141 -151 0
-152 -151 -30 0
151 30 -152 0
30 152 -151 0
151 152 -30 0
-153 -152 -150 0
-153 150 152 0
153 -150 152 0
153 -152 150 0
-152 154 -150 0
-154 152 0
-154 150 0
-151 155 -30 0
30 -155 0
151 -155 0
-156 154 155 0
-154 156 0
-155 156 0
157 -18 -141 0
18 -157 0
-157 141 0
-157 -158 -38 0
38 -158 157 0
38 -157 158 0
157 158 -38 0
-158 -159 -156 0
-159 156 158 0
159 -156 158 0
159 -158 156 0
-158 -156 160 0
-160 158 0
156 -160 0
-157 161 -38 0
38 -161 0
157 -161 0
161 160 -162 0
162 -160 0
162 -161 0
-26 -141 163 0
-163 26 0
-163 141 0
-163 -46 -164 0
-164 163 46 0
-163 164 46 0
164 -46 163 0
-164 -165 -162 0
164 162 -165 0
164 165 -162 0
-164 162 165 0
-164 166 -162 0
164 -166 0
162 -166 0
-163 -46 167 0
-167 46 0
-167 163 0
-168 166 167 0
168 -166 0
168 -167 0
169 -141 -34 0
34 -169 0
-169 141 0
-170 -54 -169 0
-170 169 54 0
170 -169 54 0
-54 170 169 0
-168 -170 -171 0
168 170 -171 0
-168 170 171 0
-170 168 171 0
-168 -170 172 0
170 -172 0
168 -172 0
-54 173 -169 0
-173 54 0
-173 169 0
172 173 -174 0
174 -172 0
-173 174 0
175 -141 -42 0
-175 42 0
-175 141 0
-62 -175 -176 0
62 175 -176 0
62 -175 176 0
-62 175 176 0
-177 -176 -174 0
176 -177 174 0
176 177 -174 0
177 174 -176 0
178 -176 -174 0
176 -178 0
-178 174 0
-62 -175 179 0
62 -179 0
175 -179 0
179 -180 178 0
180 -178 0
180 -179 0
181 -141 -50 0
50 -181 0
141 -181 0
-181 -182 -70 0
181 -182 70 0
182 70 -181 0
181 182 -70 0
-180 -182 -183 0
180 182 -183 0
-180 183 182 0
180 183 -182 0
-180 -182 184 0
182 -184 0
180 -184 0
185 -181 -70 0
-185 70 0
181 -185 0
185 184 -186 0
186 -184 0
186 -185 0
187 -141 -58 0
-187 58 0
-187 141 0
-187 -188 -78 0
-188 78 187 0
-187 78 188 0
188 187 -78 0
-188 -189 -186 0
186 188 -189 0
189 188 -186 0
-188 186 189 0
-188 -186 190 0
-190 188 0
-190 186 0
-187 191 -78 0
-191 78 0
-191 187 0
190 -192 191 0
-190 192 0
-191 192 0
193 -141 -66 0
-193 66 0
-193 141 0
-86 -194 -193 0
-194 86 193 0
-193 86 194 0
-86 194 193 0
-195 -192 -194 0
194 -195 192 0
194 -192 195 0
195 -194 192 0
-192 -194 196 0
194 -196 0
-196 192 0
-86 197 -193 0
86 -197 0
193 -197 0
-198 196 197 0
-196 198 0
198 -197 0
199 -74 -141 0
74 -199 0
141 -199 0
-94 -200 -199 0
199 -200 94 0
200 94 -199 0
-94 199 200 0
-198 -201 -200 0
200 -201 198 0
200 201 -198 0
201 -200 198 0
202 -198 -200 0
200 -202 0
-202 198 0
-94 203 -199 0
94 -203 0
199 -203 0
202 203 -204 0
-202 204 0
204 -203 0
205 -82 -141 0
82 -205 0
141 -205 0
-206 -205 -102 0
-206 205 102 0
206 -205 102 0
206 205 -102 0
-206 -207 -204 0
206 -207 204 0
206 207 -204 0
-206 207 204 0
-206 208 -204 0
206 -208 0
204 -208 0
209 -205 -102 0
-209 102 0
-209 205 0
208 209 -210 0
210 -208 0
210 -209 0
211 -90 -141 0
90 -211 0
141 -211 0
-110 -212 -211 0
211 -212 110 0
212 -211 110 0
-110 211 212 0
-213 -212 -210 0
-213 212 210 0
213 212 -210 0
213 -212 210 0
-212 214 -210 0
212 -214 0
210 -214 0
-110 -211 215 0
-215 110 0
211 -215 0
-216 214 215 0
216 -214 0
216 -215 0
217 -141 -98 0
-217 98 0
-217 141 0
-218 -217 -118 0
-218 217 118 0
218 -217 118 0
217 218 -118 0
-218 -216 -219 0
218 216 -219 0
218 -216 219 0
-218 216 219 0
-218 -216 220 0
218 -220 0
216 -220 0
221 -217 -118 0
-221 118 0
217 -221 0
220 -222 221 0
-220 222 0
-221 222 0
-141 -106 223 0
-223 106 0
-223 141 0
-223 -224 -126 0
126 223 -224 0
126 224 -223 0
224 223 -126 0
-222 -225 -224 0
-225 224 222 0
-222 224 225 0
225 222 -224 0
-222 226 -224 0
-226 224 0
-226 222 0
-223 227 -126 0
126 -227 0
-227 223 0
-228 227 226 0
-226 228 0
-227 228 0
-114 -141 229 0
-229 114 0
-229 141 0
-229 -230 -134 0
134 -230 229 0
230 134 -229 0
230 -134 229 0
-231 -228 -230 0
-231 228 230 0
-228 230 231 0
228 -230 231 0
232 -228 -230 0
230 -232 0
228 -232 0
-229 233 -134 0
134 -233 0
229 -233 0
233 232 -234 0
234 -232 0
234 -233 0
235 -141 -122 0
-235 122 0
-235 141 0
-236 -235 -139 0
-236 235 139 0
236 -235 139 0
236 235 -139 0
-236 -234 -237 0
236 234 -237 0
237 236 -234 0
-236 234 237 0
-236 238 -234 0
236 -238 0
234 -238 0
-235 239 -139 0
-239 139 0
235 -239 0
-240 238 239 0
240 -238 0
-239 240 0
-130 -141 241 0
130 -241 0
141 -241 0
-242 -140 -241 0
-242 140 241 0
242 140 -241 0
-140 241 242 0
-240 -242 -243 0
240 -243 242 0
-240 243 242 0
-242 240 243 0
-240 -242 244 0
-244 242 0
-244 240 0
-140 245 -241 0
140 -245 0
-245 241 0
-246 244 245 0
-244 246 0
-245 246 0
248 -1 -247 0
1 -248 0
247 -248 0
-249 -147 -248 0
-249 248 147 0
-248 249 147 0
-147 248 249 0
-147 -248 250 0
-250 147 0
-250 248 0
251 -4 -247 0
-251 4 0
-251 247 0
-153 -251 -252 0
153 251 -252 0
153 -251 252 0
-153 251 252 0
-250 -253 -252 0
-253 252 250 0
-250 253 252 0
-252 253 250 0
-250 -252 254 0
-254 252 0
-254 250 0
-153 -251 255 0
153 -255 0
251 -255 0
254 255 -256 0
-254 256 0
-255 256 0
257 -247 -10 0
10 -257 0
247 -257 0
-257 -159 -258 0
159 -258 257 0
159 -257 258 0
257 -159 258 0
-258 -259 -256 0
256 -259 258 0
-256 259 258 0
-258 259 256 0
260 -258 -256 0
-260 258 0
-260 256 0
-257 -159 261 0
159 -261 0
257 -261 0
260 -262 261 0
262 -260 0
262 -261 0
263 -18 -247 0
18 -263 0
247 -263 0
-264 -165 -263 0
-264 263 165 0
264 165 -263 0
263 -165 264 0
-264 -262 -265 0
262 -265 264 0
-262 265 264 0
-264 262 265 0
-264 -262 266 0
-266 264 0
-266 262 0
267 -165 -263 0
165 -267 0
263 -267 0
267 -268 266 0
-266 268 0
268 -267 0
-26 -247 269 0
-269 26 0
247 -269 0
-269 -270 -171 0
-270 171 269 0
270 -269 171 0
270 -171 269 0
-268 -270 -271 0
270 -271 268 0
270 -268 271 0
-270 268 271 0
272 -268 -270 0
270 -272 0
-272 268 0
-269 -171 273 0
171 -273 0
-273 269 0
272 -274 273 0
274 -272 0
274 -273 0
275 -247 -34 0
34 -275 0
247 -275 0
-177 -275 -276 0
275 177 -276 0
276 177 -275 0
-177 275 276 0
-274 -276 -277 0
274 276 -277 0
277 276 -274 0
274 277 -276 0
278 -274 -276 0
-278 276 0
274 -278 0
-177 279 -275 0
-279 177 0
275 -279 0
-280 279 278 0
-278 280 0
-279 280 0
281 -247 -42 0
42 -281 0
247 -281 0
-282 -183 -281 0
281 183 -282 0
282 183 -281 0
282 281 -183 0
-280 -282 -283 0
282 280 -283 0
282 283 -280 0
280 283 -282 0
-280 284 -282 0
282 -284 0
-284 280 0
285 -183 -281 0
183 -285 0
281 -285 0
284 -286 285 0
286 -284 0
286 -285 0
287 -247 -50 0
-287 50 0
247 -287 0
-189 -287 -288 0
287 189 -288 0
288 -287 189 0
287 -189 288 0
-289 -286 -288 0
288 -289 286 0
288 -286 289 0
286 -288 289 0
290 -286 -288 0
288 -290 0
-290 286 0
-189 -287 291 0
-291 189 0
287 -291 0
290 291 -292 0
-290 292 0
292 -291 0
293 -247 -58 0
58 -293 0
247 -293 0
-195 -294 -293 0
195 -294 293 0
195 294 -293 0
-195 294 293 0
-294 -292 -295 0
294 292 -295 0
295 294 -292 0
295 -294 292 0
296 -294 -292 0
294 -296 0
292 -296 0
-195 297 -293 0
-297 195 0
-297 293 0
-298 296 297 0
-296 298 0
-297 298 0
-247 299 -66 0
-299 66 0
-299 247 0
-299 -201 -300 0
201 299 -300 0
300 -299 201 0
300 -201 299 0
-298 -301 -300 0
300 -301 298 0
300 -298 301 0
301 -300 298 0
-298 302 -300 0
300 -302 0
-302 298 0
303 -299 -201 0
-303 201 0
-303 299 0
303 302 -304 0
-302 304 0
-303 304 0
305 -74 -247 0
74 -305 0
247 -305 0
-306 -305 -207 0
305 -306 207 0
306 -305 207 0
305 -207 306 0
-306 -307 -304 0
306 -307 304 0
306 307 -304 0
-306 307 304 0
-306 308 -304 0
306 -308 0
-308 304 0
-305 309 -207 0
207 -309 0
305 -309 0
308 309 -310 0
-308 310 0
310 -309 0
-82 311 -247 0
82 -311 0
247 -311 0
-213 -311 -312 0
213 -312 311 0
213 312 -311 0
-213 312 311 0
-313 -312 -310 0
312 -313 310 0
312 313 -310 0
310 313 -312 0
314 -312 -310 0
312 -314 0
-314 310 0
-213 -311 315 0
213 -315 0
-315 311 0
-316 314 315 0
316 -314 0
316 -315 0
-90 -247 317 0
90 -317 0
247 -317 0
-317 -219 -318 0
219 -318 317 0
318 -317 219 0
318 -219 317 0
-319 -316 -318 0
318 316 -319 0
318 -316 319 0
316 -318 319 0
-316 320 -318 0
318 -320 0
-320 316 0
321 -317 -219 0
219 -321 0
-321 317 0
321 320 -322 0
-320 322 0
322 -321 0
323 -247 -98 0
-323 98 0
-323 247 0
-324 -323 -225 0
-324 323 225 0
-323 324 225 0
-225 323 324 0
-324 -325 -322 0
-325 324 322 0
324 325 -322 0
-324 322 325 0
-324 326 -322 0
324 -326 0
-326 322 0
-323 -225 327 0
-327 225 0
-327 323 0
326 -328 327 0
-326 328 0
-327 328 0
329 -247 -106 0
-329 106 0
-329 247 0
-231 -330 -329 0
329 231 -330 0
-329 330 231 0
-231 329 330 0
-330 -328 -331 0
330 -331 328 0
331 -328 330 0
331 -330 328 0
332 -330 -328 0
-332 330 0
-332 328 0
-231 333 -329 0
-333 231 0
329 -333 0
333 -334 332 0
334 -332 0
334 -333 0
-114 -247 335 0
-335 114 0
247 -335 0
-336 -335 -237 0
-336 237 335 0
336 -335 237 0
336 335 -237 0
-336 -334 -337 0
336 334 -337 0
336 337 -334 0
334 -336 337 0
338 -336 -334 0
336 -338 0
334 -338 0
339 -335 -237 0
-339 237 0
-339 335 0
339 338 -340 0
-338 340 0
-339 340 0
341 -247 -122 0
-341 122 0
247 -341 0
-342 -341 -243 0
-342 243 341 0
-341 243 342 0
342 -243 341 0
-340 -342 -343 0
-343 340 342 0
-340 343 342 0
343 -342 340 0
-340 -342 344 0
-344 342 0
-344 340 0
345 -341 -243 0
-345 243 0
-345 341 0
345 -346 344 0
346 -344 0
-345 346 0
-130 347 -247 0
130 -347 0
247 -347 0
-246 -347 -348 0
347 -348 246 0
348 -347 246 0
-246 348 347 0
-349 -346 -348 0
-349 348 346 0
349 -346 348 0
349 -348 346 0
-346 350 -348 0
348 -350 0
-350 346 0
-246 351 -347 0
-351 246 0
347 -351 0
351 350 -352 0
-350 352 0
-351 352 0
354 -353 -1 0
1 -354 0
353 -354 0
-355 -253 -354 0
-355 354 253 0
253 355 -354 0
354 -253 355 0
356 -253 -354 0
-356 253 0
354 -356 0
-353 -4 357 0
-357 4 0
353 -357 0
-358 -357 -259 0
-358 357 259 0
-357 358 259 0
358 357 -259 0
-358 -356 -359 0
356 -359 358 0
359 -356 358 0
-358 356 359 0
-358 -356 360 0
358 -360 0
356 -360 0
-357 361 -259 0
-361 259 0
-361 357 0
361 -362 360 0
362 -360 0
362 -361 0
-353 363 -10 0
10 -363 0
353 -363 0
-363 -265 -364 0
363 -364 265 0
-363 364 265 0
364 -265 363 0
-365 -362 -364 0
362 -365 364 0
-362 364 365 0
362 -364 365 0
366 -362 -364 0
-366 364 0
-366 362 0
-363 367 -265 0
265 -367 0
363 -367 0
366 367 -368 0
-366 368 0
368 -367 0
-353 -18 369 0
18 -369 0
353 -369 0
-369 -370 -271 0
-370 369 271 0
-369 370 271 0
370 -271 369 0
-370 -371 -368 0
370 368 -371 0
370 371 -368 0
-370 371 368 0
-370 372 -368 0
-372 370 0
-372 368 0
-369 -271 373 0
-373 271 0
-373 369 0
372 373 -374 0
-372 374 0
374 -373 0
-26 -353 375 0
-375 26 0
353 -375 0
-375 -376 -277 0
-376 277 375 0
-375 376 277 0
375 376 -277 0
-377 -376 -374 0
-377 374 376 0
377 376 -374 0
377 374 -376 0
-376 378 -374 0
-378 376 0
-378 374 0
-375 379 -277 0
-379 277 0
-379 375 0
-380 378 379 0
-378 380 0
-379 380 0
-353 381 -34 0
34 -381 0
353 -381 0
-381 -382 -283 0
283 -382 381 0
283 382 -381 0
381 -283 382 0
-380 -382 -383 0
-383 382 380 0
-380 382 383 0
383 -382 380 0
-380 -382 384 0
382 -384 0
380 -384 0
385 -381 -283 0
283 -385 0
381 -385 0
385 -386 384 0
386 -384 0
386 -385 0
-353 -42 387 0
42 -387 0
353 -387 0
-388 -289 -387 0
387 -388 289 0
388 -387 289 0
388 -289 387 0
-389 -388 -386 0
388 -389 386 0
388 -386 389 0
389 -388 386 0
390 -388 -386 0
388 -390 0
-390 386 0
-289 391 -387 0
-391 289 0
-391 387 0
390 391 -392 0
-390 392 0
392 -391 0
-353 393 -50 0
-393 50 0
353 -393 0
-394 -393 -295 0
295 393 -394 0
295 -393 394 0
394 393 -295 0
-392 -395 -394 0
-395 392 394 0
-392 395 394 0
392 395 -394 0
-392 -394 396 0
-396 394 0
392 -396 0
397 -393 -295 0
295 -397 0
393 -397 0
397 396 -398 0
398 -396 0
398 -397 0
-353 399 -58 0
-399 58 0
353 -399 0
-399 -301 -400 0
-400 301 399 0
-399 301 400 0
-301 400 399 0
-398 -401 -400 0
398 400 -401 0
401 400 -398 0
398 401 -400 0
-398 402 -400 0
-402 400 0
398 -402 0
-399 -301 403 0
301 -403 0
-403 399 0
-404 402 403 0
-402 404 0
404 -403 0
405 -353 -66 0
-405 66 0
353 -405 0
-307 -406 -405 0
405 307 -406 0
406 307 -405 0
-307 406 405 0
-407 -404 -406 0
-407 406 404 0
407 406 -404 0
407 404 -406 0
-404 408 -406 0
406 -408 0
404 -408 0
-307 409 -405 0
-409 307 0
405 -409 0
409 408 -410 0
410 -408 0
410 -409 0
-353 -74 411 0
74 -411 0
353 -411 0
-412 -313 -411 0
-412 313 411 0
313 -411 412 0
-313 411 412 0
-412 -413 -410 0
410 -413 412 0
413 -410 412 0
-412 413 410 0
-412 414 -410 0
-414 412 0
410 -414 0
-313 -411 415 0
313 -415 0
-415 411 0
414 415 -416 0
-414 416 0
416 -415 0
-353 -82 417 0
82 -417 0
353 -417 0
-319 -418 -417 0
417 -418 319 0
-417 418 319 0
-319 418 417 0
-418 -416 -419 0
-419 416 418 0
419 -416 418 0
-418 416 419 0
-418 -416 420 0
-420 418 0
-420 416 0
-319 -417 421 0
-421 319 0
-421 417 0
-422 421 420 0
422 -420 0
422 -421 0
-353 -90 423 0
90 -423 0
353 -423 0
-424 -325 -423 0
-424 423 325 0
424 325 -423 0
423 424 -325 0
-422 -424 -425 0
422 424 -425 0
425 -422 424 0
425 422 -424 0
-422 -424 426 0
424 -426 0
422 -426 0
427 -325 -423 0
-427 325 0
-427 423 0
-428 427 426 0
-426 428 0
-427 428 0
-353 429 -98 0
-429 98 0
353 -429 0
-430 -429 -331 0
331 429 -430 0
331 430 -429 0
430 429 -331 0
-428 -431 -430 0
430 -431 428 0
-428 430 431 0
431 -430 428 0
-428 432 -430 0
-432 430 0
-432 428 0
433 -429 -331 0
331 -433 0
-433 429 0
432 -434 433 0
-432 434 0
434 -433 0
-353 435 -106 0
106 -435 0
353 -435 0
-435 -436 -337 0
337 -436 435 0
337 -435 436 0
436 435 -337 0
-434 -436 -437 0
434 436 -437 0
-434 437 436 0
434 437 -436 0
438 -434 -436 0
-438 436 0
434 -438 0
439 -435 -337 0
337 -439 0
-439 435 0
438 -440 439 0
440 -438 0
440 -439 0
-114 -353 441 0
-441 114 0
353 -441 0
-343 -442 -441 0
343 -442 441 0
343 442 -441 0
-343 442 441 0
-440 -442 -443 0
-443 440 442 0
-440 442 443 0
-442 440 443 0
-440 -442 444 0
442 -444 0
440 -444 0
-343 445 -441 0
343 -445 0
-445 441 0
445 -446 444 0
-444 446 0
-445 446 0
-353 447 -122 0
-447 122 0
353 -447 0
-349 -447 -448 0
349 447 -448 0
349 -447 448 0
-349 447 448 0
-449 -446 -448 0
-449 446 448 0
449 -446 448 0
449 446 -448 0
-446 450 -448 0
-450 448 0
-450 446 0
-349 -447 451 0
-451 349 0
-451 447 0
450 451 -452 0
-450 452 0
-451 452 0
-130 -353 453 0
130 -453 0
353 -453 0
-454 -352 -453 0
453 -454 352 0
454 -453 352 0
454 453 -352 0
-454 -455 -452 0
454 -455 452 0
454 455 -452 0
-454 455 452 0
456 -454 -452 0
454 -456 0
-456 452 0
457 -352 -453 0
-457 352 0
453 -457 0
456 457 -458 0
-456 458 0
-457 458 0
460 -459 -1 0
1 -460 0
-460 459 0
-359 -460 -461 0
359 460 -461 0
359 461 -460 0
460 -359 461 0
-359 -460 462 0
359 -462 0
-462 460 0
-459 -4 463 0
4 -463 0
-463 459 0
-365 -464 -463 0
463 -464 365 0
464 365 -463 0
-365 464 463 0
-462 -465 -464 0
-465 464 462 0
-462 464 465 0
465 462 -464 0
-462 466 -464 0
464 -466 0
462 -466 0
-365 467 -463 0
-467 365 0
-467 463 0
467 466 -468 0
-466 468 0
-467 468 0
-459 469 -10 0
10 -469 0
-469 459 0
-469 -470 -371 0
371 -470 469 0
-469 371 470 0
470 469 -371 0
-468 -470 -471 0
-471 470 468 0
471 -468 470 0
471 -470 468 0
-468 472 -470 0
-472 470 0
-472 468 0
-469 473 -371 0
-473 371 0
-473 469 0
472 -474 473 0
-472 474 0
-473 474 0
475 -459 -18 0
18 -475 0
-475 459 0
-377 -476 -475 0
475 377 -476 0
476 377 -475 0
-377 475 476 0
-476 -474 -477 0
476 -477 474 0
476 -474 477 0
-476 474 477 0
-476 -474 478 0
476 -478 0
-478 474 0
-377 479 -475 0
-479 377 0
475 -479 0
-480 479 478 0
-478 480 0
-479 480 0
481 -26 -459 0
-481 26 0
-481 459 0
-481 -482 -383 0
481 -482 383 0
-481 482 383 0
481 482 -383 0
-480 -482 -483 0
482 480 -483 0
482 483 -480 0
483 480 -482 0
-480 484 -482 0
482 -484 0
480 -484 0
-481 485 -383 0
383 -485 0
481 -485 0
485 484 -486 0
486 -484 0
486 -485 0
487 -459 -34 0
34 -487 0
-487 459 0
-389 -487 -488 0
389 487 -488 0
389 -487 488 0
-389 487 488 0
-489 -488 -486 0
-489 488 486 0
489 488 -486 0
489 -488 486 0
490 -488 -486 0
-490 488 0
-490 486 0
-389 491 -487 0
389 -491 0
487 -491 0
-492 491 490 0
-490 492 0
492 -491 0
493 -459 -42 0
-493 42 0
-493 459 0
-493 -395 -494 0
395 493 -494 0
395 -493 494 0
493 -395 494 0
-492 -495 -494 0
492 -495 494 0
-492 495 494 0
492 495 -494 0
-492 496 -494 0
-496 494 0
-496 492 0
-493 -395 497 0
395 -497 0
493 -497 0
496 497 -498 0
-496 498 0
498 -497 0
499 -459 -50 0
-499 50 0
-499 459 0
-500 -499 -401 0
499 401 -500 0
401 -499 500 0
499 500 -401 0
-500 -501 -498 0
-501 498 500 0
-498 500 501 0
-500 498 501 0
-500 502 -498 0
500 -502 0
498 -502 0
-499 -401 503 0
401 -503 0
499 -503 0
502 -504 503 0
504 -502 0
504 -503 0
-459 505 -58 0
-505 58 0
-505 459 0
-407 -505 -506 0
407 505 -506 0
506 407 -505 0
-407 505 506 0
-507 -504 -506 0
506 -507 504 0
506 507 -504 0
507 504 -506 0
508 -504 -506 0
506 -508 0
504 -508 0
-407 509 -505 0
-509 407 0
-509 505 0
509 508 -510 0
510 -508 0
-509 510 0
-459 511 -66 0
-511 66 0
-511 459 0
-512 -413 -511 0
-512 413 511 0
-511 413 512 0
-413 511 512 0
-512 -513 -510 0
510 -513 512 0
513 -510 512 0
-512 513 510 0
-512 514 -510 0
-514 512 0
-514 510 0
515 -413 -511 0
-515 413 0
-515 511 0
515 -516 514 0
516 -514 0
516 -515 0
-459 517 -74 0
74 -517 0
-517 459 0
-419 -518 -517 0
419 517 -518 0
419 -517 518 0
-419 517 518 0
-516 -518 -519 0
-519 516 518 0
-516 519 518 0
519 -518 516 0
-516 -518 520 0
-520 518 0
-520 516 0
-419 521 -517 0
419 -521 0
517 -521 0
521 520 -522 0
522 -520 0
522 -521 0
-459 -82 523 0
82 -523 0
-523 459 0
-523 -524 -425 0
425 -524 523 0
425 -523 524 0
523 524 -425 0
-525 -524 -522 0
-525 522 524 0
525 524 -522 0
525 522 -524 0
526 -524 -522 0
524 -526 0
522 -526 0
527 -523 -425 0
425 -527 0
-527 523 0
526 527 -528 0
528 -526 0
528 -527 0
529 -459 -90 0
90 -529 0
-529 459 0
-530 -431 -529 0
529 431 -530 0
431 530 -529 0
529 530 -431 0
-528 -531 -530 0
528 530 -531 0
-528 530 531 0
528 -530 531 0
-528 -530 532 0
-532 530 0
-532 528 0
533 -431 -529 0
431 -533 0
529 -533 0
533 -534 532 0
-532 534 0
534 -533 0
-459 -98 535 0
-535 98 0
-535 459 0
-536 -535 -437 0
437 -536 535 0
536 437 -535 0
536 535 -437 0
-537 -534 -536 0
536 534 -537 0
536 -534 537 0
534 537 -536 0
-534 -536 538 0
536 -538 0
-538 534 0
539 -535 -437 0
437 -539 0
-539 535 0
-540 539 538 0
540 -538 0
540 -539 0
-459 541 -106 0
106 -541 0
-541 459 0
-443 -542 -541 0
541 -542 443 0
542 443 -541 0
541 -443 542 0
-540 -543 -542 0
540 -543 542 0
-540 542 543 0
540 -542 543 0
-540 -542 544 0
542 -544 0
540 -544 0
545 -443 -541 0
-545 443 0
-545 541 0
545 -546 544 0
546 -544 0
-545 546 0
-114 -459 547 0
-547 114 0
-547 459 0
-449 -548 -547 0
-548 547 449 0
548 -547 449 0
-449 547 548 0
-546 -548 -549 0
-549 546 548 0
-546 549 548 0
549 -548 546 0
-546 -548 550 0
-550 548 0
546 -550 0
-449 551 -547 0
-551 449 0
-551 547 0
-552 550 551 0
552 -550 0
-551 552 0
-459 553 -122 0
-553 122 0
-553 459 0
-554 -455 -553 0
-554 553 455 0
554 -553 455 0
-455 553 554 0
-554 -552 -555 0
-555 554 552 0
-552 555 554 0
-554 555 552 0
-554 -552 556 0
-556 554 0
-556 552 0
557 -455 -553 0
-557 455 0
553 -557 0
557 -558 556 0
-556 558 0
558 -557 0
-130 -459 559 0
130 -559 0
-559 459 0
-560 -559 -458 0
458 559 -560 0
-559 458 560 0
560 559 -458 0
-558 -561 -560 0
-561 558 560 0
561 -558 560 0
561 558 -560 0
562 -558 -560 0
-562 560 0
-562 558 0
563 -559 -458 0
458 -563 0
559 -563 0
562 -564 563 0
-562 564 0
564 -563 0
-565 -1 566 0
1 -566 0
-566 565 0
-465 -566 -567 0
465 -567 566 0
465 -566 567 0
-465 566 567 0
-465 -566 568 0
465 -568 0
-568 566 0
-565 569 -4 0
-569 4 0
-569 565 0
-569 -570 -471 0
471 569 -570 0
471 570 -569 0
570 569 -471 0
-568 -570 -571 0
570 -571 568 0
570 -568 571 0
571 -570 568 0
-568 -570 572 0
570 -572 0
-572 568 0
573 -569 -471 0
471 -573 0
569 -573 0
573 572 -574 0
574 -572 0
574 -573 0
575 -565 -10 0
10 -575 0
-575 565 0
-575 -477 -576 0
575 -576 477 0
-575 576 477 0
575 -477 576 0
-576 -574 -577 0
574 576 -577 0
577 576 -574 0
574 577 -576 0
-576 578 -574 0
-578 576 0
574 -578 0
-575 579 -477 0
-579 477 0
575 -579 0
578 579 -580 0
-578 580 0
-579 580 0
-565 581 -18 0
18 -581 0
-581 565 0
-582 -581 -483 0
483 581 -582 0
483 -581 582 0
582 581 -483 0
-583 -582 -580 0
-583 580 582 0
583 -580 582 0
583 -582 580 0
584 -582 -580 0
-584 582 0
580 -584 0
-581 585 -483 0
483 -585 0
-585 581 0
584 -586 585 0
586 -584 0
-585 586 0
-26 587 -565 0
-587 26 0
-587 565 0
-588 -587 -489 0
-588 489 587 0
489 -587 588 0
587 588 -489 0
-588 -586 -589 0
588 -589 586 0
588 -586 589 0
-588 586 589 0
590 -588 -586 0
588 -590 0
586 -590 0
591 -587 -489 0
489 -591 0
587 -591 0
590 591 -592 0
592 -590 0
592 -591 0
-565 -34 593 0
34 -593 0
-593 565 0
-593 -594 -495 0
-594 495 593 0
-593 594 495 0
594 -495 593 0
-594 -595 -592 0
-595 594 592 0
594 -592 595 0
-594 595 592 0
-594 596 -592 0
594 -596 0
-596 592 0
-593 597 -495 0
495 -597 0
593 -597 0
597 -598 596 0
-596 598 0
598 -597 0
-565 599 -42 0
42 -599 0
565 -599 0
-501 -600 -599 0
599 -600 501 0
600 501 -599 0
600 -501 599 0
-601 -598 -600 0
600 -601 598 0
601 600 -598 0
601 -600 598 0
-598 -600 602 0
600 -602 0
-602 598 0
-501 603 -599 0
-603 501 0
-603 599 0
-604 603 602 0
604 -602 0
-603 604 0
-565 605 -50 0
-605 50 0
-605 565 0
-605 -507 -606 0
605 -606 507 0
-605 606 507 0
605 -507 606 0
-604 -606 -607 0
606 604 -607 0
-604 606 607 0
-606 604 607 0
-604 608 -606 0
606 -608 0
604 -608 0
-605 -507 609 0
-609 507 0
-609 605 0
608 609 -610 0
610 -608 0
610 -609 0
-565 611 -58 0
-611 58 0
-611 565 0
-611 -513 -612 0
513 611 -612 0
-611 513 612 0
612 611 -513 0
-610 -613 -612 0
612 610 -613 0
612 -610 613 0
610 613 -612 0
614 -610 -612 0
612 -614 0
610 -614 0
-611 -513 615 0
513 -615 0
-615 611 0
614 -616 615 0
-614 616 0
-615 616 0
-565 617 -66 0
-617 66 0
-617 565 0
-618 -617 -519 0
-618 519 617 0
-617 519 618 0
617 -519 618 0
-618 -619 -616 0
-619 616 618 0
619 618 -616 0
-618 616 619 0
620 -618 -616 0
-620 618 0
-620 616 0
621 -617 -519 0
-621 519 0
-621 617 0
620 -622 621 0
-620 622 0
-621 622 0
-565 -74 623 0
74 -623 0
-623 565 0
-624 -623 -525 0
-624 525 623 0
-623 525 624 0
624 -525 623 0
-622 -625 -624 0
-625 622 624 0
-622 625 624 0
622 -624 625 0
-622 626 -624 0
-626 624 0
622 -626 0
627 -623 -525 0
-627 525 0
-627 623 0
627 626 -628 0
628 -626 0
-627 628 0
629 -565 -82 0
82 -629 0
-629 565 0
-630 -531 -629 0
629 -630 531 0
-629 630 531 0
629 -531 630 0
-630 -631 -628 0
-631 628 630 0
631 630 -628 0
-630 631 628 0
-630 632 -628 0
-632 630 0
-632 628 0
-531 633 -629 0
-633 531 0
629 -633 0
632 633 -634 0
-632 634 0
-633 634 0
-565 -90 635 0
90 -635 0
-635 565 0
-635 -537 -636 0
-636 537 635 0
-635 636 537 0
-537 636 635 0
-636 -637 -634 0
636 634 -637 0
637 636 -634 0
-636 634 637 0
638 -636 -634 0
636 -638 0
634 -638 0
-635 -537 639 0
537 -639 0
-639 635 0
638 -640 639 0
640 -638 0
640 -639 0
-565 641 -98 0
-641 98 0
-641 565 0
-642 -543 -641 0
641 -642 543 0
-641 543 642 0
-543 641 642 0
-642 -640 -643 0
640 -643 642 0
643 -640 642 0
640 643 -642 0
644 -642 -640 0
-644 642 0
640 -644 0
-543 -641 645 0
543 -645 0
641 -645 0
644 645 -646 0
-644 646 0
646 -645 0
647 -565 -106 0
106 -647 0
-647 565 0
-648 -647 -549 0
647 -648 549 0
648 -647 549 0
647 648 -549 0
-649 -648 -646 0
-649 648 646 0
648 649 -646 0
-648 646 649 0
-648 650 -646 0
-650 648 0
-650 646 0
651 -647 -549 0
-651 549 0
647 -651 0
651 -652 650 0
652 -650 0
652 -651 0
-114 653 -565 0
-653 114 0
-653 565 0
-653 -555 -654 0
653 555 -654 0
654 -653 555 0
654 -555 653 0
-652 -655 -654 0
652 654 -655 0
654 -652 655 0
652 655 -654 0
-652 656 -654 0
654 -656 0
652 -656 0
-653 657 -555 0
-657 555 0
-657 653 0
657 656 -658 0
658 -656 0
-657 658 0
-565 659 -122 0
-659 122 0
-659 565 0
-660 -659 -561 0
561 659 -660 0
561 660 -659 0
659 660 -561 0
-660 -661 -658 0
658 -661 660 0
660 -658 661 0
658 -660 661 0
-660 662 -658 0
-662 660 0
658 -662 0
-659 663 -561 0
561 -663 0
659 -663 0
-664 663 662 0
664 -662 0
664 -663 0
-130 665 -565 0
130 -665 0
565 -665 0
-665 -666 -564 0
564 665 -666 0
666 564 -665 0
666 665 -564 0
-667 -664 -666 0
666 664 -667 0
666 -664 667 0
664 667 -666 0
668 -664 -666 0
666 -668 0
-668 664 0
-665 669 -564 0
-669 564 0
-669 665 0
669 668 -670 0
-668 670 0
-669 670 0
672 -1 -671 0
1 -672 0
-672 671 0
-673 -571 -672 0
672 571 -673 0
673 571 -672 0
672 -571 673 0
674 -571 -672 0
-674 571 0
-674 672 0
675 -4 -671 0
-675 4 0
-675 671 0
-675 -676 -577 0
577 675 -676 0
577 -675 676 0
675 676 -577 0
-676 -674 -677 0
674 676 -677 0
-674 676 677 0
-676 674 677 0
-676 678 -674 0
676 -678 0
674 -678 0
-675 679 -577 0
577 -679 0
675 -679 0
678 -680 679 0
-678 680 0
-679 680 0
681 -10 -671 0
10 -681 0
-681 671 0
-682 -583 -681 0
681 583 -682 0
583 682 -681 0
681 -583 682 0
-682 -683 -680 0
-683 682 680 0
-680 683 682 0
-682 683 680 0
-682 684 -680 0
-684 682 0
-684 680 0
-583 685 -681 0
-685 583 0
681 -685 0
684 685 -686 0
-684 686 0
-685 686 0
687 -18 -671 0
18 -687 0
-687 671 0
-687 -688 -589 0
687 589 -688 0
688 -687 589 0
687 688 -589 0
-686 -688 -689 0
688 -689 686 0
-686 688 689 0
689 -688 686 0
690 -686 -688 0
688 -690 0
686 -690 0
-687 691 -589 0
-691 589 0
-691 687 0
-692 690 691 0
692 -690 0
-691 692 0
693 -26 -671 0
-693 26 0
-693 671 0
-694 -595 -693 0
693 -694 595 0
694 595 -693 0
693 -595 694 0
-692 -694 -695 0
694 -695 692 0
-692 694 695 0
-694 695 692 0
-692 -694 696 0
-696 694 0
-696 692 0
-595 -693 697 0
-697 595 0
693 -697 0
697 -698 696 0
-696 698 0
-697 698 0
699 -34 -671 0
34 -699 0
-699 671 0
-700 -601 -699 0
601 699 -700 0
601 700 -699 0
700 699 -601 0
-700 -701 -698 0
698 700 -701 0
700 701 -698 0
698 -700 701 0
702 -700 -698 0
-702 700 0
-702 698 0
-601 -699 703 0
601 -703 0
699 -703 0
702 703 -704 0
-702 704 0
704 -703 0
705 -42 -671 0
-705 42 0
-705 671 0
-705 -706 -607 0
705 -706 607 0
706 -705 607 0
705 706 -607 0
-707 -706 -704 0
706 -707 704 0
706 -704 707 0
-706 704 707 0
708 -706 -704 0
706 -708 0
704 -708 0
709 -705 -607 0
-709 607 0
705 -709 0
709 708 -710 0
-708 710 0
-709 710 0
711 -50 -671 0
50 -711 0
-711 671 0
-712 -711 -613 0
711 -712 613 0
712 613 -711 0
712 711 -613 0
-713 -712 -710 0
712 -713 710 0
712 713 -710 0
713 -712 710 0
714 -712 -710 0
712 -714 0
710 -714 0
715 -711 -613 0
-715 613 0
711 -715 0
-716 714 715 0
716 -714 0
-715 716 0
717 -671 -58 0
-717 58 0
-717 671 0
-717 -718 -619 0
-718 619 717 0
-717 718 619 0
718 -619 717 0
-716 -718 -719 0
-719 718 716 0
-716 718 719 0
-718 716 719 0
-716 720 -718 0
718 -720 0
-720 716 0
-717 721 -619 0
-721 619 0
-721 717 0
720 721 -722 0
-720 722 0
-721 722 0
723 -671 -66 0
-723 66 0
-723 671 0
-723 -625 -724 0
723 -724 625 0
-723 724 625 0
723 -625 724 0
-722 -725 -724 0
-725 724 722 0
725 -722 724 0
725 -724 722 0
726 -722 -724 0
-726 724 0
-726 722 0
-723 -625 727 0
-727 625 0
723 -727 0
726 -728 727 0
728 -726 0
-727 728 0
729 -74 -671 0
-729 74 0
-729 671 0
-729 -631 -730 0
631 -730 729 0
-729 631 730 0
-631 730 729 0
-728 -730 -731 0
728 730 -731 0
-728 730 731 0
728 -730 731 0
-728 -730 732 0
730 -732 0
728 -732 0
-729 -631 733 0
631 -733 0
-733 729 0
-734 732 733 0
734 -732 0
-733 734 0
-82 735 -671 0
82 -735 0
-735 671 0
-736 -735 -637 0
-736 735 637 0
736 -735 637 0
736 735 -637 0
-736 -737 -734 0
-737 736 734 0
736 -734 737 0
-736 737 734 0
-736 738 -734 0
-738 736 0
-738 734 0
739 -735 -637 0
-739 637 0
-739 735 0
738 739 -740 0
-738 740 0
-739 740 0
741 -90 -671 0
90 -741 0
-741 671 0
-742 -741 -643 0
-742 643 741 0
643 -741 742 0
741 742 -643 0
-742 -740 -743 0
740 742 -743 0
-740 742 743 0
-742 740 743 0
-742 744 -740 0
-744 742 0
740 -744 0
745 -741 -643 0
643 -745 0
741 -745 0
-746 744 745 0
746 -744 0
746 -745 0
-98 747 -671 0
98 -747 0
-747 671 0
-649 -748 -747 0
-748 649 747 0
748 649 -747 0
-649 748 747 0
-746 -748 -749 0
746 748 -749 0
-746 748 749 0
746 -748 749 0
-746 -748 750 0
-750 748 0
746 -750 0
-649 751 -747 0
-751 649 0
-751 747 0
-752 751 750 0
752 -750 0
752 -751 0
753 -106 -671 0
-753 106 0
-753 671 0
-753 -655 -754 0
655 753 -754 0
655 -753 754 0
753 754 -655 0
-752 -755 -754 0
752 754 -755 0
754 755 -752 0
752 755 -754 0
756 -752 -754 0
754 -756 0
752 -756 0
-753 -655 757 0
655 -757 0
753 -757 0
-758 756 757 0
758 -756 0
758 -757 0
-114 759 -671 0
-759 114 0
-759 671 0
-760 -661 -759 0
759 -760 661 0
760 -759 661 0
759 760 -661 0
-760 -758 -761 0
-761 758 760 0
-758 761 760 0
-760 758 761 0
-760 -758 762 0
-762 760 0
-762 758 0
-661 -759 763 0
-763 661 0
759 -763 0
762 -764 763 0
-762 764 0
764 -763 0
-671 765 -122 0
-765 122 0
-765 671 0
-667 -766 -765 0
-766 667 765 0
766 667 -765 0
-667 766 765 0
-766 -764 -767 0
766 764 -767 0
766 767 -764 0
-766 767 764 0
-766 768 -764 0
766 -768 0
764 -768 0
-667 769 -765 0
667 -769 0
765 -769 0
769 -770 768 0
770 -768 0
770 -769 0
771 -130 -671 0
130 -771 0
-771 671 0
-772 -670 -771 0
771 -772 670 0
772 670 -771 0
771 772 -670 0
-773 -770 -772 0
-773 770 772 0
773 -770 772 0
773 770 -772 0
-770 -772 774 0
-774 772 0
-774 770 0
775 -670 -771 0
-775 670 0
771 -775 0
775 774 -776 0
776 -774 0
776 -775 0
-1 -777 778 0
1 -778 0
777 -778 0
-778 -677 -779 0
-779 677 778 0
779 -778 677 0
779 -677 778 0
-778 -677 780 0
-780 677 0
-780 778 0
-4 781 -777 0
-781 4 0
777 -781 0
-782 -781 -683 0
-782 683 781 0
683 -781 782 0
-683 782 781 0
-780 -782 -783 0
-783 782 780 0
-780 783 782 0
-782 783 780 0
-780 -782 784 0
-784 782 0
-784 780 0
785 -781 -683 0
-785 683 0
-785 781 0
784 785 -786 0
-784 786 0
-785 786 0
-777 -10 787 0
10 -787 0
777 -787 0
-787 -689 -788 0
787 689 -788 0
-787 788 689 0
788 -689 787 0
-789 -786 -788 0
-789 786 788 0
-786 789 788 0
789 786 -788 0
-786 -788 790 0
-790 788 0
-790 786 0
791 -787 -689 0
-791 689 0
-791 787 0
791 790 -792 0
792 -790 0
-791 792 0
793 -18 -777 0
18 -793 0
777 -793 0
-794 -793 -695 0
793 695 -794 0
794 -793 695 0
794 793 -695 0
-795 -794 -792 0
792 794 -795 0
794 795 -792 0
792 -794 795 0
796 -794 -792 0
794 -796 0
792 -796 0
797 -793 -695 0
695 -797 0
793 -797 0
796 797 -798 0
798 -796 0
798 -797 0
799 -26 -777 0
-799 26 0
777 -799 0
-799 -800 -701 0
799 -800 701 0
-799 800 701 0
799 800 -701 0
-801 -800 -798 0
-801 798 800 0
801 800 -798 0
801 798 -800 0
802 -800 -798 0
800 -802 0
798 -802 0
-799 803 -701 0
-803 701 0
799 -803 0
802 -804 803 0
804 -802 0
804 -803 0
-777 -34 805 0
34 -805 0
777 -805 0
-707 -805 -806 0
805 -806 707 0
806 -805 707 0
-707 806 805 0
-804 -807 -806 0
806 804 -807 0
-804 806 807 0
804 807 -806 0
-804 808 -806 0
806 -808 0
804 -808 0
-707 -805 809 0
-809 707 0
-809 805 0
808 809 -810 0
810 -808 0
810 -809 0
811 -777 -42 0
42 -811 0
777 -811 0
-713 -811 -812 0
713 811 -812 0
713 812 -811 0
812 -713 811 0
-813 -810 -812 0
810 -813 812 0
813 812 -810 0
810 813 -812 0
814 -810 -812 0
-814 812 0
810 -814 0
-713 815 -811 0
713 -815 0
-815 811 0
814 815 -816 0
-814 816 0
-815 816 0
-777 -50 817 0
-817 50 0
777 -817 0
-719 -818 -817 0
817 -818 719 0
818 -817 719 0
-719 817 818 0
-818 -819 -816 0
818 -819 816 0
818 819 -816 0
-818 819 816 0
-818 820 -816 0
818 -820 0
-820 816 0
-719 -817 821 0
-821 719 0
817 -821 0
820 821 -822 0
822 -820 0
822 -821 0
823 -777 -58 0
-823 58 0
777 -823 0
-823 -725 -824 0
-824 725 823 0
824 -823 725 0
-725 824 823 0
-825 -822 -824 0
822 -825 824 0
825 -822 824 0
822 825 -824 0
826 -822 -824 0
-826 824 0
822 -826 0
827 -823 -725 0
-827 725 0
-827 823 0
827 -828 826 0
-826 828 0
828 -827 0
829 -777 -66 0
-829 66 0
777 -829 0
-829 -731 -830 0
829 731 -830 0
830 -829 731 0
830 829 -731 0
-831 -828 -830 0
830 -831 828 0
830 831 -828 0
831 828 -830 0
-828 832 -830 0
830 -832 0
-832 828 0
-829 -731 833 0
731 -833 0
829 -833 0
-834 832 833 0
834 -832 0
834 -833 0
835 -74 -777 0
74 -835 0
777 -835 0
-737 -835 -836 0
835 737 -836 0
-835 836 737 0
-737 836 835 0
-836 -834 -837 0
834 836 -837 0
836 -834 837 0
834 -836 837 0
838 -836 -834 0
-838 836 0
834 -838 0
-737 -835 839 0
-839 737 0
-839 835 0
839 838 -840 0
-838 840 0
-839 840 0
-82 -777 841 0
-841 82 0
777 -841 0
-841 -842 -743 0
-842 841 743 0
-841 842 743 0
841 842 -743 0
-843 -842 -840 0
-843 840 842 0
843 -840 842 0
-842 840 843 0
844 -842 -840 0
-844 842 0
-844 840 0
-841 845 -743 0
-845 743 0
841 -845 0
845 -846 844 0
-844 846 0
846 -845 0
847 -90 -777 0
90 -847 0
777 -847 0
-848 -847 -749 0
847 -848 749 0
848 -847 749 0
848 847 -749 0
-846 -848 -849 0
848 846 -849 0
848 849 -846 0
849 -848 846 0
-846 850 -848 0
848 -850 0
-850 846 0
851 -847 -749 0
-851 749 0
847 -851 0
-852 850 851 0
-850 852 0
852 -851 0
-777 -98 853 0
-853 98 0
777 -853 0
-853 -755 -854 0
755 -854 853 0
-853 755 854 0
854 -755 853 0
-855 -852 -854 0
852 854 -855 0
-852 854 855 0
852 855 -854 0
-852 856 -854 0
-856 854 0
852 -856 0
-853 -755 857 0
-857 755 0
-857 853 0
-858 856 857 0
-856 858 0
-857 858 0
859 -777 -106 0
-859 106 0
777 -859 0
-859 -860 -761 0
-860 761 859 0
-859 761 860 0
859 -761 860 0
-861 -860 -858 0
-861 860 858 0
-858 860 861 0
-860 858 861 0
-860 -858 862 0
-862 860 0
-862 858 0
-859 863 -761 0
-863 761 0
-863 859 0
-864 863 862 0
-862 864 0
-863 864 0
865 -114 -777 0
-865 114 0
777 -865 0
-767 -865 -866 0
865 767 -866 0
-865 767 866 0
865 -767 866 0
-864 -866 -867 0
-867 866 864 0
-864 866 867 0
-866 867 864 0
-864 -866 868 0
866 -868 0
-868 864 0
869 -767 -865 0
767 -869 0
865 -869 0
868 -870 869 0
870 -868 0
870 -869 0
871 -777 -122 0
-871 122 0
777 -871 0
-773 -871 -872 0
773 871 -872 0
773 -871 872 0
871 -773 872 0
-870 -873 -872 0
870 -873 872 0
873 -870 872 0
873 870 -872 0
-870 874 -872 0
-874 872 0
870 -874 0
875 -773 -871 0
773 -875 0
871 -875 0
-876 875 874 0
-874 876 0
-875 876 0
-130 877 -777 0
130 -877 0
777 -877 0
-877 -878 -776 0
776 877 -878 0
776 -877 878 0
877 878 -776 0
-879 -876 -878 0
-879 878 876 0
879 -876 878 0
879 -878 876 0
880 -876 -878 0
-880 878 0
-880 876 0
-877 881 -776 0
776 -881 0
877 -881 0
880 881 -882 0
882 -880 0
882 -881 0
-883 -1 884 0
1 -884 0
-884 883 0
-884 -783 -885 0
783 -885 884 0
783 -884 885 0
-783 885 884 0
-884 -783 886 0
783 -886 0
-886 884 0
-883 -4 887 0
-887 4 0
-887 883 0
-888 -789 -887 0
789 -888 887 0
789 888 -887 0
-789 888 887 0
-888 -889 -886 0
-889 888 886 0
888 889 -886 0
-888 886 889 0
-888 -886 890 0
888 -890 0
886 -890 0
-789 -887 891 0
789 -891 0
-891 887 0
891 -892 890 0
892 -890 0
892 -891 0
-883 -10 893 0
10 -893 0
-893 883 0
-795 -893 -894 0
795 -894 893 0
894 -893 795 0
-795 894 893 0
-895 -892 -894 0
892 -895 894 0
-892 894 895 0
892 895 -894 0
896 -892 -894 0
-896 894 0
892 -896 0
-795 -893 897 0
795 -897 0
-897 893 0
896 897 -898 0
-896 898 0
898 -897 0
899 -883 -18 0
18 -899 0
-899 883 0
-801 -900 -899 0
801 899 -900 0
801 900 -899 0
-801 899 900 0
-900 -901 -898 0
-901 898 900 0
900 901 -898 0
898 -900 901 0
-900 902 -898 0
900 -902 0
898 -902 0
-801 903 -899 0
801 -903 0
899 -903 0
903 902 -904 0
904 -902 0
904 -903 0
-26 -883 905 0
-905 26 0
-905 883 0
-905 -807 -906 0
807 905 -906 0
-905 807 906 0
905 -807 906 0
-904 -906 -907 0
904 -907 906 0
-904 907 906 0
907 904 -906 0
-904 -906 908 0
-908 906 0
904 -908 0
-905 909 -807 0
807 -909 0
905 -909 0
909 908 -910 0
-908 910 0
-909 910 0
911 -883 -34 0
34 -911 0
-911 883 0
-813 -911 -912 0
911 813 -912 0
912 813 -911 0
911 -813 912 0
-913 -912 -910 0
912 -913 910 0
912 913 -910 0
913 -912 910 0
914 -912 -910 0
912 -914 0
-914 910 0
-813 -911 915 0
813 -915 0
911 -915 0
914 915 -916 0
916 -914 0
916 -915 0
917 -883 -42 0
42 -917 0
-917 883 0
-918 -819 -917 0
-918 917 819 0
918 -917 819 0
917 -819 918 0
-918 -919 -916 0
916 -919 918 0
919 918 -916 0
916 -918 919 0
920 -918 -916 0
-920 918 0
916 -920 0
921 -819 -917 0
-921 819 0
917 -921 0
920 -922 921 0
922 -920 0
922 -921 0
-883 -50 923 0
-923 50 0
-923 883 0
-924 -825 -923 0
-924 825 923 0
825 -923 924 0
924 -825 923 0
-924 -922 -925 0
-925 922 924 0
925 -922 924 0
-924 925 922 0
-924 -922 926 0
-926 924 0
-926 922 0
-825 -923 927 0
825 -927 0
-927 923 0
-928 926 927 0
-926 928 0
-927 928 0
929 -883 -58 0
58 -929 0
-929 883 0
-831 -930 -929 0
831 929 -930 0
831 -929 930 0
-831 929 930 0
-931 -930 -928 0
-931 928 930 0
931 -928 930 0
928 -930 931 0
932 -930 -928 0
-932 930 0
-932 928 0
933 -831 -929 0
831 -933 0
929 -933 0
932 -934 933 0
-932 934 0
-933 934 0
-883 935 -66 0
-935 66 0
-935 883 0
-935 -837 -936 0
-936 837 935 0
-935 936 837 0
936 -837 935 0
-934 -937 -936 0
-937 936 934 0
-934 937 936 0
937 934 -936 0
-934 938 -936 0
-938 936 0
-938 934 0
-935 939 -837 0
-939 837 0
-939 935 0
938 939 -940 0
940 -938 0
-939 940 0
941 -883 -74 0
74 -941 0
-941 883 0
-843 -941 -942 0
941 843 -942 0
942 -941 843 0
941 -843 942 0
-943 -940 -942 0
942 -943 940 0
942 -940 943 0
940 943 -942 0
944 -940 -942 0
942 -944 0
940 -944 0
-843 -941 945 0
-945 843 0
941 -945 0
945 -946 944 0
946 -944 0
946 -945 0
-883 -82 947 0
-947 82 0
-947 883 0
-947 -948 -849 0
849 -948 947 0
849 -947 948 0
948 947 -849 0
-949 -948 -946 0
948 946 -949 0
948 949 -946 0
946 -948 949 0
-948 -946 950 0
948 -950 0
946 -950 0
-947 951 -849 0
849 -951 0
-951 947 0
951 -952 950 0
952 -950 0
952 -951 0
-883 953 -90 0
90 -953 0
-953 883 0
-953 -855 -954 0
953 855 -954 0
-953 954 855 0
953 954 -855 0
-952 -955 -954 0
952 954 -955 0
-952 954 955 0
952 955 -954 0
956 -952 -954 0
-956 954 0
-956 952 0
-953 957 -855 0
-957 855 0
-957 953 0
-958 957 956 0
-956 958 0
-957 958 0
-883 -98 959 0
-959 98 0
-959 883 0
-861 -959 -960 0
959 -960 861 0
-959 960 861 0
-861 960 959 0
-961 -958 -960 0
-961 960 958 0
961 -958 960 0
961 958 -960 0
-958 962 -960 0
-962 960 0
-962 958 0
-861 -959 963 0
-963 861 0
-963 959 0
963 962 -964 0
964 -962 0
964 -963 0
-883 -106 965 0
106 -965 0
-965 883 0
-965 -867 -966 0
867 -966 965 0
-965 867 966 0
966 -867 965 0
-967 -964 -966 0
-967 964 966 0
967 -964 966 0
967 964 -966 0
968 -964 -966 0
-968 966 0
964 -968 0
-965 -867 969 0
-969 867 0
-969 965 0
-970 969 968 0
970 -968 0
-969 970 0
-114 971 -883 0
-971 114 0
-971 883 0
-972 -873 -971 0
873 -972 971 0
873 -971 972 0
971 -873 972 0
-972 -970 -973 0
-973 970 972 0
973 -970 972 0
-972 973 970 0
-972 -970 974 0
-974 972 0
970 -974 0
975 -873 -971 0
873 -975 0
971 -975 0
-976 974 975 0
976 -974 0
976 -975 0
-883 977 -122 0
-977 122 0
-977 883 0
-977 -978 -879 0
-978 879 977 0
-977 879 978 0
-879 977 978 0
-976 -978 -979 0
-979 976 978 0
-976 979 978 0
976 -978 979 0
-976 -978 980 0
-980 978 0
-980 976 0
-977 981 -879 0
879 -981 0
-981 977 0
981 980 -982 0
-980 982 0
982 -981 0
-130 -883 983 0
130 -983 0
-983 883 0
-984 -983 -882 0
-984 882 983 0
882 984 -983 0
984 983 -882 0
-982 -984 -985 0
982 984 -985 0
985 984 -982 0
985 982 -984 0
986 -982 -984 0
984 -986 0
982 -986 0
-983 987 -882 0
882 -987 0
983 -987 0
986 987 -988 0
-986 988 0
988 -987 0
-989 -1 990 0
1 -990 0
989 -990 0
-990 -889 -991 0
-991 889 990 0
-990 889 991 0
-889 991 990 0
-990 992 -889 0
-992 889 0
-992 990 0
-989 -4 993 0
-993 4 0
989 -993 0
-993 -895 -994 0
-994 993 895 0
-993 994 895 0
994 -895 993 0
-992 -995 -994 0
992 994 -995 0
995 -992 994 0
995 992 -994 0
996 -992 -994 0
-996 994 0
-996 992 0
-993 -895 997 0
-997 895 0
-997 993 0
996 -998 997 0
-996 998 0
-997 998 0
-989 -10 999 0
10 -999 0
989 -999 0
-1000 -999 -901 0
-1000 901 999 0
-999 1000 901 0
-901 1000 999 0
-998 -1001 -1000 0
-1001 998 1000 0
-998 1000 1001 0
998 -1000 1001 0
-998 -1000 1002 0
1000 -1002 0
998 -1002 0
-999 1003 -901 0
-1003 901 0
-1003 999 0
-1004 1003 1002 0
1004 -1002 0
1004 -1003 0
-989 -18 1005 0
18 -1005 0
989 -1005 0
-1005 -1006 -907 0
-1006 1005 907 0
-1005 1006 907 0
1006 1005 -907 0
-1006 -1007 -1004 0
1004 1006 -1007 0
1006 -1004 1007 0
-1006 1007 1004 0
-1006 -1004 1008 0
-1008 1006 0
1004 -1008 0
-1005 1009 -907 0
-1009 907 0
-1009 1005 0
1009 -1010 1008 0
-1008 1010 0
1010 -1009 0
-26 1011 -989 0
-1011 26 0
989 -1011 0
-913 -1012 -1011 0
913 1011 -1012 0
913 -1011 1012 0
1011 -913 1012 0
-1013 -1010 -1012 0
-1013 1010 1012 0
-1010 1013 1012 0
1010 -1012 1013 0
-1010 -1012 1014 0
-1014 1012 0
-1014 1010 0
-913 1015 -1011 0
913 -1015 0
-1015 1011 0
-1016 1014 1015 0
-1014 1016 0
-1015 1016 0
1017 -989 -34 0
34 -1017 0
989 -1017 0
-1018 -919 -1017 0
1017 -1018 919 0
1018 919 -1017 0
1017 1018 -919 0
-1018 -1016 -1019 0
1018 -1019 1016 0
1018 1019 -1016 0
-1018 1019 1016 0
-1018 -1016 1020 0
-1020 1018 0
-1020 1016 0
1021 -919 -1017 0
-1021 919 0
1017 -1021 0
-1022 1021 1020 0
-1020 1022 0
1022 -1021 0
-989 1023 -42 0
-1023 42 0
989 -1023 0
-1023 -925 -1024 0
925 1023 -1024 0
925 -1023 1024 0
-925 1023 1024 0
-1025 -1022 -1024 0
-1025 1022 1024 0
-1022 1025 1024 0
1022 1025 -1024 0
-1022 1026 -1024 0
-1026 1024 0
1022 -1026 0
-1023 -925 1027 0
925 -1027 0
1023 -1027 0
1026 1027 -1028 0
1028 -1026 0
1028 -1027 0
-989 1029 -50 0
-1029 50 0
989 -1029 0
-1029 -931 -1030 0
-1030 1029 931 0
-1029 1030 931 0
1029 -931 1030 0
-1031 -1028 -1030 0
-1031 1028 1030 0
-1028 1030 1031 0
1028 1031 -1030 0
-1028 1032 -1030 0
-1032 1030 0
1028 -1032 0
-1029 -931 1033 0
-1033 931 0
-1033 1029 0
-1034 1033 1032 0
1034 -1032 0
1034 -1033 0
-989 1035 -58 0
-1035 58 0
989 -1035 0
-937 -1036 -1035 0
1035 937 -1036 0
-1035 1036 937 0
-937 1036 1035 0
-1037 -1036 -1034 0
1034 1036 -1037 0
1036 1037 -1034 0
1034 1037 -1036 0
1038 -1036 -1034 0
1036 -1038 0
1034 -1038 0
-937 1039 -1035 0
-1039 937 0
-1039 1035 0
-1040 1039 1038 0
-1038 1040 0
-1039 1040 0
-989 1041 -66 0
-1041 66 0
989 -1041 0
-1042 -943 -1041 0
943 1041 -1042 0
943 1042 -1041 0
-943 1041 1042 0
-1042 -1040 -1043 0
-1043 1042 1040 0
1043 -1040 1042 0
1043 -1042 1040 0
-1042 1044 -1040 0
-1044 1042 0
-1044 1040 0
-943 -1041 1045 0
943 -1045 0
-1045 1041 0
1044 -1046 1045 0
-1044 1046 0
1046 -1045 0
1047 -989 -74 0
74 -1047 0
989 -1047 0
-949 -1047 -1048 0
1047 949 -1048 0
-1047 949 1048 0
-949 1048 1047 0
-1049 -1046 -1048 0
1048 -1049 1046 0
1048 -1046 1049 0
1046 1049 -1048 0
1050 -1046 -1048 0
1048 -1050 0
-1050 1046 0
-949 -1047 1051 0
949 -1051 0
1047 -1051 0
1051 1050 -1052 0
-1050 1052 0
1052 -1051 0
-989 -82 1053 0
82 -1053 0
989 -1053 0
-1054 -1053 -955 0
-1054 955 1053 0
-1053 1054 955 0
1054 -955 1053 0
-1055 -1054 -1052 0
-1055 1054 1052 0
1054 1055 -1052 0
-1054 1052 1055 0
1056 -1054 -1052 0
-1056 1054 0
-1056 1052 0
1057 -1053 -955 0
-1057 955 0
-1057 1053 0
1057 1056 -1058 0
-1056 1058 0
-1057 1058 0
1059 -989 -90 0
90 -1059 0
989 -1059 0
-961 -1060 -1059 0
961 -1060 1059 0
961 -1059 1060 0
-961 1060 1059 0
-1060 -1058 -1061 0
-1061 1058 1060 0
1061 -1058 1060 0
1061 -1060 1058 0
-1060 -1058 1062 0
-1062 1060 0
-1062 1058 0
-961 1063 -1059 0
961 -1063 0
1059 -1063 0
-1064 1063 1062 0
-1062 1064 0
1064 -1063 0
-989 1065 -98 0
-1065 98 0
989 -1065 0
-967 -1065 -1066 0
967 1065 -1066 0
967 -1065 1066 0
-967 1065 1066 0
-1064 -1067 -1066 0
-1067 1066 1064 0
-1064 1067 1066 0
1067 -1066 1064 0
-1064 1068 -1066 0
-1068 1066 0
-1068 1064 0
-967 -1065 1069 0
967 -1069 0
1065 -1069 0
1069 -1070 1068 0
-1068 1070 0
-1069 1070 0
-989 1071 -106 0
106 -1071 0
989 -1071 0
-973 -1071 -1072 0
1071 973 -1072 0
973 -1071 1072 0
-973 1071 1072 0
-1070 -1072 -1073 0
-1073 1070 1072 0
-1070 1073 1072 0
1073 -1072 1070 0
-1070 -1072 1074 0
-1074 1072 0
1070 -1074 0
-973 1075 -1071 0
973 -1075 0
1071 -1075 0
-1076 1075 1074 0
1076 -1074 0
1076 -1075 0
-114 -989 1077 0
-1077 114 0
989 -1077 0
-1077 -1078 -979 0
-1078 979 1077 0
-1077 979 1078 0
1077 -979 1078 0
-1079 -1076 -1078 0
-1079 1076 1078 0
1079 -1076 1078 0
1079 1076 -1078 0
-1076 -1078 1080 0
-1080 1078 0
1076 -1080 0
-1077 1081 -979 0
-1081 979 0
-1081 1077 0
1081 -1082 1080 0
1082 -1080 0
1082 -1081 0
-989 1083 -122 0
-1083 122 0
989 -1083 0
-1083 -1084 -985 0
985 -1084 1083 0
985 1084 -1083 0
1083 1084 -985 0
-1082 -1084 -1085 0
1082 1084 -1085 0
-1082 1084 1085 0
1082 -1084 1085 0
-1082 -1084 1086 0
-1086 1084 0
1082 -1086 0
-1083 1087 -985 0
985 -1087 0
1083 -1087 0
1087 1086 -1088 0
-1086 1088 0
1088 -1087 0
1089 -130 -989 0
-1089 130 0
989 -1089 0
-1089 -1090 -988 0
1089 -1090 988 0
-1089 1090 988 0
1090 1089 -988 0
-1091 -1088 -1090 0
-1091 1090 1088 0
1091 1090 -1088 0
1091 1088 -1090 0
1092 -1088 -1090 0
1090 -1092 0
1088 -1092 0
-1089 1093 -988 0
988 -1093 0
1089 -1093 0
1092 -1094 1093 0
1094 -1092 0
1094 -1093 0
1096 -1 -1095 0
1 -1096 0
1095 -1096 0
-1097 -995 -1096 0
-1097 995 1096 0
995 1097 -1096 0
1097 -995 1096 0
-995 1098 -1096 0
995 -1098 0
-1098 1096 0
-4 -1095 1099 0
4 -1099 0
1095 -1099 0
-1100 -1001 -1099 0
1099 -1100 1001 0
1100 -1099 1001 0
1100 -1001 1099 0
-1101 -1098 -1100 0
-1101 1098 1100 0
-1098 1100 1101 0
1098 1101 -1100 0
1102 -1098 -1100 0
1100 -1102 0
1098 -1102 0
1103 -1001 -1099 0
1001 -1103 0
1099 -1103 0
1102 -1104 1103 0
1104 -1102 0
1104 -1103 0
1105 -1095 -10 0
10 -1105 0
1095 -1105 0
-1007 -1106 -1105 0
1007 -1106 1105 0
1106 1007 -1105 0
1106 -1007 1105 0
-1106 -1104 -1107 0
1106 1104 -1107 0
1106 -1104 1107 0
1107 1104 -1106 0
-1106 -1104 1108 0
1106 -1108 0
-1108 1104 0
-1007 1109 -1105 0
1007 -1109 0
-1109 1105 0
1108 1109 -1110 0
-1108 1110 0
-1109 1110 0
1111 -18 -1095 0
18 -1111 0
1095 -1111 0
-1112 -1013 -1111 0
-1112 1111 1013 0
1013 1112 -1111 0
-1013 1111 1112 0
-1112 -1113 -1110 0
-1113 1112 1110 0
1113 -1110 1112 0
1113 -1112 1110 0
-1112 1114 -1110 0
-1114 1112 0
-1114 1110 0
-1013 1115 -1111 0
-1115 1013 0
1111 -1115 0
-1116 1114 1115 0
-1114 1116 0
-1115 1116 0
-26 -1095 1117 0
-1117 26 0
1095 -1117 0
-1118 -1019 -1117 0
-1118 1019 1117 0
1019 -1117 1118 0
-1019 1117 1118 0
-1119 -1116 -1118 0
-1119 1116 1118 0
-1116 1119 1118 0
1119 -1118 1116 0
1120 -1116 -1118 0
1118 -1120 0
1116 -1120 0
-1019 1121 -1117 0
-1121 1019 0
-1121 1117 0
1120 -1122 1121 0
1122 -1120 0
-1121 1122 0
-1095 -34 1123 0
34 -1123 0
1095 -1123 0
-1025 -1123 -1124 0
-1124 1025 1123 0
-1123 1124 1025 0
-1025 1124 1123 0
-1124 -1122 -1125 0
1122 1124 -1125 0
1124 -1122 1125 0
1122 -1124 1125 0
1126 -1124 -1122 0
1124 -1126 0
1122 -1126 0
-1025 1127 -1123 0
-1127 1025 0
-1127 1123 0
1127 1126 -1128 0
1128 -1126 0
-1127 1128 0
1129 -1095 -42 0
42 -1129 0
1095 -1129 0
-1031 -1130 -1129 0
1129 -1130 1031 0
-1129 1130 1031 0
-1031 1130 1129 0
-1131 -1128 -1130 0
-1131 1130 1128 0
-1128 1130 1131 0
1131 -1130 1128 0
-1128 -1130 1132 0
1130 -1132 0
1128 -1132 0
-1031 1133 -1129 0
-1133 1031 0
1129 -1133 0
-1134 1133 1132 0
1134 -1132 0
-1133 1134 0
1135 -1095 -50 0
-1135 50 0
1095 -1135 0
-1135 -1037 -1136 0
1135 1037 -1136 0
-1135 1037 1136 0
1135 -1037 1136 0
-1134 -1136 -1137 0
1136 -1137 1134 0
1137 -1134 1136 0
1137 -1136 1134 0
-1134 -1136 1138 0
-1138 1136 0
-1138 1134 0
-1135 -1037 1139 0
-1139 1037 0
1135 -1139 0
1139 -1140 1138 0
1140 -1138 0
-1139 1140 0
-1095 1141 -58 0
-1141 58 0
1095 -1141 0
-1141 -1142 -1043 0
1043 -1142 1141 0
1043 -1141 1142 0
1142 -1043 1141 0
-1143 -1142 -1140 0
1140 1142 -1143 0
1143 1142 -1140 0
1143 1140 -1142 0
1144 -1142 -1140 0
-1144 1142 0
1140 -1144 0
-1141 -1043 1145 0
1043 -1145 0
1141 -1145 0
1145 1144 -1146 0
1146 -1144 0
1146 -1145 0
1147 -1095 -66 0
-1147 66 0
1095 -1147 0
-1147 -1049 -1148 0
-1148 1049 1147 0
-1147 1148 1049 0
-1049 1148 1147 0
-1149 -1146 -1148 0
1146 -1149 1148 0
-1146 1149 1148 0
1146 -1148 1149 0
-1146 -1148 1150 0
-1150 1148 0
1146 -1150 0
-1147 -1049 1151 0
-1151 1049 0
-1151 1147 0
1150 -1152 1151 0
-1150 1152 0
-1151 1152 0
1153 -74 -1095 0
74 -1153 0
1095 -1153 0
-1055 -1154 -1153 0
1153 -1154 1055 0
-1153 1154 1055 0
-1055 1153 1154 0
-1154 -1152 -1155 0
-1155 1154 1152 0
1154 -1152 1155 0
-1154 1155 1152 0
-1154 -1152 1156 0
-1156 1154 0
-1156 1152 0
-1055 1157 -1153 0
-1157 1055 0
1153 -1157 0
-1158 1157 1156 0
-1156 1158 0
-1157 1158 0
-82 -1095 1159 0
82 -1159 0
1095 -1159 0
-1159 -1061 -1160 0
1061 1159 -1160 0
1061 -1159 1160 0
-1061 1159 1160 0
-1158 -1161 -1160 0
-1161 1158 1160 0
1161 -1158 1160 0
1161 1158 -1160 0
-1158 1162 -1160 0
-1162 1160 0
-1162 1158 0
-1159 -1061 1163 0
1061 -1163 0
-1163 1159 0
-1164 1162 1163 0
-1162 1164 0
-1163 1164 0
-90 -1095 1165 0
90 -1165 0
1095 -1165 0
-1067 -1165 -1166 0
-1166 1067 1165 0
1166 -1165 1067 0
-1067 1166 1165 0
-1167 -1164 -1166 0
-1167 1166 1164 0
1167 -1164 1166 0
1167 -1166 1164 0
-1164 -1166 1168 0
-1168 1166 0
-1168 1164 0
-1067 -1165 1169 0
-1169 1067 0
-1169 1165 0
1169 -1170 1168 0
1170 -1168 0
-1169 1170 0
-1095 -98 1171 0
-1171 98 0
1095 -1171 0
-1172 -1171 -1073 0
-1172 1073 1171 0
1172 1073 -1171 0
1172 1171 -1073 0
-1173 -1172 -1170 0
1172 -1173 1170 0
1172 -1170 1173 0
-1172 1173 1170 0
-1172 -1170 1174 0
1172 -1174 0
1170 -1174 0
-1171 -1073 1175 0
1073 -1175 0
-1175 1171 0
1174 -1176 1175 0
1176 -1174 0
-1175 1176 0
1177 -1095 -106 0
-1177 106 0
1095 -1177 0
-1079 -1177 -1178 0
1079 1177 -1178 0
1079 -1177 1178 0
-1079 1177 1178 0
-1179 -1178 -1176 0
1178 -1179 1176 0
1178 1179 -1176 0
1179 1176 -1178 0
1180 -1178 -1176 0
1178 -1180 0
-1180 1176 0
-1079 -1177 1181 0
1079 -1181 0
1177 -1181 0
1180 1181 -1182 0
1182 -1180 0
1182 -1181 0
-114 -1095 1183 0
-1183 114 0
1095 -1183 0
-1183 -1184 -1085 0
1183 -1184 1085 0
-1183 1184 1085 0
1183 1184 -1085 0
-1184 -1185 -1182 0
1184 -1185 1182 0
1185 1184 -1182 0
1182 -1184 1185 0
-1184 1186 -1182 0
1184 -1186 0
1182 -1186 0
-1183 1187 -1085 0
1085 -1187 0
1183 -1187 0
-1188 1187 1186 0
1188 -1186 0
1188 -1187 0
1189 -1095 -122 0
-1189 122 0
1095 -1189 0
-1091 -1190 -1189 0
1091 -1190 1189 0
1091 1190 -1189 0
1190 -1091 1189 0
-1188 -1190 -1191 0
1190 -1191 1188 0
1190 -1188 1191 0
1188 -1190 1191 0
-1188 -1190 1192 0
1190 -1192 0
1188 -1192 0
1193 -1091 -1189 0
1091 -1193 0
-1193 1189 0
1192 1193 -1194 0
1194 -1192 0
-1193 1194 0
-130 -1095 1195 0
130 -1195 0
1095 -1195 0
-1195 -1094 -1196 0
1094 -1196 1195 0
1094 1196 -1195 0
1196 -1094 1195 0
-1194 -1196 -1197 0
1194 1196 -1197 0
-1194 1196 1197 0
1194 -1196 1197 0
-1194 -1196 1198 0
-1198 1196 0
1194 -1198 0
-1195 -1094 1199 0
1094 -1199 0
-1199 1195 0
-1200 1199 1198 0
-1198 1200 0
1200 -1199 0
-1201 -1 1202 0
1 -1202 0
-1202 1201 0
-1202 -1101 -1203 0
-1203 1101 1202 0
-1202 1203 1101 0
-1101 1203 1202 0
-1202 -1101 1204 0
1101 -1204 0
-1204 1202 0
-1201 -4 1205 0
-1205 4 0
-1205 1201 0
-1205 -1206 -1107 0
1107 1205 -1206 0
1107 -1205 1206 0
1205 1206 -1107 0
-1206 -1207 -1204 0
1206 -1207 1204 0
1207 1206 -1204 0
-1206 1207 1204 0
-1206 -1204 1208 0
1206 -1208 0
-1208 1204 0
-1205 1209 -1107 0
1107 -1209 0
1205 -1209 0
-1210 1209 1208 0
1210 -1208 0
-1209 1210 0
-1201 1211 -10 0
10 -1211 0
1201 -1211 0
-1113 -1211 -1212 0
1113 1211 -1212 0
1113 1212 -1211 0
1211 -1113 1212 0
-1213 -1210 -1212 0
1212 1210 -1213 0
1212 1213 -1210 0
1213 1210 -1212 0
1214 -1210 -1212 0
1212 -1214 0
-1214 1210 0
1215 -1113 -1211 0
1113 -1215 0
1211 -1215 0
1215 -1216 1214 0
1216 -1214 0
1216 -1215 0
-1201 1217 -18 0
18 -1217 0
1201 -1217 0
-1119 -1218 -1217 0
-1218 1217 1119 0
1218 1119 -1217 0
-1119 1217 1218 0
-1218 -1216 -1219 0
1218 1216 -1219 0
1218 1219 -1216 0
-1218 1219 1216 0
-1218 -1216 1220 0
1218 -1220 0
1216 -1220 0
-1119 1221 -1217 0
-1221 1119 0
-1221 1217 0
-1222 1221 1220 0
1222 -1220 0
-1221 1222 0
-26 -1201 1223 0
-1223 26 0
1201 -1223 0
-1223 -1125 -1224 0
1223 -1224 1125 0
1224 -1223 1125 0
1224 1223 -1125 0
-1225 -1222 -1224 0
1222 1224 -1225 0
1225 1224 -1222 0
1225 1222 -1224 0
1226 -1222 -1224 0
-1226 1224 0
1222 -1226 0
-1223 -1125 1227 0
-1227 1125 0
1223 -1227 0
1226 -1228 1227 0
-1226 1228 0
1228 -1227 0
-1201 1229 -34 0
34 -1229 0
1201 -1229 0
-1131 -1229 -1230 0
1131 -1230 1229 0
1131 1230 -1229 0
-1131 1230 1229 0
-1231 -1228 -1230 0
-1231 1228 1230 0
1231 1230 -1228 0
1228 -1230 1231 0
-1228 -1230 1232 0
1230 -1232 0
1228 -1232 0
-1131 -1229 1233 0
1131 -1233 0
-1233 1229 0
-1234 1232 1233 0
1234 -1232 0
1234 -1233 0
-1201 -42 1235 0
42 -1235 0
1201 -1235 0
-1235 -1236 -1137 0
1137 -1236 1235 0
1137 1236 -1235 0
1235 1236 -1137 0
-1234 -1237 -1236 0
1234 -1237 1236 0
-1234 1236 1237 0
1234 -1236 1237 0
-1234 -1236 1238 0
1236 -1238 0
1234 -1238 0
-1235 1239 -1137 0
1137 -1239 0
-1239 1235 0
1239 -1240 1238 0
1240 -1238 0
1240 -1239 0
-1201 -50 1241 0
-1241 50 0
1201 -1241 0
-1242 -1143 -1241 0
1143 -1242 1241 0
1143 -1241 1242 0
-1143 1241 1242 0
-1243 -1242 -1240 0
1240 -1243 1242 0
-1240 1243 1242 0
1240 -1242 1243 0
-1242 -1240 1244 0
-1244 1242 0
1240 -1244 0
1245 -1143 -1241 0
1143 -1245 0
-1245 1241 0
-1246 1245 1244 0
1246 -1244 0
-1245 1246 0
-1201 1247 -58 0
58 -1247 0
1201 -1247 0
-1149 -1247 -1248 0
1247 1149 -1248 0
1248 1149 -1247 0
-1149 1248 1247 0
-1249 -1246 -1248 0
-1249 1248 1246 0
1249 1248 -1246 0
1249 1246 -1248 0
1250 -1246 -1248 0
1248 -1250 0
-1250 1246 0
-1149 1251 -1247 0
-1251 1149 0
-1251 1247 0
1250 1251 -1252 0
1252 -1250 0
1252 -1251 0
-1201 1253 -66 0
-1253 66 0
-1253 1201 0
-1253 -1155 -1254 0
-1254 1253 1155 0
-1253 1254 1155 0
-1155 1254 1253 0
-1255 -1252 -1254 0
1252 -1255 1254 0
-1252 1255 1254 0
1252 1255 -1254 0
-1252 1256 -1254 0
-1256 1254 0
1252 -1256 0
-1253 -1155 1257 0
-1257 1155 0
-1257 1253 0
-1258 1256 1257 0
1258 -1256 0
-1257 1258 0
-1201 1259 -74 0
74 -1259 0
1201 -1259 0
-1260 -1161 -1259 0
1161 1259 -1260 0
1161 -1259 1260 0
1260 1259 -1161 0
-1261 -1258 -1260 0
1260 -1261 1258 0
1260 -1258 1261 0
1258 -1260 1261 0
-1258 -1260 1262 0
1260 -1262 0
1258 -1262 0
-1161 -1259 1263 0
1161 -1263 0
1259 -1263 0
-1264 1262 1263 0
1264 -1262 0
-1263 1264 0
-1201 -82 1265 0
-1265 82 0
-1265 1201 0
-1266 -1265 -1167 0
1167 -1266 1265 0
1167 -1265 1266 0
-1167 1265 1266 0
-1266 -1264 -1267 0
1266 1264 -1267 0
-1264 1267 1266 0
-1266 1267 1264 0
-1266 -1264 1268 0
1266 -1268 0
1264 -1268 0
-1265 -1167 1269 0
1167 -1269 0
-1269 1265 0
1269 -1270 1268 0
-1268 1270 0
-1269 1270 0
-1201 -90 1271 0
90 -1271 0
1201 -1271 0
-1272 -1173 -1271 0
-1272 1271 1173 0
1272 -1271 1173 0
-1173 1271 1272 0
-1273 -1270 -1272 0
-1273 1272 1270 0
1273 -1270 1272 0
1273 -1272 1270 0
1274 -1270 -1272 0
-1274 1272 0
-1274 1270 0
-1173 1275 -1271 0
-1275 1173 0
-1275 1271 0
1274 -1276 1275 0
1276 -1274 0
-1275 1276 0
-1201 1277 -98 0
-1277 98 0
-1277 1201 0
-1278 -1277 -1179 0
1179 1277 -1278 0
1179 -1277 1278 0
-1179 1277 1278 0
-1279 -1278 -1276 0
-1279 1278 1276 0
1279 1278 -1276 0
1279 -1278 1276 0
1280 -1278 -1276 0
1278 -1280 0
1276 -1280 0
-1277 -1179 1281 0
1179 -1281 0
1277 -1281 0
1280 -1282 1281 0
1282 -1280 0
1282 -1281 0
-1201 -106 1283 0
106 -1283 0
1201 -1283 0
-1284 -1283 -1185 0
-1284 1185 1283 0
-1283 1185 1284 0
-1185 1284 1283 0
-1282 -1284 -1285 0
1282 -1285 1284 0
1285 -1282 1284 0
1282 -1284 1285 0
1286 -1282 -1284 0
-1286 1284 0
1282 -1286 0
1287 -1283 -1185 0
1185 -1287 0
-1287 1283 0
-1288 1286 1287 0
-1286 1288 0
1288 -1287 0
-114 -1201 1289 0
-1289 114 0
-1289 1201 0
-1290 -1289 -1191 0
-1290 1289 1191 0
-1289 1290 1191 0
-1191 1290 1289 0
-1288 -1291 -1290 0
-1291 1288 1290 0
-1288 1291 1290 0
1291 -1290 1288 0
-1288 -1290 1292 0
-1292 1290 0
-1292 1288 0
1293 -1289 -1191 0
1191 -1293 0
1289 -1293 0
1292 -1294 1293 0
-1292 1294 0
1294 -1293 0
1295 -1201 -122 0
-1295 122 0
-1295 1201 0
-1197 -1295 -1296 0
1295 -1296 1197 0
-1295 1197 1296 0
1295 -1197 1296 0
-1294 -1296 -1297 0
1294 -1297 1296 0
-1294 1297 1296 0
1294 -1296 1297 0
-1294 -1296 1298 0
-1298 1296 0
1294 -1298 0
-1197 -1295 1299 0
1197 -1299 0
1295 -1299 0
-1300 1299 1298 0
-1298 1300 0
1300 -1299 0
-130 -1201 1301 0
130 -1301 0
-1301 1201 0
-1200 -1301 -1302 0
1200 1301 -1302 0
-1301 1200 1302 0
-1200 1301 1302 0
-1300 -1303 -1302 0
-1303 1300 1302 0
-1300 1303 1302 0
1303 1300 -1302 0
-1300 1304 -1302 0
-1304 1302 0
-1304 1300 0
1305 -1200 -1301 0
1200 -1305 0
1301 -1305 0
-1306 1305 1304 0
-1304 1306 0
-1305 1306 0
1308 -1307 -1 0
1 -1308 0
1307 -1308 0
-1309 -1207 -1308 0
1308 -1309 1207 0
1309 1207 -1308 0
1308 1309 -1207 0
1310 -1207 -1308 0
-1310 1207 0
1308 -1310 0
-1307 1311 -4 0
-1311 4 0
1307 -1311 0
-1213 -1312 -1311 0
1311 1213 -1312 0
1312 1213 -1311 0
-1213 1312 1311 0
-1313 -1312 -1310 0
1310 1312 -1313 0
1312 -1310 1313 0
1310 -1312 1313 0
1314 -1312 -1310 0
1312 -1314 0
1310 -1314 0
-1213 -1311 1315 0
1213 -1315 0
1311 -1315 0
1314 -1316 1315 0
1316 -1314 0
-1315 1316 0
1317 -1307 -10 0
10 -1317 0
1307 -1317 0
-1317 -1318 -1219 0
1317 1219 -1318 0
1318 -1317 1219 0
1317 1318 -1219 0
-1319 -1316 -1318 0
1318 -1319 1316 0
1318 1319 -1316 0
1319 -1318 1316 0
1320 -1316 -1318 0
1318 -1320 0
-1320 1316 0
-1317 1321 -1219 0
-1321 1219 0
1317 -1321 0
1320 1321 -1322 0
1322 -1320 0
-1321 1322 0
-1307 -18 1323 0
18 -1323 0
-1323 1307 0
-1323 -1324 -1225 0
1225 -1324 1323 0
-1323 1225 1324 0
1324 1323 -1225 0
-1325 -1324 -1322 0
1324 1322 -1325 0
1324 1325 -1322 0
1322 1325 -1324 0
-1324 -1322 1326 0
1324 -1326 0
1322 -1326 0
-1323 1327 -1225 0
1225 -1327 0
1323 -1327 0
1326 -1328 1327 0
1328 -1326 0
1328 -1327 0
-26 -1307 1329 0
-1329 26 0
1307 -1329 0
-1330 -1231 -1329 0
-1330 1231 1329 0
1330 1231 -1329 0
1330 -1231 1329 0
-1330 -1328 -1331 0
1328 1330 -1331 0
1330 1331 -1328 0
1328 -1330 1331 0
1332 -1330 -1328 0
-1332 1330 0
1328 -1332 0
-1231 -1329 1333 0
1231 -1333 0
-1333 1329 0
1332 1333 -1334 0
-1332 1334 0
1334 -1333 0
-1307 1335 -34 0
34 -1335 0
1307 -1335 0
-1336 -1335 -1237 0
1335 -1336 1237 0
1336 -1335 1237 0
1335 -1237 1336 0
-1336 -1334 -1337 0
1334 -1337 1336 0
1337 -1334 1336 0
1337 1334 -1336 0
1338 -1336 -1334 0
-1338 1336 0
-1338 1334 0
-1335 -1237 1339 0
-1339 1237 0
-1339 1335 0
-1340 1338 1339 0
-1338 1340 0
1340 -1339 0
1341 -1307 -42 0
-1341 42 0
-1341 1307 0
-1341 -1243 -1342 0
1341 1243 -1342 0
1342 -1341 1243 0
1341 -1243 1342 0
-1340 -1343 -1342 0
1342 1340 -1343 0
1342 -1340 1343 0
1340 1343 -1342 0
-1340 1344 -1342 0
1342 -1344 0
1340 -1344 0
-1341 -1243 1345 0
-1345 1243 0
1341 -1345 0
-1346 1344 1345 0
1346 -1344 0
1346 -1345 0
-1307 -50 1347 0
50 -1347 0
1307 -1347 0
-1249 -1348 -1347 0
1249 -1348 1347 0
1348 1249 -1347 0
-1249 1348 1347 0
-1346 -1348 -1349 0
1348 1346 -1349 0
1348 -1346 1349 0
1346 1349 -1348 0
-1346 -1348 1350 0
1348 -1350 0
1346 -1350 0
-1249 1351 -1347 0
-1351 1249 0
-1351 1347 0
1350 -1352 1351 0
1352 -1350 0
-1351 1352 0
1353 -1307 -58 0
58 -1353 0
1307 -1353 0
-1255 -1354 -1353 0
1255 -1354 1353 0
1354 1255 -1353 0
-1255 1354 1353 0
-1355 -1354 -1352 0
1354 -1355 1352 0
1354 1355 -1352 0
-1354 1355 1352 0
-1354 -1352 1356 0
1354 -1356 0
-1356 1352 0
-1255 -1353 1357 0
1255 -1357 0
-1357 1353 0
1356 -1358 1357 0
-1356 1358 0
1358 -1357 0
1359 -1307 -66 0
-1359 66 0
1307 -1359 0
-1360 -1359 -1261 0
-1360 1359 1261 0
-1359 1360 1261 0
1359 1360 -1261 0
-1360 -1358 -1361 0
1358 1360 -1361 0
-1358 1360 1361 0
1358 -1360 1361 0
-1360 -1358 1362 0
1360 -1362 0
1358 -1362 0
-1359 -1261 1363 0
-1363 1261 0
-1363 1359 0
-1364 1363 1362 0
1364 -1362 0
-1363 1364 0
-1307 1365 -74 0
-1365 74 0
-1365 1307 0
-1365 -1267 -1366 0
1267 1365 -1366 0
-1365 1267 1366 0
1366 1365 -1267 0
-1364 -1366 -1367 0
1366 1364 -1367 0
1367 1366 -1364 0
1367 1364 -1366 0
1368 -1364 -1366 0
-1368 1366 0
-1368 1364 0
-1365 1369 -1267 0
-1369 1267 0
-1369 1365 0
1368 -1370 1369 0
-1368 1370 0
-1369 1370 0
-1307 1371 -82 0
82 -1371 0
1307 -1371 0
-1372 -1273 -1371 0
1273 -1372 1371 0
1273 -1371 1372 0
1371 -1273 1372 0
-1370 -1372 -1373 0
-1373 1372 1370 0
1373 -1370 1372 0
1373 -1372 1370 0
-1370 -1372 1374 0
-1374 1372 0
-1374 1370 0
-1273 1375 -1371 0
1273 -1375 0
1371 -1375 0
1375 1374 -1376 0
-1374 1376 0
1376 -1375 0
-1307 -90 1377 0
90 -1377 0
1307 -1377 0
-1279 -1378 -1377 0
-1378 1279 1377 0
1279 1378 -1377 0
-1279 1378 1377 0
-1378 -1379 -1376 0
-1379 1378 1376 0
1379 1378 -1376 0
-1378 1379 1376 0
-1378 -1376 1380 0
1378 -1380 0
-1380 1376 0
-1279 1381 -1377 0
1279 -1381 0
-1381 1377 0
-1382 1381 1380 0
1382 -1380 0
1382 -1381 0
1383 -1307 -98 0
-1383 98 0
1307 -1383 0
-1384 -1285 -1383 0
1383 1285 -1384 0
1285 -1383 1384 0
1383 -1285 1384 0
-1384 -1385 -1382 0
1382 -1385 1384 0
1385 1384 -1382 0
-1384 1385 1382 0
-1384 1386 -1382 0
-1386 1384 0
1382 -1386 0
1387 -1285 -1383 0
1285 -1387 0
1383 -1387 0
1387 -1388 1386 0
1388 -1386 0
1388 -1387 0
-1307 1389 -106 0
106 -1389 0
1307 -1389 0
-1291 -1389 -1390 0
1291 1389 -1390 0
1291 -1389 1390 0
-1291 1389 1390 0
-1388 -1391 -1390 0
1388 -1391 1390 0
-1388 1391 1390 0
1388 1391 -1390 0
1392 -1388 -1390 0
-1392 1390 0
1388 -1392 0
-1291 1393 -1389 0
1291 -1393 0
-1393 1389 0
1392 1393 -1394 0
1394 -1392 0
1394 -1393 0
-114 -1307 1395 0
-1395 114 0
1307 -1395 0
-1396 -1297 -1395 0
-1396 1297 1395 0
1297 -1395 1396 0
1396 -1297 1395 0
-1397 -1396 -1394 0
1394 1396 -1397 0
1397 1396 -1394 0
1394 -1396 1397 0
-1396 1398 -1394 0
1396 -1398 0
1394 -1398 0
1399 -1297 -1395 0
-1399 1297 0
-1399 1395 0
1399 1398 -1400 0
1400 -1398 0
-1399 1400 0
-1307 1401 -122 0
122 -1401 0
1307 -1401 0
-1303 -1402 -1401 0
1401 1303 -1402 0
1402 1303 -1401 0
1402 -1303 1401 0
-1403 -1400 -1402 0
1402 1400 -1403 0
1402 1403 -1400 0
1400 1403 -1402 0
1404 -1400 -1402 0
1402 -1404 0
1400 -1404 0
-1303 1405 -1401 0
1303 -1405 0
1401 -1405 0
-1406 1404 1405 0
1406 -1404 0
1406 -1405 0
-130 1407 -1307 0
130 -1407 0
1307 -1407 0
-1306 -1408 -1407 0
1407 -1408 1306 0
1408 -1407 1306 0
1408 -1306 1407 0
-1406 -1408 -1409 0
1408 1406 -1409 0
1408 1409 -1406 0
1409 -1408 1406 0
-1406 -1408 1410 0
1408 -1410 0
-1410 1406 0
-1306 1411 -1407 0
-1411 1306 0
1407 -1411 0
-1412 1411 1410 0
-1410 1412 0
-1411 1412 0
-1413 -1 1414 0
1 -1414 0
1413 -1414 0
-1313 -1414 -1415 0
1414 -1415 1313 0
-1414 1415 1313 0
-1313 1414 1415 0
-1313 1416 -1414 0
-1416 1313 0
-1416 1414 0
-1413 1417 -4 0
-1417 4 0
-1417 1413 0
-1319 -1417 -1418 0
1417 1319 -1418 0
1319 -1417 1418 0
1417 -1319 1418 0
-1419 -1416 -1418 0
-1419 1416 1418 0
1419 -1416 1418 0
1419 -1418 1416 0
-1416 -1418 1420 0
-1420 1418 0
1416 -1420 0
1421 -1319 -1417 0
-1421 1319 0
1417 -1421 0
1421 -1422 1420 0
-1420 1422 0
-1421 1422 0
-1413 -10 1423 0
10 -1423 0
-1423 1413 0
-1325 -1423 -1424 0
1325 1423 -1424 0
1424 1325 -1423 0
1424 -1325 1423 0
-1422 -1425 -1424 0
1424 -1425 1422 0
1424 -1422 1425 0
1425 -1424 1422 0
-1422 1426 -1424 0
1424 -1426 0
-1426 1422 0
-1325 -1423 1427 0
-1427 1325 0
-1427 1423 0
-1428 1426 1427 0
-1426 1428 0
-1427 1428 0
-1413 1429 -18 0
18 -1429 0
1413 -1429 0
-1430 -1429 -1331 0
1429 1331 -1430 0
1430 1331 -1429 0
1429 1430 -1331 0
-1431 -1430 -1428 0
-1431 1430 1428 0
1430 -1428 1431 0
1431 -1430 1428 0
1432 -1430 -1428 0
1430 -1432 0
-1432 1428 0
1433 -1429 -1331 0
1331 -1433 0
1429 -1433 0
-1434 1432 1433 0
1434 -1432 0
1434 -1433 0
-1413 -26 1435 0
-1435 26 0
1413 -1435 0
-1436 -1337 -1435 0
1435 -1436 1337 0
1337 -1435 1436 0
1435 -1337 1436 0
-1434 -1437 -1436 0
-1437 1434 1436 0
-1434 1437 1436 0
1437 1434 -1436 0
1438 -1434 -1436 0
-1438 1436 0
1434 -1438 0
-1337 -1435 1439 0
1337 -1439 0
1435 -1439 0
1438 1439 -1440 0
-1438 1440 0
1440 -1439 0
-1413 1441 -34 0
34 -1441 0
1413 -1441 0
-1343 -1441 -1442 0
1441 1343 -1442 0
1442 1343 -1441 0
-1343 1441 1442 0
-1443 -1440 -1442 0
1442 1440 -1443 0
1442 1443 -1440 0
1440 1443 -1442 0
1444 -1440 -1442 0
1442 -1444 0
-1444 1440 0
-1343 1445 -1441 0
1343 -1445 0
1441 -1445 0
1444 1445 -1446 0
1446 -1444 0
1446 -1445 0
-1413 1447 -42 0
-1447 42 0
-1447 1413 0
-1448 -1447 -1349 0
-1448 1349 1447 0
-1447 1349 1448 0
1448 1447 -1349 0
-1448 -1449 -1446 0
1448 1446 -1449 0
1448 1449 -1446 0
-1448 1449 1446 0
-1448 1450 -1446 0
1448 -1450 0
-1450 1446 0
-1447 -1349 1451 0
1349 -1451 0
1447 -1451 0
1450 1451 -1452 0
-1450 1452 0
1452 -1451 0
-1413 1453 -50 0
50 -1453 0
1413 -1453 0
-1355 -1454 -1453 0
1453 -1454 1355 0
1355 1454 -1453 0
-1355 1453 1454 0
-1454 -1455 -1452 0
-1455 1452 1454 0
1455 1454 -1452 0
-1454 1452 1455 0
-1454 1456 -1452 0
-1456 1454 0
1452 -1456 0
-1355 1457 -1453 0
-1457 1355 0
-1457 1453 0
1457 -1458 1456 0
1458 -1456 0
-1457 1458 0
-1413 1459 -58 0
-1459 58 0
1413 -1459 0
-1459 -1361 -1460 0
1459 -1460 1361 0
1460 -1459 1361 0
1460 -1361 1459 0
-1458 -1460 -1461 0
1458 1460 -1461 0
-1458 1460 1461 0
1458 -1460 1461 0
-1458 -1460 1462 0
1460 -1462 0
1458 -1462 0
-1459 -1361 1463 0
-1463 1361 0
-1463 1459 0
1463 -1464 1462 0
1464 -1462 0
1464 -1463 0
-1413 1465 -66 0
-1465 66 0
-1465 1413 0
-1465 -1367 -1466 0
1367 1465 -1466 0
1367 -1465 1466 0
1466 1465 -1367 0
-1464 -1467 -1466 0
1466 1464 -1467 0
1466 1467 -1464 0
1464 1467 -1466 0
1468 -1464 -1466 0
1466 -1468 0
1464 -1468 0
-1465 1469 -1367 0
1367 -1469 0
-1469 1465 0
-1470 1469 1468 0
1470 -1468 0
1470 -1469 0
-1413 1471 -74 0
74 -1471 0
1413 -1471 0
-1373 -1472 -1471 0
1373 1471 -1472 0
1373 1472 -1471 0
-1373 1471 1472 0
-1473 -1470 -1472 0
1470 -1473 1472 0
1473 -1470 1472 0
1470 1473 -1472 0
-1470 1474 -1472 0
-1474 1472 0
1470 -1474 0
-1373 -1471 1475 0
1373 -1475 0
1471 -1475 0
1474 -1476 1475 0
-1474 1476 0
1476 -1475 0
-1413 1477 -82 0
82 -1477 0
1413 -1477 0
-1379 -1478 -1477 0
1477 1379 -1478 0
1478 1379 -1477 0
-1379 1477 1478 0
-1478 -1479 -1476 0
1478 -1479 1476 0
1478 1479 -1476 0
-1478 1476 1479 0
1480 -1478 -1476 0
1478 -1480 0
1476 -1480 0
-1379 -1477 1481 0
1379 -1481 0
1477 -1481 0
1480 -1482 1481 0
1482 -1480 0
-1481 1482 0
-1413 1483 -90 0
90 -1483 0
-1483 1413 0
-1483 -1385 -1484 0
1483 1385 -1484 0
-1483 1385 1484 0
1483 -1385 1484 0
-1484 -1485 -1482 0
-1485 1484 1482 0
-1482 1484 1485 0
-1484 1485 1482 0
1486 -1484 -1482 0
-1486 1484 0
-1486 1482 0
1487 -1483 -1385 0
1385 -1487 0
1483 -1487 0
1487 -1488 1486 0
1488 -1486 0
1488 -1487 0
-1413 -98 1489 0
-1489 98 0
-1489 1413 0
-1489 -1391 -1490 0
-1490 1391 1489 0
-1489 1391 1490 0
-1391 1490 1489 0
-1490 -1491 -1488 0
1488 -1491 1490 0
1491 1490 -1488 0
-1490 1491 1488 0
-1490 1492 -1488 0
-1492 1490 0
1488 -1492 0
-1489 -1391 1493 0
-1493 1391 0
-1493 1489 0
1493 1492 -1494 0
-1492 1494 0
-1493 1494 0
-1413 1495 -106 0
106 -1495 0
1413 -1495 0
-1397 -1496 -1495 0
1397 1495 -1496 0
1397 1496 -1495 0
-1397 1495 1496 0
-1494 -1497 -1496 0
-1497 1496 1494 0
-1494 1496 1497 0
1497 -1496 1494 0
-1494 -1496 1498 0
1496 -1498 0
-1498 1494 0
-1397 1499 -1495 0
1397 -1499 0
1495 -1499 0
1498 1499 -1500 0
1500 -1498 0
1500 -1499 0
-1413 -114 1501 0
-1501 114 0
-1501 1413 0
-1501 -1403 -1502 0
1403 1501 -1502 0
1502 1403 -1501 0
1502 -1403 1501 0
-1503 -1500 -1502 0
-1503 1502 1500 0
1502 -1500 1503 0
1503 1500 -1502 0
1504 -1500 -1502 0
1502 -1504 0
1500 -1504 0
1505 -1501 -1403 0
-1505 1403 0
-1505 1501 0
1505 1504 -1506 0
1506 -1504 0
-1505 1506 0
-1413 1507 -122 0
-1507 122 0
1413 -1507 0
-1409 -1507 -1508 0
1409 1507 -1508 0
1409 1508 -1507 0
-1409 1508 1507 0
-1509 -1506 -1508 0
1506 1508 -1509 0
1508 1509 -1506 0
1506 1509 -1508 0
1510 -1506 -1508 0
-1510 1508 0
1506 -1510 0
-1409 1511 -1507 0
-1511 1409 0
-1511 1507 0
-1512 1511 1510 0
-1510 1512 0
-1511 1512 0
-1413 -130 1513 0
130 -1513 0
-1513 1413 0
-1412 -1514 -1513 0
-1514 1513 1412 0
1514 -1513 1412 0
1514 -1412 1513 0
-1512 -1514 -1515 0
1512 1514 -1515 0
-1512 1514 1515 0
1512 -1514 1515 0
-1512 -1514 1516 0
-1516 1514 0
-1516 1512 0
-1412 1517 -1513 0
-1517 1412 0
1513 -1517 0
1517 -1518 1516 0
-1516 1518 0
-1517 1518 0
1520 -1519 -1 0
1 -1520 0
-1520 1519 0
-1419 -1520 -1521 0
1419 1520 -1521 0
1419 -1520 1521 0
-1419 1520 1521 0
-1419 1522 -1520 0
1419 -1522 0
1520 -1522 0
-4 1523 -1519 0
-1523 4 0
-1523 1519 0
-1523 -1425 -1524 0
1425 1523 -1524 0
-1523 1425 1524 0
1524 -1425 1523 0
-1525 -1522 -1524 0
-1525 1522 1524 0
1525 -1522 1524 0
1525 1522 -1524 0
1526 -1522 -1524 0
-1526 1524 0
1522 -1526 0
-1523 1527 -1425 0
1425 -1527 0
-1527 1523 0
1526 1527 -1528 0
1528 -1526 0
1528 -1527 0
-1519 -10 1529 0
10 -1529 0
-1529 1519 0
-1431 -1529 -1530 0
1431 -1530 1529 0
-1529 1431 1530 0
-1431 1530 1529 0
-1528 -1530 -1531 0
1530 1528 -1531 0
1530 -1528 1531 0
1528 -1530 1531 0
1532 -1528 -1530 0
1530 -1532 0
1528 -1532 0
-1431 -1529 1533 0
1431 -1533 0
1529 -1533 0
1532 -1534 1533 0
-1532 1534 0
1534 -1533 0
1535 -1519 -18 0
18 -1535 0
-1535 1519 0
-1536 -1535 -1437 0
-1536 1437 1535 0
-1535 1437 1536 0
-1437 1535 1536 0
-1536 -1537 -1534 0
-1537 1536 1534 0
1537 1536 -1534 0
-1536 1534 1537 0
-1536 -1534 1538 0
-1538 1536 0
-1538 1534 0
-1535 -1437 1539 0
1437 -1539 0
1535 -1539 0
-1540 1539 1538 0
-1538 1540 0
1540 -1539 0
-26 -1519 1541 0
-1541 26 0
-1541 1519 0
-1541 -1542 -1443 0
-1542 1541 1443 0
1542 1443 -1541 0
1542 1541 -1443 0
-1543 -1542 -1540 0
-1543 1540 1542 0
-1540 1543 1542 0
-1542 1540 1543 0
-1542 -1540 1544 0
-1544 1542 0
-1544 1540 0
-1541 1545 -1443 0
-1545 1443 0
-1545 1541 0
-1546 1544 1545 0
1546 -1544 0
1546 -1545 0
-1519 -34 1547 0
34 -1547 0
-1547 1519 0
-1548 -1449 -1547 0
-1548 1449 1547 0
1548 1449 -1547 0
1548 -1449 1547 0
-1548 -1549 -1546 0
1548 1546 -1549 0
1548 -1546 1549 0
-1548 1546 1549 0
1550 -1548 -1546 0
1548 -1550 0
1546 -1550 0
1551 -1449 -1547 0
1449 -1551 0
-1551 1547 0
1550 1551 -1552 0
1552 -1550 0
1552 -1551 0
-1519 1553 -42 0
-1553 42 0
-1553 1519 0
-1553 -1554 -1455 0
-1554 1553 1455 0
-1553 1554 1455 0
1554 -1455 1553 0
-1554 -1552 -1555 0
1554 1552 -1555 0
1555 1554 -1552 0
1555 -1554 1552 0
1556 -1554 -1552 0
-1556 1554 0
-1556 1552 0
-1553 -1455 1557 0
-1557 1455 0
-1557 1553 0
-1558 1556 1557 0
-1556 1558 0
-1557 1558 0
-1519 1559 -50 0
50 -1559 0
-1559 1519 0
-1560 -1461 -1559 0
-1560 1559 1461 0
-1559 1560 1461 0
1560 1559 -1461 0
-1558 -1560 -1561 0
1560 -1561 1558 0
-1558 1560 1561 0
1561 -1560 1558 0
-1558 1562 -1560 0
-1562 1560 0
-1562 1558 0
1563 -1461 -1559 0
-1563 1461 0
-1563 1559 0
1563 1562 -1564 0
1564 -1562 0
-1563 1564 0
-1519 1565 -58 0
-1565 58 0
-1565 1519 0
-1566 -1565 -1467 0
-1566 1467 1565 0
1467 -1565 1566 0
1566 1565 -1467 0
-1566 -1567 -1564 0
1564 -1567 1566 0
1567 1566 -1564 0
-1566 1564 1567 0
-1566 1568 -1564 0
1566 -1568 0
1564 -1568 0
-1565 1569 -1467 0
-1569 1467 0
-1569 1565 0
-1570 1568 1569 0
-1568 1570 0
-1569 1570 0
1571 -1519 -66 0
-1571 66 0
-1571 1519 0
-1572 -1473 -1571 0
1473 1571 -1572 0
1473 1572 -1571 0
1571 1572 -1473 0
-1572 -1570 -1573 0
1570 -1573 1572 0
-1570 1572 1573 0
-1572 1570 1573 0
-1572 -1570 1574 0
-1574 1572 0
-1574 1570 0
1575 -1473 -1571 0
1473 -1575 0
1571 -1575 0
-1576 1574 1575 0
-1574 1576 0
1576 -1575 0
1577 -1519 -74 0
-1577 74 0
-1577 1519 0
-1577 -1479 -1578 0
-1578 1577 1479 0
-1577 1578 1479 0
1578 -1479 1577 0
-1576 -1578 -1579 0
1576 1578 -1579 0
1578 1579 -1576 0
1576 -1578 1579 0
-1576 -1578 1580 0
1578 -1580 0
1576 -1580 0
-1577 -1479 1581 0
1479 -1581 0
1577 -1581 0
1580 1581 -1582 0
-1580 1582 0
-1581 1582 0
-1519 -82 1583 0
82 -1583 0
-1583 1519 0
-1485 -1583 -1584 0
-1584 1583 1485 0
1584 -1583 1485 0
-1485 1584 1583 0
-1584 -1585 -1582 0
1584 -1585 1582 0
-1582 1584 1585 0
-1584 1585 1582 0
-1584 1586 -1582 0
-1586 1584 0
-1586 1582 0
-1485 -1583 1587 0
-1587 1485 0
-1587 1583 0
-1588 1586 1587 0
-1586 1588 0
-1587 1588 0
1589 -90 -1519 0
90 -1589 0
-1589 1519 0
-1491 -1590 -1589 0
-1590 1589 1491 0
1590 1491 -1589 0
-1491 1589 1590 0
-1590 -1591 -1588 0
1590 1588 -1591 0
1590 1591 -1588 0
-1590 1588 1591 0
1592 -1590 -1588 0
1590 -1592 0
1588 -1592 0
-1491 1593 -1589 0
1491 -1593 0
1589 -1593 0
1592 -1594 1593 0
-1592 1594 0
1594 -1593 0
-1519 1595 -98 0
-1595 98 0
-1595 1519 0
-1497 -1596 -1595 0
1497 1595 -1596 0
1596 1497 -1595 0
1596 -1497 1595 0
-1594 -1597 -1596 0
1596 -1597 1594 0
1596 1597 -1594 0
1597 -1596 1594 0
-1594 -1596 1598 0
1596 -1598 0
-1598 1594 0
1599 -1497 -1595 0
1497 -1599 0
1595 -1599 0
1599 -1600 1598 0
1600 -1598 0
1600 -1599 0
1601 -1519 -106 0
-1601 106 0
-1601 1519 0
-1503 -1602 -1601 0
1601 -1602 1503 0
-1601 1602 1503 0
-1503 1602 1601 0
-1600 -1603 -1602 0
-1603 1600 1602 0
-1600 1602 1603 0
1600 -1602 1603 0
-1600 -1602 1604 0
1602 -1604 0
1600 -1604 0
-1503 1605 -1601 0
-1605 1503 0
1601 -1605 0
1605 1604 -1606 0
-1604 1606 0
-1605 1606 0
-114 -1519 1607 0
-1607 114 0
-1607 1519 0
-1607 -1608 -1509 0
-1608 1509 1607 0
-1607 1608 1509 0
1608 -1509 1607 0
-1608 -1609 -1606 0
-1609 1608 1606 0
1608 -1606 1609 0
-1608 1606 1609 0
-1608 1610 -1606 0
1608 -1610 0
1606 -1610 0
1611 -1607 -1509 0
-1611 1509 0
-1611 1607 0
1611 1610 -1612 0
1612 -1610 0
-1611 1612 0
-1519 1613 -122 0
-1613 122 0
-1613 1519 0
-1614 -1613 -1515 0
1613 -1614 1515 0
1614 -1613 1515 0
1613 -1515 1614 0
-1614 -1615 -1612 0
1612 1614 -1615 0
1615 1614 -1612 0
1612 -1614 1615 0
1616 -1614 -1612 0
1614 -1616 0
1612 -1616 0
1617 -1613 -1515 0
-1617 1515 0
-1617 1613 0
-1618 1617 1616 0
-1616 1618 0
-1617 1618 0
-130 -1519 1619 0
130 -1619 0
-1619 1519 0
-1619 -1620 -1518 0
-1620 1619 1518 0
1620 -1619 1518 0
1620 -1518 1619 0
-1620 -1621 -1618 0
1620 -1621 1618 0
1621 1620 -1618 0
1621 -1620 1618 0
-1620 1622 -1618 0
1620 -1622 0
-1622 1618 0
-1619 1623 -1518 0
-1623 1518 0
-1623 1619 0
-1624 1623 1622 0
1624 -1622 0
1624 -1623 0
1626 -1 -1625 0
1 -1626 0
-1626 1625 0
-1525 -1626 -1627 0
1626 -1627 1525 0
-1626 1627 1525 0
-1525 1626 1627 0
1628 -1525 -1626 0
-1628 1525 0
1626 -1628 0
1629 -4 -1625 0
-1629 4 0
-1629 1625 0
-1630 -1629 -1531 0
-1630 1629 1531 0
-1629 1630 1531 0
1629 1630 -1531 0
-1630 -1628 -1631 0
1628 1630 -1631 0
1631 1630 -1628 0
-1630 1631 1628 0
-1630 1632 -1628 0
-1632 1630 0
1628 -1632 0
1633 -1629 -1531 0
1531 -1633 0
1629 -1633 0
1633 1632 -1634 0
-1632 1634 0
1634 -1633 0
1635 -10 -1625 0
10 -1635 0
-1635 1625 0
-1635 -1537 -1636 0
1635 -1636 1537 0
-1635 1636 1537 0
1635 -1537 1636 0
-1637 -1636 -1634 0
-1637 1636 1634 0
1636 1637 -1634 0
1634 -1636 1637 0
-1636 -1634 1638 0
-1638 1636 0
-1638 1634 0
-1635 -1537 1639 0
-1639 1537 0
1635 -1639 0
1639 -1640 1638 0
-1638 1640 0
-1639 1640 0
1641 -18 -1625 0
18 -1641 0
-1641 1625 0
-1641 -1543 -1642 0
-1642 1543 1641 0
-1641 1543 1642 0
-1543 1642 1641 0
-1643 -1642 -1640 0
1640 -1643 1642 0
1643 -1640 1642 0
1640 1643 -1642 0
-1642 1644 -1640 0
-1644 1642 0
1640 -1644 0
-1641 -1543 1645 0
-1645 1543 0
-1645 1641 0
-1646 1644 1645 0
1646 -1644 0
1646 -1645 0
-26 1647 -1625 0
-1647 26 0
-1647 1625 0
-1648 -1647 -1549 0
-1648 1647 1549 0
-1647 1648 1549 0
-1549 1647 1648 0
-1648 -1649 -1646 0
1646 1648 -1649 0
1649 1648 -1646 0
-1648 1646 1649 0
-1648 -1646 1650 0
-1650 1648 0
1646 -1650 0
-1647 -1549 1651 0
-1651 1549 0
1647 -1651 0
-1652 1651 1650 0
-1650 1652 0
1652 -1651 0
1653 -34 -1625 0
34 -1653 0
-1653 1625 0
-1654 -1653 -1555 0
1555 1653 -1654 0
1555 -1653 1654 0
1653 1654 -1555 0
-1652 -1654 -1655 0
-1655 1652 1654 0
-1652 1655 1654 0
-1654 1652 1655 0
-1652 -1654 1656 0
-1656 1654 0
-1656 1652 0
-1653 1657 -1555 0
1555 -1657 0
-1657 1653 0
-1658 1656 1657 0
-1656 1658 0
-1657 1658 0
1659 -42 -1625 0
42 -1659 0
-1659 1625 0
-1659 -1660 -1561 0
1659 -1660 1561 0
-1659 1660 1561 0
1659 1660 -1561 0
-1658 -1661 -1660 0
-1661 1658 1660 0
-1658 1661 1660 0
1661 1658 -1660 0
-1658 1662 -1660 0
1660 -1662 0
1658 -1662 0
1663 -1659 -1561 0
-1663 1561 0
-1663 1659 0
1663 1662 -1664 0
1664 -1662 0
-1663 1664 0
1665 -50 -1625 0
-1665 50 0
-1665 1625 0
-1567 -1666 -1665 0
1567 1665 -1666 0
1567 1666 -1665 0
1665 -1567 1666 0
-1667 -1666 -1664 0
-1667 1666 1664 0
1666 1667 -1664 0
1664 -1666 1667 0
1668 -1666 -1664 0
-1668 1666 0
-1668 1664 0
-1567 1669 -1665 0
-1669 1567 0
-1669 1665 0
-1670 1669 1668 0
-1668 1670 0
-1669 1670 0
-1625 1671 -58 0
-1671 58 0
-1671 1625 0
-1573 -1672 -1671 0
1671 -1672 1573 0
1672 -1671 1573 0
-1573 1672 1671 0
-1670 -1672 -1673 0
-1673 1670 1672 0
-1670 1673 1672 0
-1672 1670 1673 0
-1670 -1672 1674 0
-1674 1672 0
-1674 1670 0
-1573 -1671 1675 0
-1675 1573 0
-1675 1671 0
1674 -1676 1675 0
1676 -1674 0
1676 -1675 0
-1625 1677 -66 0
-1677 66 0
-1677 1625 0
-1579 -1677 -1678 0
-1678 1677 1579 0
1678 -1677 1579 0
1678 -1579 1677 0
-1678 -1679 -1676 0
1678 -1679 1676 0
1678 -1676 1679 0
1676 -1678 1679 0
1680 -1678 -1676 0
1678 -1680 0
1676 -1680 0
-1579 1681 -1677 0
-1681 1579 0
-1681 1677 0
1680 -1682 1681 0
1682 -1680 0
1682 -1681 0
1683 -74 -1625 0
74 -1683 0
-1683 1625 0
-1683 -1585 -1684 0
1683 1585 -1684 0
1684 -1683 1585 0
1684 1683 -1585 0
-1685 -1682 -1684 0
1684 1682 -1685 0
1684 1685 -1682 0
1682 1685 -1684 0
-1682 1686 -1684 0
1684 -1686 0
1682 -1686 0
-1683 -1585 1687 0
-1687 1585 0
-1687 1683 0
-1688 1686 1687 0
1688 -1686 0
1688 -1687 0
1689 -82 -1625 0
82 -1689 0
1625 -1689 0
-1690 -1591 -1689 0
-1690 1591 1689 0
1690 1591 -1689 0
1690 -1591 1689 0
-1688 -1691 -1690 0
1690 1688 -1691 0
1690 -1688 1691 0
1688 1691 -1690 0
-1688 1692 -1690 0
1690 -1692 0
1688 -1692 0
1693 -1591 -1689 0
-1693 1591 0
-1693 1689 0
1693 1692 -1694 0
-1692 1694 0
-1693 1694 0
1695 -90 -1625 0
90 -1695 0
-1695 1625 0
-1696 -1597 -1695 0
1695 1597 -1696 0
1597 1696 -1695 0
1695 -1597 1696 0
-1696 -1694 -1697 0
1696 -1697 1694 0
1696 -1694 1697 0
-1696 1694 1697 0
-1696 1698 -1694 0
-1698 1696 0
-1698 1694 0
1699 -1597 -1695 0
1597 -1699 0
1695 -1699 0
1699 1698 -1700 0
-1698 1700 0
1700 -1699 0
-98 1701 -1625 0
-1701 98 0
-1701 1625 0
-1701 -1603 -1702 0
-1702 1603 1701 0
-1701 1702 1603 0
1702 -1603 1701 0
-1703 -1702 -1700 0
1702 -1703 1700 0
1702 1703 -1700 0
1703 -1702 1700 0
1704 -1702 -1700 0
1702 -1704 0
-1704 1700 0
-1701 -1603 1705 0
-1705 1603 0
-1705 1701 0
-1706 1705 1704 0
-1704 1706 0
-1705 1706 0
1707 -106 -1625 0
106 -1707 0
-1707 1625 0
-1707 -1609 -1708 0
1707 -1708 1609 0
-1707 1708 1609 0
1707 -1609 1708 0
-1706 -1709 -1708 0
-1709 1708 1706 0
1709 -1706 1708 0
1709 -1708 1706 0
-1706 -1708 1710 0
-1710 1708 0
-1710 1706 0
1711 -1707 -1609 0
-1711 1609 0
-1711 1707 0
1711 -1712 1710 0
-1710 1712 0
-1711 1712 0
-114 1713 -1625 0
-1713 114 0
-1713 1625 0
-1714 -1713 -1615 0
1615 1713 -1714 0
1615 -1713 1714 0
1713 -1615 1714 0
-1715 -1712 -1714 0
-1715 1712 1714 0
-1712 1715 1714 0
1715 1712 -1714 0
-1712 -1714 1716 0
-1716 1714 0
-1716 1712 0
-1713 -1615 1717 0
1615 -1717 0
1713 -1717 0
1717 -1718 1716 0
-1716 1718 0
-1717 1718 0
-1625 1719 -122 0
-1719 122 0
-1719 1625 0
-1719 -1621 -1720 0
-1720 1719 1621 0
1720 -1719 1621 0
1719 -1621 1720 0
-1721 -1718 -1720 0
-1721 1718 1720 0
1721 -1718 1720 0
1721 1718 -1720 0
1722 -1718 -1720 0
-1722 1720 0
-1722 1718 0
1723 -1719 -1621 0
-1723 1621 0
1719 -1723 0
1723 -1724 1722 0
-1722 1724 0
1724 -1723 0
-130 1725 -1625 0
130 -1725 0
-1725 1625 0
-1624 -1726 -1725 0
1725 -1726 1624 0
1624 1726 -1725 0
-1624 1725 1726 0
-1724 -1727 -1726 0
-1727 1724 1726 0
1727 -1724 1726 0
1727 1724 -1726 0
-1724 -1726 1728 0
-1728 1726 0
1724 -1728 0
-1624 1729 -1725 0
-1729 1624 0
-1729 1725 0
-1730 1729 1728 0
-1728 1730 0
-1729 1730 0
-1 1732 -1731 0
1 -1732 0
1731 -1732 0
-1733 -1732 -1631 0
1631 -1733 1732 0
1631 -1732 1733 0
1732 1733 -1631 0
1734 -1732 -1631 0
1631 -1734 0
-1734 1732 0
1735 -4 -1731 0
-1735 4 0
-1735 1731 0
-1735 -1637 -1736 0
1735 1637 -1736 0
-1735 1637 1736 0
1736 -1637 1735 0
-1737 -1734 -1736 0
1736 1734 -1737 0
1736 -1734 1737 0
1737 1734 -1736 0
-1734 -1736 1738 0
1736 -1738 0
1734 -1738 0
-1735 -1637 1739 0
-1739 1637 0
1735 -1739 0
-1740 1739 1738 0
1740 -1738 0
1740 -1739 0
-10 -1731 1741 0
10 -1741 0
1731 -1741 0
-1742 -1643 -1741 0
-1742 1643 1741 0
1742 1643 -1741 0
1742 -1643 1741 0
-1740 -1742 -1743 0
1742 1740 -1743 0
1742 1743 -1740 0
1740 -1742 1743 0
-1740 1744 -1742 0
1742 -1744 0
1740 -1744 0
-1643 -1741 1745 0
-1745 1643 0
-1745 1741 0
1744 -1746 1745 0
1746 -1744 0
-1745 1746 0
1747 -18 -1731 0
18 -1747 0
-1747 1731 0
-1747 -1649 -1748 0
1649 1747 -1748 0
1649 -1747 1748 0
1747 -1649 1748 0
-1749 -1746 -1748 0
-1749 1746 1748 0
1749 -1746 1748 0
1749 1746 -1748 0
1750 -1746 -1748 0
-1750 1748 0
1746 -1750 0
-1747 1751 -1649 0
1649 -1751 0
1747 -1751 0
1750 1751 -1752 0
1752 -1750 0
1752 -1751 0
-26 -1731 1753 0
-1753 26 0
-1753 1731 0
-1753 -1655 -1754 0
1655 -1754 1753 0
1754 -1753 1655 0
1754 -1655 1753 0
-1755 -1754 -1752 0
1754 -1755 1752 0
1754 1755 -1752 0
1752 1755 -1754 0
1756 -1754 -1752 0
1754 -1756 0
1752 -1756 0
-1753 -1655 1757 0
1655 -1757 0
-1757 1753 0
-1758 1756 1757 0
-1756 1758 0
1758 -1757 0
1759 -1731 -34 0
34 -1759 0
-1759 1731 0
-1661 -1759 -1760 0
1661 -1760 1759 0
1661 -1759 1760 0
-1661 1759 1760 0
-1758 -1760 -1761 0
-1761 1758 1760 0
-1758 1761 1760 0
-1760 1761 1758 0
1762 -1758 -1760 0
-1762 1760 0
-1762 1758 0
-1661 1763 -1759 0
-1763 1661 0
-1763 1759 0
1762 1763 -1764 0
-1762 1764 0
-1763 1764 0
1765 -1731 -42 0
42 -1765 0
-1765 1731 0
-1766 -1667 -1765 0
-1766 1765 1667 0
1766 -1765 1667 0
1766 1765 -1667 0
-1766 -1764 -1767 0
1766 -1767 1764 0
1766 1767 -1764 0
-1766 1767 1764 0
-1766 -1764 1768 0
1766 -1768 0
-1768 1764 0
-1667 -1765 1769 0
-1769 1667 0
-1769 1765 0
-1770 1768 1769 0
1770 -1768 0
-1769 1770 0
1771 -50 -1731 0
-1771 50 0
-1771 1731 0
-1771 -1673 -1772 0
-1772 1771 1673 0
-1771 1772 1673 0
1772 -1673 1771 0
-1772 -1773 -1770 0
1772 1770 -1773 0
1772 1773 -1770 0
-1772 1770 1773 0
-1772 1774 -1770 0
1772 -1774 0
1770 -1774 0
-1771 1775 -1673 0
-1775 1673 0
1771 -1775 0
1775 1774 -1776 0
1776 -1774 0
1776 -1775 0
1777 -1731 -58 0
-1777 58 0
-1777 1731 0
-1777 -1679 -1778 0
1679 -1778 1777 0
1679 -1777 1778 0
1777 -1679 1778 0
-1778 -1779 -1776 0
1776 -1779 1778 0
-1776 1778 1779 0
1776 -1778 1779 0
-1778 -1776 1780 0
-1780 1778 0
1776 -1780 0
-1777 -1679 1781 0
1679 -1781 0
1777 -1781 0
1780 -1782 1781 0
1782 -1780 0
1782 -1781 0
1783 -1731 -66 0
-1783 66 0
-1783 1731 0
-1685 -1783 -1784 0
1685 1783 -1784 0
1784 1685 -1783 0
1784 -1685 1783 0
-1782 -1784 -1785 0
1784 -1785 1782 0
1784 -1782 1785 0
1782 1785 -1784 0
-1782 -1784 1786 0
1784 -1786 0
1782 -1786 0
-1685 1787 -1783 0
1685 -1787 0
1783 -1787 0
1787 1786 -1788 0
1788 -1786 0
1788 -1787 0
1789 -74 -1731 0
-1789 74 0
-1789 1731 0
-1789 -1691 -1790 0
1691 -1790 1789 0
-1789 1691 1790 0
1790 -1691 1789 0
-1788 -1791 -1790 0
1790 -1791 1788 0
1790 -1788 1791 0
1788 -1790 1791 0
1792 -1788 -1790 0
-1792 1790 0
-1792 1788 0
1793 -1789 -1691 0
1691 -1793 0
1789 -1793 0
1792 -1794 1793 0
-1792 1794 0
1794 -1793 0
1795 -82 -1731 0
-1795 82 0
-1795 1731 0
-1796 -1795 -1697 0
-1796 1795 1697 0
-1795 1796 1697 0
1795 1796 -1697 0
-1796 -1797 -1794 0
-1797 1794 1796 0
1797 -1794 1796 0
-1796 1797 1794 0
-1796 -1794 1798 0
-1798 1796 0
-1798 1794 0
-1795 1799 -1697 0
-1799 1697 0
1795 -1799 0
1798 -1800 1799 0
-1798 1800 0
-1799 1800 0
-90 -1731 1801 0
90 -1801 0
1731 -1801 0
-1703 -1802 -1801 0
1703 1801 -1802 0
1802 1703 -1801 0
-1703 1802 1801 0
-1802 -1800 -1803 0
1802 1800 -1803 0
1803 1802 -1800 0
1803 -1802 1800 0
1804 -1802 -1800 0
1802 -1804 0
1800 -1804 0
-1703 1805 -1801 0
-1805 1703 0
-1805 1801 0
1804 -1806 1805 0
1806 -1804 0
-1805 1806 0
-98 -1731 1807 0
98 -1807 0
1731 -1807 0
-1709 -1808 -1807 0
1709 -1808 1807 0
1709 1808 -1807 0
-1709 1808 1807 0
-1806 -1809 -1808 0
-1809 1808 1806 0
-1806 1808 1809 0
-1808 1806 1809 0
-1806 -1808 1810 0
-1810 1808 0
-1810 1806 0
-1709 1811 -1807 0
1709 -1811 0
-1811 1807 0
-1812 1811 1810 0
-1810 1812 0
1812 -1811 0
-1731 -106 1813 0
106 -1813 0
1731 -1813 0
-1715 -1814 -1813 0
-1814 1715 1813 0
1814 1715 -1813 0
1814 -1715 1813 0
-1815 -1814 -1812 0
1814 -1815 1812 0
1814 1815 -1812 0
1812 -1814 1815 0
-1814 1816 -1812 0
1814 -1816 0
1812 -1816 0
-1715 1817 -1813 0
-1817 1715 0
-1817 1813 0
-1818 1816 1817 0
1818 -1816 0
-1817 1818 0
-114 -1731 1819 0
-1819 114 0
-1819 1731 0
-1820 -1721 -1819 0
-1820 1819 1721 0
-1819 1820 1721 0
-1721 1820 1819 0
-1820 -1818 -1821 0
1820 1818 -1821 0
-1818 1820 1821 0
-1820 1821 1818 0
-1820 1822 -1818 0
-1822 1820 0
-1822 1818 0
-1721 -1819 1823 0
-1823 1721 0
-1823 1819 0
1822 -1824 1823 0
1824 -1822 0
-1823 1824 0
1825 -1731 -122 0
-1825 122 0
-1825 1731 0
-1826 -1727 -1825 0
1727 -1826 1825 0
1727 -1825 1826 0
1826 -1727 1825 0
-1826 -1827 -1824 0
-1827 1824 1826 0
1827 -1824 1826 0
-1826 1827 1824 0
-1826 1828 -1824 0
-1828 1826 0
1824 -1828 0
1829 -1727 -1825 0
1727 -1829 0
-1829 1825 0
-1830 1828 1829 0
1830 -1828 0
1830 -1829 0
-130 1831 -1731 0
130 -1831 0
1731 -1831 0
-1832 -1730 -1831 0
-1832 1831 1730 0
1832 -1831 1730 0
-1730 1832 1831 0
-1832 -1830 -1833 0
1830 1832 -1833 0
-1830 1832 1833 0
-1832 1830 1833 0
-1832 -1830 1834 0
1832 -1834 0
1830 -1834 0
-1730 1835 -1831 0
-1835 1730 0
-1835 1831 0
1834 -1836 1835 0
1836 -1834 0
1836 -1835 0
3 0
-8 0
-143 0
249 0
-355 0
461 0
-567 0
-673 0
-779 0
-885 0
-991 0
1097 0
1203 0
1309 0
-1415 0
1521 0
1627 0
-1733 0
-1737 0
-1743 0
-1749 0
-1755 0
-1761 0
-1767 0
-1773 0
-1779 0
-1785 0
-1791 0
-1797 0
-1803 0
-1809 0
-1815 0
-1821 0
-1827 0
-1833 0
-1836 0
