p cnf 3900 12870
-1 -2 3 0
1 -3 0
2 -3 0
-4 -2 5 0
4 -5 0
2 -5 0
-1 -6 7 0
1 -7 0
6 -7 0
-5 -7 -8 0
5 7 -8 0
5 -7 8 0
-5 7 8 0
-5 -7 9 0
5 -9 0
7 -9 0
-10 -2 11 0
10 -11 0
2 -11 0
-4 -6 12 0
4 -12 0
6 -12 0
-11 -12 -13 0
11 12 -13 0
11 -12 13 0
-11 12 13 0
-13 -9 -14 0
13 9 -14 0
13 -9 14 0
-13 9 14 0
-13 -9 15 0
13 -15 0
9 -15 0
-11 -12 16 0
11 -16 0
12 -16 0
15 16 -17 0
-15 17 0
-16 17 0
-18 -2 19 0
18 -19 0
2 -19 0
-10 -6 20 0
10 -20 0
6 -20 0
-19 -20 -21 0
19 20 -21 0
19 -20 21 0
-19 20 21 0
-21 -17 -22 0
21 17 -22 0
21 -17 22 0
-21 17 22 0
-21 -17 23 0
21 -23 0
17 -23 0
-19 -20 24 0
19 -24 0
20 -24 0
23 24 -25 0
-23 25 0
-24 25 0
-26 -2 27 0
26 -27 0
2 -27 0
-18 -6 28 0
18 -28 0
6 -28 0
-27 -28 -29 0
27 28 -29 0
27 -28 29 0
-27 28 29 0
-29 -25 -30 0
29 25 -30 0
29 -25 30 0
-29 25 30 0
-29 -25 31 0
29 -31 0
25 -31 0
-27 -28 32 0
27 -32 0
28 -32 0
31 32 -33 0
-31 33 0
-32 33 0
-34 -2 35 0
34 -35 0
2 -35 0
-26 -6 36 0
26 -36 0
6 -36 0
-35 -36 -37 0
35 36 -37 0
35 -36 37 0
-35 36 37 0
-37 -33 -38 0
37 33 -38 0
37 -33 38 0
-37 33 38 0
-37 -33 39 0
37 -39 0
33 -39 0
-35 -36 40 0
35 -40 0
36 -40 0
39 40 -41 0
-39 41 0
-40 41 0
-42 -2 43 0
42 -43 0
2 -43 0
-34 -6 44 0
34 -44 0
6 -44 0
-43 -44 -45 0
43 44 -45 0
43 -44 45 0
-43 44 45 0
-45 -41 -46 0
45 41 -46 0
45 -41 46 0
-45 41 46 0
-45 -41 47 0
45 -47 0
41 -47 0
-43 -44 48 0
43 -48 0
44 -48 0
47 48 -49 0
-47 49 0
-48 49 0
-50 -2 51 0
50 -51 0
2 -51 0
-42 -6 52 0
42 -52 0
6 -52 0
-51 -52 -53 0
51 52 -53 0
51 -52 53 0
-51 52 53 0
-53 -49 -54 0
53 49 -54 0
53 -49 54 0
-53 49 54 0
-53 -49 55 0
53 -55 0
49 -55 0
-51 -52 56 0
51 -56 0
52 -56 0
55 56 -57 0
-55 57 0
-56 57 0
-58 -2 59 0
58 -59 0
2 -59 0
-50 -6 60 0
50 -60 0
6 -60 0
-59 -60 -61 0
59 60 -61 0
59 -60 61 0
-59 60 61 0
-61 -57 -62 0
61 57 -62 0
61 -57 62 0
-61 57 62 0
-61 -57 63 0
61 -63 0
57 -63 0
-59 -60 64 0
59 -64 0
60 -64 0
63 64 -65 0
-63 65 0
-64 65 0
-66 -2 67 0
66 -67 0
2 -67 0
-58 -6 68 0
58 -68 0
6 -68 0
-67 -68 -69 0
67 68 -69 0
67 -68 69 0
-67 68 69 0
-69 -65 -70 0
69 65 -70 0
69 -65 70 0
-69 65 70 0
-69 -65 71 0
69 -71 0
65 -71 0
-67 -68 72 0
67 -72 0
68 -72 0
71 72 -73 0
-71 73 0
-72 73 0
-74 -2 75 0
74 -75 0
2 -75 0
-66 -6 76 0
66 -76 0
6 -76 0
-75 -76 -77 0
75 76 -77 0
75 -76 77 0
-75 76 77 0
-77 -73 -78 0
77 73 -78 0
77 -73 78 0
-77 73 78 0
-77 -73 79 0
77 -79 0
73 -79 0
-75 -76 80 0
75 -80 0
76 -80 0
79 80 -81 0
-79 81 0
-80 81 0
-82 -2 83 0
82 -83 0
2 -83 0
-74 -6 84 0
74 -84 0
6 -84 0
-83 -84 -85 0
83 84 -85 0
83 -84 85 0
-83 84 85 0
-85 -81 -86 0
85 81 -86 0
85 -81 86 0
-85 81 86 0
-85 -81 87 0
85 -87 0
81 -87 0
-83 -84 88 0
83 -88 0
84 -88 0
87 88 -89 0
-87 89 0
-88 89 0
-90 -2 91 0
90 -91 0
2 -91 0
-82 -6 92 0
82 -92 0
6 -92 0
-91 -92 -93 0
91 92 -93 0
91 -92 93 0
-91 92 93 0
-93 -89 -94 0
93 89 -94 0
93 -89 94 0
-93 89 94 0
-93 -89 95 0
93 -95 0
89 -95 0
-91 -92 96 0
91 -96 0
92 -96 0
95 96 -97 0
-95 97 0
-96 97 0
-98 -2 99 0
98 -99 0
2 -99 0
-90 -6 100 0
90 -100 0
6 -100 0
-99 -100 -101 0
99 100 -101 0
99 -100 101 0
-99 100 101 0
-101 -97 -102 0
101 97 -102 0
101 -97 102 0
-101 97 102 0
-101 -97 103 0
101 -103 0
97 -103 0
-99 -100 104 0
99 -104 0
100 -104 0
103 104 -105 0
-103 105 0
-104 105 0
-106 -2 107 0
106 -107 0
2 -107 0
-98 -6 108 0
98 -108 0
6 -108 0
-107 -108 -109 0
107 108 -109 0
107 -108 109 0
-107 108 109 0
-109 -105 -110 0
109 105 -110 0
109 -105 110 0
-109 105 110 0
-109 -105 111 0
109 -111 0
105 -111 0
-107 -108 112 0
107 -112 0
108 -112 0
111 112 -113 0
-111 113 0
-112 113 0
-114 -2 115 0
114 -115 0
2 -115 0
-106 -6 116 0
106 -116 0
6 -116 0
-115 -116 -117 0
115 116 -117 0
115 -116 117 0
-115 116 117 0
-117 -113 -118 0
117 113 -118 0
117 -113 118 0
-117 113 118 0
-117 -113 119 0
117 -119 0
113 -119 0
-115 -116 120 0
115 -120 0
116 -120 0
119 120 -121 0
-119 121 0
-120 121 0
-122 -2 123 0
122 -123 0
2 -123 0
-114 -6 124 0
114 -124 0
6 -124 0
-123 -124 -125 0
123 124 -125 0
123 -124 125 0
-123 124 125 0
-125 -121 -126 0
125 121 -126 0
125 -121 126 0
-125 121 126 0
-125 -121 127 0
125 -127 0
121 -127 0
-123 -124 128 0
123 -128 0
124 -128 0
127 128 -129 0
-127 129 0
-128 129 0
-130 -2 131 0
130 -131 0
2 -131 0
-122 -6 132 0
122 -132 0
6 -132 0
-131 -132 -133 0
131 132 -133 0
131 -132 133 0
-131 132 133 0
-133 -129 -134 0
133 129 -134 0
133 -129 134 0
-133 129 134 0
-133 -129 135 0
133 -135 0
129 -135 0
-131 -132 136 0
131 -136 0
132 -136 0
135 136 -137 0
-135 137 0
-136 137 0
-138 -2 139 0
138 -139 0
2 -139 0
-130 -6 140 0
130 -140 0
6 -140 0
-139 -140 -141 0
139 140 -141 0
139 -140 141 0
-139 140 141 0
-141 -137 -142 0
141 137 -142 0
141 -137 142 0
-141 137 142 0
-141 -137 143 0
141 -143 0
137 -143 0
-139 -140 144 0
139 -144 0
140 -144 0
143 144 -145 0
-143 145 0
-144 145 0
-146 -2 147 0
146 -147 0
2 -147 0
-138 -6 148 0
138 -148 0
6 -148 0
-147 -148 -149 0
147 148 -149 0
147 -148 149 0
-147 148 149 0
-149 -145 -150 0
149 145 -150 0
149 -145 150 0
-149 145 150 0
-149 -145 151 0
149 -151 0
145 -151 0
-147 -148 152 0
147 -152 0
148 -152 0
151 152 -153 0
-151 153 0
-152 153 0
-154 -2 155 0
154 -155 0
2 -155 0
-146 -6 156 0
146 -156 0
6 -156 0
-155 -156 -157 0
155 156 -157 0
155 -156 157 0
-155 156 157 0
-157 -153 -158 0
157 153 -158 0
157 -153 158 0
-157 153 158 0
-157 -153 159 0
157 -159 0
153 -159 0
-155 -156 160 0
155 -160 0
156 -160 0
159 160 -161 0
-159 161 0
-160 161 0
-162 -2 163 0
162 -163 0
2 -163 0
-154 -6 164 0
154 -164 0
6 -164 0
-163 -164 -165 0
163 164 -165 0
163 -164 165 0
-163 164 165 0
-165 -161 -166 0
165 161 -166 0
165 -161 166 0
-165 161 166 0
-165 -161 167 0
165 -167 0
161 -167 0
-163 -164 168 0
163 -168 0
164 -168 0
167 168 -169 0
-167 169 0
-168 169 0
-170 -2 171 0
170 -171 0
2 -171 0
-162 -6 172 0
162 -172 0
6 -172 0
-171 -172 -173 0
171 172 -173 0
171 -172 173 0
-171 172 173 0
-173 -169 -174 0
173 169 -174 0
173 -169 174 0
-173 169 174 0
-173 -169 175 0
173 -175 0
169 -175 0
-171 -172 176 0
171 -176 0
172 -176 0
175 176 -177 0
-175 177 0
-176 177 0
-178 -2 179 0
178 -179 0
2 -179 0
-170 -6 180 0
170 -180 0
6 -180 0
-179 -180 -181 0
179 180 -181 0
179 -180 181 0
-179 180 181 0
-181 -177 -182 0
181 177 -182 0
181 -177 182 0
-181 177 182 0
-181 -177 183 0
181 -183 0
177 -183 0
-179 -180 184 0
179 -184 0
180 -184 0
183 184 -185 0
-183 185 0
-184 185 0
-186 -2 187 0
186 -187 0
2 -187 0
-178 -6 188 0
178 -188 0
6 -188 0
-187 -188 -189 0
187 188 -189 0
187 -188 189 0
-187 188 189 0
-189 -185 -190 0
189 185 -190 0
189 -185 190 0
-189 185 190 0
-189 -185 191 0
189 -191 0
185 -191 0
-187 -188 192 0
187 -192 0
188 -192 0
191 192 -193 0
-191 193 0
-192 193 0
-194 -2 195 0
194 -195 0
2 -195 0
-186 -6 196 0
186 -196 0
6 -196 0
-195 -196 -197 0
195 196 -197 0
195 -196 197 0
-195 196 197 0
-197 -193 -198 0
197 193 -198 0
197 -193 198 0
-197 193 198 0
-197 -193 199 0
197 -199 0
193 -199 0
-195 -196 200 0
195 -200 0
196 -200 0
199 200 -201 0
-199 201 0
-200 201 0
-194 -6 202 0
194 -202 0
6 -202 0
-201 -202 -203 0
201 202 -203 0
201 -202 203 0
-201 202 203 0
-201 -202 204 0
201 -204 0
202 -204 0
-1 -205 206 0
1 -206 0
205 -206 0
-14 -206 -207 0
14 206 -207 0
14 -206 207 0
-14 206 207 0
-14 -206 208 0
14 -208 0
206 -208 0
-4 -205 209 0
4 -209 0
205 -209 0
-22 -209 -210 0
22 209 -210 0
22 -209 210 0
-22 209 210 0
-210 -208 -211 0
210 208 -211 0
210 -208 211 0
-210 208 211 0
-210 -208 212 0
210 -212 0
208 -212 0
-22 -209 213 0
22 -213 0
209 -213 0
212 213 -214 0
-212 214 0
-213 214 0
-10 -205 215 0
10 -215 0
205 -215 0
-30 -215 -216 0
30 215 -216 0
30 -215 216 0
-30 215 216 0
-216 -214 -217 0
216 214 -217 0
216 -214 217 0
-216 214 217 0
-216 -214 218 0
216 -218 0
214 -218 0
-30 -215 219 0
30 -219 0
215 -219 0
218 219 -220 0
-218 220 0
-219 220 0
-18 -205 221 0
18 -221 0
205 -221 0
-38 -221 -222 0
38 221 -222 0
38 -221 222 0
-38 221 222 0
-222 -220 -223 0
222 220 -223 0
222 -220 223 0
-222 220 223 0
-222 -220 224 0
222 -224 0
220 -224 0
-38 -221 225 0
38 -225 0
221 -225 0
224 225 -226 0
-224 226 0
-225 226 0
-26 -205 227 0
26 -227 0
205 -227 0
-46 -227 -228 0
46 227 -228 0
46 -227 228 0
-46 227 228 0
-228 -226 -229 0
228 226 -229 0
228 -226 229 0
-228 226 229 0
-228 -226 230 0
228 -230 0
226 -230 0
-46 -227 231 0
46 -231 0
227 -231 0
230 231 -232 0
-230 232 0
-231 232 0
-34 -205 233 0
34 -233 0
205 -233 0
-54 -233 -234 0
54 233 -234 0
54 -233 234 0
-54 233 234 0
-234 -232 -235 0
234 232 -235 0
234 -232 235 0
-234 232 235 0
-234 -232 236 0
234 -236 0
232 -236 0
-54 -233 237 0
54 -237 0
233 -237 0
236 237 -238 0
-236 238 0
-237 238 0
-42 -205 239 0
42 -239 0
205 -239 0
-62 -239 -240 0
62 239 -240 0
62 -239 240 0
-62 239 240 0
-240 -238 -241 0
240 238 -241 0
240 -238 241 0
-240 238 241 0
-240 -238 242 0
240 -242 0
238 -242 0
-62 -239 243 0
62 -243 0
239 -243 0
242 243 -244 0
-242 244 0
-243 244 0
-50 -205 245 0
50 -245 0
205 -245 0
-70 -245 -246 0
70 245 -246 0
70 -245 246 0
-70 245 246 0
-246 -244 -247 0
246 244 -247 0
246 -244 247 0
-246 244 247 0
-246 -244 248 0
246 -248 0
244 -248 0
-70 -245 249 0
70 -249 0
245 -249 0
248 249 -250 0
-248 250 0
-249 250 0
-58 -205 251 0
58 -251 0
205 -251 0
-78 -251 -252 0
78 251 -252 0
78 -251 252 0
-78 251 252 0
-252 -250 -253 0
252 250 -253 0
252 -250 253 0
-252 250 253 0
-252 -250 254 0
252 -254 0
250 -254 0
-78 -251 255 0
78 -255 0
251 -255 0
254 255 -256 0
-254 256 0
-255 256 0
-66 -205 257 0
66 -257 0
205 -257 0
-86 -257 -258 0
86 257 -258 0
86 -257 258 0
-86 257 258 0
-258 -256 -259 0
258 256 -259 0
258 -256 259 0
-258 256 259 0
-258 -256 260 0
258 -260 0
256 -260 0
-86 -257 261 0
86 -261 0
257 -261 0
260 261 -262 0
-260 262 0
-261 262 0
-74 -205 263 0
74 -263 0
205 -263 0
-94 -263 -264 0
94 263 -264 0
94 -263 264 0
-94 263 264 0
-264 -262 -265 0
264 262 -265 0
264 -262 265 0
-264 262 265 0
-264 -262 266 0
264 -266 0
262 -266 0
-94 -263 267 0
94 -267 0
263 -267 0
266 267 -268 0
-266 268 0
-267 268 0
-82 -205 269 0
82 -269 0
205 -269 0
-102 -269 -270 0
102 269 -270 0
102 -269 270 0
-102 269 270 0
-270 -268 -271 0
270 268 -271 0
270 -268 271 0
-270 268 271 0
-270 -268 272 0
270 -272 0
268 -272 0
-102 -269 273 0
102 -273 0
269 -273 0
272 273 -274 0
-272 274 0
-273 274 0
-90 -205 275 0
90 -275 0
205 -275 0
-110 -275 -276 0
110 275 -276 0
110 -275 276 0
-110 275 276 0
-276 -274 -277 0
276 274 -277 0
276 -274 277 0
-276 274 277 0
-276 -274 278 0
276 -278 0
274 -278 0
-110 -275 279 0
110 -279 0
275 -279 0
278 279 -280 0
-278 280 0
-279 280 0
-98 -205 281 0
98 -281 0
205 -281 0
-118 -281 -282 0
118 281 -282 0
118 -281 282 0
-118 281 282 0
-282 -280 -283 0
282 280 -283 0
282 -280 283 0
-282 280 283 0
-282 -280 284 0
282 -284 0
280 -284 0
-118 -281 285 0
118 -285 0
281 -285 0
284 285 -286 0
-284 286 0
-285 286 0
-106 -205 287 0
106 -287 0
205 -287 0
-126 -287 -288 0
126 287 -288 0
126 -287 288 0
-126 287 288 0
-288 -286 -289 0
288 286 -289 0
288 -286 289 0
-288 286 289 0
-288 -286 290 0
288 -290 0
286 -290 0
-126 -287 291 0
126 -291 0
287 -291 0
290 291 -292 0
-290 292 0
-291 292 0
-114 -205 293 0
114 -293 0
205 -293 0
-134 -293 -294 0
134 293 -294 0
134 -293 294 0
-134 293 294 0
-294 -292 -295 0
294 292 -295 0
294 -292 295 0
-294 292 295 0
-294 -292 296 0
294 -296 0
292 -296 0
-134 -293 297 0
134 -297 0
293 -297 0
296 297 -298 0
-296 298 0
-297 298 0
-122 -205 299 0
122 -299 0
205 -299 0
-142 -299 -300 0
142 299 -300 0
142 -299 300 0
-142 299 300 0
-300 -298 -301 0
300 298 -301 0
300 -298 301 0
-300 298 301 0
-300 -298 302 0
300 -302 0
298 -302 0
-142 -299 303 0
142 -303 0
299 -303 0
302 303 -304 0
-302 304 0
-303 304 0
-130 -205 305 0
130 -305 0
205 -305 0
-150 -305 -306 0
150 305 -306 0
150 -305 306 0
-150 305 306 0
-306 -304 -307 0
306 304 -307 0
306 -304 307 0
-306 304 307 0
-306 -304 308 0
306 -308 0
304 -308 0
-150 -305 309 0
150 -309 0
305 -309 0
308 309 -310 0
-308 310 0
-309 310 0
-138 -205 311 0
138 -311 0
205 -311 0
-158 -311 -312 0
158 311 -312 0
158 -311 312 0
-158 311 312 0
-312 -310 -313 0
312 310 -313 0
312 -310 313 0
-312 310 313 0
-312 -310 314 0
312 -314 0
310 -314 0
-158 -311 315 0
158 -315 0
311 -315 0
314 315 -316 0
-314 316 0
-315 316 0
-146 -205 317 0
146 -317 0
205 -317 0
-166 -317 -318 0
166 317 -318 0
166 -317 318 0
-166 317 318 0
-318 -316 -319 0
318 316 -319 0
318 -316 319 0
-318 316 319 0
-318 -316 320 0
318 -320 0
316 -320 0
-166 -317 321 0
166 -321 0
317 -321 0
320 321 -322 0
-320 322 0
-321 322 0
-154 -205 323 0
154 -323 0
205 -323 0
-174 -323 -324 0
174 323 -324 0
174 -323 324 0
-174 323 324 0
-324 -322 -325 0
324 322 -325 0
324 -322 325 0
-324 322 325 0
-324 -322 326 0
324 -326 0
322 -326 0
-174 -323 327 0
174 -327 0
323 -327 0
326 327 -328 0
-326 328 0
-327 328 0
-162 -205 329 0
162 -329 0
205 -329 0
-182 -329 -330 0
182 329 -330 0
182 -329 330 0
-182 329 330 0
-330 -328 -331 0
330 328 -331 0
330 -328 331 0
-330 328 331 0
-330 -328 332 0
330 -332 0
328 -332 0
-182 -329 333 0
182 -333 0
329 -333 0
332 333 -334 0
-332 334 0
-333 334 0
-170 -205 335 0
170 -335 0
205 -335 0
-190 -335 -336 0
190 335 -336 0
190 -335 336 0
-190 335 336 0
-336 -334 -337 0
336 334 -337 0
336 -334 337 0
-336 334 337 0
-336 -334 338 0
336 -338 0
334 -338 0
-190 -335 339 0
190 -339 0
335 -339 0
338 339 -340 0
-338 340 0
-339 340 0
-178 -205 341 0
178 -341 0
205 -341 0
-198 -341 -342 0
198 341 -342 0
198 -341 342 0
-198 341 342 0
-342 -340 -343 0
342 340 -343 0
342 -340 343 0
-342 340 343 0
-342 -340 344 0
342 -344 0
340 -344 0
-198 -341 345 0
198 -345 0
341 -345 0
344 345 -346 0
-344 346 0
-345 346 0
-186 -205 347 0
186 -347 0
205 -347 0
-203 -347 -348 0
203 347 -348 0
203 -347 348 0
-203 347 348 0
-348 -346 -349 0
348 346 -349 0
348 -346 349 0
-348 346 349 0
-348 -346 350 0
348 -350 0
346 -350 0
-203 -347 351 0
203 -351 0
347 -351 0
350 351 -352 0
-350 352 0
-351 352 0
-194 -205 353 0
194 -353 0
205 -353 0
-204 -353 -354 0
204 353 -354 0
204 -353 354 0
-204 353 354 0
-354 -352 -355 0
354 352 -355 0
354 -352 355 0
-354 352 355 0
-354 -352 356 0
354 -356 0
352 -356 0
-204 -353 357 0
204 -357 0
353 -357 0
356 357 -358 0
-356 358 0
-357 358 0
-1 -359 360 0
1 -360 0
359 -360 0
-211 -360 -361 0
211 360 -361 0
211 -360 361 0
-211 360 361 0
-211 -360 362 0
211 -362 0
360 -362 0
-4 -359 363 0
4 -363 0
359 -363 0
-217 -363 -364 0
217 363 -364 0
217 -363 364 0
-217 363 364 0
-364 -362 -365 0
364 362 -365 0
364 -362 365 0
-364 362 365 0
-364 -362 366 0
364 -366 0
362 -366 0
-217 -363 367 0
217 -367 0
363 -367 0
366 367 -368 0
-366 368 0
-367 368 0
-10 -359 369 0
10 -369 0
359 -369 0
-223 -369 -370 0
223 369 -370 0
223 -369 370 0
-223 369 370 0
-370 -368 -371 0
370 368 -371 0
370 -368 371 0
-370 368 371 0
-370 -368 372 0
370 -372 0
368 -372 0
-223 -369 373 0
223 -373 0
369 -373 0
372 373 -374 0
-372 374 0
-373 374 0
-18 -359 375 0
18 -375 0
359 -375 0
-229 -375 -376 0
229 375 -376 0
229 -375 376 0
-229 375 376 0
-376 -374 -377 0
376 374 -377 0
376 -374 377 0
-376 374 377 0
-376 -374 378 0
376 -378 0
374 -378 0
-229 -375 379 0
229 -379 0
375 -379 0
378 379 -380 0
-378 380 0
-379 380 0
-26 -359 381 0
26 -381 0
359 -381 0
-235 -381 -382 0
235 381 -382 0
235 -381 382 0
-235 381 382 0
-382 -380 -383 0
382 380 -383 0
382 -380 383 0
-382 380 383 0
-382 -380 384 0
382 -384 0
380 -384 0
-235 -381 385 0
235 -385 0
381 -385 0
384 385 -386 0
-384 386 0
-385 386 0
-34 -359 387 0
34 -387 0
359 -387 0
-241 -387 -388 0
241 387 -388 0
241 -387 388 0
-241 387 388 0
-388 -386 -389 0
388 386 -389 0
388 -386 389 0
-388 386 389 0
-388 -386 390 0
388 -390 0
386 -390 0
-241 -387 391 0
241 -391 0
387 -391 0
390 391 -392 0
-390 392 0
-391 392 0
-42 -359 393 0
42 -393 0
359 -393 0
-247 -393 -394 0
247 393 -394 0
247 -393 394 0
-247 393 394 0
-394 -392 -395 0
394 392 -395 0
394 -392 395 0
-394 392 395 0
-394 -392 396 0
394 -396 0
392 -396 0
-247 -393 397 0
247 -397 0
393 -397 0
396 397 -398 0
-396 398 0
-397 398 0
-50 -359 399 0
50 -399 0
359 -399 0
-253 -399 -400 0
253 399 -400 0
253 -399 400 0
-253 399 400 0
-400 -398 -401 0
400 398 -401 0
400 -398 401 0
-400 398 401 0
-400 -398 402 0
400 -402 0
398 -402 0
-253 -399 403 0
253 -403 0
399 -403 0
402 403 -404 0
-402 404 0
-403 404 0
-58 -359 405 0
58 -405 0
359 -405 0
-259 -405 -406 0
259 405 -406 0
259 -405 406 0
-259 405 406 0
-406 -404 -407 0
406 404 -407 0
406 -404 407 0
-406 404 407 0
-406 -404 408 0
406 -408 0
404 -408 0
-259 -405 409 0
259 -409 0
405 -409 0
408 409 -410 0
-408 410 0
-409 410 0
-66 -359 411 0
66 -411 0
359 -411 0
-265 -411 -412 0
265 411 -412 0
265 -411 412 0
-265 411 412 0
-412 -410 -413 0
412 410 -413 0
412 -410 413 0
-412 410 413 0
-412 -410 414 0
412 -414 0
410 -414 0
-265 -411 415 0
265 -415 0
411 -415 0
414 415 -416 0
-414 416 0
-415 416 0
-74 -359 417 0
74 -417 0
359 -417 0
-271 -417 -418 0
271 417 -418 0
271 -417 418 0
-271 417 418 0
-418 -416 -419 0
418 416 -419 0
418 -416 419 0
-418 416 419 0
-418 -416 420 0
418 -420 0
416 -420 0
-271 -417 421 0
271 -421 0
417 -421 0
420 421 -422 0
-420 422 0
-421 422 0
-82 -359 423 0
82 -423 0
359 -423 0
-277 -423 -424 0
277 423 -424 0
277 -423 424 0
-277 423 424 0
-424 -422 -425 0
424 422 -425 0
424 -422 425 0
-424 422 425 0
-424 -422 426 0
424 -426 0
422 -426 0
-277 -423 427 0
277 -427 0
423 -427 0
426 427 -428 0
-426 428 0
-427 428 0
-90 -359 429 0
90 -429 0
359 -429 0
-283 -429 -430 0
283 429 -430 0
283 -429 430 0
-283 429 430 0
-430 -428 -431 0
430 428 -431 0
430 -428 431 0
-430 428 431 0
-430 -428 432 0
430 -432 0
428 -432 0
-283 -429 433 0
283 -433 0
429 -433 0
432 433 -434 0
-432 434 0
-433 434 0
-98 -359 435 0
98 -435 0
359 -435 0
-289 -435 -436 0
289 435 -436 0
289 -435 436 0
-289 435 436 0
-436 -434 -437 0
436 434 -437 0
436 -434 437 0
-436 434 437 0
-436 -434 438 0
436 -438 0
434 -438 0
-289 -435 439 0
289 -439 0
435 -439 0
438 439 -440 0
-438 440 0
-439 440 0
-106 -359 441 0
106 -441 0
359 -441 0
-295 -441 -442 0
295 441 -442 0
295 -441 442 0
-295 441 442 0
-442 -440 -443 0
442 440 -443 0
442 -440 443 0
-442 440 443 0
-442 -440 444 0
442 -444 0
440 -444 0
-295 -441 445 0
295 -445 0
441 -445 0
444 445 -446 0
-444 446 0
-445 446 0
-114 -359 447 0
114 -447 0
359 -447 0
-301 -447 -448 0
301 447 -448 0
301 -447 448 0
-301 447 448 0
-448 -446 -449 0
448 446 -449 0
448 -446 449 0
-448 446 449 0
-448 -446 450 0
448 -450 0
446 -450 0
-301 -447 451 0
301 -451 0
447 -451 0
450 451 -452 0
-450 452 0
-451 452 0
-122 -359 453 0
122 -453 0
359 -453 0
-307 -453 -454 0
307 453 -454 0
307 -453 454 0
-307 453 454 0
-454 -452 -455 0
454 452 -455 0
454 -452 455 0
-454 452 455 0
-454 -452 456 0
454 -456 0
452 -456 0
-307 -453 457 0
307 -457 0
453 -457 0
456 457 -458 0
-456 458 0
-457 458 0
-130 -359 459 0
130 -459 0
359 -459 0
-313 -459 -460 0
313 459 -460 0
313 -459 460 0
-313 459 460 0
-460 -458 -461 0
460 458 -461 0
460 -458 461 0
-460 458 461 0
-460 -458 462 0
460 -462 0
458 -462 0
-313 -459 463 0
313 -463 0
459 -463 0
462 463 -464 0
-462 464 0
-463 464 0
-138 -359 465 0
138 -465 0
359 -465 0
-319 -465 -466 0
319 465 -466 0
319 -465 466 0
-319 465 466 0
-466 -464 -467 0
466 464 -467 0
466 -464 467 0
-466 464 467 0
-466 -464 468 0
466 -468 0
464 -468 0
-319 -465 469 0
319 -469 0
465 -469 0
468 469 -470 0
-468 470 0
-469 470 0
-146 -359 471 0
146 -471 0
359 -471 0
-325 -471 -472 0
325 471 -472 0
325 -471 472 0
-325 471 472 0
-472 -470 -473 0
472 470 -473 0
472 -470 473 0
-472 470 473 0
-472 -470 474 0
472 -474 0
470 -474 0
-325 -471 475 0
325 -475 0
471 -475 0
474 475 -476 0
-474 476 0
-475 476 0
-154 -359 477 0
154 -477 0
359 -477 0
-331 -477 -478 0
331 477 -478 0
331 -477 478 0
-331 477 478 0
-478 -476 -479 0
478 476 -479 0
478 -476 479 0
-478 476 479 0
-478 -476 480 0
478 -480 0
476 -480 0
-331 -477 481 0
331 -481 0
477 -481 0
480 481 -482 0
-480 482 0
-481 482 0
-162 -359 483 0
162 -483 0
359 -483 0
-337 -483 -484 0
337 483 -484 0
337 -483 484 0
-337 483 484 0
-484 -482 -485 0
484 482 -485 0
484 -482 485 0
-484 482 485 0
-484 -482 486 0
484 -486 0
482 -486 0
-337 -483 487 0
337 -487 0
483 -487 0
486 487 -488 0
-486 488 0
-487 488 0
-170 -359 489 0
170 -489 0
359 -489 0
-343 -489 -490 0
343 489 -490 0
343 -489 490 0
-343 489 490 0
-490 -488 -491 0
490 488 -491 0
490 -488 491 0
-490 488 491 0
-490 -488 492 0
490 -492 0
488 -492 0
-343 -489 493 0
343 -493 0
489 -493 0
492 493 -494 0
-492 494 0
-493 494 0
-178 -359 495 0
178 -495 0
359 -495 0
-349 -495 -496 0
349 495 -496 0
349 -495 496 0
-349 495 496 0
-496 -494 -497 0
496 494 -497 0
496 -494 497 0
-496 494 497 0
-496 -494 498 0
496 -498 0
494 -498 0
-349 -495 499 0
349 -499 0
495 -499 0
498 499 -500 0
-498 500 0
-499 500 0
-186 -359 501 0
186 -501 0
359 -501 0
-355 -501 -502 0
355 501 -502 0
355 -501 502 0
-355 501 502 0
-502 -500 -503 0
502 500 -503 0
502 -500 503 0
-502 500 503 0
-502 -500 504 0
502 -504 0
500 -504 0
-355 -501 505 0
355 -505 0
501 -505 0
504 505 -506 0
-504 506 0
-505 506 0
-194 -359 507 0
194 -507 0
359 -507 0
-358 -507 -508 0
358 507 -508 0
358 -507 508 0
-358 507 508 0
-508 -506 -509 0
508 506 -509 0
508 -506 509 0
-508 506 509 0
-508 -506 510 0
508 -510 0
506 -510 0
-358 -507 511 0
358 -511 0
507 -511 0
510 511 -512 0
-510 512 0
-511 512 0
-1 -513 514 0
1 -514 0
513 -514 0
-365 -514 -515 0
365 514 -515 0
365 -514 515 0
-365 514 515 0
-365 -514 516 0
365 -516 0
514 -516 0
-4 -513 517 0
4 -517 0
513 -517 0
-371 -517 -518 0
371 517 -518 0
371 -517 518 0
-371 517 518 0
-518 -516 -519 0
518 516 -519 0
518 -516 519 0
-518 516 519 0
-518 -516 520 0
518 -520 0
516 -520 0
-371 -517 521 0
371 -521 0
517 -521 0
520 521 -522 0
-520 522 0
-521 522 0
-10 -513 523 0
10 -523 0
513 -523 0
-377 -523 -524 0
377 523 -524 0
377 -523 524 0
-377 523 524 0
-524 -522 -525 0
524 522 -525 0
524 -522 525 0
-524 522 525 0
-524 -522 526 0
524 -526 0
522 -526 0
-377 -523 527 0
377 -527 0
523 -527 0
526 527 -528 0
-526 528 0
-527 528 0
-18 -513 529 0
18 -529 0
513 -529 0
-383 -529 -530 0
383 529 -530 0
383 -529 530 0
-383 529 530 0
-530 -528 -531 0
530 528 -531 0
530 -528 531 0
-530 528 531 0
-530 -528 532 0
530 -532 0
528 -532 0
-383 -529 533 0
383 -533 0
529 -533 0
532 533 -534 0
-532 534 0
-533 534 0
-26 -513 535 0
26 -535 0
513 -535 0
-389 -535 -536 0
389 535 -536 0
389 -535 536 0
-389 535 536 0
-536 -534 -537 0
536 534 -537 0
536 -534 537 0
-536 534 537 0
-536 -534 538 0
536 -538 0
534 -538 0
-389 -535 539 0
389 -539 0
535 -539 0
538 539 -540 0
-538 540 0
-539 540 0
-34 -513 541 0
34 -541 0
513 -541 0
-395 -541 -542 0
395 541 -542 0
395 -541 542 0
-395 541 542 0
-542 -540 -543 0
542 540 -543 0
542 -540 543 0
-542 540 543 0
-542 -540 544 0
542 -544 0
540 -544 0
-395 -541 545 0
395 -545 0
541 -545 0
544 545 -546 0
-544 546 0
-545 546 0
-42 -513 547 0
42 -547 0
513 -547 0
-401 -547 -548 0
401 547 -548 0
401 -547 548 0
-401 547 548 0
-548 -546 -549 0
548 546 -549 0
548 -546 549 0
-548 546 549 0
-548 -546 550 0
548 -550 0
546 -550 0
-401 -547 551 0
401 -551 0
547 -551 0
550 551 -552 0
-550 552 0
-551 552 0
-50 -513 553 0
50 -553 0
513 -553 0
-407 -553 -554 0
407 553 -554 0
407 -553 554 0
-407 553 554 0
-554 -552 -555 0
554 552 -555 0
554 -552 555 0
-554 552 555 0
-554 -552 556 0
554 -556 0
552 -556 0
-407 -553 557 0
407 -557 0
553 -557 0
556 557 -558 0
-556 558 0
-557 558 0
-58 -513 559 0
58 -559 0
513 -559 0
-413 -559 -560 0
413 559 -560 0
413 -559 560 0
-413 559 560 0
-560 -558 -561 0
560 558 -561 0
560 -558 561 0
-560 558 561 0
-560 -558 562 0
560 -562 0
558 -562 0
-413 -559 563 0
413 -563 0
559 -563 0
562 563 -564 0
-562 564 0
-563 564 0
-66 -513 565 0
66 -565 0
513 -565 0
-419 -565 -566 0
419 565 -566 0
419 -565 566 0
-419 565 566 0
-566 -564 -567 0
566 564 -567 0
566 -564 567 0
-566 564 567 0
-566 -564 568 0
566 -568 0
564 -568 0
-419 -565 569 0
419 -569 0
565 -569 0
568 569 -570 0
-568 570 0
-569 570 0
-74 -513 571 0
74 -571 0
513 -571 0
-425 -571 -572 0
425 571 -572 0
425 -571 572 0
-425 571 572 0
-572 -570 -573 0
572 570 -573 0
572 -570 573 0
-572 570 573 0
-572 -570 574 0
572 -574 0
570 -574 0
-425 -571 575 0
425 -575 0
571 -575 0
574 575 -576 0
-574 576 0
-575 576 0
-82 -513 577 0
82 -577 0
513 -577 0
-431 -577 -578 0
431 577 -578 0
431 -577 578 0
-431 577 578 0
-578 -576 -579 0
578 576 -579 0
578 -576 579 0
-578 576 579 0
-578 -576 580 0
578 -580 0
576 -580 0
-431 -577 581 0
431 -581 0
577 -581 0
580 581 -582 0
-580 582 0
-581 582 0
-90 -513 583 0
90 -583 0
513 -583 0
-437 -583 -584 0
437 583 -584 0
437 -583 584 0
-437 583 584 0
-584 -582 -585 0
584 582 -585 0
584 -582 585 0
-584 582 585 0
-584 -582 586 0
584 -586 0
582 -586 0
-437 -583 587 0
437 -587 0
583 -587 0
586 587 -588 0
-586 588 0
-587 588 0
-98 -513 589 0
98 -589 0
513 -589 0
-443 -589 -590 0
443 589 -590 0
443 -589 590 0
-443 589 590 0
-590 -588 -591 0
590 588 -591 0
590 -588 591 0
-590 588 591 0
-590 -588 592 0
590 -592 0
588 -592 0
-443 -589 593 0
443 -593 0
589 -593 0
592 593 -594 0
-592 594 0
-593 594 0
-106 -513 595 0
106 -595 0
513 -595 0
-449 -595 -596 0
449 595 -596 0
449 -595 596 0
-449 595 596 0
-596 -594 -597 0
596 594 -597 0
596 -594 597 0
-596 594 597 0
-596 -594 598 0
596 -598 0
594 -598 0
-449 -595 599 0
449 -599 0
595 -599 0
598 599 -600 0
-598 600 0
-599 600 0
-114 -513 601 0
114 -601 0
513 -601 0
-455 -601 -602 0
455 601 -602 0
455 -601 602 0
-455 601 602 0
-602 -600 -603 0
602 600 -603 0
602 -600 603 0
-602 600 603 0
-602 -600 604 0
602 -604 0
600 -604 0
-455 -601 605 0
455 -605 0
601 -605 0
604 605 -606 0
-604 606 0
-605 606 0
-122 -513 607 0
122 -607 0
513 -607 0
-461 -607 -608 0
461 607 -608 0
461 -607 608 0
-461 607 608 0
-608 -606 -609 0
608 606 -609 0
608 -606 609 0
-608 606 609 0
-608 -606 610 0
608 -610 0
606 -610 0
-461 -607 611 0
461 -611 0
607 -611 0
610 611 -612 0
-610 612 0
-611 612 0
-130 -513 613 0
130 -613 0
513 -613 0
-467 -613 -614 0
467 613 -614 0
467 -613 614 0
-467 613 614 0
-614 -612 -615 0
614 612 -615 0
614 -612 615 0
-614 612 615 0
-614 -612 616 0
614 -616 0
612 -616 0
-467 -613 617 0
467 -617 0
613 -617 0
616 617 -618 0
-616 618 0
-617 618 0
-138 -513 619 0
138 -619 0
513 -619 0
-473 -619 -620 0
473 619 -620 0
473 -619 620 0
-473 619 620 0
-620 -618 -621 0
620 618 -621 0
620 -618 621 0
-620 618 621 0
-620 -618 622 0
620 -622 0
618 -622 0
-473 -619 623 0
473 -623 0
619 -623 0
622 623 -624 0
-622 624 0
-623 624 0
-146 -513 625 0
146 -625 0
513 -625 0
-479 -625 -626 0
479 625 -626 0
479 -625 626 0
-479 625 626 0
-626 -624 -627 0
626 624 -627 0
626 -624 627 0
-626 624 627 0
-626 -624 628 0
626 -628 0
624 -628 0
-479 -625 629 0
479 -629 0
625 -629 0
628 629 -630 0
-628 630 0
-629 630 0
-154 -513 631 0
154 -631 0
513 -631 0
-485 -631 -632 0
485 631 -632 0
485 -631 632 0
-485 631 632 0
-632 -630 -633 0
632 630 -633 0
632 -630 633 0
-632 630 633 0
-632 -630 634 0
632 -634 0
630 -634 0
-485 -631 635 0
485 -635 0
631 -635 0
634 635 -636 0
-634 636 0
-635 636 0
-162 -513 637 0
162 -637 0
513 -637 0
-491 -637 -638 0
491 637 -638 0
491 -637 638 0
-491 637 638 0
-638 -636 -639 0
638 636 -639 0
638 -636 639 0
-638 636 639 0
-638 -636 640 0
638 -640 0
636 -640 0
-491 -637 641 0
491 -641 0
637 -641 0
640 641 -642 0
-640 642 0
-641 642 0
-170 -513 643 0
170 -643 0
513 -643 0
-497 -643 -644 0
497 643 -644 0
497 -643 644 0
-497 643 644 0
-644 -642 -645 0
644 642 -645 0
644 -642 645 0
-644 642 645 0
-644 -642 646 0
644 -646 0
642 -646 0
-497 -643 647 0
497 -647 0
643 -647 0
646 647 -648 0
-646 648 0
-647 648 0
-178 -513 649 0
178 -649 0
513 -649 0
-503 -649 -650 0
503 649 -650 0
503 -649 650 0
-503 649 650 0
-650 -648 -651 0
650 648 -651 0
650 -648 651 0
-650 648 651 0
-650 -648 652 0
650 -652 0
648 -652 0
-503 -649 653 0
503 -653 0
649 -653 0
652 653 -654 0
-652 654 0
-653 654 0
-186 -513 655 0
186 -655 0
513 -655 0
-509 -655 -656 0
509 655 -656 0
509 -655 656 0
-509 655 656 0
-656 -654 -657 0
656 654 -657 0
656 -654 657 0
-656 654 657 0
-656 -654 658 0
656 -658 0
654 -658 0
-509 -655 659 0
509 -659 0
655 -659 0
658 659 -660 0
-658 660 0
-659 660 0
-194 -513 661 0
194 -661 0
513 -661 0
-512 -661 -662 0
512 661 -662 0
512 -661 662 0
-512 661 662 0
-662 -660 -663 0
662 660 -663 0
662 -660 663 0
-662 660 663 0
-662 -660 664 0
662 -664 0
660 -664 0
-512 -661 665 0
512 -665 0
661 -665 0
664 665 -666 0
-664 666 0
-665 666 0
-1 -667 668 0
1 -668 0
667 -668 0
-519 -668 -669 0
519 668 -669 0
519 -668 669 0
-519 668 669 0
-519 -668 670 0
519 -670 0
668 -670 0
-4 -667 671 0
4 -671 0
667 -671 0
-525 -671 -672 0
525 671 -672 0
525 -671 672 0
-525 671 672 0
-672 -670 -673 0
672 670 -673 0
672 -670 673 0
-672 670 673 0
-672 -670 674 0
672 -674 0
670 -674 0
-525 -671 675 0
525 -675 0
671 -675 0
674 675 -676 0
-674 676 0
-675 676 0
-10 -667 677 0
10 -677 0
667 -677 0
-531 -677 -678 0
531 677 -678 0
531 -677 678 0
-531 677 678 0
-678 -676 -679 0
678 676 -679 0
678 -676 679 0
-678 676 679 0
-678 -676 680 0
678 -680 0
676 -680 0
-531 -677 681 0
531 -681 0
677 -681 0
680 681 -682 0
-680 682 0
-681 682 0
-18 -667 683 0
18 -683 0
667 -683 0
-537 -683 -684 0
537 683 -684 0
537 -683 684 0
-537 683 684 0
-684 -682 -685 0
684 682 -685 0
684 -682 685 0
-684 682 685 0
-684 -682 686 0
684 -686 0
682 -686 0
-537 -683 687 0
537 -687 0
683 -687 0
686 687 -688 0
-686 688 0
-687 688 0
-26 -667 689 0
26 -689 0
667 -689 0
-543 -689 -690 0
543 689 -690 0
543 -689 690 0
-543 689 690 0
-690 -688 -691 0
690 688 -691 0
690 -688 691 0
-690 688 691 0
-690 -688 692 0
690 -692 0
688 -692 0
-543 -689 693 0
543 -693 0
689 -693 0
692 693 -694 0
-692 694 0
-693 694 0
-34 -667 695 0
34 -695 0
667 -695 0
-549 -695 -696 0
549 695 -696 0
549 -695 696 0
-549 695 696 0
-696 -694 -697 0
696 694 -697 0
696 -694 697 0
-696 694 697 0
-696 -694 698 0
696 -698 0
694 -698 0
-549 -695 699 0
549 -699 0
695 -699 0
698 699 -700 0
-698 700 0
-699 700 0
-42 -667 701 0
42 -701 0
667 -701 0
-555 -701 -702 0
555 701 -702 0
555 -701 702 0
-555 701 702 0
-702 -700 -703 0
702 700 -703 0
702 -700 703 0
-702 700 703 0
-702 -700 704 0
702 -704 0
700 -704 0
-555 -701 705 0
555 -705 0
701 -705 0
704 705 -706 0
-704 706 0
-705 706 0
-50 -667 707 0
50 -707 0
667 -707 0
-561 -707 -708 0
561 707 -708 0
561 -707 708 0
-561 707 708 0
-708 -706 -709 0
708 706 -709 0
708 -706 709 0
-708 706 709 0
-708 -706 710 0
708 -710 0
706 -710 0
-561 -707 711 0
561 -711 0
707 -711 0
710 711 -712 0
-710 712 0
-711 712 0
-58 -667 713 0
58 -713 0
667 -713 0
-567 -713 -714 0
567 713 -714 0
567 -713 714 0
-567 713 714 0
-714 -712 -715 0
714 712 -715 0
714 -712 715 0
-714 712 715 0
-714 -712 716 0
714 -716 0
712 -716 0
-567 -713 717 0
567 -717 0
713 -717 0
716 717 -718 0
-716 718 0
-717 718 0
-66 -667 719 0
66 -719 0
667 -719 0
-573 -719 -720 0
573 719 -720 0
573 -719 720 0
-573 719 720 0
-720 -718 -721 0
720 718 -721 0
720 -718 721 0
-720 718 721 0
-720 -718 722 0
720 -722 0
718 -722 0
-573 -719 723 0
573 -723 0
719 -723 0
722 723 -724 0
-722 724 0
-723 724 0
-74 -667 725 0
74 -725 0
667 -725 0
-579 -725 -726 0
579 725 -726 0
579 -725 726 0
-579 725 726 0
-726 -724 -727 0
726 724 -727 0
726 -724 727 0
-726 724 727 0
-726 -724 728 0
726 -728 0
724 -728 0
-579 -725 729 0
579 -729 0
725 -729 0
728 729 -730 0
-728 730 0
-729 730 0
-82 -667 731 0
82 -731 0
667 -731 0
-585 -731 -732 0
585 731 -732 0
585 -731 732 0
-585 731 732 0
-732 -730 -733 0
732 730 -733 0
732 -730 733 0
-732 730 733 0
-732 -730 734 0
732 -734 0
730 -734 0
-585 -731 735 0
585 -735 0
731 -735 0
734 735 -736 0
-734 736 0
-735 736 0
-90 -667 737 0
90 -737 0
667 -737 0
-591 -737 -738 0
591 737 -738 0
591 -737 738 0
-591 737 738 0
-738 -736 -739 0
738 736 -739 0
738 -736 739 0
-738 736 739 0
-738 -736 740 0
738 -740 0
736 -740 0
-591 -737 741 0
591 -741 0
737 -741 0
740 741 -742 0
-740 742 0
-741 742 0
-98 -667 743 0
98 -743 0
667 -743 0
-597 -743 -744 0
597 743 -744 0
597 -743 744 0
-597 743 744 0
-744 -742 -745 0
744 742 -745 0
744 -742 745 0
-744 742 745 0
-744 -742 746 0
744 -746 0
742 -746 0
-597 -743 747 0
597 -747 0
743 -747 0
746 747 -748 0
-746 748 0
-747 748 0
-106 -667 749 0
106 -749 0
667 -749 0
-603 -749 -750 0
603 749 -750 0
603 -749 750 0
-603 749 750 0
-750 -748 -751 0
750 748 -751 0
750 -748 751 0
-750 748 751 0
-750 -748 752 0
750 -752 0
748 -752 0
-603 -749 753 0
603 -753 0
749 -753 0
752 753 -754 0
-752 754 0
-753 754 0
-114 -667 755 0
114 -755 0
667 -755 0
-609 -755 -756 0
609 755 -756 0
609 -755 756 0
-609 755 756 0
-756 -754 -757 0
756 754 -757 0
756 -754 757 0
-756 754 757 0
-756 -754 758 0
756 -758 0
754 -758 0
-609 -755 759 0
609 -759 0
755 -759 0
758 759 -760 0
-758 760 0
-759 760 0
-122 -667 761 0
122 -761 0
667 -761 0
-615 -761 -762 0
615 761 -762 0
615 -761 762 0
-615 761 762 0
-762 -760 -763 0
762 760 -763 0
762 -760 763 0
-762 760 763 0
-762 -760 764 0
762 -764 0
760 -764 0
-615 -761 765 0
615 -765 0
761 -765 0
764 765 -766 0
-764 766 0
-765 766 0
-130 -667 767 0
130 -767 0
667 -767 0
-621 -767 -768 0
621 767 -768 0
621 -767 768 0
-621 767 768 0
-768 -766 -769 0
768 766 -769 0
768 -766 769 0
-768 766 769 0
-768 -766 770 0
768 -770 0
766 -770 0
-621 -767 771 0
621 -771 0
767 -771 0
770 771 -772 0
-770 772 0
-771 772 0
-138 -667 773 0
138 -773 0
667 -773 0
-627 -773 -774 0
627 773 -774 0
627 -773 774 0
-627 773 774 0
-774 -772 -775 0
774 772 -775 0
774 -772 775 0
-774 772 775 0
-774 -772 776 0
774 -776 0
772 -776 0
-627 -773 777 0
627 -777 0
773 -777 0
776 777 -778 0
-776 778 0
-777 778 0
-146 -667 779 0
146 -779 0
667 -779 0
-633 -779 -780 0
633 779 -780 0
633 -779 780 0
-633 779 780 0
-780 -778 -781 0
780 778 -781 0
780 -778 781 0
-780 778 781 0
-780 -778 782 0
780 -782 0
778 -782 0
-633 -779 783 0
633 -783 0
779 -783 0
782 783 -784 0
-782 784 0
-783 784 0
-154 -667 785 0
154 -785 0
667 -785 0
-639 -785 -786 0
639 785 -786 0
639 -785 786 0
-639 785 786 0
-786 -784 -787 0
786 784 -787 0
786 -784 787 0
-786 784 787 0
-786 -784 788 0
786 -788 0
784 -788 0
-639 -785 789 0
639 -789 0
785 -789 0
788 789 -790 0
-788 790 0
-789 790 0
-162 -667 791 0
162 -791 0
667 -791 0
-645 -791 -792 0
645 791 -792 0
645 -791 792 0
-645 791 792 0
-792 -790 -793 0
792 790 -793 0
792 -790 793 0
-792 790 793 0
-792 -790 794 0
792 -794 0
790 -794 0
-645 -791 795 0
645 -795 0
791 -795 0
794 795 -796 0
-794 796 0
-795 796 0
-170 -667 797 0
170 -797 0
667 -797 0
-651 -797 -798 0
651 797 -798 0
651 -797 798 0
-651 797 798 0
-798 -796 -799 0
798 796 -799 0
798 -796 799 0
-798 796 799 0
-798 -796 800 0
798 -800 0
796 -800 0
-651 -797 801 0
651 -801 0
797 -801 0
800 801 -802 0
-800 802 0
-801 802 0
-178 -667 803 0
178 -803 0
667 -803 0
-657 -803 -804 0
657 803 -804 0
657 -803 804 0
-657 803 804 0
-804 -802 -805 0
804 802 -805 0
804 -802 805 0
-804 802 805 0
-804 -802 806 0
804 -806 0
802 -806 0
-657 -803 807 0
657 -807 0
803 -807 0
806 807 -808 0
-806 808 0
-807 808 0
-186 -667 809 0
186 -809 0
667 -809 0
-663 -809 -810 0
663 809 -810 0
663 -809 810 0
-663 809 810 0
-810 -808 -811 0
810 808 -811 0
810 -808 811 0
-810 808 811 0
-810 -808 812 0
810 -812 0
808 -812 0
-663 -809 813 0
663 -813 0
809 -813 0
812 813 -814 0
-812 814 0
-813 814 0
-194 -667 815 0
194 -815 0
667 -815 0
-666 -815 -816 0
666 815 -816 0
666 -815 816 0
-666 815 816 0
-816 -814 -817 0
816 814 -817 0
816 -814 817 0
-816 814 817 0
-816 -814 818 0
816 -818 0
814 -818 0
-666 -815 819 0
666 -819 0
815 -819 0
818 819 -820 0
-818 820 0
-819 820 0
-1 -821 822 0
1 -822 0
821 -822 0
-673 -822 -823 0
673 822 -823 0
673 -822 823 0
-673 822 823 0
-673 -822 824 0
673 -824 0
822 -824 0
-4 -821 825 0
4 -825 0
821 -825 0
-679 -825 -826 0
679 825 -826 0
679 -825 826 0
-679 825 826 0
-826 -824 -827 0
826 824 -827 0
826 -824 827 0
-826 824 827 0
-826 -824 828 0
826 -828 0
824 -828 0
-679 -825 829 0
679 -829 0
825 -829 0
828 829 -830 0
-828 830 0
-829 830 0
-10 -821 831 0
10 -831 0
821 -831 0
-685 -831 -832 0
685 831 -832 0
685 -831 832 0
-685 831 832 0
-832 -830 -833 0
832 830 -833 0
832 -830 833 0
-832 830 833 0
-832 -830 834 0
832 -834 0
830 -834 0
-685 -831 835 0
685 -835 0
831 -835 0
834 835 -836 0
-834 836 0
-835 836 0
-18 -821 837 0
18 -837 0
821 -837 0
-691 -837 -838 0
691 837 -838 0
691 -837 838 0
-691 837 838 0
-838 -836 -839 0
838 836 -839 0
838 -836 839 0
-838 836 839 0
-838 -836 840 0
838 -840 0
836 -840 0
-691 -837 841 0
691 -841 0
837 -841 0
840 841 -842 0
-840 842 0
-841 842 0
-26 -821 843 0
26 -843 0
821 -843 0
-697 -843 -844 0
697 843 -844 0
697 -843 844 0
-697 843 844 0
-844 -842 -845 0
844 842 -845 0
844 -842 845 0
-844 842 845 0
-844 -842 846 0
844 -846 0
842 -846 0
-697 -843 847 0
697 -847 0
843 -847 0
846 847 -848 0
-846 848 0
-847 848 0
-34 -821 849 0
34 -849 0
821 -849 0
-703 -849 -850 0
703 849 -850 0
703 -849 850 0
-703 849 850 0
-850 -848 -851 0
850 848 -851 0
850 -848 851 0
-850 848 851 0
-850 -848 852 0
850 -852 0
848 -852 0
-703 -849 853 0
703 -853 0
849 -853 0
852 853 -854 0
-852 854 0
-853 854 0
-42 -821 855 0
42 -855 0
821 -855 0
-709 -855 -856 0
709 855 -856 0
709 -855 856 0
-709 855 856 0
-856 -854 -857 0
856 854 -857 0
856 -854 857 0
-856 854 857 0
-856 -854 858 0
856 -858 0
854 -858 0
-709 -855 859 0
709 -859 0
855 -859 0
858 859 -860 0
-858 860 0
-859 860 0
-50 -821 861 0
50 -861 0
821 -861 0
-715 -861 -862 0
715 861 -862 0
715 -861 862 0
-715 861 862 0
-862 -860 -863 0
862 860 -863 0
862 -860 863 0
-862 860 863 0
-862 -860 864 0
862 -864 0
860 -864 0
-715 -861 865 0
715 -865 0
861 -865 0
864 865 -866 0
-864 866 0
-865 866 0
-58 -821 867 0
58 -867 0
821 -867 0
-721 -867 -868 0
721 867 -868 0
721 -867 868 0
-721 867 868 0
-868 -866 -869 0
868 866 -869 0
868 -866 869 0
-868 866 869 0
-868 -866 870 0
868 -870 0
866 -870 0
-721 -867 871 0
721 -871 0
867 -871 0
870 871 -872 0
-870 872 0
-871 872 0
-66 -821 873 0
66 -873 0
821 -873 0
-727 -873 -874 0
727 873 -874 0
727 -873 874 0
-727 873 874 0
-874 -872 -875 0
874 872 -875 0
874 -872 875 0
-874 872 875 0
-874 -872 876 0
874 -876 0
872 -876 0
-727 -873 877 0
727 -877 0
873 -877 0
876 877 -878 0
-876 878 0
-877 878 0
-74 -821 879 0
74 -879 0
821 -879 0
-733 -879 -880 0
733 879 -880 0
733 -879 880 0
-733 879 880 0
-880 -878 -881 0
880 878 -881 0
880 -878 881 0
-880 878 881 0
-880 -878 882 0
880 -882 0
878 -882 0
-733 -879 883 0
733 -883 0
879 -883 0
882 883 -884 0
-882 884 0
-883 884 0
-82 -821 885 0
82 -885 0
821 -885 0
-739 -885 -886 0
739 885 -886 0
739 -885 886 0
-739 885 886 0
-886 -884 -887 0
886 884 -887 0
886 -884 887 0
-886 884 887 0
-886 -884 888 0
886 -888 0
884 -888 0
-739 -885 889 0
739 -889 0
885 -889 0
888 889 -890 0
-888 890 0
-889 890 0
-90 -821 891 0
90 -891 0
821 -891 0
-745 -891 -892 0
745 891 -892 0
745 -891 892 0
-745 891 892 0
-892 -890 -893 0
892 890 -893 0
892 -890 893 0
-892 890 893 0
-892 -890 894 0
892 -894 0
890 -894 0
-745 -891 895 0
745 -895 0
891 -895 0
894 895 -896 0
-894 896 0
-895 896 0
-98 -821 897 0
98 -897 0
821 -897 0
-751 -897 -898 0
751 897 -898 0
751 -897 898 0
-751 897 898 0
-898 -896 -899 0
898 896 -899 0
898 -896 899 0
-898 896 899 0
-898 -896 900 0
898 -900 0
896 -900 0
-751 -897 901 0
751 -901 0
897 -901 0
900 901 -902 0
-900 902 0
-901 902 0
-106 -821 903 0
106 -903 0
821 -903 0
-757 -903 -904 0
757 903 -904 0
757 -903 904 0
-757 903 904 0
-904 -902 -905 0
904 902 -905 0
904 -902 905 0
-904 902 905 0
-904 -902 906 0
904 -906 0
902 -906 0
-757 -903 907 0
757 -907 0
903 -907 0
906 907 -908 0
-906 908 0
-907 908 0
-114 -821 909 0
114 -909 0
821 -909 0
-763 -909 -910 0
763 909 -910 0
763 -909 910 0
-763 909 910 0
-910 -908 -911 0
910 908 -911 0
910 -908 911 0
-910 908 911 0
-910 -908 912 0
910 -912 0
908 -912 0
-763 -909 913 0
763 -913 0
909 -913 0
912 913 -914 0
-912 914 0
-913 914 0
-122 -821 915 0
122 -915 0
821 -915 0
-769 -915 -916 0
769 915 -916 0
769 -915 916 0
-769 915 916 0
-916 -914 -917 0
916 914 -917 0
916 -914 917 0
-916 914 917 0
-916 -914 918 0
916 -918 0
914 -918 0
-769 -915 919 0
769 -919 0
915 -919 0
918 919 -920 0
-918 920 0
-919 920 0
-130 -821 921 0
130 -921 0
821 -921 0
-775 -921 -922 0
775 921 -922 0
775 -921 922 0
-775 921 922 0
-922 -920 -923 0
922 920 -923 0
922 -920 923 0
-922 920 923 0
-922 -920 924 0
922 -924 0
920 -924 0
-775 -921 925 0
775 -925 0
921 -925 0
924 925 -926 0
-924 926 0
-925 926 0
-138 -821 927 0
138 -927 0
821 -927 0
-781 -927 -928 0
781 927 -928 0
781 -927 928 0
-781 927 928 0
-928 -926 -929 0
928 926 -929 0
928 -926 929 0
-928 926 929 0
-928 -926 930 0
928 -930 0
926 -930 0
-781 -927 931 0
781 -931 0
927 -931 0
930 931 -932 0
-930 932 0
-931 932 0
-146 -821 933 0
146 -933 0
821 -933 0
-787 -933 -934 0
787 933 -934 0
787 -933 934 0
-787 933 934 0
-934 -932 -935 0
934 932 -935 0
934 -932 935 0
-934 932 935 0
-934 -932 936 0
934 -936 0
932 -936 0
-787 -933 937 0
787 -937 0
933 -937 0
936 937 -938 0
-936 938 0
-937 938 0
-154 -821 939 0
154 -939 0
821 -939 0
-793 -939 -940 0
793 939 -940 0
793 -939 940 0
-793 939 940 0
-940 -938 -941 0
940 938 -941 0
940 -938 941 0
-940 938 941 0
-940 -938 942 0
940 -942 0
938 -942 0
-793 -939 943 0
793 -943 0
939 -943 0
942 943 -944 0
-942 944 0
-943 944 0
-162 -821 945 0
162 -945 0
821 -945 0
-799 -945 -946 0
799 945 -946 0
799 -945 946 0
-799 945 946 0
-946 -944 -947 0
946 944 -947 0
946 -944 947 0
-946 944 947 0
-946 -944 948 0
946 -948 0
944 -948 0
-799 -945 949 0
799 -949 0
945 -949 0
948 949 -950 0
-948 950 0
-949 950 0
-170 -821 951 0
170 -951 0
821 -951 0
-805 -951 -952 0
805 951 -952 0
805 -951 952 0
-805 951 952 0
-952 -950 -953 0
952 950 -953 0
952 -950 953 0
-952 950 953 0
-952 -950 954 0
952 -954 0
950 -954 0
-805 -951 955 0
805 -955 0
951 -955 0
954 955 -956 0
-954 956 0
-955 956 0
-178 -821 957 0
178 -957 0
821 -957 0
-811 -957 -958 0
811 957 -958 0
811 -957 958 0
-811 957 958 0
-958 -956 -959 0
958 956 -959 0
958 -956 959 0
-958 956 959 0
-958 -956 960 0
958 -960 0
956 -960 0
-811 -957 961 0
811 -961 0
957 -961 0
960 961 -962 0
-960 962 0
-961 962 0
-186 -821 963 0
186 -963 0
821 -963 0
-817 -963 -964 0
817 963 -964 0
817 -963 964 0
-817 963 964 0
-964 -962 -965 0
964 962 -965 0
964 -962 965 0
-964 962 965 0
-964 -962 966 0
964 -966 0
962 -966 0
-817 -963 967 0
817 -967 0
963 -967 0
966 967 -968 0
-966 968 0
-967 968 0
-194 -821 969 0
194 -969 0
821 -969 0
-820 -969 -970 0
820 969 -970 0
820 -969 970 0
-820 969 970 0
-970 -968 -971 0
970 968 -971 0
970 -968 971 0
-970 968 971 0
-970 -968 972 0
970 -972 0
968 -972 0
-820 -969 973 0
820 -973 0
969 -973 0
972 973 -974 0
-972 974 0
-973 974 0
-1 -975 976 0
1 -976 0
975 -976 0
-827 -976 -977 0
827 976 -977 0
827 -976 977 0
-827 976 977 0
-827 -976 978 0
827 -978 0
976 -978 0
-4 -975 979 0
4 -979 0
975 -979 0
-833 -979 -980 0
833 979 -980 0
833 -979 980 0
-833 979 980 0
-980 -978 -981 0
980 978 -981 0
980 -978 981 0
-980 978 981 0
-980 -978 982 0
980 -982 0
978 -982 0
-833 -979 983 0
833 -983 0
979 -983 0
982 983 -984 0
-982 984 0
-983 984 0
-10 -975 985 0
10 -985 0
975 -985 0
-839 -985 -986 0
839 985 -986 0
839 -985 986 0
-839 985 986 0
-986 -984 -987 0
986 984 -987 0
986 -984 987 0
-986 984 987 0
-986 -984 988 0
986 -988 0
984 -988 0
-839 -985 989 0
839 -989 0
985 -989 0
988 989 -990 0
-988 990 0
-989 990 0
-18 -975 991 0
18 -991 0
975 -991 0
-845 -991 -992 0
845 991 -992 0
845 -991 992 0
-845 991 992 0
-992 -990 -993 0
992 990 -993 0
992 -990 993 0
-992 990 993 0
-992 -990 994 0
992 -994 0
990 -994 0
-845 -991 995 0
845 -995 0
991 -995 0
994 995 -996 0
-994 996 0
-995 996 0
-26 -975 997 0
26 -997 0
975 -997 0
-851 -997 -998 0
851 997 -998 0
851 -997 998 0
-851 997 998 0
-998 -996 -999 0
998 996 -999 0
998 -996 999 0
-998 996 999 0
-998 -996 1000 0
998 -1000 0
996 -1000 0
-851 -997 1001 0
851 -1001 0
997 -1001 0
1000 1001 -1002 0
-1000 1002 0
-1001 1002 0
-34 -975 1003 0
34 -1003 0
975 -1003 0
-857 -1003 -1004 0
857 1003 -1004 0
857 -1003 1004 0
-857 1003 1004 0
-1004 -1002 -1005 0
1004 1002 -1005 0
1004 -1002 1005 0
-1004 1002 1005 0
-1004 -1002 1006 0
1004 -1006 0
1002 -1006 0
-857 -1003 1007 0
857 -1007 0
1003 -1007 0
1006 1007 -1008 0
-1006 1008 0
-1007 1008 0
-42 -975 1009 0
42 -1009 0
975 -1009 0
-863 -1009 -1010 0
863 1009 -1010 0
863 -1009 1010 0
-863 1009 1010 0
-1010 -1008 -1011 0
1010 1008 -1011 0
1010 -1008 1011 0
-1010 1008 1011 0
-1010 -1008 1012 0
1010 -1012 0
1008 -1012 0
-863 -1009 1013 0
863 -1013 0
1009 -1013 0
1012 1013 -1014 0
-1012 1014 0
-1013 1014 0
-50 -975 1015 0
50 -1015 0
975 -1015 0
-869 -1015 -1016 0
869 1015 -1016 0
869 -1015 1016 0
-869 1015 1016 0
-1016 -1014 -1017 0
1016 1014 -1017 0
1016 -1014 1017 0
-1016 1014 1017 0
-1016 -1014 1018 0
1016 -1018 0
1014 -1018 0
-869 -1015 1019 0
869 -1019 0
1015 -1019 0
1018 1019 -1020 0
-1018 1020 0
-1019 1020 0
-58 -975 1021 0
58 -1021 0
975 -1021 0
-875 -1021 -1022 0
875 1021 -1022 0
875 -1021 1022 0
-875 1021 1022 0
-1022 -1020 -1023 0
1022 1020 -1023 0
1022 -1020 1023 0
-1022 1020 1023 0
-1022 -1020 1024 0
1022 -1024 0
1020 -1024 0
-875 -1021 1025 0
875 -1025 0
1021 -1025 0
1024 1025 -1026 0
-1024 1026 0
-1025 1026 0
-66 -975 1027 0
66 -1027 0
975 -1027 0
-881 -1027 -1028 0
881 1027 -1028 0
881 -1027 1028 0
-881 1027 1028 0
-1028 -1026 -1029 0
1028 1026 -1029 0
1028 -1026 1029 0
-1028 1026 1029 0
-1028 -1026 1030 0
1028 -1030 0
1026 -1030 0
-881 -1027 1031 0
881 -1031 0
1027 -1031 0
1030 1031 -1032 0
-1030 1032 0
-1031 1032 0
-74 -975 1033 0
74 -1033 0
975 -1033 0
-887 -1033 -1034 0
887 1033 -1034 0
887 -1033 1034 0
-887 1033 1034 0
-1034 -1032 -1035 0
1034 1032 -1035 0
1034 -1032 1035 0
-1034 1032 1035 0
-1034 -1032 1036 0
1034 -1036 0
1032 -1036 0
-887 -1033 1037 0
887 -1037 0
1033 -1037 0
1036 1037 -1038 0
-1036 1038 0
-1037 1038 0
-82 -975 1039 0
82 -1039 0
975 -1039 0
-893 -1039 -1040 0
893 1039 -1040 0
893 -1039 1040 0
-893 1039 1040 0
-1040 -1038 -1041 0
1040 1038 -1041 0
1040 -1038 1041 0
-1040 1038 1041 0
-1040 -1038 1042 0
1040 -1042 0
1038 -1042 0
-893 -1039 1043 0
893 -1043 0
1039 -1043 0
1042 1043 -1044 0
-1042 1044 0
-1043 1044 0
-90 -975 1045 0
90 -1045 0
975 -1045 0
-899 -1045 -1046 0
899 1045 -1046 0
899 -1045 1046 0
-899 1045 1046 0
-1046 -1044 -1047 0
1046 1044 -1047 0
1046 -1044 1047 0
-1046 1044 1047 0
-1046 -1044 1048 0
1046 -1048 0
1044 -1048 0
-899 -1045 1049 0
899 -1049 0
1045 -1049 0
1048 1049 -1050 0
-1048 1050 0
-1049 1050 0
-98 -975 1051 0
98 -1051 0
975 -1051 0
-905 -1051 -1052 0
905 1051 -1052 0
905 -1051 1052 0
-905 1051 1052 0
-1052 -1050 -1053 0
1052 1050 -1053 0
1052 -1050 1053 0
-1052 1050 1053 0
-1052 -1050 1054 0
1052 -1054 0
1050 -1054 0
-905 -1051 1055 0
905 -1055 0
1051 -1055 0
1054 1055 -1056 0
-1054 1056 0
-1055 1056 0
-106 -975 1057 0
106 -1057 0
975 -1057 0
-911 -1057 -1058 0
911 1057 -1058 0
911 -1057 1058 0
-911 1057 1058 0
-1058 -1056 -1059 0
1058 1056 -1059 0
1058 -1056 1059 0
-1058 1056 1059 0
-1058 -1056 1060 0
1058 -1060 0
1056 -1060 0
-911 -1057 1061 0
911 -1061 0
1057 -1061 0
1060 1061 -1062 0
-1060 1062 0
-1061 1062 0
-114 -975 1063 0
114 -1063 0
975 -1063 0
-917 -1063 -1064 0
917 1063 -1064 0
917 -1063 1064 0
-917 1063 1064 0
-1064 -1062 -1065 0
1064 1062 -1065 0
1064 -1062 1065 0
-1064 1062 1065 0
-1064 -1062 1066 0
1064 -1066 0
1062 -1066 0
-917 -1063 1067 0
917 -1067 0
1063 -1067 0
1066 1067 -1068 0
-1066 1068 0
-1067 1068 0
-122 -975 1069 0
122 -1069 0
975 -1069 0
-923 -1069 -1070 0
923 1069 -1070 0
923 -1069 1070 0
-923 1069 1070 0
-1070 -1068 -1071 0
1070 1068 -1071 0
1070 -1068 1071 0
-1070 1068 1071 0
-1070 -1068 1072 0
1070 -1072 0
1068 -1072 0
-923 -1069 1073 0
923 -1073 0
1069 -1073 0
1072 1073 -1074 0
-1072 1074 0
-1073 1074 0
-130 -975 1075 0
130 -1075 0
975 -1075 0
-929 -1075 -1076 0
929 1075 -1076 0
929 -1075 1076 0
-929 1075 1076 0
-1076 -1074 -1077 0
1076 1074 -1077 0
1076 -1074 1077 0
-1076 1074 1077 0
-1076 -1074 1078 0
1076 -1078 0
1074 -1078 0
-929 -1075 1079 0
929 -1079 0
1075 -1079 0
1078 1079 -1080 0
-1078 1080 0
-1079 1080 0
-138 -975 1081 0
138 -1081 0
975 -1081 0
-935 -1081 -1082 0
935 1081 -1082 0
935 -1081 1082 0
-935 1081 1082 0
-1082 -1080 -1083 0
1082 1080 -1083 0
1082 -1080 1083 0
-1082 1080 1083 0
-1082 -1080 1084 0
1082 -1084 0
1080 -1084 0
-935 -1081 1085 0
935 -1085 0
1081 -1085 0
1084 1085 -1086 0
-1084 1086 0
-1085 1086 0
-146 -975 1087 0
146 -1087 0
975 -1087 0
-941 -1087 -1088 0
941 1087 -1088 0
941 -1087 1088 0
-941 1087 1088 0
-1088 -1086 -1089 0
1088 1086 -1089 0
1088 -1086 1089 0
-1088 1086 1089 0
-1088 -1086 1090 0
1088 -1090 0
1086 -1090 0
-941 -1087 1091 0
941 -1091 0
1087 -1091 0
1090 1091 -1092 0
-1090 1092 0
-1091 1092 0
-154 -975 1093 0
154 -1093 0
975 -1093 0
-947 -1093 -1094 0
947 1093 -1094 0
947 -1093 1094 0
-947 1093 1094 0
-1094 -1092 -1095 0
1094 1092 -1095 0
1094 -1092 1095 0
-1094 1092 1095 0
-1094 -1092 1096 0
1094 -1096 0
1092 -1096 0
-947 -1093 1097 0
947 -1097 0
1093 -1097 0
1096 1097 -1098 0
-1096 1098 0
-1097 1098 0
-162 -975 1099 0
162 -1099 0
975 -1099 0
-953 -1099 -1100 0
953 1099 -1100 0
953 -1099 1100 0
-953 1099 1100 0
-1100 -1098 -1101 0
1100 1098 -1101 0
1100 -1098 1101 0
-1100 1098 1101 0
-1100 -1098 1102 0
1100 -1102 0
1098 -1102 0
-953 -1099 1103 0
953 -1103 0
1099 -1103 0
1102 1103 -1104 0
-1102 1104 0
-1103 1104 0
-170 -975 1105 0
170 -1105 0
975 -1105 0
-959 -1105 -1106 0
959 1105 -1106 0
959 -1105 1106 0
-959 1105 1106 0
-1106 -1104 -1107 0
1106 1104 -1107 0
1106 -1104 1107 0
-1106 1104 1107 0
-1106 -1104 1108 0
1106 -1108 0
1104 -1108 0
-959 -1105 1109 0
959 -1109 0
1105 -1109 0
1108 1109 -1110 0
-1108 1110 0
-1109 1110 0
-178 -975 1111 0
178 -1111 0
975 -1111 0
-965 -1111 -1112 0
965 1111 -1112 0
965 -1111 1112 0
-965 1111 1112 0
-1112 -1110 -1113 0
1112 1110 -1113 0
1112 -1110 1113 0
-1112 1110 1113 0
-1112 -1110 1114 0
1112 -1114 0
1110 -1114 0
-965 -1111 1115 0
965 -1115 0
1111 -1115 0
1114 1115 -1116 0
-1114 1116 0
-1115 1116 0
-186 -975 1117 0
186 -1117 0
975 -1117 0
-971 -1117 -1118 0
971 1117 -1118 0
971 -1117 1118 0
-971 1117 1118 0
-1118 -1116 -1119 0
1118 1116 -1119 0
1118 -1116 1119 0
-1118 1116 1119 0
-1118 -1116 1120 0
1118 -1120 0
1116 -1120 0
-971 -1117 1121 0
971 -1121 0
1117 -1121 0
1120 1121 -1122 0
-1120 1122 0
-1121 1122 0
-194 -975 1123 0
194 -1123 0
975 -1123 0
-974 -1123 -1124 0
974 1123 -1124 0
974 -1123 1124 0
-974 1123 1124 0
-1124 -1122 -1125 0
1124 1122 -1125 0
1124 -1122 1125 0
-1124 1122 1125 0
-1124 -1122 1126 0
1124 -1126 0
1122 -1126 0
-974 -1123 1127 0
974 -1127 0
1123 -1127 0
1126 1127 -1128 0
-1126 1128 0
-1127 1128 0
-1 -1129 1130 0
1 -1130 0
1129 -1130 0
-981 -1130 -1131 0
981 1130 -1131 0
981 -1130 1131 0
-981 1130 1131 0
-981 -1130 1132 0
981 -1132 0
1130 -1132 0
-4 -1129 1133 0
4 -1133 0
1129 -1133 0
-987 -1133 -1134 0
987 1133 -1134 0
987 -1133 1134 0
-987 1133 1134 0
-1134 -1132 -1135 0
1134 1132 -1135 0
1134 -1132 1135 0
-1134 1132 1135 0
-1134 -1132 1136 0
1134 -1136 0
1132 -1136 0
-987 -1133 1137 0
987 -1137 0
1133 -1137 0
1136 1137 -1138 0
-1136 1138 0
-1137 1138 0
-10 -1129 1139 0
10 -1139 0
1129 -1139 0
-993 -1139 -1140 0
993 1139 -1140 0
993 -1139 1140 0
-993 1139 1140 0
-1140 -1138 -1141 0
1140 1138 -1141 0
1140 -1138 1141 0
-1140 1138 1141 0
-1140 -1138 1142 0
1140 -1142 0
1138 -1142 0
-993 -1139 1143 0
993 -1143 0
1139 -1143 0
1142 1143 -1144 0
-1142 1144 0
-1143 1144 0
-18 -1129 1145 0
18 -1145 0
1129 -1145 0
-999 -1145 -1146 0
999 1145 -1146 0
999 -1145 1146 0
-999 1145 1146 0
-1146 -1144 -1147 0
1146 1144 -1147 0
1146 -1144 1147 0
-1146 1144 1147 0
-1146 -1144 1148 0
1146 -1148 0
1144 -1148 0
-999 -1145 1149 0
999 -1149 0
1145 -1149 0
1148 1149 -1150 0
-1148 1150 0
-1149 1150 0
-26 -1129 1151 0
26 -1151 0
1129 -1151 0
-1005 -1151 -1152 0
1005 1151 -1152 0
1005 -1151 1152 0
-1005 1151 1152 0
-1152 -1150 -1153 0
1152 1150 -1153 0
1152 -1150 1153 0
-1152 1150 1153 0
-1152 -1150 1154 0
1152 -1154 0
1150 -1154 0
-1005 -1151 1155 0
1005 -1155 0
1151 -1155 0
1154 1155 -1156 0
-1154 1156 0
-1155 1156 0
-34 -1129 1157 0
34 -1157 0
1129 -1157 0
-1011 -1157 -1158 0
1011 1157 -1158 0
1011 -1157 1158 0
-1011 1157 1158 0
-1158 -1156 -1159 0
1158 1156 -1159 0
1158 -1156 1159 0
-1158 1156 1159 0
-1158 -1156 1160 0
1158 -1160 0
1156 -1160 0
-1011 -1157 1161 0
1011 -1161 0
1157 -1161 0
1160 1161 -1162 0
-1160 1162 0
-1161 1162 0
-42 -1129 1163 0
42 -1163 0
1129 -1163 0
-1017 -1163 -1164 0
1017 1163 -1164 0
1017 -1163 1164 0
-1017 1163 1164 0
-1164 -1162 -1165 0
1164 1162 -1165 0
1164 -1162 1165 0
-1164 1162 1165 0
-1164 -1162 1166 0
1164 -1166 0
1162 -1166 0
-1017 -1163 1167 0
1017 -1167 0
1163 -1167 0
1166 1167 -1168 0
-1166 1168 0
-1167 1168 0
-50 -1129 1169 0
50 -1169 0
1129 -1169 0
-1023 -1169 -1170 0
1023 1169 -1170 0
1023 -1169 1170 0
-1023 1169 1170 0
-1170 -1168 -1171 0
1170 1168 -1171 0
1170 -1168 1171 0
-1170 1168 1171 0
-1170 -1168 1172 0
1170 -1172 0
1168 -1172 0
-1023 -1169 1173 0
1023 -1173 0
1169 -1173 0
1172 1173 -1174 0
-1172 1174 0
-1173 1174 0
-58 -1129 1175 0
58 -1175 0
1129 -1175 0
-1029 -1175 -1176 0
1029 1175 -1176 0
1029 -1175 1176 0
-1029 1175 1176 0
-1176 -1174 -1177 0
1176 1174 -1177 0
1176 -1174 1177 0
-1176 1174 1177 0
-1176 -1174 1178 0
1176 -1178 0
1174 -1178 0
-1029 -1175 1179 0
1029 -1179 0
1175 -1179 0
1178 1179 -1180 0
-1178 1180 0
-1179 1180 0
-66 -1129 1181 0
66 -1181 0
1129 -1181 0
-1035 -1181 -1182 0
1035 1181 -1182 0
1035 -1181 1182 0
-1035 1181 1182 0
-1182 -1180 -1183 0
1182 1180 -1183 0
1182 -1180 1183 0
-1182 1180 1183 0
-1182 -1180 1184 0
1182 -1184 0
1180 -1184 0
-1035 -1181 1185 0
1035 -1185 0
1181 -1185 0
1184 1185 -1186 0
-1184 1186 0
-1185 1186 0
-74 -1129 1187 0
74 -1187 0
1129 -1187 0
-1041 -1187 -1188 0
1041 1187 -1188 0
1041 -1187 1188 0
-1041 1187 1188 0
-1188 -1186 -1189 0
1188 1186 -1189 0
1188 -1186 1189 0
-1188 1186 1189 0
-1188 -1186 1190 0
1188 -1190 0
1186 -1190 0
-1041 -1187 1191 0
1041 -1191 0
1187 -1191 0
1190 1191 -1192 0
-1190 1192 0
-1191 1192 0
-82 -1129 1193 0
82 -1193 0
1129 -1193 0
-1047 -1193 -1194 0
1047 1193 -1194 0
1047 -1193 1194 0
-1047 1193 1194 0
-1194 -1192 -1195 0
1194 1192 -1195 0
1194 -1192 1195 0
-1194 1192 1195 0
-1194 -1192 1196 0
1194 -1196 0
1192 -1196 0
-1047 -1193 1197 0
1047 -1197 0
1193 -1197 0
1196 1197 -1198 0
-1196 1198 0
-1197 1198 0
-90 -1129 1199 0
90 -1199 0
1129 -1199 0
-1053 -1199 -1200 0
1053 1199 -1200 0
1053 -1199 1200 0
-1053 1199 1200 0
-1200 -1198 -1201 0
1200 1198 -1201 0
1200 -1198 1201 0
-1200 1198 1201 0
-1200 -1198 1202 0
1200 -1202 0
1198 -1202 0
-1053 -1199 1203 0
1053 -1203 0
1199 -1203 0
1202 1203 -1204 0
-1202 1204 0
-1203 1204 0
-98 -1129 1205 0
98 -1205 0
1129 -1205 0
-1059 -1205 -1206 0
1059 1205 -1206 0
1059 -1205 1206 0
-1059 1205 1206 0
-1206 -1204 -1207 0
1206 1204 -1207 0
1206 -1204 1207 0
-1206 1204 1207 0
-1206 -1204 1208 0
1206 -1208 0
1204 -1208 0
-1059 -1205 1209 0
1059 -1209 0
1205 -1209 0
1208 1209 -1210 0
-1208 1210 0
-1209 1210 0
-106 -1129 1211 0
106 -1211 0
1129 -1211 0
-1065 -1211 -1212 0
1065 1211 -1212 0
1065 -1211 1212 0
-1065 1211 1212 0
-1212 -1210 -1213 0
1212 1210 -1213 0
1212 -1210 1213 0
-1212 1210 1213 0
-1212 -1210 1214 0
1212 -1214 0
1210 -1214 0
-1065 -1211 1215 0
1065 -1215 0
1211 -1215 0
1214 1215 -1216 0
-1214 1216 0
-1215 1216 0
-114 -1129 1217 0
114 -1217 0
1129 -1217 0
-1071 -1217 -1218 0
1071 1217 -1218 0
1071 -1217 1218 0
-1071 1217 1218 0
-1218 -1216 -1219 0
1218 1216 -1219 0
1218 -1216 1219 0
-1218 1216 1219 0
-1218 -1216 1220 0
1218 -1220 0
1216 -1220 0
-1071 -1217 1221 0
1071 -1221 0
1217 -1221 0
1220 1221 -1222 0
-1220 1222 0
-1221 1222 0
-122 -1129 1223 0
122 -1223 0
1129 -1223 0
-1077 -1223 -1224 0
1077 1223 -1224 0
1077 -1223 1224 0
-1077 1223 1224 0
-1224 -1222 -1225 0
1224 1222 -1225 0
1224 -1222 1225 0
-1224 1222 1225 0
-1224 -1222 1226 0
1224 -1226 0
1222 -1226 0
-1077 -1223 1227 0
1077 -1227 0
1223 -1227 0
1226 1227 -1228 0
-1226 1228 0
-1227 1228 0
-130 -1129 1229 0
130 -1229 0
1129 -1229 0
-1083 -1229 -1230 0
1083 1229 -1230 0
1083 -1229 1230 0
-1083 1229 1230 0
-1230 -1228 -1231 0
1230 1228 -1231 0
1230 -1228 1231 0
-1230 1228 1231 0
-1230 -1228 1232 0
1230 -1232 0
1228 -1232 0
-1083 -1229 1233 0
1083 -1233 0
1229 -1233 0
1232 1233 -1234 0
-1232 1234 0
-1233 1234 0
-138 -1129 1235 0
138 -1235 0
1129 -1235 0
-1089 -1235 -1236 0
1089 1235 -1236 0
1089 -1235 1236 0
-1089 1235 1236 0
-1236 -1234 -1237 0
1236 1234 -1237 0
1236 -1234 1237 0
-1236 1234 1237 0
-1236 -1234 1238 0
1236 -1238 0
1234 -1238 0
-1089 -1235 1239 0
1089 -1239 0
1235 -1239 0
1238 1239 -1240 0
-1238 1240 0
-1239 1240 0
-146 -1129 1241 0
146 -1241 0
1129 -1241 0
-1095 -1241 -1242 0
1095 1241 -1242 0
1095 -1241 1242 0
-1095 1241 1242 0
-1242 -1240 -1243 0
1242 1240 -1243 0
1242 -1240 1243 0
-1242 1240 1243 0
-1242 -1240 1244 0
1242 -1244 0
1240 -1244 0
-1095 -1241 1245 0
1095 -1245 0
1241 -1245 0
1244 1245 -1246 0
-1244 1246 0
-1245 1246 0
-154 -1129 1247 0
154 -1247 0
1129 -1247 0
-1101 -1247 -1248 0
1101 1247 -1248 0
1101 -1247 1248 0
-1101 1247 1248 0
-1248 -1246 -1249 0
1248 1246 -1249 0
1248 -1246 1249 0
-1248 1246 1249 0
-1248 -1246 1250 0
1248 -1250 0
1246 -1250 0
-1101 -1247 1251 0
1101 -1251 0
1247 -1251 0
1250 1251 -1252 0
-1250 1252 0
-1251 1252 0
-162 -1129 1253 0
162 -1253 0
1129 -1253 0
-1107 -1253 -1254 0
1107 1253 -1254 0
1107 -1253 1254 0
-1107 1253 1254 0
-1254 -1252 -1255 0
1254 1252 -1255 0
1254 -1252 1255 0
-1254 1252 1255 0
-1254 -1252 1256 0
1254 -1256 0
1252 -1256 0
-1107 -1253 1257 0
1107 -1257 0
1253 -1257 0
1256 1257 -1258 0
-1256 1258 0
-1257 1258 0
-170 -1129 1259 0
170 -1259 0
1129 -1259 0
-1113 -1259 -1260 0
1113 1259 -1260 0
1113 -1259 1260 0
-1113 1259 1260 0
-1260 -1258 -1261 0
1260 1258 -1261 0
1260 -1258 1261 0
-1260 1258 1261 0
-1260 -1258 1262 0
1260 -1262 0
1258 -1262 0
-1113 -1259 1263 0
1113 -1263 0
1259 -1263 0
1262 1263 -1264 0
-1262 1264 0
-1263 1264 0
-178 -1129 1265 0
178 -1265 0
1129 -1265 0
-1119 -1265 -1266 0
1119 1265 -1266 0
1119 -1265 1266 0
-1119 1265 1266 0
-1266 -1264 -1267 0
1266 1264 -1267 0
1266 -1264 1267 0
-1266 1264 1267 0
-1266 -1264 1268 0
1266 -1268 0
1264 -1268 0
-1119 -1265 1269 0
1119 -1269 0
1265 -1269 0
1268 1269 -1270 0
-1268 1270 0
-1269 1270 0
-186 -1129 1271 0
186 -1271 0
1129 -1271 0
-1125 -1271 -1272 0
1125 1271 -1272 0
1125 -1271 1272 0
-1125 1271 1272 0
-1272 -1270 -1273 0
1272 1270 -1273 0
1272 -1270 1273 0
-1272 1270 1273 0
-1272 -1270 1274 0
1272 -1274 0
1270 -1274 0
-1125 -1271 1275 0
1125 -1275 0
1271 -1275 0
1274 1275 -1276 0
-1274 1276 0
-1275 1276 0
-194 -1129 1277 0
194 -1277 0
1129 -1277 0
-1128 -1277 -1278 0
1128 1277 -1278 0
1128 -1277 1278 0
-1128 1277 1278 0
-1278 -1276 -1279 0
1278 1276 -1279 0
1278 -1276 1279 0
-1278 1276 1279 0
-1278 -1276 1280 0
1278 -1280 0
1276 -1280 0
-1128 -1277 1281 0
1128 -1281 0
1277 -1281 0
1280 1281 -1282 0
-1280 1282 0
-1281 1282 0
-1 -1283 1284 0
1 -1284 0
1283 -1284 0
-1135 -1284 -1285 0
1135 1284 -1285 0
1135 -1284 1285 0
-1135 1284 1285 0
-1135 -1284 1286 0
1135 -1286 0
1284 -1286 0
-4 -1283 1287 0
4 -1287 0
1283 -1287 0
-1141 -1287 -1288 0
1141 1287 -1288 0
1141 -1287 1288 0
-1141 1287 1288 0
-1288 -1286 -1289 0
1288 1286 -1289 0
1288 -1286 1289 0
-1288 1286 1289 0
-1288 -1286 1290 0
1288 -1290 0
1286 -1290 0
-1141 -1287 1291 0
1141 -1291 0
1287 -1291 0
1290 1291 -1292 0
-1290 1292 0
-1291 1292 0
-10 -1283 1293 0
10 -1293 0
1283 -1293 0
-1147 -1293 -1294 0
1147 1293 -1294 0
1147 -1293 1294 0
-1147 1293 1294 0
-1294 -1292 -1295 0
1294 1292 -1295 0
1294 -1292 1295 0
-1294 1292 1295 0
-1294 -1292 1296 0
1294 -1296 0
1292 -1296 0
-1147 -1293 1297 0
1147 -1297 0
1293 -1297 0
1296 1297 -1298 0
-1296 1298 0
-1297 1298 0
-18 -1283 1299 0
18 -1299 0
1283 -1299 0
-1153 -1299 -1300 0
1153 1299 -1300 0
1153 -1299 1300 0
-1153 1299 1300 0
-1300 -1298 -1301 0
1300 1298 -1301 0
1300 -1298 1301 0
-1300 1298 1301 0
-1300 -1298 1302 0
1300 -1302 0
1298 -1302 0
-1153 -1299 1303 0
1153 -1303 0
1299 -1303 0
1302 1303 -1304 0
-1302 1304 0
-1303 1304 0
-26 -1283 1305 0
26 -1305 0
1283 -1305 0
-1159 -1305 -1306 0
1159 1305 -1306 0
1159 -1305 1306 0
-1159 1305 1306 0
-1306 -1304 -1307 0
1306 1304 -1307 0
1306 -1304 1307 0
-1306 1304 1307 0
-1306 -1304 1308 0
1306 -1308 0
1304 -1308 0
-1159 -1305 1309 0
1159 -1309 0
1305 -1309 0
1308 1309 -1310 0
-1308 1310 0
-1309 1310 0
-34 -1283 1311 0
34 -1311 0
1283 -1311 0
-1165 -1311 -1312 0
1165 1311 -1312 0
1165 -1311 1312 0
-1165 1311 1312 0
-1312 -1310 -1313 0
1312 1310 -1313 0
1312 -1310 1313 0
-1312 1310 1313 0
-1312 -1310 1314 0
1312 -1314 0
1310 -1314 0
-1165 -1311 1315 0
1165 -1315 0
1311 -1315 0
1314 1315 -1316 0
-1314 1316 0
-1315 1316 0
-42 -1283 1317 0
42 -1317 0
1283 -1317 0
-1171 -1317 -1318 0
1171 1317 -1318 0
1171 -1317 1318 0
-1171 1317 1318 0
-1318 -1316 -1319 0
1318 1316 -1319 0
1318 -1316 1319 0
-1318 1316 1319 0
-1318 -1316 1320 0
1318 -1320 0
1316 -1320 0
-1171 -1317 1321 0
1171 -1321 0
1317 -1321 0
1320 1321 -1322 0
-1320 1322 0
-1321 1322 0
-50 -1283 1323 0
50 -1323 0
1283 -1323 0
-1177 -1323 -1324 0
1177 1323 -1324 0
1177 -1323 1324 0
-1177 1323 1324 0
-1324 -1322 -1325 0
1324 1322 -1325 0
1324 -1322 1325 0
-1324 1322 1325 0
-1324 -1322 1326 0
1324 -1326 0
1322 -1326 0
-1177 -1323 1327 0
1177 -1327 0
1323 -1327 0
1326 1327 -1328 0
-1326 1328 0
-1327 1328 0
-58 -1283 1329 0
58 -1329 0
1283 -1329 0
-1183 -1329 -1330 0
1183 1329 -1330 0
1183 -1329 1330 0
-1183 1329 1330 0
-1330 -1328 -1331 0
1330 1328 -1331 0
1330 -1328 1331 0
-1330 1328 1331 0
-1330 -1328 1332 0
1330 -1332 0
1328 -1332 0
-1183 -1329 1333 0
1183 -1333 0
1329 -1333 0
1332 1333 -1334 0
-1332 1334 0
-1333 1334 0
-66 -1283 1335 0
66 -1335 0
1283 -1335 0
-1189 -1335 -1336 0
1189 1335 -1336 0
1189 -1335 1336 0
-1189 1335 1336 0
-1336 -1334 -1337 0
1336 1334 -1337 0
1336 -1334 1337 0
-1336 1334 1337 0
-1336 -1334 1338 0
1336 -1338 0
1334 -1338 0
-1189 -1335 1339 0
1189 -1339 0
1335 -1339 0
1338 1339 -1340 0
-1338 1340 0
-1339 1340 0
-74 -1283 1341 0
74 -1341 0
1283 -1341 0
-1195 -1341 -1342 0
1195 1341 -1342 0
1195 -1341 1342 0
-1195 1341 1342 0
-1342 -1340 -1343 0
1342 1340 -1343 0
1342 -1340 1343 0
-1342 1340 1343 0
-1342 -1340 1344 0
1342 -1344 0
1340 -1344 0
-1195 -1341 1345 0
1195 -1345 0
1341 -1345 0
1344 1345 -1346 0
-1344 1346 0
-1345 1346 0
-82 -1283 1347 0
82 -1347 0
1283 -1347 0
-1201 -1347 -1348 0
1201 1347 -1348 0
1201 -1347 1348 0
-1201 1347 1348 0
-1348 -1346 -1349 0
1348 1346 -1349 0
1348 -1346 1349 0
-1348 1346 1349 0
-1348 -1346 1350 0
1348 -1350 0
1346 -1350 0
-1201 -1347 1351 0
1201 -1351 0
1347 -1351 0
1350 1351 -1352 0
-1350 1352 0
-1351 1352 0
-90 -1283 1353 0
90 -1353 0
1283 -1353 0
-1207 -1353 -1354 0
1207 1353 -1354 0
1207 -1353 1354 0
-1207 1353 1354 0
-1354 -1352 -1355 0
1354 1352 -1355 0
1354 -1352 1355 0
-1354 1352 1355 0
-1354 -1352 1356 0
1354 -1356 0
1352 -1356 0
-1207 -1353 1357 0
1207 -1357 0
1353 -1357 0
1356 1357 -1358 0
-1356 1358 0
-1357 1358 0
-98 -1283 1359 0
98 -1359 0
1283 -1359 0
-1213 -1359 -1360 0
1213 1359 -1360 0
1213 -1359 1360 0
-1213 1359 1360 0
-1360 -1358 -1361 0
1360 1358 -1361 0
1360 -1358 1361 0
-1360 1358 1361 0
-1360 -1358 1362 0
1360 -1362 0
1358 -1362 0
-1213 -1359 1363 0
1213 -1363 0
1359 -1363 0
1362 1363 -1364 0
-1362 1364 0
-1363 1364 0
-106 -1283 1365 0
106 -1365 0
1283 -1365 0
-1219 -1365 -1366 0
1219 1365 -1366 0
1219 -1365 1366 0
-1219 1365 1366 0
-1366 -1364 -1367 0
1366 1364 -1367 0
1366 -1364 1367 0
-1366 1364 1367 0
-1366 -1364 1368 0
1366 -1368 0
1364 -1368 0
-1219 -1365 1369 0
1219 -1369 0
1365 -1369 0
1368 1369 -1370 0
-1368 1370 0
-1369 1370 0
-114 -1283 1371 0
114 -1371 0
1283 -1371 0
-1225 -1371 -1372 0
1225 1371 -1372 0
1225 -1371 1372 0
-1225 1371 1372 0
-1372 -1370 -1373 0
1372 1370 -1373 0
1372 -1370 1373 0
-1372 1370 1373 0
-1372 -1370 1374 0
1372 -1374 0
1370 -1374 0
-1225 -1371 1375 0
1225 -1375 0
1371 -1375 0
1374 1375 -1376 0
-1374 1376 0
-1375 1376 0
-122 -1283 1377 0
122 -1377 0
1283 -1377 0
-1231 -1377 -1378 0
1231 1377 -1378 0
1231 -1377 1378 0
-1231 1377 1378 0
-1378 -1376 -1379 0
1378 1376 -1379 0
1378 -1376 1379 0
-1378 1376 1379 0
-1378 -1376 1380 0
1378 -1380 0
1376 -1380 0
-1231 -1377 1381 0
1231 -1381 0
1377 -1381 0
1380 1381 -1382 0
-1380 1382 0
-1381 1382 0
-130 -1283 1383 0
130 -1383 0
1283 -1383 0
-1237 -1383 -1384 0
1237 1383 -1384 0
1237 -1383 1384 0
-1237 1383 1384 0
-1384 -1382 -1385 0
1384 1382 -1385 0
1384 -1382 1385 0
-1384 1382 1385 0
-1384 -1382 1386 0
1384 -1386 0
1382 -1386 0
-1237 -1383 1387 0
1237 -1387 0
1383 -1387 0
1386 1387 -1388 0
-1386 1388 0
-1387 1388 0
-138 -1283 1389 0
138 -1389 0
1283 -1389 0
-1243 -1389 -1390 0
1243 1389 -1390 0
1243 -1389 1390 0
-1243 1389 1390 0
-1390 -1388 -1391 0
1390 1388 -1391 0
1390 -1388 1391 0
-1390 1388 1391 0
-1390 -1388 1392 0
1390 -1392 0
1388 -1392 0
-1243 -1389 1393 0
1243 -1393 0
1389 -1393 0
1392 1393 -1394 0
-1392 1394 0
-1393 1394 0
-146 -1283 1395 0
146 -1395 0
1283 -1395 0
-1249 -1395 -1396 0
1249 1395 -1396 0
1249 -1395 1396 0
-1249 1395 1396 0
-1396 -1394 -1397 0
1396 1394 -1397 0
1396 -1394 1397 0
-1396 1394 1397 0
-1396 -1394 1398 0
1396 -1398 0
1394 -1398 0
-1249 -1395 1399 0
1249 -1399 0
1395 -1399 0
1398 1399 -1400 0
-1398 1400 0
-1399 1400 0
-154 -1283 1401 0
154 -1401 0
1283 -1401 0
-1255 -1401 -1402 0
1255 1401 -1402 0
1255 -1401 1402 0
-1255 1401 1402 0
-1402 -1400 -1403 0
1402 1400 -1403 0
1402 -1400 1403 0
-1402 1400 1403 0
-1402 -1400 1404 0
1402 -1404 0
1400 -1404 0
-1255 -1401 1405 0
1255 -1405 0
1401 -1405 0
1404 1405 -1406 0
-1404 1406 0
-1405 1406 0
-162 -1283 1407 0
162 -1407 0
1283 -1407 0
-1261 -1407 -1408 0
1261 1407 -1408 0
1261 -1407 1408 0
-1261 1407 1408 0
-1408 -1406 -1409 0
1408 1406 -1409 0
1408 -1406 1409 0
-1408 1406 1409 0
-1408 -1406 1410 0
1408 -1410 0
1406 -1410 0
-1261 -1407 1411 0
1261 -1411 0
1407 -1411 0
1410 1411 -1412 0
-1410 1412 0
-1411 1412 0
-170 -1283 1413 0
170 -1413 0
1283 -1413 0
-1267 -1413 -1414 0
1267 1413 -1414 0
1267 -1413 1414 0
-1267 1413 1414 0
-1414 -1412 -1415 0
1414 1412 -1415 0
1414 -1412 1415 0
-1414 1412 1415 0
-1414 -1412 1416 0
1414 -1416 0
1412 -1416 0
-1267 -1413 1417 0
1267 -1417 0
1413 -1417 0
1416 1417 -1418 0
-1416 1418 0
-1417 1418 0
-178 -1283 1419 0
178 -1419 0
1283 -1419 0
-1273 -1419 -1420 0
1273 1419 -1420 0
1273 -1419 1420 0
-1273 1419 1420 0
-1420 -1418 -1421 0
1420 1418 -1421 0
1420 -1418 1421 0
-1420 1418 1421 0
-1420 -1418 1422 0
1420 -1422 0
1418 -1422 0
-1273 -1419 1423 0
1273 -1423 0
1419 -1423 0
1422 1423 -1424 0
-1422 1424 0
-1423 1424 0
-186 -1283 1425 0
186 -1425 0
1283 -1425 0
-1279 -1425 -1426 0
1279 1425 -1426 0
1279 -1425 1426 0
-1279 1425 1426 0
-1426 -1424 -1427 0
1426 1424 -1427 0
1426 -1424 1427 0
-1426 1424 1427 0
-1426 -1424 1428 0
1426 -1428 0
1424 -1428 0
-1279 -1425 1429 0
1279 -1429 0
1425 -1429 0
1428 1429 -1430 0
-1428 1430 0
-1429 1430 0
-194 -1283 1431 0
194 -1431 0
1283 -1431 0
-1282 -1431 -1432 0
1282 1431 -1432 0
1282 -1431 1432 0
-1282 1431 1432 0
-1432 -1430 -1433 0
1432 1430 -1433 0
1432 -1430 1433 0
-1432 1430 1433 0
-1432 -1430 1434 0
1432 -1434 0
1430 -1434 0
-1282 -1431 1435 0
1282 -1435 0
1431 -1435 0
1434 1435 -1436 0
-1434 1436 0
-1435 1436 0
-1 -1437 1438 0
1 -1438 0
1437 -1438 0
-1289 -1438 -1439 0
1289 1438 -1439 0
1289 -1438 1439 0
-1289 1438 1439 0
-1289 -1438 1440 0
1289 -1440 0
1438 -1440 0
-4 -1437 1441 0
4 -1441 0
1437 -1441 0
-1295 -1441 -1442 0
1295 1441 -1442 0
1295 -1441 1442 0
-1295 1441 1442 0
-1442 -1440 -1443 0
1442 1440 -1443 0
1442 -1440 1443 0
-1442 1440 1443 0
-1442 -1440 1444 0
1442 -1444 0
1440 -1444 0
-1295 -1441 1445 0
1295 -1445 0
1441 -1445 0
1444 1445 -1446 0
-1444 1446 0
-1445 1446 0
-10 -1437 1447 0
10 -1447 0
1437 -1447 0
-1301 -1447 -1448 0
1301 1447 -1448 0
1301 -1447 1448 0
-1301 1447 1448 0
-1448 -1446 -1449 0
1448 1446 -1449 0
1448 -1446 1449 0
-1448 1446 1449 0
-1448 -1446 1450 0
1448 -1450 0
1446 -1450 0
-1301 -1447 1451 0
1301 -1451 0
1447 -1451 0
1450 1451 -1452 0
-1450 1452 0
-1451 1452 0
-18 -1437 1453 0
18 -1453 0
1437 -1453 0
-1307 -1453 -1454 0
1307 1453 -1454 0
1307 -1453 1454 0
-1307 1453 1454 0
-1454 -1452 -1455 0
1454 1452 -1455 0
1454 -1452 1455 0
-1454 1452 1455 0
-1454 -1452 1456 0
1454 -1456 0
1452 -1456 0
-1307 -1453 1457 0
1307 -1457 0
1453 -1457 0
1456 1457 -1458 0
-1456 1458 0
-1457 1458 0
-26 -1437 1459 0
26 -1459 0
1437 -1459 0
-1313 -1459 -1460 0
1313 1459 -1460 0
1313 -1459 1460 0
-1313 1459 1460 0
-1460 -1458 -1461 0
1460 1458 -1461 0
1460 -1458 1461 0
-1460 1458 1461 0
-1460 -1458 1462 0
1460 -1462 0
1458 -1462 0
-1313 -1459 1463 0
1313 -1463 0
1459 -1463 0
1462 1463 -1464 0
-1462 1464 0
-1463 1464 0
-34 -1437 1465 0
34 -1465 0
1437 -1465 0
-1319 -1465 -1466 0
1319 1465 -1466 0
1319 -1465 1466 0
-1319 1465 1466 0
-1466 -1464 -1467 0
1466 1464 -1467 0
1466 -1464 1467 0
-1466 1464 1467 0
-1466 -1464 1468 0
1466 -1468 0
1464 -1468 0
-1319 -1465 1469 0
1319 -1469 0
1465 -1469 0
1468 1469 -1470 0
-1468 1470 0
-1469 1470 0
-42 -1437 1471 0
42 -1471 0
1437 -1471 0
-1325 -1471 -1472 0
1325 1471 -1472 0
1325 -1471 1472 0
-1325 1471 1472 0
-1472 -1470 -1473 0
1472 1470 -1473 0
1472 -1470 1473 0
-1472 1470 1473 0
-1472 -1470 1474 0
1472 -1474 0
1470 -1474 0
-1325 -1471 1475 0
1325 -1475 0
1471 -1475 0
1474 1475 -1476 0
-1474 1476 0
-1475 1476 0
-50 -1437 1477 0
50 -1477 0
1437 -1477 0
-1331 -1477 -1478 0
1331 1477 -1478 0
1331 -1477 1478 0
-1331 1477 1478 0
-1478 -1476 -1479 0
1478 1476 -1479 0
1478 -1476 1479 0
-1478 1476 1479 0
-1478 -1476 1480 0
1478 -1480 0
1476 -1480 0
-1331 -1477 1481 0
1331 -1481 0
1477 -1481 0
1480 1481 -1482 0
-1480 1482 0
-1481 1482 0
-58 -1437 1483 0
58 -1483 0
1437 -1483 0
-1337 -1483 -1484 0
1337 1483 -1484 0
1337 -1483 1484 0
-1337 1483 1484 0
-1484 -1482 -1485 0
1484 1482 -1485 0
1484 -1482 1485 0
-1484 1482 1485 0
-1484 -1482 1486 0
1484 -1486 0
1482 -1486 0
-1337 -1483 1487 0
1337 -1487 0
1483 -1487 0
1486 1487 -1488 0
-1486 1488 0
-1487 1488 0
-66 -1437 1489 0
66 -1489 0
1437 -1489 0
-1343 -1489 -1490 0
1343 1489 -1490 0
1343 -1489 1490 0
-1343 1489 1490 0
-1490 -1488 -1491 0
1490 1488 -1491 0
1490 -1488 1491 0
-1490 1488 1491 0
-1490 -1488 1492 0
1490 -1492 0
1488 -1492 0
-1343 -1489 1493 0
1343 -1493 0
1489 -1493 0
1492 1493 -1494 0
-1492 1494 0
-1493 1494 0
-74 -1437 1495 0
74 -1495 0
1437 -1495 0
-1349 -1495 -1496 0
1349 1495 -1496 0
1349 -1495 1496 0
-1349 1495 1496 0
-1496 -1494 -1497 0
1496 1494 -1497 0
1496 -1494 1497 0
-1496 1494 1497 0
-1496 -1494 1498 0
1496 -1498 0
1494 -1498 0
-1349 -1495 1499 0
1349 -1499 0
1495 -1499 0
1498 1499 -1500 0
-1498 1500 0
-1499 1500 0
-82 -1437 1501 0
82 -1501 0
1437 -1501 0
-1355 -1501 -1502 0
1355 1501 -1502 0
1355 -1501 1502 0
-1355 1501 1502 0
-1502 -1500 -1503 0
1502 1500 -1503 0
1502 -1500 1503 0
-1502 1500 1503 0
-1502 -1500 1504 0
1502 -1504 0
1500 -1504 0
-1355 -1501 1505 0
1355 -1505 0
1501 -1505 0
1504 1505 -1506 0
-1504 1506 0
-1505 1506 0
-90 -1437 1507 0
90 -1507 0
1437 -1507 0
-1361 -1507 -1508 0
1361 1507 -1508 0
1361 -1507 1508 0
-1361 1507 1508 0
-1508 -1506 -1509 0
1508 1506 -1509 0
1508 -1506 1509 0
-1508 1506 1509 0
-1508 -1506 1510 0
1508 -1510 0
1506 -1510 0
-1361 -1507 1511 0
1361 -1511 0
1507 -1511 0
1510 1511 -1512 0
-1510 1512 0
-1511 1512 0
-98 -1437 1513 0
98 -1513 0
1437 -1513 0
-1367 -1513 -1514 0
1367 1513 -1514 0
1367 -1513 1514 0
-1367 1513 1514 0
-1514 -1512 -1515 0
1514 1512 -1515 0
1514 -1512 1515 0
-1514 1512 1515 0
-1514 -1512 1516 0
1514 -1516 0
1512 -1516 0
-1367 -1513 1517 0
1367 -1517 0
1513 -1517 0
1516 1517 -1518 0
-1516 1518 0
-1517 1518 0
-106 -1437 1519 0
106 -1519 0
1437 -1519 0
-1373 -1519 -1520 0
1373 1519 -1520 0
1373 -1519 1520 0
-1373 1519 1520 0
-1520 -1518 -1521 0
1520 1518 -1521 0
1520 -1518 1521 0
-1520 1518 1521 0
-1520 -1518 1522 0
1520 -1522 0
1518 -1522 0
-1373 -1519 1523 0
1373 -1523 0
1519 -1523 0
1522 1523 -1524 0
-1522 1524 0
-1523 1524 0
-114 -1437 1525 0
114 -1525 0
1437 -1525 0
-1379 -1525 -1526 0
1379 1525 -1526 0
1379 -1525 1526 0
-1379 1525 1526 0
-1526 -1524 -1527 0
1526 1524 -1527 0
1526 -1524 1527 0
-1526 1524 1527 0
-1526 -1524 1528 0
1526 -1528 0
1524 -1528 0
-1379 -1525 1529 0
1379 -1529 0
1525 -1529 0
1528 1529 -1530 0
-1528 1530 0
-1529 1530 0
-122 -1437 1531 0
122 -1531 0
1437 -1531 0
-1385 -1531 -1532 0
1385 1531 -1532 0
1385 -1531 1532 0
-1385 1531 1532 0
-1532 -1530 -1533 0
1532 1530 -1533 0
1532 -1530 1533 0
-1532 1530 1533 0
-1532 -1530 1534 0
1532 -1534 0
1530 -1534 0
-1385 -1531 1535 0
1385 -1535 0
1531 -1535 0
1534 1535 -1536 0
-1534 1536 0
-1535 1536 0
-130 -1437 1537 0
130 -1537 0
1437 -1537 0
-1391 -1537 -1538 0
1391 1537 -1538 0
1391 -1537 1538 0
-1391 1537 1538 0
-1538 -1536 -1539 0
1538 1536 -1539 0
1538 -1536 1539 0
-1538 1536 1539 0
-1538 -1536 1540 0
1538 -1540 0
1536 -1540 0
-1391 -1537 1541 0
1391 -1541 0
1537 -1541 0
1540 1541 -1542 0
-1540 1542 0
-1541 1542 0
-138 -1437 1543 0
138 -1543 0
1437 -1543 0
-1397 -1543 -1544 0
1397 1543 -1544 0
1397 -1543 1544 0
-1397 1543 1544 0
-1544 -1542 -1545 0
1544 1542 -1545 0
1544 -1542 1545 0
-1544 1542 1545 0
-1544 -1542 1546 0
1544 -1546 0
1542 -1546 0
-1397 -1543 1547 0
1397 -1547 0
1543 -1547 0
1546 1547 -1548 0
-1546 1548 0
-1547 1548 0
-146 -1437 1549 0
146 -1549 0
1437 -1549 0
-1403 -1549 -1550 0
1403 1549 -1550 0
1403 -1549 1550 0
-1403 1549 1550 0
-1550 -1548 -1551 0
1550 1548 -1551 0
1550 -1548 1551 0
-1550 1548 1551 0
-1550 -1548 1552 0
1550 -1552 0
1548 -1552 0
-1403 -1549 1553 0
1403 -1553 0
1549 -1553 0
1552 1553 -1554 0
-1552 1554 0
-1553 1554 0
-154 -1437 1555 0
154 -1555 0
1437 -1555 0
-1409 -1555 -1556 0
1409 1555 -1556 0
1409 -1555 1556 0
-1409 1555 1556 0
-1556 -1554 -1557 0
1556 1554 -1557 0
1556 -1554 1557 0
-1556 1554 1557 0
-1556 -1554 1558 0
1556 -1558 0
1554 -1558 0
-1409 -1555 1559 0
1409 -1559 0
1555 -1559 0
1558 1559 -1560 0
-1558 1560 0
-1559 1560 0
-162 -1437 1561 0
162 -1561 0
1437 -1561 0
-1415 -1561 -1562 0
1415 1561 -1562 0
1415 -1561 1562 0
-1415 1561 1562 0
-1562 -1560 -1563 0
1562 1560 -1563 0
1562 -1560 1563 0
-1562 1560 1563 0
-1562 -1560 1564 0
1562 -1564 0
1560 -1564 0
-1415 -1561 1565 0
1415 -1565 0
1561 -1565 0
1564 1565 -1566 0
-1564 1566 0
-1565 1566 0
-170 -1437 1567 0
170 -1567 0
1437 -1567 0
-1421 -1567 -1568 0
1421 1567 -1568 0
1421 -1567 1568 0
-1421 1567 1568 0
-1568 -1566 -1569 0
1568 1566 -1569 0
1568 -1566 1569 0
-1568 1566 1569 0
-1568 -1566 1570 0
1568 -1570 0
1566 -1570 0
-1421 -1567 1571 0
1421 -1571 0
1567 -1571 0
1570 1571 -1572 0
-1570 1572 0
-1571 1572 0
-178 -1437 1573 0
178 -1573 0
1437 -1573 0
-1427 -1573 -1574 0
1427 1573 -1574 0
1427 -1573 1574 0
-1427 1573 1574 0
-1574 -1572 -1575 0
1574 1572 -1575 0
1574 -1572 1575 0
-1574 1572 1575 0
-1574 -1572 1576 0
1574 -1576 0
1572 -1576 0
-1427 -1573 1577 0
1427 -1577 0
1573 -1577 0
1576 1577 -1578 0
-1576 1578 0
-1577 1578 0
-186 -1437 1579 0
186 -1579 0
1437 -1579 0
-1433 -1579 -1580 0
1433 1579 -1580 0
1433 -1579 1580 0
-1433 1579 1580 0
-1580 -1578 -1581 0
1580 1578 -1581 0
1580 -1578 1581 0
-1580 1578 1581 0
-1580 -1578 1582 0
1580 -1582 0
1578 -1582 0
-1433 -1579 1583 0
1433 -1583 0
1579 -1583 0
1582 1583 -1584 0
-1582 1584 0
-1583 1584 0
-194 -1437 1585 0
194 -1585 0
1437 -1585 0
-1436 -1585 -1586 0
1436 1585 -1586 0
1436 -1585 1586 0
-1436 1585 1586 0
-1586 -1584 -1587 0
1586 1584 -1587 0
1586 -1584 1587 0
-1586 1584 1587 0
-1586 -1584 1588 0
1586 -1588 0
1584 -1588 0
-1436 -1585 1589 0
1436 -1589 0
1585 -1589 0
1588 1589 -1590 0
-1588 1590 0
-1589 1590 0
-1 -1591 1592 0
1 -1592 0
1591 -1592 0
-1443 -1592 -1593 0
1443 1592 -1593 0
1443 -1592 1593 0
-1443 1592 1593 0
-1443 -1592 1594 0
1443 -1594 0
1592 -1594 0
-4 -1591 1595 0
4 -1595 0
1591 -1595 0
-1449 -1595 -1596 0
1449 1595 -1596 0
1449 -1595 1596 0
-1449 1595 1596 0
-1596 -1594 -1597 0
1596 1594 -1597 0
1596 -1594 1597 0
-1596 1594 1597 0
-1596 -1594 1598 0
1596 -1598 0
1594 -1598 0
-1449 -1595 1599 0
1449 -1599 0
1595 -1599 0
1598 1599 -1600 0
-1598 1600 0
-1599 1600 0
-10 -1591 1601 0
10 -1601 0
1591 -1601 0
-1455 -1601 -1602 0
1455 1601 -1602 0
1455 -1601 1602 0
-1455 1601 1602 0
-1602 -1600 -1603 0
1602 1600 -1603 0
1602 -1600 1603 0
-1602 1600 1603 0
-1602 -1600 1604 0
1602 -1604 0
1600 -1604 0
-1455 -1601 1605 0
1455 -1605 0
1601 -1605 0
1604 1605 -1606 0
-1604 1606 0
-1605 1606 0
-18 -1591 1607 0
18 -1607 0
1591 -1607 0
-1461 -1607 -1608 0
1461 1607 -1608 0
1461 -1607 1608 0
-1461 1607 1608 0
-1608 -1606 -1609 0
1608 1606 -1609 0
1608 -1606 1609 0
-1608 1606 1609 0
-1608 -1606 1610 0
1608 -1610 0
1606 -1610 0
-1461 -1607 1611 0
1461 -1611 0
1607 -1611 0
1610 1611 -1612 0
-1610 1612 0
-1611 1612 0
-26 -1591 1613 0
26 -1613 0
1591 -1613 0
-1467 -1613 -1614 0
1467 1613 -1614 0
1467 -1613 1614 0
-1467 1613 1614 0
-1614 -1612 -1615 0
1614 1612 -1615 0
1614 -1612 1615 0
-1614 1612 1615 0
-1614 -1612 1616 0
1614 -1616 0
1612 -1616 0
-1467 -1613 1617 0
1467 -1617 0
1613 -1617 0
1616 1617 -1618 0
-1616 1618 0
-1617 1618 0
-34 -1591 1619 0
34 -1619 0
1591 -1619 0
-1473 -1619 -1620 0
1473 1619 -1620 0
1473 -1619 1620 0
-1473 1619 1620 0
-1620 -1618 -1621 0
1620 1618 -1621 0
1620 -1618 1621 0
-1620 1618 1621 0
-1620 -1618 1622 0
1620 -1622 0
1618 -1622 0
-1473 -1619 1623 0
1473 -1623 0
1619 -1623 0
1622 1623 -1624 0
-1622 1624 0
-1623 1624 0
-42 -1591 1625 0
42 -1625 0
1591 -1625 0
-1479 -1625 -1626 0
1479 1625 -1626 0
1479 -1625 1626 0
-1479 1625 1626 0
-1626 -1624 -1627 0
1626 1624 -1627 0
1626 -1624 1627 0
-1626 1624 1627 0
-1626 -1624 1628 0
1626 -1628 0
1624 -1628 0
-1479 -1625 1629 0
1479 -1629 0
1625 -1629 0
1628 1629 -1630 0
-1628 1630 0
-1629 1630 0
-50 -1591 1631 0
50 -1631 0
1591 -1631 0
-1485 -1631 -1632 0
1485 1631 -1632 0
1485 -1631 1632 0
-1485 1631 1632 0
-1632 -1630 -1633 0
1632 1630 -1633 0
1632 -1630 1633 0
-1632 1630 1633 0
-1632 -1630 1634 0
1632 -1634 0
1630 -1634 0
-1485 -1631 1635 0
1485 -1635 0
1631 -1635 0
1634 1635 -1636 0
-1634 1636 0
-1635 1636 0
-58 -1591 1637 0
58 -1637 0
1591 -1637 0
-1491 -1637 -1638 0
1491 1637 -1638 0
1491 -1637 1638 0
-1491 1637 1638 0
-1638 -1636 -1639 0
1638 1636 -1639 0
1638 -1636 1639 0
-1638 1636 1639 0
-1638 -1636 1640 0
1638 -1640 0
1636 -1640 0
-1491 -1637 1641 0
1491 -1641 0
1637 -1641 0
1640 1641 -1642 0
-1640 1642 0
-1641 1642 0
-66 -1591 1643 0
66 -1643 0
1591 -1643 0
-1497 -1643 -1644 0
1497 1643 -1644 0
1497 -1643 1644 0
-1497 1643 1644 0
-1644 -1642 -1645 0
1644 1642 -1645 0
1644 -1642 1645 0
-1644 1642 1645 0
-1644 -1642 1646 0
1644 -1646 0
1642 -1646 0
-1497 -1643 1647 0
1497 -1647 0
1643 -1647 0
1646 1647 -1648 0
-1646 1648 0
-1647 1648 0
-74 -1591 1649 0
74 -1649 0
1591 -1649 0
-1503 -1649 -1650 0
1503 1649 -1650 0
1503 -1649 1650 0
-1503 1649 1650 0
-1650 -1648 -1651 0
1650 1648 -1651 0
1650 -1648 1651 0
-1650 1648 1651 0
-1650 -1648 1652 0
1650 -1652 0
1648 -1652 0
-1503 -1649 1653 0
1503 -1653 0
1649 -1653 0
1652 1653 -1654 0
-1652 1654 0
-1653 1654 0
-82 -1591 1655 0
82 -1655 0
1591 -1655 0
-1509 -1655 -1656 0
1509 1655 -1656 0
1509 -1655 1656 0
-1509 1655 1656 0
-1656 -1654 -1657 0
1656 1654 -1657 0
1656 -1654 1657 0
-1656 1654 1657 0
-1656 -1654 1658 0
1656 -1658 0
1654 -1658 0
-1509 -1655 1659 0
1509 -1659 0
1655 -1659 0
1658 1659 -1660 0
-1658 1660 0
-1659 1660 0
-90 -1591 1661 0
90 -1661 0
1591 -1661 0
-1515 -1661 -1662 0
1515 1661 -1662 0
1515 -1661 1662 0
-1515 1661 1662 0
-1662 -1660 -1663 0
1662 1660 -1663 0
1662 -1660 1663 0
-1662 1660 1663 0
-1662 -1660 1664 0
1662 -1664 0
1660 -1664 0
-1515 -1661 1665 0
1515 -1665 0
1661 -1665 0
1664 1665 -1666 0
-1664 1666 0
-1665 1666 0
-98 -1591 1667 0
98 -1667 0
1591 -1667 0
-1521 -1667 -1668 0
1521 1667 -1668 0
1521 -1667 1668 0
-1521 1667 1668 0
-1668 -1666 -1669 0
1668 1666 -1669 0
1668 -1666 1669 0
-1668 1666 1669 0
-1668 -1666 1670 0
1668 -1670 0
1666 -1670 0
-1521 -1667 1671 0
1521 -1671 0
1667 -1671 0
1670 1671 -1672 0
-1670 1672 0
-1671 1672 0
-106 -1591 1673 0
106 -1673 0
1591 -1673 0
-1527 -1673 -1674 0
1527 1673 -1674 0
1527 -1673 1674 0
-1527 1673 1674 0
-1674 -1672 -1675 0
1674 1672 -1675 0
1674 -1672 1675 0
-1674 1672 1675 0
-1674 -1672 1676 0
1674 -1676 0
1672 -1676 0
-1527 -1673 1677 0
1527 -1677 0
1673 -1677 0
1676 1677 -1678 0
-1676 1678 0
-1677 1678 0
-114 -1591 1679 0
114 -1679 0
1591 -1679 0
-1533 -1679 -1680 0
1533 1679 -1680 0
1533 -1679 1680 0
-1533 1679 1680 0
-1680 -1678 -1681 0
1680 1678 -1681 0
1680 -1678 1681 0
-1680 1678 1681 0
-1680 -1678 1682 0
1680 -1682 0
1678 -1682 0
-1533 -1679 1683 0
1533 -1683 0
1679 -1683 0
1682 1683 -1684 0
-1682 1684 0
-1683 1684 0
-122 -1591 1685 0
122 -1685 0
1591 -1685 0
-1539 -1685 -1686 0
1539 1685 -1686 0
1539 -1685 1686 0
-1539 1685 1686 0
-1686 -1684 -1687 0
1686 1684 -1687 0
1686 -1684 1687 0
-1686 1684 1687 0
-1686 -1684 1688 0
1686 -1688 0
1684 -1688 0
-1539 -1685 1689 0
1539 -1689 0
1685 -1689 0
1688 1689 -1690 0
-1688 1690 0
-1689 1690 0
-130 -1591 1691 0
130 -1691 0
1591 -1691 0
-1545 -1691 -1692 0
1545 1691 -1692 0
1545 -1691 1692 0
-1545 1691 1692 0
-1692 -1690 -1693 0
1692 1690 -1693 0
1692 -1690 1693 0
-1692 1690 1693 0
-1692 -1690 1694 0
1692 -1694 0
1690 -1694 0
-1545 -1691 1695 0
1545 -1695 0
1691 -1695 0
1694 1695 -1696 0
-1694 1696 0
-1695 1696 0
-138 -1591 1697 0
138 -1697 0
1591 -1697 0
-1551 -1697 -1698 0
1551 1697 -1698 0
1551 -1697 1698 0
-1551 1697 1698 0
-1698 -1696 -1699 0
1698 1696 -1699 0
1698 -1696 1699 0
-1698 1696 1699 0
-1698 -1696 1700 0
1698 -1700 0
1696 -1700 0
-1551 -1697 1701 0
1551 -1701 0
1697 -1701 0
1700 1701 -1702 0
-1700 1702 0
-1701 1702 0
-146 -1591 1703 0
146 -1703 0
1591 -1703 0
-1557 -1703 -1704 0
1557 1703 -1704 0
1557 -1703 1704 0
-1557 1703 1704 0
-1704 -1702 -1705 0
1704 1702 -1705 0
1704 -1702 1705 0
-1704 1702 1705 0
-1704 -1702 1706 0
1704 -1706 0
1702 -1706 0
-1557 -1703 1707 0
1557 -1707 0
1703 -1707 0
1706 1707 -1708 0
-1706 1708 0
-1707 1708 0
-154 -1591 1709 0
154 -1709 0
1591 -1709 0
-1563 -1709 -1710 0
1563 1709 -1710 0
1563 -1709 1710 0
-1563 1709 1710 0
-1710 -1708 -1711 0
1710 1708 -1711 0
1710 -1708 1711 0
-1710 1708 1711 0
-1710 -1708 1712 0
1710 -1712 0
1708 -1712 0
-1563 -1709 1713 0
1563 -1713 0
1709 -1713 0
1712 1713 -1714 0
-1712 1714 0
-1713 1714 0
-162 -1591 1715 0
162 -1715 0
1591 -1715 0
-1569 -1715 -1716 0
1569 1715 -1716 0
1569 -1715 1716 0
-1569 1715 1716 0
-1716 -1714 -1717 0
1716 1714 -1717 0
1716 -1714 1717 0
-1716 1714 1717 0
-1716 -1714 1718 0
1716 -1718 0
1714 -1718 0
-1569 -1715 1719 0
1569 -1719 0
1715 -1719 0
1718 1719 -1720 0
-1718 1720 0
-1719 1720 0
-170 -1591 1721 0
170 -1721 0
1591 -1721 0
-1575 -1721 -1722 0
1575 1721 -1722 0
1575 -1721 1722 0
-1575 1721 1722 0
-1722 -1720 -1723 0
1722 1720 -1723 0
1722 -1720 1723 0
-1722 1720 1723 0
-1722 -1720 1724 0
1722 -1724 0
1720 -1724 0
-1575 -1721 1725 0
1575 -1725 0
1721 -1725 0
1724 1725 -1726 0
-1724 1726 0
-1725 1726 0
-178 -1591 1727 0
178 -1727 0
1591 -1727 0
-1581 -1727 -1728 0
1581 1727 -1728 0
1581 -1727 1728 0
-1581 1727 1728 0
-1728 -1726 -1729 0
1728 1726 -1729 0
1728 -1726 1729 0
-1728 1726 1729 0
-1728 -1726 1730 0
1728 -1730 0
1726 -1730 0
-1581 -1727 1731 0
1581 -1731 0
1727 -1731 0
1730 1731 -1732 0
-1730 1732 0
-1731 1732 0
-186 -1591 1733 0
186 -1733 0
1591 -1733 0
-1587 -1733 -1734 0
1587 1733 -1734 0
1587 -1733 1734 0
-1587 1733 1734 0
-1734 -1732 -1735 0
1734 1732 -1735 0
1734 -1732 1735 0
-1734 1732 1735 0
-1734 -1732 1736 0
1734 -1736 0
1732 -1736 0
-1587 -1733 1737 0
1587 -1737 0
1733 -1737 0
1736 1737 -1738 0
-1736 1738 0
-1737 1738 0
-194 -1591 1739 0
194 -1739 0
1591 -1739 0
-1590 -1739 -1740 0
1590 1739 -1740 0
1590 -1739 1740 0
-1590 1739 1740 0
-1740 -1738 -1741 0
1740 1738 -1741 0
1740 -1738 1741 0
-1740 1738 1741 0
-1740 -1738 1742 0
1740 -1742 0
1738 -1742 0
-1590 -1739 1743 0
1590 -1743 0
1739 -1743 0
1742 1743 -1744 0
-1742 1744 0
-1743 1744 0
-1 -1745 1746 0
1 -1746 0
1745 -1746 0
-1597 -1746 -1747 0
1597 1746 -1747 0
1597 -1746 1747 0
-1597 1746 1747 0
-1597 -1746 1748 0
1597 -1748 0
1746 -1748 0
-4 -1745 1749 0
4 -1749 0
1745 -1749 0
-1603 -1749 -1750 0
1603 1749 -1750 0
1603 -1749 1750 0
-1603 1749 1750 0
-1750 -1748 -1751 0
1750 1748 -1751 0
1750 -1748 1751 0
-1750 1748 1751 0
-1750 -1748 1752 0
1750 -1752 0
1748 -1752 0
-1603 -1749 1753 0
1603 -1753 0
1749 -1753 0
1752 1753 -1754 0
-1752 1754 0
-1753 1754 0
-10 -1745 1755 0
10 -1755 0
1745 -1755 0
-1609 -1755 -1756 0
1609 1755 -1756 0
1609 -1755 1756 0
-1609 1755 1756 0
-1756 -1754 -1757 0
1756 1754 -1757 0
1756 -1754 1757 0
-1756 1754 1757 0
-1756 -1754 1758 0
1756 -1758 0
1754 -1758 0
-1609 -1755 1759 0
1609 -1759 0
1755 -1759 0
1758 1759 -1760 0
-1758 1760 0
-1759 1760 0
-18 -1745 1761 0
18 -1761 0
1745 -1761 0
-1615 -1761 -1762 0
1615 1761 -1762 0
1615 -1761 1762 0
-1615 1761 1762 0
-1762 -1760 -1763 0
1762 1760 -1763 0
1762 -1760 1763 0
-1762 1760 1763 0
-1762 -1760 1764 0
1762 -1764 0
1760 -1764 0
-1615 -1761 1765 0
1615 -1765 0
1761 -1765 0
1764 1765 -1766 0
-1764 1766 0
-1765 1766 0
-26 -1745 1767 0
26 -1767 0
1745 -1767 0
-1621 -1767 -1768 0
1621 1767 -1768 0
1621 -1767 1768 0
-1621 1767 1768 0
-1768 -1766 -1769 0
1768 1766 -1769 0
1768 -1766 1769 0
-1768 1766 1769 0
-1768 -1766 1770 0
1768 -1770 0
1766 -1770 0
-1621 -1767 1771 0
1621 -1771 0
1767 -1771 0
1770 1771 -1772 0
-1770 1772 0
-1771 1772 0
-34 -1745 1773 0
34 -1773 0
1745 -1773 0
-1627 -1773 -1774 0
1627 1773 -1774 0
1627 -1773 1774 0
-1627 1773 1774 0
-1774 -1772 -1775 0
1774 1772 -1775 0
1774 -1772 1775 0
-1774 1772 1775 0
-1774 -1772 1776 0
1774 -1776 0
1772 -1776 0
-1627 -1773 1777 0
1627 -1777 0
1773 -1777 0
1776 1777 -1778 0
-1776 1778 0
-1777 1778 0
-42 -1745 1779 0
42 -1779 0
1745 -1779 0
-1633 -1779 -1780 0
1633 1779 -1780 0
1633 -1779 1780 0
-1633 1779 1780 0
-1780 -1778 -1781 0
1780 1778 -1781 0
1780 -1778 1781 0
-1780 1778 1781 0
-1780 -1778 1782 0
1780 -1782 0
1778 -1782 0
-1633 -1779 1783 0
1633 -1783 0
1779 -1783 0
1782 1783 -1784 0
-1782 1784 0
-1783 1784 0
-50 -1745 1785 0
50 -1785 0
1745 -1785 0
-1639 -1785 -1786 0
1639 1785 -1786 0
1639 -1785 1786 0
-1639 1785 1786 0
-1786 -1784 -1787 0
1786 1784 -1787 0
1786 -1784 1787 0
-1786 1784 1787 0
-1786 -1784 1788 0
1786 -1788 0
1784 -1788 0
-1639 -1785 1789 0
1639 -1789 0
1785 -1789 0
1788 1789 -1790 0
-1788 1790 0
-1789 1790 0
-58 -1745 1791 0
58 -1791 0
1745 -1791 0
-1645 -1791 -1792 0
1645 1791 -1792 0
1645 -1791 1792 0
-1645 1791 1792 0
-1792 -1790 -1793 0
1792 1790 -1793 0
1792 -1790 1793 0
-1792 1790 1793 0
-1792 -1790 1794 0
1792 -1794 0
1790 -1794 0
-1645 -1791 1795 0
1645 -1795 0
1791 -1795 0
1794 1795 -1796 0
-1794 1796 0
-1795 1796 0
-66 -1745 1797 0
66 -1797 0
1745 -1797 0
-1651 -1797 -1798 0
1651 1797 -1798 0
1651 -1797 1798 0
-1651 1797 1798 0
-1798 -1796 -1799 0
1798 1796 -1799 0
1798 -1796 1799 0
-1798 1796 1799 0
-1798 -1796 1800 0
1798 -1800 0
1796 -1800 0
-1651 -1797 1801 0
1651 -1801 0
1797 -1801 0
1800 1801 -1802 0
-1800 1802 0
-1801 1802 0
-74 -1745 1803 0
74 -1803 0
1745 -1803 0
-1657 -1803 -1804 0
1657 1803 -1804 0
1657 -1803 1804 0
-1657 1803 1804 0
-1804 -1802 -1805 0
1804 1802 -1805 0
1804 -1802 1805 0
-1804 1802 1805 0
-1804 -1802 1806 0
1804 -1806 0
1802 -1806 0
-1657 -1803 1807 0
1657 -1807 0
1803 -1807 0
1806 1807 -1808 0
-1806 1808 0
-1807 1808 0
-82 -1745 1809 0
82 -1809 0
1745 -1809 0
-1663 -1809 -1810 0
1663 1809 -1810 0
1663 -1809 1810 0
-1663 1809 1810 0
-1810 -1808 -1811 0
1810 1808 -1811 0
1810 -1808 1811 0
-1810 1808 1811 0
-1810 -1808 1812 0
1810 -1812 0
1808 -1812 0
-1663 -1809 1813 0
1663 -1813 0
1809 -1813 0
1812 1813 -1814 0
-1812 1814 0
-1813 1814 0
-90 -1745 1815 0
90 -1815 0
1745 -1815 0
-1669 -1815 -1816 0
1669 1815 -1816 0
1669 -1815 1816 0
-1669 1815 1816 0
-1816 -1814 -1817 0
1816 1814 -1817 0
1816 -1814 1817 0
-1816 1814 1817 0
-1816 -1814 1818 0
1816 -1818 0
1814 -1818 0
-1669 -1815 1819 0
1669 -1819 0
1815 -1819 0
1818 1819 -1820 0
-1818 1820 0
-1819 1820 0
-98 -1745 1821 0
98 -1821 0
1745 -1821 0
-1675 -1821 -1822 0
1675 1821 -1822 0
1675 -1821 1822 0
-1675 1821 1822 0
-1822 -1820 -1823 0
1822 1820 -1823 0
1822 -1820 1823 0
-1822 1820 1823 0
-1822 -1820 1824 0
1822 -1824 0
1820 -1824 0
-1675 -1821 1825 0
1675 -1825 0
1821 -1825 0
1824 1825 -1826 0
-1824 1826 0
-1825 1826 0
-106 -1745 1827 0
106 -1827 0
1745 -1827 0
-1681 -1827 -1828 0
1681 1827 -1828 0
1681 -1827 1828 0
-1681 1827 1828 0
-1828 -1826 -1829 0
1828 1826 -1829 0
1828 -1826 1829 0
-1828 1826 1829 0
-1828 -1826 1830 0
1828 -1830 0
1826 -1830 0
-1681 -1827 1831 0
1681 -1831 0
1827 -1831 0
1830 1831 -1832 0
-1830 1832 0
-1831 1832 0
-114 -1745 1833 0
114 -1833 0
1745 -1833 0
-1687 -1833 -1834 0
1687 1833 -1834 0
1687 -1833 1834 0
-1687 1833 1834 0
-1834 -1832 -1835 0
1834 1832 -1835 0
1834 -1832 1835 0
-1834 1832 1835 0
-1834 -1832 1836 0
1834 -1836 0
1832 -1836 0
-1687 -1833 1837 0
1687 -1837 0
1833 -1837 0
1836 1837 -1838 0
-1836 1838 0
-1837 1838 0
-122 -1745 1839 0
122 -1839 0
1745 -1839 0
-1693 -1839 -1840 0
1693 1839 -1840 0
1693 -1839 1840 0
-1693 1839 1840 0
-1840 -1838 -1841 0
1840 1838 -1841 0
1840 -1838 1841 0
-1840 1838 1841 0
-1840 -1838 1842 0
1840 -1842 0
1838 -1842 0
-1693 -1839 1843 0
1693 -1843 0
1839 -1843 0
1842 1843 -1844 0
-1842 1844 0
-1843 1844 0
-130 -1745 1845 0
130 -1845 0
1745 -1845 0
-1699 -1845 -1846 0
1699 1845 -1846 0
1699 -1845 1846 0
-1699 1845 1846 0
-1846 -1844 -1847 0
1846 1844 -1847 0
1846 -1844 1847 0
-1846 1844 1847 0
-1846 -1844 1848 0
1846 -1848 0
1844 -1848 0
-1699 -1845 1849 0
1699 -1849 0
1845 -1849 0
1848 1849 -1850 0
-1848 1850 0
-1849 1850 0
-138 -1745 1851 0
138 -1851 0
1745 -1851 0
-1705 -1851 -1852 0
1705 1851 -1852 0
1705 -1851 1852 0
-1705 1851 1852 0
-1852 -1850 -1853 0
1852 1850 -1853 0
1852 -1850 1853 0
-1852 1850 1853 0
-1852 -1850 1854 0
1852 -1854 0
1850 -1854 0
-1705 -1851 1855 0
1705 -1855 0
1851 -1855 0
1854 1855 -1856 0
-1854 1856 0
-1855 1856 0
-146 -1745 1857 0
146 -1857 0
1745 -1857 0
-1711 -1857 -1858 0
1711 1857 -1858 0
1711 -1857 1858 0
-1711 1857 1858 0
-1858 -1856 -1859 0
1858 1856 -1859 0
1858 -1856 1859 0
-1858 1856 1859 0
-1858 -1856 1860 0
1858 -1860 0
1856 -1860 0
-1711 -1857 1861 0
1711 -1861 0
1857 -1861 0
1860 1861 -1862 0
-1860 1862 0
-1861 1862 0
-154 -1745 1863 0
154 -1863 0
1745 -1863 0
-1717 -1863 -1864 0
1717 1863 -1864 0
1717 -1863 1864 0
-1717 1863 1864 0
-1864 -1862 -1865 0
1864 1862 -1865 0
1864 -1862 1865 0
-1864 1862 1865 0
-1864 -1862 1866 0
1864 -1866 0
1862 -1866 0
-1717 -1863 1867 0
1717 -1867 0
1863 -1867 0
1866 1867 -1868 0
-1866 1868 0
-1867 1868 0
-162 -1745 1869 0
162 -1869 0
1745 -1869 0
-1723 -1869 -1870 0
1723 1869 -1870 0
1723 -1869 1870 0
-1723 1869 1870 0
-1870 -1868 -1871 0
1870 1868 -1871 0
1870 -1868 1871 0
-1870 1868 1871 0
-1870 -1868 1872 0
1870 -1872 0
1868 -1872 0
-1723 -1869 1873 0
1723 -1873 0
1869 -1873 0
1872 1873 -1874 0
-1872 1874 0
-1873 1874 0
-170 -1745 1875 0
170 -1875 0
1745 -1875 0
-1729 -1875 -1876 0
1729 1875 -1876 0
1729 -1875 1876 0
-1729 1875 1876 0
-1876 -1874 -1877 0
1876 1874 -1877 0
1876 -1874 1877 0
-1876 1874 1877 0
-1876 -1874 1878 0
1876 -1878 0
1874 -1878 0
-1729 -1875 1879 0
1729 -1879 0
1875 -1879 0
1878 1879 -1880 0
-1878 1880 0
-1879 1880 0
-178 -1745 1881 0
178 -1881 0
1745 -1881 0
-1735 -1881 -1882 0
1735 1881 -1882 0
1735 -1881 1882 0
-1735 1881 1882 0
-1882 -1880 -1883 0
1882 1880 -1883 0
1882 -1880 1883 0
-1882 1880 1883 0
-1882 -1880 1884 0
1882 -1884 0
1880 -1884 0
-1735 -1881 1885 0
1735 -1885 0
1881 -1885 0
1884 1885 -1886 0
-1884 1886 0
-1885 1886 0
-186 -1745 1887 0
186 -1887 0
1745 -1887 0
-1741 -1887 -1888 0
1741 1887 -1888 0
1741 -1887 1888 0
-1741 1887 1888 0
-1888 -1886 -1889 0
1888 1886 -1889 0
1888 -1886 1889 0
-1888 1886 1889 0
-1888 -1886 1890 0
1888 -1890 0
1886 -1890 0
-1741 -1887 1891 0
1741 -1891 0
1887 -1891 0
1890 1891 -1892 0
-1890 1892 0
-1891 1892 0
-194 -1745 1893 0
194 -1893 0
1745 -1893 0
-1744 -1893 -1894 0
1744 1893 -1894 0
1744 -1893 1894 0
-1744 1893 1894 0
-1894 -1892 -1895 0
1894 1892 -1895 0
1894 -1892 1895 0
-1894 1892 1895 0
-1894 -1892 1896 0
1894 -1896 0
1892 -1896 0
-1744 -1893 1897 0
1744 -1897 0
1893 -1897 0
1896 1897 -1898 0
-1896 1898 0
-1897 1898 0
-1 -1899 1900 0
1 -1900 0
1899 -1900 0
-1751 -1900 -1901 0
1751 1900 -1901 0
1751 -1900 1901 0
-1751 1900 1901 0
-1751 -1900 1902 0
1751 -1902 0
1900 -1902 0
-4 -1899 1903 0
4 -1903 0
1899 -1903 0
-1757 -1903 -1904 0
1757 1903 -1904 0
1757 -1903 1904 0
-1757 1903 1904 0
-1904 -1902 -1905 0
1904 1902 -1905 0
1904 -1902 1905 0
-1904 1902 1905 0
-1904 -1902 1906 0
1904 -1906 0
1902 -1906 0
-1757 -1903 1907 0
1757 -1907 0
1903 -1907 0
1906 1907 -1908 0
-1906 1908 0
-1907 1908 0
-10 -1899 1909 0
10 -1909 0
1899 -1909 0
-1763 -1909 -1910 0
1763 1909 -1910 0
1763 -1909 1910 0
-1763 1909 1910 0
-1910 -1908 -1911 0
1910 1908 -1911 0
1910 -1908 1911 0
-1910 1908 1911 0
-1910 -1908 1912 0
1910 -1912 0
1908 -1912 0
-1763 -1909 1913 0
1763 -1913 0
1909 -1913 0
1912 1913 -1914 0
-1912 1914 0
-1913 1914 0
-18 -1899 1915 0
18 -1915 0
1899 -1915 0
-1769 -1915 -1916 0
1769 1915 -1916 0
1769 -1915 1916 0
-1769 1915 1916 0
-1916 -1914 -1917 0
1916 1914 -1917 0
1916 -1914 1917 0
-1916 1914 1917 0
-1916 -1914 1918 0
1916 -1918 0
1914 -1918 0
-1769 -1915 1919 0
1769 -1919 0
1915 -1919 0
1918 1919 -1920 0
-1918 1920 0
-1919 1920 0
-26 -1899 1921 0
26 -1921 0
1899 -1921 0
-1775 -1921 -1922 0
1775 1921 -1922 0
1775 -1921 1922 0
-1775 1921 1922 0
-1922 -1920 -1923 0
1922 1920 -1923 0
1922 -1920 1923 0
-1922 1920 1923 0
-1922 -1920 1924 0
1922 -1924 0
1920 -1924 0
-1775 -1921 1925 0
1775 -1925 0
1921 -1925 0
1924 1925 -1926 0
-1924 1926 0
-1925 1926 0
-34 -1899 1927 0
34 -1927 0
1899 -1927 0
-1781 -1927 -1928 0
1781 1927 -1928 0
1781 -1927 1928 0
-1781 1927 1928 0
-1928 -1926 -1929 0
1928 1926 -1929 0
1928 -1926 1929 0
-1928 1926 1929 0
-1928 -1926 1930 0
1928 -1930 0
1926 -1930 0
-1781 -1927 1931 0
1781 -1931 0
1927 -1931 0
1930 1931 -1932 0
-1930 1932 0
-1931 1932 0
-42 -1899 1933 0
42 -1933 0
1899 -1933 0
-1787 -1933 -1934 0
1787 1933 -1934 0
1787 -1933 1934 0
-1787 1933 1934 0
-1934 -1932 -1935 0
1934 1932 -1935 0
1934 -1932 1935 0
-1934 1932 1935 0
-1934 -1932 1936 0
1934 -1936 0
1932 -1936 0
-1787 -1933 1937 0
1787 -1937 0
1933 -1937 0
1936 1937 -1938 0
-1936 1938 0
-1937 1938 0
-50 -1899 1939 0
50 -1939 0
1899 -1939 0
-1793 -1939 -1940 0
1793 1939 -1940 0
1793 -1939 1940 0
-1793 1939 1940 0
-1940 -1938 -1941 0
1940 1938 -1941 0
1940 -1938 1941 0
-1940 1938 1941 0
-1940 -1938 1942 0
1940 -1942 0
1938 -1942 0
-1793 -1939 1943 0
1793 -1943 0
1939 -1943 0
1942 1943 -1944 0
-1942 1944 0
-1943 1944 0
-58 -1899 1945 0
58 -1945 0
1899 -1945 0
-1799 -1945 -1946 0
1799 1945 -1946 0
1799 -1945 1946 0
-1799 1945 1946 0
-1946 -1944 -1947 0
1946 1944 -1947 0
1946 -1944 1947 0
-1946 1944 1947 0
-1946 -1944 1948 0
1946 -1948 0
1944 -1948 0
-1799 -1945 1949 0
1799 -1949 0
1945 -1949 0
1948 1949 -1950 0
-1948 1950 0
-1949 1950 0
-66 -1899 1951 0
66 -1951 0
1899 -1951 0
-1805 -1951 -1952 0
1805 1951 -1952 0
1805 -1951 1952 0
-1805 1951 1952 0
-1952 -1950 -1953 0
1952 1950 -1953 0
1952 -1950 1953 0
-1952 1950 1953 0
-1952 -1950 1954 0
1952 -1954 0
1950 -1954 0
-1805 -1951 1955 0
1805 -1955 0
1951 -1955 0
1954 1955 -1956 0
-1954 1956 0
-1955 1956 0
-74 -1899 1957 0
74 -1957 0
1899 -1957 0
-1811 -1957 -1958 0
1811 1957 -1958 0
1811 -1957 1958 0
-1811 1957 1958 0
-1958 -1956 -1959 0
1958 1956 -1959 0
1958 -1956 1959 0
-1958 1956 1959 0
-1958 -1956 1960 0
1958 -1960 0
1956 -1960 0
-1811 -1957 1961 0
1811 -1961 0
1957 -1961 0
1960 1961 -1962 0
-1960 1962 0
-1961 1962 0
-82 -1899 1963 0
82 -1963 0
1899 -1963 0
-1817 -1963 -1964 0
1817 1963 -1964 0
1817 -1963 1964 0
-1817 1963 1964 0
-1964 -1962 -1965 0
1964 1962 -1965 0
1964 -1962 1965 0
-1964 1962 1965 0
-1964 -1962 1966 0
1964 -1966 0
1962 -1966 0
-1817 -1963 1967 0
1817 -1967 0
1963 -1967 0
1966 1967 -1968 0
-1966 1968 0
-1967 1968 0
-90 -1899 1969 0
90 -1969 0
1899 -1969 0
-1823 -1969 -1970 0
1823 1969 -1970 0
1823 -1969 1970 0
-1823 1969 1970 0
-1970 -1968 -1971 0
1970 1968 -1971 0
1970 -1968 1971 0
-1970 1968 1971 0
-1970 -1968 1972 0
1970 -1972 0
1968 -1972 0
-1823 -1969 1973 0
1823 -1973 0
1969 -1973 0
1972 1973 -1974 0
-1972 1974 0
-1973 1974 0
-98 -1899 1975 0
98 -1975 0
1899 -1975 0
-1829 -1975 -1976 0
1829 1975 -1976 0
1829 -1975 1976 0
-1829 1975 1976 0
-1976 -1974 -1977 0
1976 1974 -1977 0
1976 -1974 1977 0
-1976 1974 1977 0
-1976 -1974 1978 0
1976 -1978 0
1974 -1978 0
-1829 -1975 1979 0
1829 -1979 0
1975 -1979 0
1978 1979 -1980 0
-1978 1980 0
-1979 1980 0
-106 -1899 1981 0
106 -1981 0
1899 -1981 0
-1835 -1981 -1982 0
1835 1981 -1982 0
1835 -1981 1982 0
-1835 1981 1982 0
-1982 -1980 -1983 0
1982 1980 -1983 0
1982 -1980 1983 0
-1982 1980 1983 0
-1982 -1980 1984 0
1982 -1984 0
1980 -1984 0
-1835 -1981 1985 0
1835 -1985 0
1981 -1985 0
1984 1985 -1986 0
-1984 1986 0
-1985 1986 0
-114 -1899 1987 0
114 -1987 0
1899 -1987 0
-1841 -1987 -1988 0
1841 1987 -1988 0
1841 -1987 1988 0
-1841 1987 1988 0
-1988 -1986 -1989 0
1988 1986 -1989 0
1988 -1986 1989 0
-1988 1986 1989 0
-1988 -1986 1990 0
1988 -1990 0
1986 -1990 0
-1841 -1987 1991 0
1841 -1991 0
1987 -1991 0
1990 1991 -1992 0
-1990 1992 0
-1991 1992 0
-122 -1899 1993 0
122 -1993 0
1899 -1993 0
-1847 -1993 -1994 0
1847 1993 -1994 0
1847 -1993 1994 0
-1847 1993 1994 0
-1994 -1992 -1995 0
1994 1992 -1995 0
1994 -1992 1995 0
-1994 1992 1995 0
-1994 -1992 1996 0
1994 -1996 0
1992 -1996 0
-1847 -1993 1997 0
1847 -1997 0
1993 -1997 0
1996 1997 -1998 0
-1996 1998 0
-1997 1998 0
-130 -1899 1999 0
130 -1999 0
1899 -1999 0
-1853 -1999 -2000 0
1853 1999 -2000 0
1853 -1999 2000 0
-1853 1999 2000 0
-2000 -1998 -2001 0
2000 1998 -2001 0
2000 -1998 2001 0
-2000 1998 2001 0
-2000 -1998 2002 0
2000 -2002 0
1998 -2002 0
-1853 -1999 2003 0
1853 -2003 0
1999 -2003 0
2002 2003 -2004 0
-2002 2004 0
-2003 2004 0
-138 -1899 2005 0
138 -2005 0
1899 -2005 0
-1859 -2005 -2006 0
1859 2005 -2006 0
1859 -2005 2006 0
-1859 2005 2006 0
-2006 -2004 -2007 0
2006 2004 -2007 0
2006 -2004 2007 0
-2006 2004 2007 0
-2006 -2004 2008 0
2006 -2008 0
2004 -2008 0
-1859 -2005 2009 0
1859 -2009 0
2005 -2009 0
2008 2009 -2010 0
-2008 2010 0
-2009 2010 0
-146 -1899 2011 0
146 -2011 0
1899 -2011 0
-1865 -2011 -2012 0
1865 2011 -2012 0
1865 -2011 2012 0
-1865 2011 2012 0
-2012 -2010 -2013 0
2012 2010 -2013 0
2012 -2010 2013 0
-2012 2010 2013 0
-2012 -2010 2014 0
2012 -2014 0
2010 -2014 0
-1865 -2011 2015 0
1865 -2015 0
2011 -2015 0
2014 2015 -2016 0
-2014 2016 0
-2015 2016 0
-154 -1899 2017 0
154 -2017 0
1899 -2017 0
-1871 -2017 -2018 0
1871 2017 -2018 0
1871 -2017 2018 0
-1871 2017 2018 0
-2018 -2016 -2019 0
2018 2016 -2019 0
2018 -2016 2019 0
-2018 2016 2019 0
-2018 -2016 2020 0
2018 -2020 0
2016 -2020 0
-1871 -2017 2021 0
1871 -2021 0
2017 -2021 0
2020 2021 -2022 0
-2020 2022 0
-2021 2022 0
-162 -1899 2023 0
162 -2023 0
1899 -2023 0
-1877 -2023 -2024 0
1877 2023 -2024 0
1877 -2023 2024 0
-1877 2023 2024 0
-2024 -2022 -2025 0
2024 2022 -2025 0
2024 -2022 2025 0
-2024 2022 2025 0
-2024 -2022 2026 0
2024 -2026 0
2022 -2026 0
-1877 -2023 2027 0
1877 -2027 0
2023 -2027 0
2026 2027 -2028 0
-2026 2028 0
-2027 2028 0
-170 -1899 2029 0
170 -2029 0
1899 -2029 0
-1883 -2029 -2030 0
1883 2029 -2030 0
1883 -2029 2030 0
-1883 2029 2030 0
-2030 -2028 -2031 0
2030 2028 -2031 0
2030 -2028 2031 0
-2030 2028 2031 0
-2030 -2028 2032 0
2030 -2032 0
2028 -2032 0
-1883 -2029 2033 0
1883 -2033 0
2029 -2033 0
2032 2033 -2034 0
-2032 2034 0
-2033 2034 0
-178 -1899 2035 0
178 -2035 0
1899 -2035 0
-1889 -2035 -2036 0
1889 2035 -2036 0
1889 -2035 2036 0
-1889 2035 2036 0
-2036 -2034 -2037 0
2036 2034 -2037 0
2036 -2034 2037 0
-2036 2034 2037 0
-2036 -2034 2038 0
2036 -2038 0
2034 -2038 0
-1889 -2035 2039 0
1889 -2039 0
2035 -2039 0
2038 2039 -2040 0
-2038 2040 0
-2039 2040 0
-186 -1899 2041 0
186 -2041 0
1899 -2041 0
-1895 -2041 -2042 0
1895 2041 -2042 0
1895 -2041 2042 0
-1895 2041 2042 0
-2042 -2040 -2043 0
2042 2040 -2043 0
2042 -2040 2043 0
-2042 2040 2043 0
-2042 -2040 2044 0
2042 -2044 0
2040 -2044 0
-1895 -2041 2045 0
1895 -2045 0
2041 -2045 0
2044 2045 -2046 0
-2044 2046 0
-2045 2046 0
-194 -1899 2047 0
194 -2047 0
1899 -2047 0
-1898 -2047 -2048 0
1898 2047 -2048 0
1898 -2047 2048 0
-1898 2047 2048 0
-2048 -2046 -2049 0
2048 2046 -2049 0
2048 -2046 2049 0
-2048 2046 2049 0
-2048 -2046 2050 0
2048 -2050 0
2046 -2050 0
-1898 -2047 2051 0
1898 -2051 0
2047 -2051 0
2050 2051 -2052 0
-2050 2052 0
-2051 2052 0
-1 -2053 2054 0
1 -2054 0
2053 -2054 0
-1905 -2054 -2055 0
1905 2054 -2055 0
1905 -2054 2055 0
-1905 2054 2055 0
-1905 -2054 2056 0
1905 -2056 0
2054 -2056 0
-4 -2053 2057 0
4 -2057 0
2053 -2057 0
-1911 -2057 -2058 0
1911 2057 -2058 0
1911 -2057 2058 0
-1911 2057 2058 0
-2058 -2056 -2059 0
2058 2056 -2059 0
2058 -2056 2059 0
-2058 2056 2059 0
-2058 -2056 2060 0
2058 -2060 0
2056 -2060 0
-1911 -2057 2061 0
1911 -2061 0
2057 -2061 0
2060 2061 -2062 0
-2060 2062 0
-2061 2062 0
-10 -2053 2063 0
10 -2063 0
2053 -2063 0
-1917 -2063 -2064 0
1917 2063 -2064 0
1917 -2063 2064 0
-1917 2063 2064 0
-2064 -2062 -2065 0
2064 2062 -2065 0
2064 -2062 2065 0
-2064 2062 2065 0
-2064 -2062 2066 0
2064 -2066 0
2062 -2066 0
-1917 -2063 2067 0
1917 -2067 0
2063 -2067 0
2066 2067 -2068 0
-2066 2068 0
-2067 2068 0
-18 -2053 2069 0
18 -2069 0
2053 -2069 0
-1923 -2069 -2070 0
1923 2069 -2070 0
1923 -2069 2070 0
-1923 2069 2070 0
-2070 -2068 -2071 0
2070 2068 -2071 0
2070 -2068 2071 0
-2070 2068 2071 0
-2070 -2068 2072 0
2070 -2072 0
2068 -2072 0
-1923 -2069 2073 0
1923 -2073 0
2069 -2073 0
2072 2073 -2074 0
-2072 2074 0
-2073 2074 0
-26 -2053 2075 0
26 -2075 0
2053 -2075 0
-1929 -2075 -2076 0
1929 2075 -2076 0
1929 -2075 2076 0
-1929 2075 2076 0
-2076 -2074 -2077 0
2076 2074 -2077 0
2076 -2074 2077 0
-2076 2074 2077 0
-2076 -2074 2078 0
2076 -2078 0
2074 -2078 0
-1929 -2075 2079 0
1929 -2079 0
2075 -2079 0
2078 2079 -2080 0
-2078 2080 0
-2079 2080 0
-34 -2053 2081 0
34 -2081 0
2053 -2081 0
-1935 -2081 -2082 0
1935 2081 -2082 0
1935 -2081 2082 0
-1935 2081 2082 0
-2082 -2080 -2083 0
2082 2080 -2083 0
2082 -2080 2083 0
-2082 2080 2083 0
-2082 -2080 2084 0
2082 -2084 0
2080 -2084 0
-1935 -2081 2085 0
1935 -2085 0
2081 -2085 0
2084 2085 -2086 0
-2084 2086 0
-2085 2086 0
-42 -2053 2087 0
42 -2087 0
2053 -2087 0
-1941 -2087 -2088 0
1941 2087 -2088 0
1941 -2087 2088 0
-1941 2087 2088 0
-2088 -2086 -2089 0
2088 2086 -2089 0
2088 -2086 2089 0
-2088 2086 2089 0
-2088 -2086 2090 0
2088 -2090 0
2086 -2090 0
-1941 -2087 2091 0
1941 -2091 0
2087 -2091 0
2090 2091 -2092 0
-2090 2092 0
-2091 2092 0
-50 -2053 2093 0
50 -2093 0
2053 -2093 0
-1947 -2093 -2094 0
1947 2093 -2094 0
1947 -2093 2094 0
-1947 2093 2094 0
-2094 -2092 -2095 0
2094 2092 -2095 0
2094 -2092 2095 0
-2094 2092 2095 0
-2094 -2092 2096 0
2094 -2096 0
2092 -2096 0
-1947 -2093 2097 0
1947 -2097 0
2093 -2097 0
2096 2097 -2098 0
-2096 2098 0
-2097 2098 0
-58 -2053 2099 0
58 -2099 0
2053 -2099 0
-1953 -2099 -2100 0
1953 2099 -2100 0
1953 -2099 2100 0
-1953 2099 2100 0
-2100 -2098 -2101 0
2100 2098 -2101 0
2100 -2098 2101 0
-2100 2098 2101 0
-2100 -2098 2102 0
2100 -2102 0
2098 -2102 0
-1953 -2099 2103 0
1953 -2103 0
2099 -2103 0
2102 2103 -2104 0
-2102 2104 0
-2103 2104 0
-66 -2053 2105 0
66 -2105 0
2053 -2105 0
-1959 -2105 -2106 0
1959 2105 -2106 0
1959 -2105 2106 0
-1959 2105 2106 0
-2106 -2104 -2107 0
2106 2104 -2107 0
2106 -2104 2107 0
-2106 2104 2107 0
-2106 -2104 2108 0
2106 -2108 0
2104 -2108 0
-1959 -2105 2109 0
1959 -2109 0
2105 -2109 0
2108 2109 -2110 0
-2108 2110 0
-2109 2110 0
-74 -2053 2111 0
74 -2111 0
2053 -2111 0
-1965 -2111 -2112 0
1965 2111 -2112 0
1965 -2111 2112 0
-1965 2111 2112 0
-2112 -2110 -2113 0
2112 2110 -2113 0
2112 -2110 2113 0
-2112 2110 2113 0
-2112 -2110 2114 0
2112 -2114 0
2110 -2114 0
-1965 -2111 2115 0
1965 -2115 0
2111 -2115 0
2114 2115 -2116 0
-2114 2116 0
-2115 2116 0
-82 -2053 2117 0
82 -2117 0
2053 -2117 0
-1971 -2117 -2118 0
1971 2117 -2118 0
1971 -2117 2118 0
-1971 2117 2118 0
-2118 -2116 -2119 0
2118 2116 -2119 0
2118 -2116 2119 0
-2118 2116 2119 0
-2118 -2116 2120 0
2118 -2120 0
2116 -2120 0
-1971 -2117 2121 0
1971 -2121 0
2117 -2121 0
2120 2121 -2122 0
-2120 2122 0
-2121 2122 0
-90 -2053 2123 0
90 -2123 0
2053 -2123 0
-1977 -2123 -2124 0
1977 2123 -2124 0
1977 -2123 2124 0
-1977 2123 2124 0
-2124 -2122 -2125 0
2124 2122 -2125 0
2124 -2122 2125 0
-2124 2122 2125 0
-2124 -2122 2126 0
2124 -2126 0
2122 -2126 0
-1977 -2123 2127 0
1977 -2127 0
2123 -2127 0
2126 2127 -2128 0
-2126 2128 0
-2127 2128 0
-98 -2053 2129 0
98 -2129 0
2053 -2129 0
-1983 -2129 -2130 0
1983 2129 -2130 0
1983 -2129 2130 0
-1983 2129 2130 0
-2130 -2128 -2131 0
2130 2128 -2131 0
2130 -2128 2131 0
-2130 2128 2131 0
-2130 -2128 2132 0
2130 -2132 0
2128 -2132 0
-1983 -2129 2133 0
1983 -2133 0
2129 -2133 0
2132 2133 -2134 0
-2132 2134 0
-2133 2134 0
-106 -2053 2135 0
106 -2135 0
2053 -2135 0
-1989 -2135 -2136 0
1989 2135 -2136 0
1989 -2135 2136 0
-1989 2135 2136 0
-2136 -2134 -2137 0
2136 2134 -2137 0
2136 -2134 2137 0
-2136 2134 2137 0
-2136 -2134 2138 0
2136 -2138 0
2134 -2138 0
-1989 -2135 2139 0
1989 -2139 0
2135 -2139 0
2138 2139 -2140 0
-2138 2140 0
-2139 2140 0
-114 -2053 2141 0
114 -2141 0
2053 -2141 0
-1995 -2141 -2142 0
1995 2141 -2142 0
1995 -2141 2142 0
-1995 2141 2142 0
-2142 -2140 -2143 0
2142 2140 -2143 0
2142 -2140 2143 0
-2142 2140 2143 0
-2142 -2140 2144 0
2142 -2144 0
2140 -2144 0
-1995 -2141 2145 0
1995 -2145 0
2141 -2145 0
2144 2145 -2146 0
-2144 2146 0
-2145 2146 0
-122 -2053 2147 0
122 -2147 0
2053 -2147 0
-2001 -2147 -2148 0
2001 2147 -2148 0
2001 -2147 2148 0
-2001 2147 2148 0
-2148 -2146 -2149 0
2148 2146 -2149 0
2148 -2146 2149 0
-2148 2146 2149 0
-2148 -2146 2150 0
2148 -2150 0
2146 -2150 0
-2001 -2147 2151 0
2001 -2151 0
2147 -2151 0
2150 2151 -2152 0
-2150 2152 0
-2151 2152 0
-130 -2053 2153 0
130 -2153 0
2053 -2153 0
-2007 -2153 -2154 0
2007 2153 -2154 0
2007 -2153 2154 0
-2007 2153 2154 0
-2154 -2152 -2155 0
2154 2152 -2155 0
2154 -2152 2155 0
-2154 2152 2155 0
-2154 -2152 2156 0
2154 -2156 0
2152 -2156 0
-2007 -2153 2157 0
2007 -2157 0
2153 -2157 0
2156 2157 -2158 0
-2156 2158 0
-2157 2158 0
-138 -2053 2159 0
138 -2159 0
2053 -2159 0
-2013 -2159 -2160 0
2013 2159 -2160 0
2013 -2159 2160 0
-2013 2159 2160 0
-2160 -2158 -2161 0
2160 2158 -2161 0
2160 -2158 2161 0
-2160 2158 2161 0
-2160 -2158 2162 0
2160 -2162 0
2158 -2162 0
-2013 -2159 2163 0
2013 -2163 0
2159 -2163 0
2162 2163 -2164 0
-2162 2164 0
-2163 2164 0
-146 -2053 2165 0
146 -2165 0
2053 -2165 0
-2019 -2165 -2166 0
2019 2165 -2166 0
2019 -2165 2166 0
-2019 2165 2166 0
-2166 -2164 -2167 0
2166 2164 -2167 0
2166 -2164 2167 0
-2166 2164 2167 0
-2166 -2164 2168 0
2166 -2168 0
2164 -2168 0
-2019 -2165 2169 0
2019 -2169 0
2165 -2169 0
2168 2169 -2170 0
-2168 2170 0
-2169 2170 0
-154 -2053 2171 0
154 -2171 0
2053 -2171 0
-2025 -2171 -2172 0
2025 2171 -2172 0
2025 -2171 2172 0
-2025 2171 2172 0
-2172 -2170 -2173 0
2172 2170 -2173 0
2172 -2170 2173 0
-2172 2170 2173 0
-2172 -2170 2174 0
2172 -2174 0
2170 -2174 0
-2025 -2171 2175 0
2025 -2175 0
2171 -2175 0
2174 2175 -2176 0
-2174 2176 0
-2175 2176 0
-162 -2053 2177 0
162 -2177 0
2053 -2177 0
-2031 -2177 -2178 0
2031 2177 -2178 0
2031 -2177 2178 0
-2031 2177 2178 0
-2178 -2176 -2179 0
2178 2176 -2179 0
2178 -2176 2179 0
-2178 2176 2179 0
-2178 -2176 2180 0
2178 -2180 0
2176 -2180 0
-2031 -2177 2181 0
2031 -2181 0
2177 -2181 0
2180 2181 -2182 0
-2180 2182 0
-2181 2182 0
-170 -2053 2183 0
170 -2183 0
2053 -2183 0
-2037 -2183 -2184 0
2037 2183 -2184 0
2037 -2183 2184 0
-2037 2183 2184 0
-2184 -2182 -2185 0
2184 2182 -2185 0
2184 -2182 2185 0
-2184 2182 2185 0
-2184 -2182 2186 0
2184 -2186 0
2182 -2186 0
-2037 -2183 2187 0
2037 -2187 0
2183 -2187 0
2186 2187 -2188 0
-2186 2188 0
-2187 2188 0
-178 -2053 2189 0
178 -2189 0
2053 -2189 0
-2043 -2189 -2190 0
2043 2189 -2190 0
2043 -2189 2190 0
-2043 2189 2190 0
-2190 -2188 -2191 0
2190 2188 -2191 0
2190 -2188 2191 0
-2190 2188 2191 0
-2190 -2188 2192 0
2190 -2192 0
2188 -2192 0
-2043 -2189 2193 0
2043 -2193 0
2189 -2193 0
2192 2193 -2194 0
-2192 2194 0
-2193 2194 0
-186 -2053 2195 0
186 -2195 0
2053 -2195 0
-2049 -2195 -2196 0
2049 2195 -2196 0
2049 -2195 2196 0
-2049 2195 2196 0
-2196 -2194 -2197 0
2196 2194 -2197 0
2196 -2194 2197 0
-2196 2194 2197 0
-2196 -2194 2198 0
2196 -2198 0
2194 -2198 0
-2049 -2195 2199 0
2049 -2199 0
2195 -2199 0
2198 2199 -2200 0
-2198 2200 0
-2199 2200 0
-194 -2053 2201 0
194 -2201 0
2053 -2201 0
-2052 -2201 -2202 0
2052 2201 -2202 0
2052 -2201 2202 0
-2052 2201 2202 0
-2202 -2200 -2203 0
2202 2200 -2203 0
2202 -2200 2203 0
-2202 2200 2203 0
-2202 -2200 2204 0
2202 -2204 0
2200 -2204 0
-2052 -2201 2205 0
2052 -2205 0
2201 -2205 0
2204 2205 -2206 0
-2204 2206 0
-2205 2206 0
-1 -2207 2208 0
1 -2208 0
2207 -2208 0
-2059 -2208 -2209 0
2059 2208 -2209 0
2059 -2208 2209 0
-2059 2208 2209 0
-2059 -2208 2210 0
2059 -2210 0
2208 -2210 0
-4 -2207 2211 0
4 -2211 0
2207 -2211 0
-2065 -2211 -2212 0
2065 2211 -2212 0
2065 -2211 2212 0
-2065 2211 2212 0
-2212 -2210 -2213 0
2212 2210 -2213 0
2212 -2210 2213 0
-2212 2210 2213 0
-2212 -2210 2214 0
2212 -2214 0
2210 -2214 0
-2065 -2211 2215 0
2065 -2215 0
2211 -2215 0
2214 2215 -2216 0
-2214 2216 0
-2215 2216 0
-10 -2207 2217 0
10 -2217 0
2207 -2217 0
-2071 -2217 -2218 0
2071 2217 -2218 0
2071 -2217 2218 0
-2071 2217 2218 0
-2218 -2216 -2219 0
2218 2216 -2219 0
2218 -2216 2219 0
-2218 2216 2219 0
-2218 -2216 2220 0
2218 -2220 0
2216 -2220 0
-2071 -2217 2221 0
2071 -2221 0
2217 -2221 0
2220 2221 -2222 0
-2220 2222 0
-2221 2222 0
-18 -2207 2223 0
18 -2223 0
2207 -2223 0
-2077 -2223 -2224 0
2077 2223 -2224 0
2077 -2223 2224 0
-2077 2223 2224 0
-2224 -2222 -2225 0
2224 2222 -2225 0
2224 -2222 2225 0
-2224 2222 2225 0
-2224 -2222 2226 0
2224 -2226 0
2222 -2226 0
-2077 -2223 2227 0
2077 -2227 0
2223 -2227 0
2226 2227 -2228 0
-2226 2228 0
-2227 2228 0
-26 -2207 2229 0
26 -2229 0
2207 -2229 0
-2083 -2229 -2230 0
2083 2229 -2230 0
2083 -2229 2230 0
-2083 2229 2230 0
-2230 -2228 -2231 0
2230 2228 -2231 0
2230 -2228 2231 0
-2230 2228 2231 0
-2230 -2228 2232 0
2230 -2232 0
2228 -2232 0
-2083 -2229 2233 0
2083 -2233 0
2229 -2233 0
2232 2233 -2234 0
-2232 2234 0
-2233 2234 0
-34 -2207 2235 0
34 -2235 0
2207 -2235 0
-2089 -2235 -2236 0
2089 2235 -2236 0
2089 -2235 2236 0
-2089 2235 2236 0
-2236 -2234 -2237 0
2236 2234 -2237 0
2236 -2234 2237 0
-2236 2234 2237 0
-2236 -2234 2238 0
2236 -2238 0
2234 -2238 0
-2089 -2235 2239 0
2089 -2239 0
2235 -2239 0
2238 2239 -2240 0
-2238 2240 0
-2239 2240 0
-42 -2207 2241 0
42 -2241 0
2207 -2241 0
-2095 -2241 -2242 0
2095 2241 -2242 0
2095 -2241 2242 0
-2095 2241 2242 0
-2242 -2240 -2243 0
2242 2240 -2243 0
2242 -2240 2243 0
-2242 2240 2243 0
-2242 -2240 2244 0
2242 -2244 0
2240 -2244 0
-2095 -2241 2245 0
2095 -2245 0
2241 -2245 0
2244 2245 -2246 0
-2244 2246 0
-2245 2246 0
-50 -2207 2247 0
50 -2247 0
2207 -2247 0
-2101 -2247 -2248 0
2101 2247 -2248 0
2101 -2247 2248 0
-2101 2247 2248 0
-2248 -2246 -2249 0
2248 2246 -2249 0
2248 -2246 2249 0
-2248 2246 2249 0
-2248 -2246 2250 0
2248 -2250 0
2246 -2250 0
-2101 -2247 2251 0
2101 -2251 0
2247 -2251 0
2250 2251 -2252 0
-2250 2252 0
-2251 2252 0
-58 -2207 2253 0
58 -2253 0
2207 -2253 0
-2107 -2253 -2254 0
2107 2253 -2254 0
2107 -2253 2254 0
-2107 2253 2254 0
-2254 -2252 -2255 0
2254 2252 -2255 0
2254 -2252 2255 0
-2254 2252 2255 0
-2254 -2252 2256 0
2254 -2256 0
2252 -2256 0
-2107 -2253 2257 0
2107 -2257 0
2253 -2257 0
2256 2257 -2258 0
-2256 2258 0
-2257 2258 0
-66 -2207 2259 0
66 -2259 0
2207 -2259 0
-2113 -2259 -2260 0
2113 2259 -2260 0
2113 -2259 2260 0
-2113 2259 2260 0
-2260 -2258 -2261 0
2260 2258 -2261 0
2260 -2258 2261 0
-2260 2258 2261 0
-2260 -2258 2262 0
2260 -2262 0
2258 -2262 0
-2113 -2259 2263 0
2113 -2263 0
2259 -2263 0
2262 2263 -2264 0
-2262 2264 0
-2263 2264 0
-74 -2207 2265 0
74 -2265 0
2207 -2265 0
-2119 -2265 -2266 0
2119 2265 -2266 0
2119 -2265 2266 0
-2119 2265 2266 0
-2266 -2264 -2267 0
2266 2264 -2267 0
2266 -2264 2267 0
-2266 2264 2267 0
-2266 -2264 2268 0
2266 -2268 0
2264 -2268 0
-2119 -2265 2269 0
2119 -2269 0
2265 -2269 0
2268 2269 -2270 0
-2268 2270 0
-2269 2270 0
-82 -2207 2271 0
82 -2271 0
2207 -2271 0
-2125 -2271 -2272 0
2125 2271 -2272 0
2125 -2271 2272 0
-2125 2271 2272 0
-2272 -2270 -2273 0
2272 2270 -2273 0
2272 -2270 2273 0
-2272 2270 2273 0
-2272 -2270 2274 0
2272 -2274 0
2270 -2274 0
-2125 -2271 2275 0
2125 -2275 0
2271 -2275 0
2274 2275 -2276 0
-2274 2276 0
-2275 2276 0
-90 -2207 2277 0
90 -2277 0
2207 -2277 0
-2131 -2277 -2278 0
2131 2277 -2278 0
2131 -2277 2278 0
-2131 2277 2278 0
-2278 -2276 -2279 0
2278 2276 -2279 0
2278 -2276 2279 0
-2278 2276 2279 0
-2278 -2276 2280 0
2278 -2280 0
2276 -2280 0
-2131 -2277 2281 0
2131 -2281 0
2277 -2281 0
2280 2281 -2282 0
-2280 2282 0
-2281 2282 0
-98 -2207 2283 0
98 -2283 0
2207 -2283 0
-2137 -2283 -2284 0
2137 2283 -2284 0
2137 -2283 2284 0
-2137 2283 2284 0
-2284 -2282 -2285 0
2284 2282 -2285 0
2284 -2282 2285 0
-2284 2282 2285 0
-2284 -2282 2286 0
2284 -2286 0
2282 -2286 0
-2137 -2283 2287 0
2137 -2287 0
2283 -2287 0
2286 2287 -2288 0
-2286 2288 0
-2287 2288 0
-106 -2207 2289 0
106 -2289 0
2207 -2289 0
-2143 -2289 -2290 0
2143 2289 -2290 0
2143 -2289 2290 0
-2143 2289 2290 0
-2290 -2288 -2291 0
2290 2288 -2291 0
2290 -2288 2291 0
-2290 2288 2291 0
-2290 -2288 2292 0
2290 -2292 0
2288 -2292 0
-2143 -2289 2293 0
2143 -2293 0
2289 -2293 0
2292 2293 -2294 0
-2292 2294 0
-2293 2294 0
-114 -2207 2295 0
114 -2295 0
2207 -2295 0
-2149 -2295 -2296 0
2149 2295 -2296 0
2149 -2295 2296 0
-2149 2295 2296 0
-2296 -2294 -2297 0
2296 2294 -2297 0
2296 -2294 2297 0
-2296 2294 2297 0
-2296 -2294 2298 0
2296 -2298 0
2294 -2298 0
-2149 -2295 2299 0
2149 -2299 0
2295 -2299 0
2298 2299 -2300 0
-2298 2300 0
-2299 2300 0
-122 -2207 2301 0
122 -2301 0
2207 -2301 0
-2155 -2301 -2302 0
2155 2301 -2302 0
2155 -2301 2302 0
-2155 2301 2302 0
-2302 -2300 -2303 0
2302 2300 -2303 0
2302 -2300 2303 0
-2302 2300 2303 0
-2302 -2300 2304 0
2302 -2304 0
2300 -2304 0
-2155 -2301 2305 0
2155 -2305 0
2301 -2305 0
2304 2305 -2306 0
-2304 2306 0
-2305 2306 0
-130 -2207 2307 0
130 -2307 0
2207 -2307 0
-2161 -2307 -2308 0
2161 2307 -2308 0
2161 -2307 2308 0
-2161 2307 2308 0
-2308 -2306 -2309 0
2308 2306 -2309 0
2308 -2306 2309 0
-2308 2306 2309 0
-2308 -2306 2310 0
2308 -2310 0
2306 -2310 0
-2161 -2307 2311 0
2161 -2311 0
2307 -2311 0
2310 2311 -2312 0
-2310 2312 0
-2311 2312 0
-138 -2207 2313 0
138 -2313 0
2207 -2313 0
-2167 -2313 -2314 0
2167 2313 -2314 0
2167 -2313 2314 0
-2167 2313 2314 0
-2314 -2312 -2315 0
2314 2312 -2315 0
2314 -2312 2315 0
-2314 2312 2315 0
-2314 -2312 2316 0
2314 -2316 0
2312 -2316 0
-2167 -2313 2317 0
2167 -2317 0
2313 -2317 0
2316 2317 -2318 0
-2316 2318 0
-2317 2318 0
-146 -2207 2319 0
146 -2319 0
2207 -2319 0
-2173 -2319 -2320 0
2173 2319 -2320 0
2173 -2319 2320 0
-2173 2319 2320 0
-2320 -2318 -2321 0
2320 2318 -2321 0
2320 -2318 2321 0
-2320 2318 2321 0
-2320 -2318 2322 0
2320 -2322 0
2318 -2322 0
-2173 -2319 2323 0
2173 -2323 0
2319 -2323 0
2322 2323 -2324 0
-2322 2324 0
-2323 2324 0
-154 -2207 2325 0
154 -2325 0
2207 -2325 0
-2179 -2325 -2326 0
2179 2325 -2326 0
2179 -2325 2326 0
-2179 2325 2326 0
-2326 -2324 -2327 0
2326 2324 -2327 0
2326 -2324 2327 0
-2326 2324 2327 0
-2326 -2324 2328 0
2326 -2328 0
2324 -2328 0
-2179 -2325 2329 0
2179 -2329 0
2325 -2329 0
2328 2329 -2330 0
-2328 2330 0
-2329 2330 0
-162 -2207 2331 0
162 -2331 0
2207 -2331 0
-2185 -2331 -2332 0
2185 2331 -2332 0
2185 -2331 2332 0
-2185 2331 2332 0
-2332 -2330 -2333 0
2332 2330 -2333 0
2332 -2330 2333 0
-2332 2330 2333 0
-2332 -2330 2334 0
2332 -2334 0
2330 -2334 0
-2185 -2331 2335 0
2185 -2335 0
2331 -2335 0
2334 2335 -2336 0
-2334 2336 0
-2335 2336 0
-170 -2207 2337 0
170 -2337 0
2207 -2337 0
-2191 -2337 -2338 0
2191 2337 -2338 0
2191 -2337 2338 0
-2191 2337 2338 0
-2338 -2336 -2339 0
2338 2336 -2339 0
2338 -2336 2339 0
-2338 2336 2339 0
-2338 -2336 2340 0
2338 -2340 0
2336 -2340 0
-2191 -2337 2341 0
2191 -2341 0
2337 -2341 0
2340 2341 -2342 0
-2340 2342 0
-2341 2342 0
-178 -2207 2343 0
178 -2343 0
2207 -2343 0
-2197 -2343 -2344 0
2197 2343 -2344 0
2197 -2343 2344 0
-2197 2343 2344 0
-2344 -2342 -2345 0
2344 2342 -2345 0
2344 -2342 2345 0
-2344 2342 2345 0
-2344 -2342 2346 0
2344 -2346 0
2342 -2346 0
-2197 -2343 2347 0
2197 -2347 0
2343 -2347 0
2346 2347 -2348 0
-2346 2348 0
-2347 2348 0
-186 -2207 2349 0
186 -2349 0
2207 -2349 0
-2203 -2349 -2350 0
2203 2349 -2350 0
2203 -2349 2350 0
-2203 2349 2350 0
-2350 -2348 -2351 0
2350 2348 -2351 0
2350 -2348 2351 0
-2350 2348 2351 0
-2350 -2348 2352 0
2350 -2352 0
2348 -2352 0
-2203 -2349 2353 0
2203 -2353 0
2349 -2353 0
2352 2353 -2354 0
-2352 2354 0
-2353 2354 0
-194 -2207 2355 0
194 -2355 0
2207 -2355 0
-2206 -2355 -2356 0
2206 2355 -2356 0
2206 -2355 2356 0
-2206 2355 2356 0
-2356 -2354 -2357 0
2356 2354 -2357 0
2356 -2354 2357 0
-2356 2354 2357 0
-2356 -2354 2358 0
2356 -2358 0
2354 -2358 0
-2206 -2355 2359 0
2206 -2359 0
2355 -2359 0
2358 2359 -2360 0
-2358 2360 0
-2359 2360 0
-1 -2361 2362 0
1 -2362 0
2361 -2362 0
-2213 -2362 -2363 0
2213 2362 -2363 0
2213 -2362 2363 0
-2213 2362 2363 0
-2213 -2362 2364 0
2213 -2364 0
2362 -2364 0
-4 -2361 2365 0
4 -2365 0
2361 -2365 0
-2219 -2365 -2366 0
2219 2365 -2366 0
2219 -2365 2366 0
-2219 2365 2366 0
-2366 -2364 -2367 0
2366 2364 -2367 0
2366 -2364 2367 0
-2366 2364 2367 0
-2366 -2364 2368 0
2366 -2368 0
2364 -2368 0
-2219 -2365 2369 0
2219 -2369 0
2365 -2369 0
2368 2369 -2370 0
-2368 2370 0
-2369 2370 0
-10 -2361 2371 0
10 -2371 0
2361 -2371 0
-2225 -2371 -2372 0
2225 2371 -2372 0
2225 -2371 2372 0
-2225 2371 2372 0
-2372 -2370 -2373 0
2372 2370 -2373 0
2372 -2370 2373 0
-2372 2370 2373 0
-2372 -2370 2374 0
2372 -2374 0
2370 -2374 0
-2225 -2371 2375 0
2225 -2375 0
2371 -2375 0
2374 2375 -2376 0
-2374 2376 0
-2375 2376 0
-18 -2361 2377 0
18 -2377 0
2361 -2377 0
-2231 -2377 -2378 0
2231 2377 -2378 0
2231 -2377 2378 0
-2231 2377 2378 0
-2378 -2376 -2379 0
2378 2376 -2379 0
2378 -2376 2379 0
-2378 2376 2379 0
-2378 -2376 2380 0
2378 -2380 0
2376 -2380 0
-2231 -2377 2381 0
2231 -2381 0
2377 -2381 0
2380 2381 -2382 0
-2380 2382 0
-2381 2382 0
-26 -2361 2383 0
26 -2383 0
2361 -2383 0
-2237 -2383 -2384 0
2237 2383 -2384 0
2237 -2383 2384 0
-2237 2383 2384 0
-2384 -2382 -2385 0
2384 2382 -2385 0
2384 -2382 2385 0
-2384 2382 2385 0
-2384 -2382 2386 0
2384 -2386 0
2382 -2386 0
-2237 -2383 2387 0
2237 -2387 0
2383 -2387 0
2386 2387 -2388 0
-2386 2388 0
-2387 2388 0
-34 -2361 2389 0
34 -2389 0
2361 -2389 0
-2243 -2389 -2390 0
2243 2389 -2390 0
2243 -2389 2390 0
-2243 2389 2390 0
-2390 -2388 -2391 0
2390 2388 -2391 0
2390 -2388 2391 0
-2390 2388 2391 0
-2390 -2388 2392 0
2390 -2392 0
2388 -2392 0
-2243 -2389 2393 0
2243 -2393 0
2389 -2393 0
2392 2393 -2394 0
-2392 2394 0
-2393 2394 0
-42 -2361 2395 0
42 -2395 0
2361 -2395 0
-2249 -2395 -2396 0
2249 2395 -2396 0
2249 -2395 2396 0
-2249 2395 2396 0
-2396 -2394 -2397 0
2396 2394 -2397 0
2396 -2394 2397 0
-2396 2394 2397 0
-2396 -2394 2398 0
2396 -2398 0
2394 -2398 0
-2249 -2395 2399 0
2249 -2399 0
2395 -2399 0
2398 2399 -2400 0
-2398 2400 0
-2399 2400 0
-50 -2361 2401 0
50 -2401 0
2361 -2401 0
-2255 -2401 -2402 0
2255 2401 -2402 0
2255 -2401 2402 0
-2255 2401 2402 0
-2402 -2400 -2403 0
2402 2400 -2403 0
2402 -2400 2403 0
-2402 2400 2403 0
-2402 -2400 2404 0
2402 -2404 0
2400 -2404 0
-2255 -2401 2405 0
2255 -2405 0
2401 -2405 0
2404 2405 -2406 0
-2404 2406 0
-2405 2406 0
-58 -2361 2407 0
58 -2407 0
2361 -2407 0
-2261 -2407 -2408 0
2261 2407 -2408 0
2261 -2407 2408 0
-2261 2407 2408 0
-2408 -2406 -2409 0
2408 2406 -2409 0
2408 -2406 2409 0
-2408 2406 2409 0
-2408 -2406 2410 0
2408 -2410 0
2406 -2410 0
-2261 -2407 2411 0
2261 -2411 0
2407 -2411 0
2410 2411 -2412 0
-2410 2412 0
-2411 2412 0
-66 -2361 2413 0
66 -2413 0
2361 -2413 0
-2267 -2413 -2414 0
2267 2413 -2414 0
2267 -2413 2414 0
-2267 2413 2414 0
-2414 -2412 -2415 0
2414 2412 -2415 0
2414 -2412 2415 0
-2414 2412 2415 0
-2414 -2412 2416 0
2414 -2416 0
2412 -2416 0
-2267 -2413 2417 0
2267 -2417 0
2413 -2417 0
2416 2417 -2418 0
-2416 2418 0
-2417 2418 0
-74 -2361 2419 0
74 -2419 0
2361 -2419 0
-2273 -2419 -2420 0
2273 2419 -2420 0
2273 -2419 2420 0
-2273 2419 2420 0
-2420 -2418 -2421 0
2420 2418 -2421 0
2420 -2418 2421 0
-2420 2418 2421 0
-2420 -2418 2422 0
2420 -2422 0
2418 -2422 0
-2273 -2419 2423 0
2273 -2423 0
2419 -2423 0
2422 2423 -2424 0
-2422 2424 0
-2423 2424 0
-82 -2361 2425 0
82 -2425 0
2361 -2425 0
-2279 -2425 -2426 0
2279 2425 -2426 0
2279 -2425 2426 0
-2279 2425 2426 0
-2426 -2424 -2427 0
2426 2424 -2427 0
2426 -2424 2427 0
-2426 2424 2427 0
-2426 -2424 2428 0
2426 -2428 0
2424 -2428 0
-2279 -2425 2429 0
2279 -2429 0
2425 -2429 0
2428 2429 -2430 0
-2428 2430 0
-2429 2430 0
-90 -2361 2431 0
90 -2431 0
2361 -2431 0
-2285 -2431 -2432 0
2285 2431 -2432 0
2285 -2431 2432 0
-2285 2431 2432 0
-2432 -2430 -2433 0
2432 2430 -2433 0
2432 -2430 2433 0
-2432 2430 2433 0
-2432 -2430 2434 0
2432 -2434 0
2430 -2434 0
-2285 -2431 2435 0
2285 -2435 0
2431 -2435 0
2434 2435 -2436 0
-2434 2436 0
-2435 2436 0
-98 -2361 2437 0
98 -2437 0
2361 -2437 0
-2291 -2437 -2438 0
2291 2437 -2438 0
2291 -2437 2438 0
-2291 2437 2438 0
-2438 -2436 -2439 0
2438 2436 -2439 0
2438 -2436 2439 0
-2438 2436 2439 0
-2438 -2436 2440 0
2438 -2440 0
2436 -2440 0
-2291 -2437 2441 0
2291 -2441 0
2437 -2441 0
2440 2441 -2442 0
-2440 2442 0
-2441 2442 0
-106 -2361 2443 0
106 -2443 0
2361 -2443 0
-2297 -2443 -2444 0
2297 2443 -2444 0
2297 -2443 2444 0
-2297 2443 2444 0
-2444 -2442 -2445 0
2444 2442 -2445 0
2444 -2442 2445 0
-2444 2442 2445 0
-2444 -2442 2446 0
2444 -2446 0
2442 -2446 0
-2297 -2443 2447 0
2297 -2447 0
2443 -2447 0
2446 2447 -2448 0
-2446 2448 0
-2447 2448 0
-114 -2361 2449 0
114 -2449 0
2361 -2449 0
-2303 -2449 -2450 0
2303 2449 -2450 0
2303 -2449 2450 0
-2303 2449 2450 0
-2450 -2448 -2451 0
2450 2448 -2451 0
2450 -2448 2451 0
-2450 2448 2451 0
-2450 -2448 2452 0
2450 -2452 0
2448 -2452 0
-2303 -2449 2453 0
2303 -2453 0
2449 -2453 0
2452 2453 -2454 0
-2452 2454 0
-2453 2454 0
-122 -2361 2455 0
122 -2455 0
2361 -2455 0
-2309 -2455 -2456 0
2309 2455 -2456 0
2309 -2455 2456 0
-2309 2455 2456 0
-2456 -2454 -2457 0
2456 2454 -2457 0
2456 -2454 2457 0
-2456 2454 2457 0
-2456 -2454 2458 0
2456 -2458 0
2454 -2458 0
-2309 -2455 2459 0
2309 -2459 0
2455 -2459 0
2458 2459 -2460 0
-2458 2460 0
-2459 2460 0
-130 -2361 2461 0
130 -2461 0
2361 -2461 0
-2315 -2461 -2462 0
2315 2461 -2462 0
2315 -2461 2462 0
-2315 2461 2462 0
-2462 -2460 -2463 0
2462 2460 -2463 0
2462 -2460 2463 0
-2462 2460 2463 0
-2462 -2460 2464 0
2462 -2464 0
2460 -2464 0
-2315 -2461 2465 0
2315 -2465 0
2461 -2465 0
2464 2465 -2466 0
-2464 2466 0
-2465 2466 0
-138 -2361 2467 0
138 -2467 0
2361 -2467 0
-2321 -2467 -2468 0
2321 2467 -2468 0
2321 -2467 2468 0
-2321 2467 2468 0
-2468 -2466 -2469 0
2468 2466 -2469 0
2468 -2466 2469 0
-2468 2466 2469 0
-2468 -2466 2470 0
2468 -2470 0
2466 -2470 0
-2321 -2467 2471 0
2321 -2471 0
2467 -2471 0
2470 2471 -2472 0
-2470 2472 0
-2471 2472 0
-146 -2361 2473 0
146 -2473 0
2361 -2473 0
-2327 -2473 -2474 0
2327 2473 -2474 0
2327 -2473 2474 0
-2327 2473 2474 0
-2474 -2472 -2475 0
2474 2472 -2475 0
2474 -2472 2475 0
-2474 2472 2475 0
-2474 -2472 2476 0
2474 -2476 0
2472 -2476 0
-2327 -2473 2477 0
2327 -2477 0
2473 -2477 0
2476 2477 -2478 0
-2476 2478 0
-2477 2478 0
-154 -2361 2479 0
154 -2479 0
2361 -2479 0
-2333 -2479 -2480 0
2333 2479 -2480 0
2333 -2479 2480 0
-2333 2479 2480 0
-2480 -2478 -2481 0
2480 2478 -2481 0
2480 -2478 2481 0
-2480 2478 2481 0
-2480 -2478 2482 0
2480 -2482 0
2478 -2482 0
-2333 -2479 2483 0
2333 -2483 0
2479 -2483 0
2482 2483 -2484 0
-2482 2484 0
-2483 2484 0
-162 -2361 2485 0
162 -2485 0
2361 -2485 0
-2339 -2485 -2486 0
2339 2485 -2486 0
2339 -2485 2486 0
-2339 2485 2486 0
-2486 -2484 -2487 0
2486 2484 -2487 0
2486 -2484 2487 0
-2486 2484 2487 0
-2486 -2484 2488 0
2486 -2488 0
2484 -2488 0
-2339 -2485 2489 0
2339 -2489 0
2485 -2489 0
2488 2489 -2490 0
-2488 2490 0
-2489 2490 0
-170 -2361 2491 0
170 -2491 0
2361 -2491 0
-2345 -2491 -2492 0
2345 2491 -2492 0
2345 -2491 2492 0
-2345 2491 2492 0
-2492 -2490 -2493 0
2492 2490 -2493 0
2492 -2490 2493 0
-2492 2490 2493 0
-2492 -2490 2494 0
2492 -2494 0
2490 -2494 0
-2345 -2491 2495 0
2345 -2495 0
2491 -2495 0
2494 2495 -2496 0
-2494 2496 0
-2495 2496 0
-178 -2361 2497 0
178 -2497 0
2361 -2497 0
-2351 -2497 -2498 0
2351 2497 -2498 0
2351 -2497 2498 0
-2351 2497 2498 0
-2498 -2496 -2499 0
2498 2496 -2499 0
2498 -2496 2499 0
-2498 2496 2499 0
-2498 -2496 2500 0
2498 -2500 0
2496 -2500 0
-2351 -2497 2501 0
2351 -2501 0
2497 -2501 0
2500 2501 -2502 0
-2500 2502 0
-2501 2502 0
-186 -2361 2503 0
186 -2503 0
2361 -2503 0
-2357 -2503 -2504 0
2357 2503 -2504 0
2357 -2503 2504 0
-2357 2503 2504 0
-2504 -2502 -2505 0
2504 2502 -2505 0
2504 -2502 2505 0
-2504 2502 2505 0
-2504 -2502 2506 0
2504 -2506 0
2502 -2506 0
-2357 -2503 2507 0
2357 -2507 0
2503 -2507 0
2506 2507 -2508 0
-2506 2508 0
-2507 2508 0
-194 -2361 2509 0
194 -2509 0
2361 -2509 0
-2360 -2509 -2510 0
2360 2509 -2510 0
2360 -2509 2510 0
-2360 2509 2510 0
-2510 -2508 -2511 0
2510 2508 -2511 0
2510 -2508 2511 0
-2510 2508 2511 0
-2510 -2508 2512 0
2510 -2512 0
2508 -2512 0
-2360 -2509 2513 0
2360 -2513 0
2509 -2513 0
2512 2513 -2514 0
-2512 2514 0
-2513 2514 0
-1 -2515 2516 0
1 -2516 0
2515 -2516 0
-2367 -2516 -2517 0
2367 2516 -2517 0
2367 -2516 2517 0
-2367 2516 2517 0
-2367 -2516 2518 0
2367 -2518 0
2516 -2518 0
-4 -2515 2519 0
4 -2519 0
2515 -2519 0
-2373 -2519 -2520 0
2373 2519 -2520 0
2373 -2519 2520 0
-2373 2519 2520 0
-2520 -2518 -2521 0
2520 2518 -2521 0
2520 -2518 2521 0
-2520 2518 2521 0
-2520 -2518 2522 0
2520 -2522 0
2518 -2522 0
-2373 -2519 2523 0
2373 -2523 0
2519 -2523 0
2522 2523 -2524 0
-2522 2524 0
-2523 2524 0
-10 -2515 2525 0
10 -2525 0
2515 -2525 0
-2379 -2525 -2526 0
2379 2525 -2526 0
2379 -2525 2526 0
-2379 2525 2526 0
-2526 -2524 -2527 0
2526 2524 -2527 0
2526 -2524 2527 0
-2526 2524 2527 0
-2526 -2524 2528 0
2526 -2528 0
2524 -2528 0
-2379 -2525 2529 0
2379 -2529 0
2525 -2529 0
2528 2529 -2530 0
-2528 2530 0
-2529 2530 0
-18 -2515 2531 0
18 -2531 0
2515 -2531 0
-2385 -2531 -2532 0
2385 2531 -2532 0
2385 -2531 2532 0
-2385 2531 2532 0
-2532 -2530 -2533 0
2532 2530 -2533 0
2532 -2530 2533 0
-2532 2530 2533 0
-2532 -2530 2534 0
2532 -2534 0
2530 -2534 0
-2385 -2531 2535 0
2385 -2535 0
2531 -2535 0
2534 2535 -2536 0
-2534 2536 0
-2535 2536 0
-26 -2515 2537 0
26 -2537 0
2515 -2537 0
-2391 -2537 -2538 0
2391 2537 -2538 0
2391 -2537 2538 0
-2391 2537 2538 0
-2538 -2536 -2539 0
2538 2536 -2539 0
2538 -2536 2539 0
-2538 2536 2539 0
-2538 -2536 2540 0
2538 -2540 0
2536 -2540 0
-2391 -2537 2541 0
2391 -2541 0
2537 -2541 0
2540 2541 -2542 0
-2540 2542 0
-2541 2542 0
-34 -2515 2543 0
34 -2543 0
2515 -2543 0
-2397 -2543 -2544 0
2397 2543 -2544 0
2397 -2543 2544 0
-2397 2543 2544 0
-2544 -2542 -2545 0
2544 2542 -2545 0
2544 -2542 2545 0
-2544 2542 2545 0
-2544 -2542 2546 0
2544 -2546 0
2542 -2546 0
-2397 -2543 2547 0
2397 -2547 0
2543 -2547 0
2546 2547 -2548 0
-2546 2548 0
-2547 2548 0
-42 -2515 2549 0
42 -2549 0
2515 -2549 0
-2403 -2549 -2550 0
2403 2549 -2550 0
2403 -2549 2550 0
-2403 2549 2550 0
-2550 -2548 -2551 0
2550 2548 -2551 0
2550 -2548 2551 0
-2550 2548 2551 0
-2550 -2548 2552 0
2550 -2552 0
2548 -2552 0
-2403 -2549 2553 0
2403 -2553 0
2549 -2553 0
2552 2553 -2554 0
-2552 2554 0
-2553 2554 0
-50 -2515 2555 0
50 -2555 0
2515 -2555 0
-2409 -2555 -2556 0
2409 2555 -2556 0
2409 -2555 2556 0
-2409 2555 2556 0
-2556 -2554 -2557 0
2556 2554 -2557 0
2556 -2554 2557 0
-2556 2554 2557 0
-2556 -2554 2558 0
2556 -2558 0
2554 -2558 0
-2409 -2555 2559 0
2409 -2559 0
2555 -2559 0
2558 2559 -2560 0
-2558 2560 0
-2559 2560 0
-58 -2515 2561 0
58 -2561 0
2515 -2561 0
-2415 -2561 -2562 0
2415 2561 -2562 0
2415 -2561 2562 0
-2415 2561 2562 0
-2562 -2560 -2563 0
2562 2560 -2563 0
2562 -2560 2563 0
-2562 2560 2563 0
-2562 -2560 2564 0
2562 -2564 0
2560 -2564 0
-2415 -2561 2565 0
2415 -2565 0
2561 -2565 0
2564 2565 -2566 0
-2564 2566 0
-2565 2566 0
-66 -2515 2567 0
66 -2567 0
2515 -2567 0
-2421 -2567 -2568 0
2421 2567 -2568 0
2421 -2567 2568 0
-2421 2567 2568 0
-2568 -2566 -2569 0
2568 2566 -2569 0
2568 -2566 2569 0
-2568 2566 2569 0
-2568 -2566 2570 0
2568 -2570 0
2566 -2570 0
-2421 -2567 2571 0
2421 -2571 0
2567 -2571 0
2570 2571 -2572 0
-2570 2572 0
-2571 2572 0
-74 -2515 2573 0
74 -2573 0
2515 -2573 0
-2427 -2573 -2574 0
2427 2573 -2574 0
2427 -2573 2574 0
-2427 2573 2574 0
-2574 -2572 -2575 0
2574 2572 -2575 0
2574 -2572 2575 0
-2574 2572 2575 0
-2574 -2572 2576 0
2574 -2576 0
2572 -2576 0
-2427 -2573 2577 0
2427 -2577 0
2573 -2577 0
2576 2577 -2578 0
-2576 2578 0
-2577 2578 0
-82 -2515 2579 0
82 -2579 0
2515 -2579 0
-2433 -2579 -2580 0
2433 2579 -2580 0
2433 -2579 2580 0
-2433 2579 2580 0
-2580 -2578 -2581 0
2580 2578 -2581 0
2580 -2578 2581 0
-2580 2578 2581 0
-2580 -2578 2582 0
2580 -2582 0
2578 -2582 0
-2433 -2579 2583 0
2433 -2583 0
2579 -2583 0
2582 2583 -2584 0
-2582 2584 0
-2583 2584 0
-90 -2515 2585 0
90 -2585 0
2515 -2585 0
-2439 -2585 -2586 0
2439 2585 -2586 0
2439 -2585 2586 0
-2439 2585 2586 0
-2586 -2584 -2587 0
2586 2584 -2587 0
2586 -2584 2587 0
-2586 2584 2587 0
-2586 -2584 2588 0
2586 -2588 0
2584 -2588 0
-2439 -2585 2589 0
2439 -2589 0
2585 -2589 0
2588 2589 -2590 0
-2588 2590 0
-2589 2590 0
-98 -2515 2591 0
98 -2591 0
2515 -2591 0
-2445 -2591 -2592 0
2445 2591 -2592 0
2445 -2591 2592 0
-2445 2591 2592 0
-2592 -2590 -2593 0
2592 2590 -2593 0
2592 -2590 2593 0
-2592 2590 2593 0
-2592 -2590 2594 0
2592 -2594 0
2590 -2594 0
-2445 -2591 2595 0
2445 -2595 0
2591 -2595 0
2594 2595 -2596 0
-2594 2596 0
-2595 2596 0
-106 -2515 2597 0
106 -2597 0
2515 -2597 0
-2451 -2597 -2598 0
2451 2597 -2598 0
2451 -2597 2598 0
-2451 2597 2598 0
-2598 -2596 -2599 0
2598 2596 -2599 0
2598 -2596 2599 0
-2598 2596 2599 0
-2598 -2596 2600 0
2598 -2600 0
2596 -2600 0
-2451 -2597 2601 0
2451 -2601 0
2597 -2601 0
2600 2601 -2602 0
-2600 2602 0
-2601 2602 0
-114 -2515 2603 0
114 -2603 0
2515 -2603 0
-2457 -2603 -2604 0
2457 2603 -2604 0
2457 -2603 2604 0
-2457 2603 2604 0
-2604 -2602 -2605 0
2604 2602 -2605 0
2604 -2602 2605 0
-2604 2602 2605 0
-2604 -2602 2606 0
2604 -2606 0
2602 -2606 0
-2457 -2603 2607 0
2457 -2607 0
2603 -2607 0
2606 2607 -2608 0
-2606 2608 0
-2607 2608 0
-122 -2515 2609 0
122 -2609 0
2515 -2609 0
-2463 -2609 -2610 0
2463 2609 -2610 0
2463 -2609 2610 0
-2463 2609 2610 0
-2610 -2608 -2611 0
2610 2608 -2611 0
2610 -2608 2611 0
-2610 2608 2611 0
-2610 -2608 2612 0
2610 -2612 0
2608 -2612 0
-2463 -2609 2613 0
2463 -2613 0
2609 -2613 0
2612 2613 -2614 0
-2612 2614 0
-2613 2614 0
-130 -2515 2615 0
130 -2615 0
2515 -2615 0
-2469 -2615 -2616 0
2469 2615 -2616 0
2469 -2615 2616 0
-2469 2615 2616 0
-2616 -2614 -2617 0
2616 2614 -2617 0
2616 -2614 2617 0
-2616 2614 2617 0
-2616 -2614 2618 0
2616 -2618 0
2614 -2618 0
-2469 -2615 2619 0
2469 -2619 0
2615 -2619 0
2618 2619 -2620 0
-2618 2620 0
-2619 2620 0
-138 -2515 2621 0
138 -2621 0
2515 -2621 0
-2475 -2621 -2622 0
2475 2621 -2622 0
2475 -2621 2622 0
-2475 2621 2622 0
-2622 -2620 -2623 0
2622 2620 -2623 0
2622 -2620 2623 0
-2622 2620 2623 0
-2622 -2620 2624 0
2622 -2624 0
2620 -2624 0
-2475 -2621 2625 0
2475 -2625 0
2621 -2625 0
2624 2625 -2626 0
-2624 2626 0
-2625 2626 0
-146 -2515 2627 0
146 -2627 0
2515 -2627 0
-2481 -2627 -2628 0
2481 2627 -2628 0
2481 -2627 2628 0
-2481 2627 2628 0
-2628 -2626 -2629 0
2628 2626 -2629 0
2628 -2626 2629 0
-2628 2626 2629 0
-2628 -2626 2630 0
2628 -2630 0
2626 -2630 0
-2481 -2627 2631 0
2481 -2631 0
2627 -2631 0
2630 2631 -2632 0
-2630 2632 0
-2631 2632 0
-154 -2515 2633 0
154 -2633 0
2515 -2633 0
-2487 -2633 -2634 0
2487 2633 -2634 0
2487 -2633 2634 0
-2487 2633 2634 0
-2634 -2632 -2635 0
2634 2632 -2635 0
2634 -2632 2635 0
-2634 2632 2635 0
-2634 -2632 2636 0
2634 -2636 0
2632 -2636 0
-2487 -2633 2637 0
2487 -2637 0
2633 -2637 0
2636 2637 -2638 0
-2636 2638 0
-2637 2638 0
-162 -2515 2639 0
162 -2639 0
2515 -2639 0
-2493 -2639 -2640 0
2493 2639 -2640 0
2493 -2639 2640 0
-2493 2639 2640 0
-2640 -2638 -2641 0
2640 2638 -2641 0
2640 -2638 2641 0
-2640 2638 2641 0
-2640 -2638 2642 0
2640 -2642 0
2638 -2642 0
-2493 -2639 2643 0
2493 -2643 0
2639 -2643 0
2642 2643 -2644 0
-2642 2644 0
-2643 2644 0
-170 -2515 2645 0
170 -2645 0
2515 -2645 0
-2499 -2645 -2646 0
2499 2645 -2646 0
2499 -2645 2646 0
-2499 2645 2646 0
-2646 -2644 -2647 0
2646 2644 -2647 0
2646 -2644 2647 0
-2646 2644 2647 0
-2646 -2644 2648 0
2646 -2648 0
2644 -2648 0
-2499 -2645 2649 0
2499 -2649 0
2645 -2649 0
2648 2649 -2650 0
-2648 2650 0
-2649 2650 0
-178 -2515 2651 0
178 -2651 0
2515 -2651 0
-2505 -2651 -2652 0
2505 2651 -2652 0
2505 -2651 2652 0
-2505 2651 2652 0
-2652 -2650 -2653 0
2652 2650 -2653 0
2652 -2650 2653 0
-2652 2650 2653 0
-2652 -2650 2654 0
2652 -2654 0
2650 -2654 0
-2505 -2651 2655 0
2505 -2655 0
2651 -2655 0
2654 2655 -2656 0
-2654 2656 0
-2655 2656 0
-186 -2515 2657 0
186 -2657 0
2515 -2657 0
-2511 -2657 -2658 0
2511 2657 -2658 0
2511 -2657 2658 0
-2511 2657 2658 0
-2658 -2656 -2659 0
2658 2656 -2659 0
2658 -2656 2659 0
-2658 2656 2659 0
-2658 -2656 2660 0
2658 -2660 0
2656 -2660 0
-2511 -2657 2661 0
2511 -2661 0
2657 -2661 0
2660 2661 -2662 0
-2660 2662 0
-2661 2662 0
-194 -2515 2663 0
194 -2663 0
2515 -2663 0
-2514 -2663 -2664 0
2514 2663 -2664 0
2514 -2663 2664 0
-2514 2663 2664 0
-2664 -2662 -2665 0
2664 2662 -2665 0
2664 -2662 2665 0
-2664 2662 2665 0
-2664 -2662 2666 0
2664 -2666 0
2662 -2666 0
-2514 -2663 2667 0
2514 -2667 0
2663 -2667 0
2666 2667 -2668 0
-2666 2668 0
-2667 2668 0
-1 -2669 2670 0
1 -2670 0
2669 -2670 0
-2521 -2670 -2671 0
2521 2670 -2671 0
2521 -2670 2671 0
-2521 2670 2671 0
-2521 -2670 2672 0
2521 -2672 0
2670 -2672 0
-4 -2669 2673 0
4 -2673 0
2669 -2673 0
-2527 -2673 -2674 0
2527 2673 -2674 0
2527 -2673 2674 0
-2527 2673 2674 0
-2674 -2672 -2675 0
2674 2672 -2675 0
2674 -2672 2675 0
-2674 2672 2675 0
-2674 -2672 2676 0
2674 -2676 0
2672 -2676 0
-2527 -2673 2677 0
2527 -2677 0
2673 -2677 0
2676 2677 -2678 0
-2676 2678 0
-2677 2678 0
-10 -2669 2679 0
10 -2679 0
2669 -2679 0
-2533 -2679 -2680 0
2533 2679 -2680 0
2533 -2679 2680 0
-2533 2679 2680 0
-2680 -2678 -2681 0
2680 2678 -2681 0
2680 -2678 2681 0
-2680 2678 2681 0
-2680 -2678 2682 0
2680 -2682 0
2678 -2682 0
-2533 -2679 2683 0
2533 -2683 0
2679 -2683 0
2682 2683 -2684 0
-2682 2684 0
-2683 2684 0
-18 -2669 2685 0
18 -2685 0
2669 -2685 0
-2539 -2685 -2686 0
2539 2685 -2686 0
2539 -2685 2686 0
-2539 2685 2686 0
-2686 -2684 -2687 0
2686 2684 -2687 0
2686 -2684 2687 0
-2686 2684 2687 0
-2686 -2684 2688 0
2686 -2688 0
2684 -2688 0
-2539 -2685 2689 0
2539 -2689 0
2685 -2689 0
2688 2689 -2690 0
-2688 2690 0
-2689 2690 0
-26 -2669 2691 0
26 -2691 0
2669 -2691 0
-2545 -2691 -2692 0
2545 2691 -2692 0
2545 -2691 2692 0
-2545 2691 2692 0
-2692 -2690 -2693 0
2692 2690 -2693 0
2692 -2690 2693 0
-2692 2690 2693 0
-2692 -2690 2694 0
2692 -2694 0
2690 -2694 0
-2545 -2691 2695 0
2545 -2695 0
2691 -2695 0
2694 2695 -2696 0
-2694 2696 0
-2695 2696 0
-34 -2669 2697 0
34 -2697 0
2669 -2697 0
-2551 -2697 -2698 0
2551 2697 -2698 0
2551 -2697 2698 0
-2551 2697 2698 0
-2698 -2696 -2699 0
2698 2696 -2699 0
2698 -2696 2699 0
-2698 2696 2699 0
-2698 -2696 2700 0
2698 -2700 0
2696 -2700 0
-2551 -2697 2701 0
2551 -2701 0
2697 -2701 0
2700 2701 -2702 0
-2700 2702 0
-2701 2702 0
-42 -2669 2703 0
42 -2703 0
2669 -2703 0
-2557 -2703 -2704 0
2557 2703 -2704 0
2557 -2703 2704 0
-2557 2703 2704 0
-2704 -2702 -2705 0
2704 2702 -2705 0
2704 -2702 2705 0
-2704 2702 2705 0
-2704 -2702 2706 0
2704 -2706 0
2702 -2706 0
-2557 -2703 2707 0
2557 -2707 0
2703 -2707 0
2706 2707 -2708 0
-2706 2708 0
-2707 2708 0
-50 -2669 2709 0
50 -2709 0
2669 -2709 0
-2563 -2709 -2710 0
2563 2709 -2710 0
2563 -2709 2710 0
-2563 2709 2710 0
-2710 -2708 -2711 0
2710 2708 -2711 0
2710 -2708 2711 0
-2710 2708 2711 0
-2710 -2708 2712 0
2710 -2712 0
2708 -2712 0
-2563 -2709 2713 0
2563 -2713 0
2709 -2713 0
2712 2713 -2714 0
-2712 2714 0
-2713 2714 0
-58 -2669 2715 0
58 -2715 0
2669 -2715 0
-2569 -2715 -2716 0
2569 2715 -2716 0
2569 -2715 2716 0
-2569 2715 2716 0
-2716 -2714 -2717 0
2716 2714 -2717 0
2716 -2714 2717 0
-2716 2714 2717 0
-2716 -2714 2718 0
2716 -2718 0
2714 -2718 0
-2569 -2715 2719 0
2569 -2719 0
2715 -2719 0
2718 2719 -2720 0
-2718 2720 0
-2719 2720 0
-66 -2669 2721 0
66 -2721 0
2669 -2721 0
-2575 -2721 -2722 0
2575 2721 -2722 0
2575 -2721 2722 0
-2575 2721 2722 0
-2722 -2720 -2723 0
2722 2720 -2723 0
2722 -2720 2723 0
-2722 2720 2723 0
-2722 -2720 2724 0
2722 -2724 0
2720 -2724 0
-2575 -2721 2725 0
2575 -2725 0
2721 -2725 0
2724 2725 -2726 0
-2724 2726 0
-2725 2726 0
-74 -2669 2727 0
74 -2727 0
2669 -2727 0
-2581 -2727 -2728 0
2581 2727 -2728 0
2581 -2727 2728 0
-2581 2727 2728 0
-2728 -2726 -2729 0
2728 2726 -2729 0
2728 -2726 2729 0
-2728 2726 2729 0
-2728 -2726 2730 0
2728 -2730 0
2726 -2730 0
-2581 -2727 2731 0
2581 -2731 0
2727 -2731 0
2730 2731 -2732 0
-2730 2732 0
-2731 2732 0
-82 -2669 2733 0
82 -2733 0
2669 -2733 0
-2587 -2733 -2734 0
2587 2733 -2734 0
2587 -2733 2734 0
-2587 2733 2734 0
-2734 -2732 -2735 0
2734 2732 -2735 0
2734 -2732 2735 0
-2734 2732 2735 0
-2734 -2732 2736 0
2734 -2736 0
2732 -2736 0
-2587 -2733 2737 0
2587 -2737 0
2733 -2737 0
2736 2737 -2738 0
-2736 2738 0
-2737 2738 0
-90 -2669 2739 0
90 -2739 0
2669 -2739 0
-2593 -2739 -2740 0
2593 2739 -2740 0
2593 -2739 2740 0
-2593 2739 2740 0
-2740 -2738 -2741 0
2740 2738 -2741 0
2740 -2738 2741 0
-2740 2738 2741 0
-2740 -2738 2742 0
2740 -2742 0
2738 -2742 0
-2593 -2739 2743 0
2593 -2743 0
2739 -2743 0
2742 2743 -2744 0
-2742 2744 0
-2743 2744 0
-98 -2669 2745 0
98 -2745 0
2669 -2745 0
-2599 -2745 -2746 0
2599 2745 -2746 0
2599 -2745 2746 0
-2599 2745 2746 0
-2746 -2744 -2747 0
2746 2744 -2747 0
2746 -2744 2747 0
-2746 2744 2747 0
-2746 -2744 2748 0
2746 -2748 0
2744 -2748 0
-2599 -2745 2749 0
2599 -2749 0
2745 -2749 0
2748 2749 -2750 0
-2748 2750 0
-2749 2750 0
-106 -2669 2751 0
106 -2751 0
2669 -2751 0
-2605 -2751 -2752 0
2605 2751 -2752 0
2605 -2751 2752 0
-2605 2751 2752 0
-2752 -2750 -2753 0
2752 2750 -2753 0
2752 -2750 2753 0
-2752 2750 2753 0
-2752 -2750 2754 0
2752 -2754 0
2750 -2754 0
-2605 -2751 2755 0
2605 -2755 0
2751 -2755 0
2754 2755 -2756 0
-2754 2756 0
-2755 2756 0
-114 -2669 2757 0
114 -2757 0
2669 -2757 0
-2611 -2757 -2758 0
2611 2757 -2758 0
2611 -2757 2758 0
-2611 2757 2758 0
-2758 -2756 -2759 0
2758 2756 -2759 0
2758 -2756 2759 0
-2758 2756 2759 0
-2758 -2756 2760 0
2758 -2760 0
2756 -2760 0
-2611 -2757 2761 0
2611 -2761 0
2757 -2761 0
2760 2761 -2762 0
-2760 2762 0
-2761 2762 0
-122 -2669 2763 0
122 -2763 0
2669 -2763 0
-2617 -2763 -2764 0
2617 2763 -2764 0
2617 -2763 2764 0
-2617 2763 2764 0
-2764 -2762 -2765 0
2764 2762 -2765 0
2764 -2762 2765 0
-2764 2762 2765 0
-2764 -2762 2766 0
2764 -2766 0
2762 -2766 0
-2617 -2763 2767 0
2617 -2767 0
2763 -2767 0
2766 2767 -2768 0
-2766 2768 0
-2767 2768 0
-130 -2669 2769 0
130 -2769 0
2669 -2769 0
-2623 -2769 -2770 0
2623 2769 -2770 0
2623 -2769 2770 0
-2623 2769 2770 0
-2770 -2768 -2771 0
2770 2768 -2771 0
2770 -2768 2771 0
-2770 2768 2771 0
-2770 -2768 2772 0
2770 -2772 0
2768 -2772 0
-2623 -2769 2773 0
2623 -2773 0
2769 -2773 0
2772 2773 -2774 0
-2772 2774 0
-2773 2774 0
-138 -2669 2775 0
138 -2775 0
2669 -2775 0
-2629 -2775 -2776 0
2629 2775 -2776 0
2629 -2775 2776 0
-2629 2775 2776 0
-2776 -2774 -2777 0
2776 2774 -2777 0
2776 -2774 2777 0
-2776 2774 2777 0
-2776 -2774 2778 0
2776 -2778 0
2774 -2778 0
-2629 -2775 2779 0
2629 -2779 0
2775 -2779 0
2778 2779 -2780 0
-2778 2780 0
-2779 2780 0
-146 -2669 2781 0
146 -2781 0
2669 -2781 0
-2635 -2781 -2782 0
2635 2781 -2782 0
2635 -2781 2782 0
-2635 2781 2782 0
-2782 -2780 -2783 0
2782 2780 -2783 0
2782 -2780 2783 0
-2782 2780 2783 0
-2782 -2780 2784 0
2782 -2784 0
2780 -2784 0
-2635 -2781 2785 0
2635 -2785 0
2781 -2785 0
2784 2785 -2786 0
-2784 2786 0
-2785 2786 0
-154 -2669 2787 0
154 -2787 0
2669 -2787 0
-2641 -2787 -2788 0
2641 2787 -2788 0
2641 -2787 2788 0
-2641 2787 2788 0
-2788 -2786 -2789 0
2788 2786 -2789 0
2788 -2786 2789 0
-2788 2786 2789 0
-2788 -2786 2790 0
2788 -2790 0
2786 -2790 0
-2641 -2787 2791 0
2641 -2791 0
2787 -2791 0
2790 2791 -2792 0
-2790 2792 0
-2791 2792 0
-162 -2669 2793 0
162 -2793 0
2669 -2793 0
-2647 -2793 -2794 0
2647 2793 -2794 0
2647 -2793 2794 0
-2647 2793 2794 0
-2794 -2792 -2795 0
2794 2792 -2795 0
2794 -2792 2795 0
-2794 2792 2795 0
-2794 -2792 2796 0
2794 -2796 0
2792 -2796 0
-2647 -2793 2797 0
2647 -2797 0
2793 -2797 0
2796 2797 -2798 0
-2796 2798 0
-2797 2798 0
-170 -2669 2799 0
170 -2799 0
2669 -2799 0
-2653 -2799 -2800 0
2653 2799 -2800 0
2653 -2799 2800 0
-2653 2799 2800 0
-2800 -2798 -2801 0
2800 2798 -2801 0
2800 -2798 2801 0
-2800 2798 2801 0
-2800 -2798 2802 0
2800 -2802 0
2798 -2802 0
-2653 -2799 2803 0
2653 -2803 0
2799 -2803 0
2802 2803 -2804 0
-2802 2804 0
-2803 2804 0
-178 -2669 2805 0
178 -2805 0
2669 -2805 0
-2659 -2805 -2806 0
2659 2805 -2806 0
2659 -2805 2806 0
-2659 2805 2806 0
-2806 -2804 -2807 0
2806 2804 -2807 0
2806 -2804 2807 0
-2806 2804 2807 0
-2806 -2804 2808 0
2806 -2808 0
2804 -2808 0
-2659 -2805 2809 0
2659 -2809 0
2805 -2809 0
2808 2809 -2810 0
-2808 2810 0
-2809 2810 0
-186 -2669 2811 0
186 -2811 0
2669 -2811 0
-2665 -2811 -2812 0
2665 2811 -2812 0
2665 -2811 2812 0
-2665 2811 2812 0
-2812 -2810 -2813 0
2812 2810 -2813 0
2812 -2810 2813 0
-2812 2810 2813 0
-2812 -2810 2814 0
2812 -2814 0
2810 -2814 0
-2665 -2811 2815 0
2665 -2815 0
2811 -2815 0
2814 2815 -2816 0
-2814 2816 0
-2815 2816 0
-194 -2669 2817 0
194 -2817 0
2669 -2817 0
-2668 -2817 -2818 0
2668 2817 -2818 0
2668 -2817 2818 0
-2668 2817 2818 0
-2818 -2816 -2819 0
2818 2816 -2819 0
2818 -2816 2819 0
-2818 2816 2819 0
-2818 -2816 2820 0
2818 -2820 0
2816 -2820 0
-2668 -2817 2821 0
2668 -2821 0
2817 -2821 0
2820 2821 -2822 0
-2820 2822 0
-2821 2822 0
-1 -2823 2824 0
1 -2824 0
2823 -2824 0
-2675 -2824 -2825 0
2675 2824 -2825 0
2675 -2824 2825 0
-2675 2824 2825 0
-2675 -2824 2826 0
2675 -2826 0
2824 -2826 0
-4 -2823 2827 0
4 -2827 0
2823 -2827 0
-2681 -2827 -2828 0
2681 2827 -2828 0
2681 -2827 2828 0
-2681 2827 2828 0
-2828 -2826 -2829 0
2828 2826 -2829 0
2828 -2826 2829 0
-2828 2826 2829 0
-2828 -2826 2830 0
2828 -2830 0
2826 -2830 0
-2681 -2827 2831 0
2681 -2831 0
2827 -2831 0
2830 2831 -2832 0
-2830 2832 0
-2831 2832 0
-10 -2823 2833 0
10 -2833 0
2823 -2833 0
-2687 -2833 -2834 0
2687 2833 -2834 0
2687 -2833 2834 0
-2687 2833 2834 0
-2834 -2832 -2835 0
2834 2832 -2835 0
2834 -2832 2835 0
-2834 2832 2835 0
-2834 -2832 2836 0
2834 -2836 0
2832 -2836 0
-2687 -2833 2837 0
2687 -2837 0
2833 -2837 0
2836 2837 -2838 0
-2836 2838 0
-2837 2838 0
-18 -2823 2839 0
18 -2839 0
2823 -2839 0
-2693 -2839 -2840 0
2693 2839 -2840 0
2693 -2839 2840 0
-2693 2839 2840 0
-2840 -2838 -2841 0
2840 2838 -2841 0
2840 -2838 2841 0
-2840 2838 2841 0
-2840 -2838 2842 0
2840 -2842 0
2838 -2842 0
-2693 -2839 2843 0
2693 -2843 0
2839 -2843 0
2842 2843 -2844 0
-2842 2844 0
-2843 2844 0
-26 -2823 2845 0
26 -2845 0
2823 -2845 0
-2699 -2845 -2846 0
2699 2845 -2846 0
2699 -2845 2846 0
-2699 2845 2846 0
-2846 -2844 -2847 0
2846 2844 -2847 0
2846 -2844 2847 0
-2846 2844 2847 0
-2846 -2844 2848 0
2846 -2848 0
2844 -2848 0
-2699 -2845 2849 0
2699 -2849 0
2845 -2849 0
2848 2849 -2850 0
-2848 2850 0
-2849 2850 0
-34 -2823 2851 0
34 -2851 0
2823 -2851 0
-2705 -2851 -2852 0
2705 2851 -2852 0
2705 -2851 2852 0
-2705 2851 2852 0
-2852 -2850 -2853 0
2852 2850 -2853 0
2852 -2850 2853 0
-2852 2850 2853 0
-2852 -2850 2854 0
2852 -2854 0
2850 -2854 0
-2705 -2851 2855 0
2705 -2855 0
2851 -2855 0
2854 2855 -2856 0
-2854 2856 0
-2855 2856 0
-42 -2823 2857 0
42 -2857 0
2823 -2857 0
-2711 -2857 -2858 0
2711 2857 -2858 0
2711 -2857 2858 0
-2711 2857 2858 0
-2858 -2856 -2859 0
2858 2856 -2859 0
2858 -2856 2859 0
-2858 2856 2859 0
-2858 -2856 2860 0
2858 -2860 0
2856 -2860 0
-2711 -2857 2861 0
2711 -2861 0
2857 -2861 0
2860 2861 -2862 0
-2860 2862 0
-2861 2862 0
-50 -2823 2863 0
50 -2863 0
2823 -2863 0
-2717 -2863 -2864 0
2717 2863 -2864 0
2717 -2863 2864 0
-2717 2863 2864 0
-2864 -2862 -2865 0
2864 2862 -2865 0
2864 -2862 2865 0
-2864 2862 2865 0
-2864 -2862 2866 0
2864 -2866 0
2862 -2866 0
-2717 -2863 2867 0
2717 -2867 0
2863 -2867 0
2866 2867 -2868 0
-2866 2868 0
-2867 2868 0
-58 -2823 2869 0
58 -2869 0
2823 -2869 0
-2723 -2869 -2870 0
2723 2869 -2870 0
2723 -2869 2870 0
-2723 2869 2870 0
-2870 -2868 -2871 0
2870 2868 -2871 0
2870 -2868 2871 0
-2870 2868 2871 0
-2870 -2868 2872 0
2870 -2872 0
2868 -2872 0
-2723 -2869 2873 0
2723 -2873 0
2869 -2873 0
2872 2873 -2874 0
-2872 2874 0
-2873 2874 0
-66 -2823 2875 0
66 -2875 0
2823 -2875 0
-2729 -2875 -2876 0
2729 2875 -2876 0
2729 -2875 2876 0
-2729 2875 2876 0
-2876 -2874 -2877 0
2876 2874 -2877 0
2876 -2874 2877 0
-2876 2874 2877 0
-2876 -2874 2878 0
2876 -2878 0
2874 -2878 0
-2729 -2875 2879 0
2729 -2879 0
2875 -2879 0
2878 2879 -2880 0
-2878 2880 0
-2879 2880 0
-74 -2823 2881 0
74 -2881 0
2823 -2881 0
-2735 -2881 -2882 0
2735 2881 -2882 0
2735 -2881 2882 0
-2735 2881 2882 0
-2882 -2880 -2883 0
2882 2880 -2883 0
2882 -2880 2883 0
-2882 2880 2883 0
-2882 -2880 2884 0
2882 -2884 0
2880 -2884 0
-2735 -2881 2885 0
2735 -2885 0
2881 -2885 0
2884 2885 -2886 0
-2884 2886 0
-2885 2886 0
-82 -2823 2887 0
82 -2887 0
2823 -2887 0
-2741 -2887 -2888 0
2741 2887 -2888 0
2741 -2887 2888 0
-2741 2887 2888 0
-2888 -2886 -2889 0
2888 2886 -2889 0
2888 -2886 2889 0
-2888 2886 2889 0
-2888 -2886 2890 0
2888 -2890 0
2886 -2890 0
-2741 -2887 2891 0
2741 -2891 0
2887 -2891 0
2890 2891 -2892 0
-2890 2892 0
-2891 2892 0
-90 -2823 2893 0
90 -2893 0
2823 -2893 0
-2747 -2893 -2894 0
2747 2893 -2894 0
2747 -2893 2894 0
-2747 2893 2894 0
-2894 -2892 -2895 0
2894 2892 -2895 0
2894 -2892 2895 0
-2894 2892 2895 0
-2894 -2892 2896 0
2894 -2896 0
2892 -2896 0
-2747 -2893 2897 0
2747 -2897 0
2893 -2897 0
2896 2897 -2898 0
-2896 2898 0
-2897 2898 0
-98 -2823 2899 0
98 -2899 0
2823 -2899 0
-2753 -2899 -2900 0
2753 2899 -2900 0
2753 -2899 2900 0
-2753 2899 2900 0
-2900 -2898 -2901 0
2900 2898 -2901 0
2900 -2898 2901 0
-2900 2898 2901 0
-2900 -2898 2902 0
2900 -2902 0
2898 -2902 0
-2753 -2899 2903 0
2753 -2903 0
2899 -2903 0
2902 2903 -2904 0
-2902 2904 0
-2903 2904 0
-106 -2823 2905 0
106 -2905 0
2823 -2905 0
-2759 -2905 -2906 0
2759 2905 -2906 0
2759 -2905 2906 0
-2759 2905 2906 0
-2906 -2904 -2907 0
2906 2904 -2907 0
2906 -2904 2907 0
-2906 2904 2907 0
-2906 -2904 2908 0
2906 -2908 0
2904 -2908 0
-2759 -2905 2909 0
2759 -2909 0
2905 -2909 0
2908 2909 -2910 0
-2908 2910 0
-2909 2910 0
-114 -2823 2911 0
114 -2911 0
2823 -2911 0
-2765 -2911 -2912 0
2765 2911 -2912 0
2765 -2911 2912 0
-2765 2911 2912 0
-2912 -2910 -2913 0
2912 2910 -2913 0
2912 -2910 2913 0
-2912 2910 2913 0
-2912 -2910 2914 0
2912 -2914 0
2910 -2914 0
-2765 -2911 2915 0
2765 -2915 0
2911 -2915 0
2914 2915 -2916 0
-2914 2916 0
-2915 2916 0
-122 -2823 2917 0
122 -2917 0
2823 -2917 0
-2771 -2917 -2918 0
2771 2917 -2918 0
2771 -2917 2918 0
-2771 2917 2918 0
-2918 -2916 -2919 0
2918 2916 -2919 0
2918 -2916 2919 0
-2918 2916 2919 0
-2918 -2916 2920 0
2918 -2920 0
2916 -2920 0
-2771 -2917 2921 0
2771 -2921 0
2917 -2921 0
2920 2921 -2922 0
-2920 2922 0
-2921 2922 0
-130 -2823 2923 0
130 -2923 0
2823 -2923 0
-2777 -2923 -2924 0
2777 2923 -2924 0
2777 -2923 2924 0
-2777 2923 2924 0
-2924 -2922 -2925 0
2924 2922 -2925 0
2924 -2922 2925 0
-2924 2922 2925 0
-2924 -2922 2926 0
2924 -2926 0
2922 -2926 0
-2777 -2923 2927 0
2777 -2927 0
2923 -2927 0
2926 2927 -2928 0
-2926 2928 0
-2927 2928 0
-138 -2823 2929 0
138 -2929 0
2823 -2929 0
-2783 -2929 -2930 0
2783 2929 -2930 0
2783 -2929 2930 0
-2783 2929 2930 0
-2930 -2928 -2931 0
2930 2928 -2931 0
2930 -2928 2931 0
-2930 2928 2931 0
-2930 -2928 2932 0
2930 -2932 0
2928 -2932 0
-2783 -2929 2933 0
2783 -2933 0
2929 -2933 0
2932 2933 -2934 0
-2932 2934 0
-2933 2934 0
-146 -2823 2935 0
146 -2935 0
2823 -2935 0
-2789 -2935 -2936 0
2789 2935 -2936 0
2789 -2935 2936 0
-2789 2935 2936 0
-2936 -2934 -2937 0
2936 2934 -2937 0
2936 -2934 2937 0
-2936 2934 2937 0
-2936 -2934 2938 0
2936 -2938 0
2934 -2938 0
-2789 -2935 2939 0
2789 -2939 0
2935 -2939 0
2938 2939 -2940 0
-2938 2940 0
-2939 2940 0
-154 -2823 2941 0
154 -2941 0
2823 -2941 0
-2795 -2941 -2942 0
2795 2941 -2942 0
2795 -2941 2942 0
-2795 2941 2942 0
-2942 -2940 -2943 0
2942 2940 -2943 0
2942 -2940 2943 0
-2942 2940 2943 0
-2942 -2940 2944 0
2942 -2944 0
2940 -2944 0
-2795 -2941 2945 0
2795 -2945 0
2941 -2945 0
2944 2945 -2946 0
-2944 2946 0
-2945 2946 0
-162 -2823 2947 0
162 -2947 0
2823 -2947 0
-2801 -2947 -2948 0
2801 2947 -2948 0
2801 -2947 2948 0
-2801 2947 2948 0
-2948 -2946 -2949 0
2948 2946 -2949 0
2948 -2946 2949 0
-2948 2946 2949 0
-2948 -2946 2950 0
2948 -2950 0
2946 -2950 0
-2801 -2947 2951 0
2801 -2951 0
2947 -2951 0
2950 2951 -2952 0
-2950 2952 0
-2951 2952 0
-170 -2823 2953 0
170 -2953 0
2823 -2953 0
-2807 -2953 -2954 0
2807 2953 -2954 0
2807 -2953 2954 0
-2807 2953 2954 0
-2954 -2952 -2955 0
2954 2952 -2955 0
2954 -2952 2955 0
-2954 2952 2955 0
-2954 -2952 2956 0
2954 -2956 0
2952 -2956 0
-2807 -2953 2957 0
2807 -2957 0
2953 -2957 0
2956 2957 -2958 0
-2956 2958 0
-2957 2958 0
-178 -2823 2959 0
178 -2959 0
2823 -2959 0
-2813 -2959 -2960 0
2813 2959 -2960 0
2813 -2959 2960 0
-2813 2959 2960 0
-2960 -2958 -2961 0
2960 2958 -2961 0
2960 -2958 2961 0
-2960 2958 2961 0
-2960 -2958 2962 0
2960 -2962 0
2958 -2962 0
-2813 -2959 2963 0
2813 -2963 0
2959 -2963 0
2962 2963 -2964 0
-2962 2964 0
-2963 2964 0
-186 -2823 2965 0
186 -2965 0
2823 -2965 0
-2819 -2965 -2966 0
2819 2965 -2966 0
2819 -2965 2966 0
-2819 2965 2966 0
-2966 -2964 -2967 0
2966 2964 -2967 0
2966 -2964 2967 0
-2966 2964 2967 0
-2966 -2964 2968 0
2966 -2968 0
2964 -2968 0
-2819 -2965 2969 0
2819 -2969 0
2965 -2969 0
2968 2969 -2970 0
-2968 2970 0
-2969 2970 0
-194 -2823 2971 0
194 -2971 0
2823 -2971 0
-2822 -2971 -2972 0
2822 2971 -2972 0
2822 -2971 2972 0
-2822 2971 2972 0
-2972 -2970 -2973 0
2972 2970 -2973 0
2972 -2970 2973 0
-2972 2970 2973 0
-2972 -2970 2974 0
2972 -2974 0
2970 -2974 0
-2822 -2971 2975 0
2822 -2975 0
2971 -2975 0
2974 2975 -2976 0
-2974 2976 0
-2975 2976 0
-1 -2977 2978 0
1 -2978 0
2977 -2978 0
-2829 -2978 -2979 0
2829 2978 -2979 0
2829 -2978 2979 0
-2829 2978 2979 0
-2829 -2978 2980 0
2829 -2980 0
2978 -2980 0
-4 -2977 2981 0
4 -2981 0
2977 -2981 0
-2835 -2981 -2982 0
2835 2981 -2982 0
2835 -2981 2982 0
-2835 2981 2982 0
-2982 -2980 -2983 0
2982 2980 -2983 0
2982 -2980 2983 0
-2982 2980 2983 0
-2982 -2980 2984 0
2982 -2984 0
2980 -2984 0
-2835 -2981 2985 0
2835 -2985 0
2981 -2985 0
2984 2985 -2986 0
-2984 2986 0
-2985 2986 0
-10 -2977 2987 0
10 -2987 0
2977 -2987 0
-2841 -2987 -2988 0
2841 2987 -2988 0
2841 -2987 2988 0
-2841 2987 2988 0
-2988 -2986 -2989 0
2988 2986 -2989 0
2988 -2986 2989 0
-2988 2986 2989 0
-2988 -2986 2990 0
2988 -2990 0
2986 -2990 0
-2841 -2987 2991 0
2841 -2991 0
2987 -2991 0
2990 2991 -2992 0
-2990 2992 0
-2991 2992 0
-18 -2977 2993 0
18 -2993 0
2977 -2993 0
-2847 -2993 -2994 0
2847 2993 -2994 0
2847 -2993 2994 0
-2847 2993 2994 0
-2994 -2992 -2995 0
2994 2992 -2995 0
2994 -2992 2995 0
-2994 2992 2995 0
-2994 -2992 2996 0
2994 -2996 0
2992 -2996 0
-2847 -2993 2997 0
2847 -2997 0
2993 -2997 0
2996 2997 -2998 0
-2996 2998 0
-2997 2998 0
-26 -2977 2999 0
26 -2999 0
2977 -2999 0
-2853 -2999 -3000 0
2853 2999 -3000 0
2853 -2999 3000 0
-2853 2999 3000 0
-3000 -2998 -3001 0
3000 2998 -3001 0
3000 -2998 3001 0
-3000 2998 3001 0
-3000 -2998 3002 0
3000 -3002 0
2998 -3002 0
-2853 -2999 3003 0
2853 -3003 0
2999 -3003 0
3002 3003 -3004 0
-3002 3004 0
-3003 3004 0
-34 -2977 3005 0
34 -3005 0
2977 -3005 0
-2859 -3005 -3006 0
2859 3005 -3006 0
2859 -3005 3006 0
-2859 3005 3006 0
-3006 -3004 -3007 0
3006 3004 -3007 0
3006 -3004 3007 0
-3006 3004 3007 0
-3006 -3004 3008 0
3006 -3008 0
3004 -3008 0
-2859 -3005 3009 0
2859 -3009 0
3005 -3009 0
3008 3009 -3010 0
-3008 3010 0
-3009 3010 0
-42 -2977 3011 0
42 -3011 0
2977 -3011 0
-2865 -3011 -3012 0
2865 3011 -3012 0
2865 -3011 3012 0
-2865 3011 3012 0
-3012 -3010 -3013 0
3012 3010 -3013 0
3012 -3010 3013 0
-3012 3010 3013 0
-3012 -3010 3014 0
3012 -3014 0
3010 -3014 0
-2865 -3011 3015 0
2865 -3015 0
3011 -3015 0
3014 3015 -3016 0
-3014 3016 0
-3015 3016 0
-50 -2977 3017 0
50 -3017 0
2977 -3017 0
-2871 -3017 -3018 0
2871 3017 -3018 0
2871 -3017 3018 0
-2871 3017 3018 0
-3018 -3016 -3019 0
3018 3016 -3019 0
3018 -3016 3019 0
-3018 3016 3019 0
-3018 -3016 3020 0
3018 -3020 0
3016 -3020 0
-2871 -3017 3021 0
2871 -3021 0
3017 -3021 0
3020 3021 -3022 0
-3020 3022 0
-3021 3022 0
-58 -2977 3023 0
58 -3023 0
2977 -3023 0
-2877 -3023 -3024 0
2877 3023 -3024 0
2877 -3023 3024 0
-2877 3023 3024 0
-3024 -3022 -3025 0
3024 3022 -3025 0
3024 -3022 3025 0
-3024 3022 3025 0
-3024 -3022 3026 0
3024 -3026 0
3022 -3026 0
-2877 -3023 3027 0
2877 -3027 0
3023 -3027 0
3026 3027 -3028 0
-3026 3028 0
-3027 3028 0
-66 -2977 3029 0
66 -3029 0
2977 -3029 0
-2883 -3029 -3030 0
2883 3029 -3030 0
2883 -3029 3030 0
-2883 3029 3030 0
-3030 -3028 -3031 0
3030 3028 -3031 0
3030 -3028 3031 0
-3030 3028 3031 0
-3030 -3028 3032 0
3030 -3032 0
3028 -3032 0
-2883 -3029 3033 0
2883 -3033 0
3029 -3033 0
3032 3033 -3034 0
-3032 3034 0
-3033 3034 0
-74 -2977 3035 0
74 -3035 0
2977 -3035 0
-2889 -3035 -3036 0
2889 3035 -3036 0
2889 -3035 3036 0
-2889 3035 3036 0
-3036 -3034 -3037 0
3036 3034 -3037 0
3036 -3034 3037 0
-3036 3034 3037 0
-3036 -3034 3038 0
3036 -3038 0
3034 -3038 0
-2889 -3035 3039 0
2889 -3039 0
3035 -3039 0
3038 3039 -3040 0
-3038 3040 0
-3039 3040 0
-82 -2977 3041 0
82 -3041 0
2977 -3041 0
-2895 -3041 -3042 0
2895 3041 -3042 0
2895 -3041 3042 0
-2895 3041 3042 0
-3042 -3040 -3043 0
3042 3040 -3043 0
3042 -3040 3043 0
-3042 3040 3043 0
-3042 -3040 3044 0
3042 -3044 0
3040 -3044 0
-2895 -3041 3045 0
2895 -3045 0
3041 -3045 0
3044 3045 -3046 0
-3044 3046 0
-3045 3046 0
-90 -2977 3047 0
90 -3047 0
2977 -3047 0
-2901 -3047 -3048 0
2901 3047 -3048 0
2901 -3047 3048 0
-2901 3047 3048 0
-3048 -3046 -3049 0
3048 3046 -3049 0
3048 -3046 3049 0
-3048 3046 3049 0
-3048 -3046 3050 0
3048 -3050 0
3046 -3050 0
-2901 -3047 3051 0
2901 -3051 0
3047 -3051 0
3050 3051 -3052 0
-3050 3052 0
-3051 3052 0
-98 -2977 3053 0
98 -3053 0
2977 -3053 0
-2907 -3053 -3054 0
2907 3053 -3054 0
2907 -3053 3054 0
-2907 3053 3054 0
-3054 -3052 -3055 0
3054 3052 -3055 0
3054 -3052 3055 0
-3054 3052 3055 0
-3054 -3052 3056 0
3054 -3056 0
3052 -3056 0
-2907 -3053 3057 0
2907 -3057 0
3053 -3057 0
3056 3057 -3058 0
-3056 3058 0
-3057 3058 0
-106 -2977 3059 0
106 -3059 0
2977 -3059 0
-2913 -3059 -3060 0
2913 3059 -3060 0
2913 -3059 3060 0
-2913 3059 3060 0
-3060 -3058 -3061 0
3060 3058 -3061 0
3060 -3058 3061 0
-3060 3058 3061 0
-3060 -3058 3062 0
3060 -3062 0
3058 -3062 0
-2913 -3059 3063 0
2913 -3063 0
3059 -3063 0
3062 3063 -3064 0
-3062 3064 0
-3063 3064 0
-114 -2977 3065 0
114 -3065 0
2977 -3065 0
-2919 -3065 -3066 0
2919 3065 -3066 0
2919 -3065 3066 0
-2919 3065 3066 0
-3066 -3064 -3067 0
3066 3064 -3067 0
3066 -3064 3067 0
-3066 3064 3067 0
-3066 -3064 3068 0
3066 -3068 0
3064 -3068 0
-2919 -3065 3069 0
2919 -3069 0
3065 -3069 0
3068 3069 -3070 0
-3068 3070 0
-3069 3070 0
-122 -2977 3071 0
122 -3071 0
2977 -3071 0
-2925 -3071 -3072 0
2925 3071 -3072 0
2925 -3071 3072 0
-2925 3071 3072 0
-3072 -3070 -3073 0
3072 3070 -3073 0
3072 -3070 3073 0
-3072 3070 3073 0
-3072 -3070 3074 0
3072 -3074 0
3070 -3074 0
-2925 -3071 3075 0
2925 -3075 0
3071 -3075 0
3074 3075 -3076 0
-3074 3076 0
-3075 3076 0
-130 -2977 3077 0
130 -3077 0
2977 -3077 0
-2931 -3077 -3078 0
2931 3077 -3078 0
2931 -3077 3078 0
-2931 3077 3078 0
-3078 -3076 -3079 0
3078 3076 -3079 0
3078 -3076 3079 0
-3078 3076 3079 0
-3078 -3076 3080 0
3078 -3080 0
3076 -3080 0
-2931 -3077 3081 0
2931 -3081 0
3077 -3081 0
3080 3081 -3082 0
-3080 3082 0
-3081 3082 0
-138 -2977 3083 0
138 -3083 0
2977 -3083 0
-2937 -3083 -3084 0
2937 3083 -3084 0
2937 -3083 3084 0
-2937 3083 3084 0
-3084 -3082 -3085 0
3084 3082 -3085 0
3084 -3082 3085 0
-3084 3082 3085 0
-3084 -3082 3086 0
3084 -3086 0
3082 -3086 0
-2937 -3083 3087 0
2937 -3087 0
3083 -3087 0
3086 3087 -3088 0
-3086 3088 0
-3087 3088 0
-146 -2977 3089 0
146 -3089 0
2977 -3089 0
-2943 -3089 -3090 0
2943 3089 -3090 0
2943 -3089 3090 0
-2943 3089 3090 0
-3090 -3088 -3091 0
3090 3088 -3091 0
3090 -3088 3091 0
-3090 3088 3091 0
-3090 -3088 3092 0
3090 -3092 0
3088 -3092 0
-2943 -3089 3093 0
2943 -3093 0
3089 -3093 0
3092 3093 -3094 0
-3092 3094 0
-3093 3094 0
-154 -2977 3095 0
154 -3095 0
2977 -3095 0
-2949 -3095 -3096 0
2949 3095 -3096 0
2949 -3095 3096 0
-2949 3095 3096 0
-3096 -3094 -3097 0
3096 3094 -3097 0
3096 -3094 3097 0
-3096 3094 3097 0
-3096 -3094 3098 0
3096 -3098 0
3094 -3098 0
-2949 -3095 3099 0
2949 -3099 0
3095 -3099 0
3098 3099 -3100 0
-3098 3100 0
-3099 3100 0
-162 -2977 3101 0
162 -3101 0
2977 -3101 0
-2955 -3101 -3102 0
2955 3101 -3102 0
2955 -3101 3102 0
-2955 3101 3102 0
-3102 -3100 -3103 0
3102 3100 -3103 0
3102 -3100 3103 0
-3102 3100 3103 0
-3102 -3100 3104 0
3102 -3104 0
3100 -3104 0
-2955 -3101 3105 0
2955 -3105 0
3101 -3105 0
3104 3105 -3106 0
-3104 3106 0
-3105 3106 0
-170 -2977 3107 0
170 -3107 0
2977 -3107 0
-2961 -3107 -3108 0
2961 3107 -3108 0
2961 -3107 3108 0
-2961 3107 3108 0
-3108 -3106 -3109 0
3108 3106 -3109 0
3108 -3106 3109 0
-3108 3106 3109 0
-3108 -3106 3110 0
3108 -3110 0
3106 -3110 0
-2961 -3107 3111 0
2961 -3111 0
3107 -3111 0
3110 3111 -3112 0
-3110 3112 0
-3111 3112 0
-178 -2977 3113 0
178 -3113 0
2977 -3113 0
-2967 -3113 -3114 0
2967 3113 -3114 0
2967 -3113 3114 0
-2967 3113 3114 0
-3114 -3112 -3115 0
3114 3112 -3115 0
3114 -3112 3115 0
-3114 3112 3115 0
-3114 -3112 3116 0
3114 -3116 0
3112 -3116 0
-2967 -3113 3117 0
2967 -3117 0
3113 -3117 0
3116 3117 -3118 0
-3116 3118 0
-3117 3118 0
-186 -2977 3119 0
186 -3119 0
2977 -3119 0
-2973 -3119 -3120 0
2973 3119 -3120 0
2973 -3119 3120 0
-2973 3119 3120 0
-3120 -3118 -3121 0
3120 3118 -3121 0
3120 -3118 3121 0
-3120 3118 3121 0
-3120 -3118 3122 0
3120 -3122 0
3118 -3122 0
-2973 -3119 3123 0
2973 -3123 0
3119 -3123 0
3122 3123 -3124 0
-3122 3124 0
-3123 3124 0
-194 -2977 3125 0
194 -3125 0
2977 -3125 0
-2976 -3125 -3126 0
2976 3125 -3126 0
2976 -3125 3126 0
-2976 3125 3126 0
-3126 -3124 -3127 0
3126 3124 -3127 0
3126 -3124 3127 0
-3126 3124 3127 0
-3126 -3124 3128 0
3126 -3128 0
3124 -3128 0
-2976 -3125 3129 0
2976 -3129 0
3125 -3129 0
3128 3129 -3130 0
-3128 3130 0
-3129 3130 0
-1 -3131 3132 0
1 -3132 0
3131 -3132 0
-2983 -3132 -3133 0
2983 3132 -3133 0
2983 -3132 3133 0
-2983 3132 3133 0
-2983 -3132 3134 0
2983 -3134 0
3132 -3134 0
-4 -3131 3135 0
4 -3135 0
3131 -3135 0
-2989 -3135 -3136 0
2989 3135 -3136 0
2989 -3135 3136 0
-2989 3135 3136 0
-3136 -3134 -3137 0
3136 3134 -3137 0
3136 -3134 3137 0
-3136 3134 3137 0
-3136 -3134 3138 0
3136 -3138 0
3134 -3138 0
-2989 -3135 3139 0
2989 -3139 0
3135 -3139 0
3138 3139 -3140 0
-3138 3140 0
-3139 3140 0
-10 -3131 3141 0
10 -3141 0
3131 -3141 0
-2995 -3141 -3142 0
2995 3141 -3142 0
2995 -3141 3142 0
-2995 3141 3142 0
-3142 -3140 -3143 0
3142 3140 -3143 0
3142 -3140 3143 0
-3142 3140 3143 0
-3142 -3140 3144 0
3142 -3144 0
3140 -3144 0
-2995 -3141 3145 0
2995 -3145 0
3141 -3145 0
3144 3145 -3146 0
-3144 3146 0
-3145 3146 0
-18 -3131 3147 0
18 -3147 0
3131 -3147 0
-3001 -3147 -3148 0
3001 3147 -3148 0
3001 -3147 3148 0
-3001 3147 3148 0
-3148 -3146 -3149 0
3148 3146 -3149 0
3148 -3146 3149 0
-3148 3146 3149 0
-3148 -3146 3150 0
3148 -3150 0
3146 -3150 0
-3001 -3147 3151 0
3001 -3151 0
3147 -3151 0
3150 3151 -3152 0
-3150 3152 0
-3151 3152 0
-26 -3131 3153 0
26 -3153 0
3131 -3153 0
-3007 -3153 -3154 0
3007 3153 -3154 0
3007 -3153 3154 0
-3007 3153 3154 0
-3154 -3152 -3155 0
3154 3152 -3155 0
3154 -3152 3155 0
-3154 3152 3155 0
-3154 -3152 3156 0
3154 -3156 0
3152 -3156 0
-3007 -3153 3157 0
3007 -3157 0
3153 -3157 0
3156 3157 -3158 0
-3156 3158 0
-3157 3158 0
-34 -3131 3159 0
34 -3159 0
3131 -3159 0
-3013 -3159 -3160 0
3013 3159 -3160 0
3013 -3159 3160 0
-3013 3159 3160 0
-3160 -3158 -3161 0
3160 3158 -3161 0
3160 -3158 3161 0
-3160 3158 3161 0
-3160 -3158 3162 0
3160 -3162 0
3158 -3162 0
-3013 -3159 3163 0
3013 -3163 0
3159 -3163 0
3162 3163 -3164 0
-3162 3164 0
-3163 3164 0
-42 -3131 3165 0
42 -3165 0
3131 -3165 0
-3019 -3165 -3166 0
3019 3165 -3166 0
3019 -3165 3166 0
-3019 3165 3166 0
-3166 -3164 -3167 0
3166 3164 -3167 0
3166 -3164 3167 0
-3166 3164 3167 0
-3166 -3164 3168 0
3166 -3168 0
3164 -3168 0
-3019 -3165 3169 0
3019 -3169 0
3165 -3169 0
3168 3169 -3170 0
-3168 3170 0
-3169 3170 0
-50 -3131 3171 0
50 -3171 0
3131 -3171 0
-3025 -3171 -3172 0
3025 3171 -3172 0
3025 -3171 3172 0
-3025 3171 3172 0
-3172 -3170 -3173 0
3172 3170 -3173 0
3172 -3170 3173 0
-3172 3170 3173 0
-3172 -3170 3174 0
3172 -3174 0
3170 -3174 0
-3025 -3171 3175 0
3025 -3175 0
3171 -3175 0
3174 3175 -3176 0
-3174 3176 0
-3175 3176 0
-58 -3131 3177 0
58 -3177 0
3131 -3177 0
-3031 -3177 -3178 0
3031 3177 -3178 0
3031 -3177 3178 0
-3031 3177 3178 0
-3178 -3176 -3179 0
3178 3176 -3179 0
3178 -3176 3179 0
-3178 3176 3179 0
-3178 -3176 3180 0
3178 -3180 0
3176 -3180 0
-3031 -3177 3181 0
3031 -3181 0
3177 -3181 0
3180 3181 -3182 0
-3180 3182 0
-3181 3182 0
-66 -3131 3183 0
66 -3183 0
3131 -3183 0
-3037 -3183 -3184 0
3037 3183 -3184 0
3037 -3183 3184 0
-3037 3183 3184 0
-3184 -3182 -3185 0
3184 3182 -3185 0
3184 -3182 3185 0
-3184 3182 3185 0
-3184 -3182 3186 0
3184 -3186 0
3182 -3186 0
-3037 -3183 3187 0
3037 -3187 0
3183 -3187 0
3186 3187 -3188 0
-3186 3188 0
-3187 3188 0
-74 -3131 3189 0
74 -3189 0
3131 -3189 0
-3043 -3189 -3190 0
3043 3189 -3190 0
3043 -3189 3190 0
-3043 3189 3190 0
-3190 -3188 -3191 0
3190 3188 -3191 0
3190 -3188 3191 0
-3190 3188 3191 0
-3190 -3188 3192 0
3190 -3192 0
3188 -3192 0
-3043 -3189 3193 0
3043 -3193 0
3189 -3193 0
3192 3193 -3194 0
-3192 3194 0
-3193 3194 0
-82 -3131 3195 0
82 -3195 0
3131 -3195 0
-3049 -3195 -3196 0
3049 3195 -3196 0
3049 -3195 3196 0
-3049 3195 3196 0
-3196 -3194 -3197 0
3196 3194 -3197 0
3196 -3194 3197 0
-3196 3194 3197 0
-3196 -3194 3198 0
3196 -3198 0
3194 -3198 0
-3049 -3195 3199 0
3049 -3199 0
3195 -3199 0
3198 3199 -3200 0
-3198 3200 0
-3199 3200 0
-90 -3131 3201 0
90 -3201 0
3131 -3201 0
-3055 -3201 -3202 0
3055 3201 -3202 0
3055 -3201 3202 0
-3055 3201 3202 0
-3202 -3200 -3203 0
3202 3200 -3203 0
3202 -3200 3203 0
-3202 3200 3203 0
-3202 -3200 3204 0
3202 -3204 0
3200 -3204 0
-3055 -3201 3205 0
3055 -3205 0
3201 -3205 0
3204 3205 -3206 0
-3204 3206 0
-3205 3206 0
-98 -3131 3207 0
98 -3207 0
3131 -3207 0
-3061 -3207 -3208 0
3061 3207 -3208 0
3061 -3207 3208 0
-3061 3207 3208 0
-3208 -3206 -3209 0
3208 3206 -3209 0
3208 -3206 3209 0
-3208 3206 3209 0
-3208 -3206 3210 0
3208 -3210 0
3206 -3210 0
-3061 -3207 3211 0
3061 -3211 0
3207 -3211 0
3210 3211 -3212 0
-3210 3212 0
-3211 3212 0
-106 -3131 3213 0
106 -3213 0
3131 -3213 0
-3067 -3213 -3214 0
3067 3213 -3214 0
3067 -3213 3214 0
-3067 3213 3214 0
-3214 -3212 -3215 0
3214 3212 -3215 0
3214 -3212 3215 0
-3214 3212 3215 0
-3214 -3212 3216 0
3214 -3216 0
3212 -3216 0
-3067 -3213 3217 0
3067 -3217 0
3213 -3217 0
3216 3217 -3218 0
-3216 3218 0
-3217 3218 0
-114 -3131 3219 0
114 -3219 0
3131 -3219 0
-3073 -3219 -3220 0
3073 3219 -3220 0
3073 -3219 3220 0
-3073 3219 3220 0
-3220 -3218 -3221 0
3220 3218 -3221 0
3220 -3218 3221 0
-3220 3218 3221 0
-3220 -3218 3222 0
3220 -3222 0
3218 -3222 0
-3073 -3219 3223 0
3073 -3223 0
3219 -3223 0
3222 3223 -3224 0
-3222 3224 0
-3223 3224 0
-122 -3131 3225 0
122 -3225 0
3131 -3225 0
-3079 -3225 -3226 0
3079 3225 -3226 0
3079 -3225 3226 0
-3079 3225 3226 0
-3226 -3224 -3227 0
3226 3224 -3227 0
3226 -3224 3227 0
-3226 3224 3227 0
-3226 -3224 3228 0
3226 -3228 0
3224 -3228 0
-3079 -3225 3229 0
3079 -3229 0
3225 -3229 0
3228 3229 -3230 0
-3228 3230 0
-3229 3230 0
-130 -3131 3231 0
130 -3231 0
3131 -3231 0
-3085 -3231 -3232 0
3085 3231 -3232 0
3085 -3231 3232 0
-3085 3231 3232 0
-3232 -3230 -3233 0
3232 3230 -3233 0
3232 -3230 3233 0
-3232 3230 3233 0
-3232 -3230 3234 0
3232 -3234 0
3230 -3234 0
-3085 -3231 3235 0
3085 -3235 0
3231 -3235 0
3234 3235 -3236 0
-3234 3236 0
-3235 3236 0
-138 -3131 3237 0
138 -3237 0
3131 -3237 0
-3091 -3237 -3238 0
3091 3237 -3238 0
3091 -3237 3238 0
-3091 3237 3238 0
-3238 -3236 -3239 0
3238 3236 -3239 0
3238 -3236 3239 0
-3238 3236 3239 0
-3238 -3236 3240 0
3238 -3240 0
3236 -3240 0
-3091 -3237 3241 0
3091 -3241 0
3237 -3241 0
3240 3241 -3242 0
-3240 3242 0
-3241 3242 0
-146 -3131 3243 0
146 -3243 0
3131 -3243 0
-3097 -3243 -3244 0
3097 3243 -3244 0
3097 -3243 3244 0
-3097 3243 3244 0
-3244 -3242 -3245 0
3244 3242 -3245 0
3244 -3242 3245 0
-3244 3242 3245 0
-3244 -3242 3246 0
3244 -3246 0
3242 -3246 0
-3097 -3243 3247 0
3097 -3247 0
3243 -3247 0
3246 3247 -3248 0
-3246 3248 0
-3247 3248 0
-154 -3131 3249 0
154 -3249 0
3131 -3249 0
-3103 -3249 -3250 0
3103 3249 -3250 0
3103 -3249 3250 0
-3103 3249 3250 0
-3250 -3248 -3251 0
3250 3248 -3251 0
3250 -3248 3251 0
-3250 3248 3251 0
-3250 -3248 3252 0
3250 -3252 0
3248 -3252 0
-3103 -3249 3253 0
3103 -3253 0
3249 -3253 0
3252 3253 -3254 0
-3252 3254 0
-3253 3254 0
-162 -3131 3255 0
162 -3255 0
3131 -3255 0
-3109 -3255 -3256 0
3109 3255 -3256 0
3109 -3255 3256 0
-3109 3255 3256 0
-3256 -3254 -3257 0
3256 3254 -3257 0
3256 -3254 3257 0
-3256 3254 3257 0
-3256 -3254 3258 0
3256 -3258 0
3254 -3258 0
-3109 -3255 3259 0
3109 -3259 0
3255 -3259 0
3258 3259 -3260 0
-3258 3260 0
-3259 3260 0
-170 -3131 3261 0
170 -3261 0
3131 -3261 0
-3115 -3261 -3262 0
3115 3261 -3262 0
3115 -3261 3262 0
-3115 3261 3262 0
-3262 -3260 -3263 0
3262 3260 -3263 0
3262 -3260 3263 0
-3262 3260 3263 0
-3262 -3260 3264 0
3262 -3264 0
3260 -3264 0
-3115 -3261 3265 0
3115 -3265 0
3261 -3265 0
3264 3265 -3266 0
-3264 3266 0
-3265 3266 0
-178 -3131 3267 0
178 -3267 0
3131 -3267 0
-3121 -3267 -3268 0
3121 3267 -3268 0
3121 -3267 3268 0
-3121 3267 3268 0
-3268 -3266 -3269 0
3268 3266 -3269 0
3268 -3266 3269 0
-3268 3266 3269 0
-3268 -3266 3270 0
3268 -3270 0
3266 -3270 0
-3121 -3267 3271 0
3121 -3271 0
3267 -3271 0
3270 3271 -3272 0
-3270 3272 0
-3271 3272 0
-186 -3131 3273 0
186 -3273 0
3131 -3273 0
-3127 -3273 -3274 0
3127 3273 -3274 0
3127 -3273 3274 0
-3127 3273 3274 0
-3274 -3272 -3275 0
3274 3272 -3275 0
3274 -3272 3275 0
-3274 3272 3275 0
-3274 -3272 3276 0
3274 -3276 0
3272 -3276 0
-3127 -3273 3277 0
3127 -3277 0
3273 -3277 0
3276 3277 -3278 0
-3276 3278 0
-3277 3278 0
-194 -3131 3279 0
194 -3279 0
3131 -3279 0
-3130 -3279 -3280 0
3130 3279 -3280 0
3130 -3279 3280 0
-3130 3279 3280 0
-3280 -3278 -3281 0
3280 3278 -3281 0
3280 -3278 3281 0
-3280 3278 3281 0
-3280 -3278 3282 0
3280 -3282 0
3278 -3282 0
-3130 -3279 3283 0
3130 -3283 0
3279 -3283 0
3282 3283 -3284 0
-3282 3284 0
-3283 3284 0
-1 -3285 3286 0
1 -3286 0
3285 -3286 0
-3137 -3286 -3287 0
3137 3286 -3287 0
3137 -3286 3287 0
-3137 3286 3287 0
-3137 -3286 3288 0
3137 -3288 0
3286 -3288 0
-4 -3285 3289 0
4 -3289 0
3285 -3289 0
-3143 -3289 -3290 0
3143 3289 -3290 0
3143 -3289 3290 0
-3143 3289 3290 0
-3290 -3288 -3291 0
3290 3288 -3291 0
3290 -3288 3291 0
-3290 3288 3291 0
-3290 -3288 3292 0
3290 -3292 0
3288 -3292 0
-3143 -3289 3293 0
3143 -3293 0
3289 -3293 0
3292 3293 -3294 0
-3292 3294 0
-3293 3294 0
-10 -3285 3295 0
10 -3295 0
3285 -3295 0
-3149 -3295 -3296 0
3149 3295 -3296 0
3149 -3295 3296 0
-3149 3295 3296 0
-3296 -3294 -3297 0
3296 3294 -3297 0
3296 -3294 3297 0
-3296 3294 3297 0
-3296 -3294 3298 0
3296 -3298 0
3294 -3298 0
-3149 -3295 3299 0
3149 -3299 0
3295 -3299 0
3298 3299 -3300 0
-3298 3300 0
-3299 3300 0
-18 -3285 3301 0
18 -3301 0
3285 -3301 0
-3155 -3301 -3302 0
3155 3301 -3302 0
3155 -3301 3302 0
-3155 3301 3302 0
-3302 -3300 -3303 0
3302 3300 -3303 0
3302 -3300 3303 0
-3302 3300 3303 0
-3302 -3300 3304 0
3302 -3304 0
3300 -3304 0
-3155 -3301 3305 0
3155 -3305 0
3301 -3305 0
3304 3305 -3306 0
-3304 3306 0
-3305 3306 0
-26 -3285 3307 0
26 -3307 0
3285 -3307 0
-3161 -3307 -3308 0
3161 3307 -3308 0
3161 -3307 3308 0
-3161 3307 3308 0
-3308 -3306 -3309 0
3308 3306 -3309 0
3308 -3306 3309 0
-3308 3306 3309 0
-3308 -3306 3310 0
3308 -3310 0
3306 -3310 0
-3161 -3307 3311 0
3161 -3311 0
3307 -3311 0
3310 3311 -3312 0
-3310 3312 0
-3311 3312 0
-34 -3285 3313 0
34 -3313 0
3285 -3313 0
-3167 -3313 -3314 0
3167 3313 -3314 0
3167 -3313 3314 0
-3167 3313 3314 0
-3314 -3312 -3315 0
3314 3312 -3315 0
3314 -3312 3315 0
-3314 3312 3315 0
-3314 -3312 3316 0
3314 -3316 0
3312 -3316 0
-3167 -3313 3317 0
3167 -3317 0
3313 -3317 0
3316 3317 -3318 0
-3316 3318 0
-3317 3318 0
-42 -3285 3319 0
42 -3319 0
3285 -3319 0
-3173 -3319 -3320 0
3173 3319 -3320 0
3173 -3319 3320 0
-3173 3319 3320 0
-3320 -3318 -3321 0
3320 3318 -3321 0
3320 -3318 3321 0
-3320 3318 3321 0
-3320 -3318 3322 0
3320 -3322 0
3318 -3322 0
-3173 -3319 3323 0
3173 -3323 0
3319 -3323 0
3322 3323 -3324 0
-3322 3324 0
-3323 3324 0
-50 -3285 3325 0
50 -3325 0
3285 -3325 0
-3179 -3325 -3326 0
3179 3325 -3326 0
3179 -3325 3326 0
-3179 3325 3326 0
-3326 -3324 -3327 0
3326 3324 -3327 0
3326 -3324 3327 0
-3326 3324 3327 0
-3326 -3324 3328 0
3326 -3328 0
3324 -3328 0
-3179 -3325 3329 0
3179 -3329 0
3325 -3329 0
3328 3329 -3330 0
-3328 3330 0
-3329 3330 0
-58 -3285 3331 0
58 -3331 0
3285 -3331 0
-3185 -3331 -3332 0
3185 3331 -3332 0
3185 -3331 3332 0
-3185 3331 3332 0
-3332 -3330 -3333 0
3332 3330 -3333 0
3332 -3330 3333 0
-3332 3330 3333 0
-3332 -3330 3334 0
3332 -3334 0
3330 -3334 0
-3185 -3331 3335 0
3185 -3335 0
3331 -3335 0
3334 3335 -3336 0
-3334 3336 0
-3335 3336 0
-66 -3285 3337 0
66 -3337 0
3285 -3337 0
-3191 -3337 -3338 0
3191 3337 -3338 0
3191 -3337 3338 0
-3191 3337 3338 0
-3338 -3336 -3339 0
3338 3336 -3339 0
3338 -3336 3339 0
-3338 3336 3339 0
-3338 -3336 3340 0
3338 -3340 0
3336 -3340 0
-3191 -3337 3341 0
3191 -3341 0
3337 -3341 0
3340 3341 -3342 0
-3340 3342 0
-3341 3342 0
-74 -3285 3343 0
74 -3343 0
3285 -3343 0
-3197 -3343 -3344 0
3197 3343 -3344 0
3197 -3343 3344 0
-3197 3343 3344 0
-3344 -3342 -3345 0
3344 3342 -3345 0
3344 -3342 3345 0
-3344 3342 3345 0
-3344 -3342 3346 0
3344 -3346 0
3342 -3346 0
-3197 -3343 3347 0
3197 -3347 0
3343 -3347 0
3346 3347 -3348 0
-3346 3348 0
-3347 3348 0
-82 -3285 3349 0
82 -3349 0
3285 -3349 0
-3203 -3349 -3350 0
3203 3349 -3350 0
3203 -3349 3350 0
-3203 3349 3350 0
-3350 -3348 -3351 0
3350 3348 -3351 0
3350 -3348 3351 0
-3350 3348 3351 0
-3350 -3348 3352 0
3350 -3352 0
3348 -3352 0
-3203 -3349 3353 0
3203 -3353 0
3349 -3353 0
3352 3353 -3354 0
-3352 3354 0
-3353 3354 0
-90 -3285 3355 0
90 -3355 0
3285 -3355 0
-3209 -3355 -3356 0
3209 3355 -3356 0
3209 -3355 3356 0
-3209 3355 3356 0
-3356 -3354 -3357 0
3356 3354 -3357 0
3356 -3354 3357 0
-3356 3354 3357 0
-3356 -3354 3358 0
3356 -3358 0
3354 -3358 0
-3209 -3355 3359 0
3209 -3359 0
3355 -3359 0
3358 3359 -3360 0
-3358 3360 0
-3359 3360 0
-98 -3285 3361 0
98 -3361 0
3285 -3361 0
-3215 -3361 -3362 0
3215 3361 -3362 0
3215 -3361 3362 0
-3215 3361 3362 0
-3362 -3360 -3363 0
3362 3360 -3363 0
3362 -3360 3363 0
-3362 3360 3363 0
-3362 -3360 3364 0
3362 -3364 0
3360 -3364 0
-3215 -3361 3365 0
3215 -3365 0
3361 -3365 0
3364 3365 -3366 0
-3364 3366 0
-3365 3366 0
-106 -3285 3367 0
106 -3367 0
3285 -3367 0
-3221 -3367 -3368 0
3221 3367 -3368 0
3221 -3367 3368 0
-3221 3367 3368 0
-3368 -3366 -3369 0
3368 3366 -3369 0
3368 -3366 3369 0
-3368 3366 3369 0
-3368 -3366 3370 0
3368 -3370 0
3366 -3370 0
-3221 -3367 3371 0
3221 -3371 0
3367 -3371 0
3370 3371 -3372 0
-3370 3372 0
-3371 3372 0
-114 -3285 3373 0
114 -3373 0
3285 -3373 0
-3227 -3373 -3374 0
3227 3373 -3374 0
3227 -3373 3374 0
-3227 3373 3374 0
-3374 -3372 -3375 0
3374 3372 -3375 0
3374 -3372 3375 0
-3374 3372 3375 0
-3374 -3372 3376 0
3374 -3376 0
3372 -3376 0
-3227 -3373 3377 0
3227 -3377 0
3373 -3377 0
3376 3377 -3378 0
-3376 3378 0
-3377 3378 0
-122 -3285 3379 0
122 -3379 0
3285 -3379 0
-3233 -3379 -3380 0
3233 3379 -3380 0
3233 -3379 3380 0
-3233 3379 3380 0
-3380 -3378 -3381 0
3380 3378 -3381 0
3380 -3378 3381 0
-3380 3378 3381 0
-3380 -3378 3382 0
3380 -3382 0
3378 -3382 0
-3233 -3379 3383 0
3233 -3383 0
3379 -3383 0
3382 3383 -3384 0
-3382 3384 0
-3383 3384 0
-130 -3285 3385 0
130 -3385 0
3285 -3385 0
-3239 -3385 -3386 0
3239 3385 -3386 0
3239 -3385 3386 0
-3239 3385 3386 0
-3386 -3384 -3387 0
3386 3384 -3387 0
3386 -3384 3387 0
-3386 3384 3387 0
-3386 -3384 3388 0
3386 -3388 0
3384 -3388 0
-3239 -3385 3389 0
3239 -3389 0
3385 -3389 0
3388 3389 -3390 0
-3388 3390 0
-3389 3390 0
-138 -3285 3391 0
138 -3391 0
3285 -3391 0
-3245 -3391 -3392 0
3245 3391 -3392 0
3245 -3391 3392 0
-3245 3391 3392 0
-3392 -3390 -3393 0
3392 3390 -3393 0
3392 -3390 3393 0
-3392 3390 3393 0
-3392 -3390 3394 0
3392 -3394 0
3390 -3394 0
-3245 -3391 3395 0
3245 -3395 0
3391 -3395 0
3394 3395 -3396 0
-3394 3396 0
-3395 3396 0
-146 -3285 3397 0
146 -3397 0
3285 -3397 0
-3251 -3397 -3398 0
3251 3397 -3398 0
3251 -3397 3398 0
-3251 3397 3398 0
-3398 -3396 -3399 0
3398 3396 -3399 0
3398 -3396 3399 0
-3398 3396 3399 0
-3398 -3396 3400 0
3398 -3400 0
3396 -3400 0
-3251 -3397 3401 0
3251 -3401 0
3397 -3401 0
3400 3401 -3402 0
-3400 3402 0
-3401 3402 0
-154 -3285 3403 0
154 -3403 0
3285 -3403 0
-3257 -3403 -3404 0
3257 3403 -3404 0
3257 -3403 3404 0
-3257 3403 3404 0
-3404 -3402 -3405 0
3404 3402 -3405 0
3404 -3402 3405 0
-3404 3402 3405 0
-3404 -3402 3406 0
3404 -3406 0
3402 -3406 0
-3257 -3403 3407 0
3257 -3407 0
3403 -3407 0
3406 3407 -3408 0
-3406 3408 0
-3407 3408 0
-162 -3285 3409 0
162 -3409 0
3285 -3409 0
-3263 -3409 -3410 0
3263 3409 -3410 0
3263 -3409 3410 0
-3263 3409 3410 0
-3410 -3408 -3411 0
3410 3408 -3411 0
3410 -3408 3411 0
-3410 3408 3411 0
-3410 -3408 3412 0
3410 -3412 0
3408 -3412 0
-3263 -3409 3413 0
3263 -3413 0
3409 -3413 0
3412 3413 -3414 0
-3412 3414 0
-3413 3414 0
-170 -3285 3415 0
170 -3415 0
3285 -3415 0
-3269 -3415 -3416 0
3269 3415 -3416 0
3269 -3415 3416 0
-3269 3415 3416 0
-3416 -3414 -3417 0
3416 3414 -3417 0
3416 -3414 3417 0
-3416 3414 3417 0
-3416 -3414 3418 0
3416 -3418 0
3414 -3418 0
-3269 -3415 3419 0
3269 -3419 0
3415 -3419 0
3418 3419 -3420 0
-3418 3420 0
-3419 3420 0
-178 -3285 3421 0
178 -3421 0
3285 -3421 0
-3275 -3421 -3422 0
3275 3421 -3422 0
3275 -3421 3422 0
-3275 3421 3422 0
-3422 -3420 -3423 0
3422 3420 -3423 0
3422 -3420 3423 0
-3422 3420 3423 0
-3422 -3420 3424 0
3422 -3424 0
3420 -3424 0
-3275 -3421 3425 0
3275 -3425 0
3421 -3425 0
3424 3425 -3426 0
-3424 3426 0
-3425 3426 0
-186 -3285 3427 0
186 -3427 0
3285 -3427 0
-3281 -3427 -3428 0
3281 3427 -3428 0
3281 -3427 3428 0
-3281 3427 3428 0
-3428 -3426 -3429 0
3428 3426 -3429 0
3428 -3426 3429 0
-3428 3426 3429 0
-3428 -3426 3430 0
3428 -3430 0
3426 -3430 0
-3281 -3427 3431 0
3281 -3431 0
3427 -3431 0
3430 3431 -3432 0
-3430 3432 0
-3431 3432 0
-194 -3285 3433 0
194 -3433 0
3285 -3433 0
-3284 -3433 -3434 0
3284 3433 -3434 0
3284 -3433 3434 0
-3284 3433 3434 0
-3434 -3432 -3435 0
3434 3432 -3435 0
3434 -3432 3435 0
-3434 3432 3435 0
-3434 -3432 3436 0
3434 -3436 0
3432 -3436 0
-3284 -3433 3437 0
3284 -3437 0
3433 -3437 0
3436 3437 -3438 0
-3436 3438 0
-3437 3438 0
-1 -3439 3440 0
1 -3440 0
3439 -3440 0
-3291 -3440 -3441 0
3291 3440 -3441 0
3291 -3440 3441 0
-3291 3440 3441 0
-3291 -3440 3442 0
3291 -3442 0
3440 -3442 0
-4 -3439 3443 0
4 -3443 0
3439 -3443 0
-3297 -3443 -3444 0
3297 3443 -3444 0
3297 -3443 3444 0
-3297 3443 3444 0
-3444 -3442 -3445 0
3444 3442 -3445 0
3444 -3442 3445 0
-3444 3442 3445 0
-3444 -3442 3446 0
3444 -3446 0
3442 -3446 0
-3297 -3443 3447 0
3297 -3447 0
3443 -3447 0
3446 3447 -3448 0
-3446 3448 0
-3447 3448 0
-10 -3439 3449 0
10 -3449 0
3439 -3449 0
-3303 -3449 -3450 0
3303 3449 -3450 0
3303 -3449 3450 0
-3303 3449 3450 0
-3450 -3448 -3451 0
3450 3448 -3451 0
3450 -3448 3451 0
-3450 3448 3451 0
-3450 -3448 3452 0
3450 -3452 0
3448 -3452 0
-3303 -3449 3453 0
3303 -3453 0
3449 -3453 0
3452 3453 -3454 0
-3452 3454 0
-3453 3454 0
-18 -3439 3455 0
18 -3455 0
3439 -3455 0
-3309 -3455 -3456 0
3309 3455 -3456 0
3309 -3455 3456 0
-3309 3455 3456 0
-3456 -3454 -3457 0
3456 3454 -3457 0
3456 -3454 3457 0
-3456 3454 3457 0
-3456 -3454 3458 0
3456 -3458 0
3454 -3458 0
-3309 -3455 3459 0
3309 -3459 0
3455 -3459 0
3458 3459 -3460 0
-3458 3460 0
-3459 3460 0
-26 -3439 3461 0
26 -3461 0
3439 -3461 0
-3315 -3461 -3462 0
3315 3461 -3462 0
3315 -3461 3462 0
-3315 3461 3462 0
-3462 -3460 -3463 0
3462 3460 -3463 0
3462 -3460 3463 0
-3462 3460 3463 0
-3462 -3460 3464 0
3462 -3464 0
3460 -3464 0
-3315 -3461 3465 0
3315 -3465 0
3461 -3465 0
3464 3465 -3466 0
-3464 3466 0
-3465 3466 0
-34 -3439 3467 0
34 -3467 0
3439 -3467 0
-3321 -3467 -3468 0
3321 3467 -3468 0
3321 -3467 3468 0
-3321 3467 3468 0
-3468 -3466 -3469 0
3468 3466 -3469 0
3468 -3466 3469 0
-3468 3466 3469 0
-3468 -3466 3470 0
3468 -3470 0
3466 -3470 0
-3321 -3467 3471 0
3321 -3471 0
3467 -3471 0
3470 3471 -3472 0
-3470 3472 0
-3471 3472 0
-42 -3439 3473 0
42 -3473 0
3439 -3473 0
-3327 -3473 -3474 0
3327 3473 -3474 0
3327 -3473 3474 0
-3327 3473 3474 0
-3474 -3472 -3475 0
3474 3472 -3475 0
3474 -3472 3475 0
-3474 3472 3475 0
-3474 -3472 3476 0
3474 -3476 0
3472 -3476 0
-3327 -3473 3477 0
3327 -3477 0
3473 -3477 0
3476 3477 -3478 0
-3476 3478 0
-3477 3478 0
-50 -3439 3479 0
50 -3479 0
3439 -3479 0
-3333 -3479 -3480 0
3333 3479 -3480 0
3333 -3479 3480 0
-3333 3479 3480 0
-3480 -3478 -3481 0
3480 3478 -3481 0
3480 -3478 3481 0
-3480 3478 3481 0
-3480 -3478 3482 0
3480 -3482 0
3478 -3482 0
-3333 -3479 3483 0
3333 -3483 0
3479 -3483 0
3482 3483 -3484 0
-3482 3484 0
-3483 3484 0
-58 -3439 3485 0
58 -3485 0
3439 -3485 0
-3339 -3485 -3486 0
3339 3485 -3486 0
3339 -3485 3486 0
-3339 3485 3486 0
-3486 -3484 -3487 0
3486 3484 -3487 0
3486 -3484 3487 0
-3486 3484 3487 0
-3486 -3484 3488 0
3486 -3488 0
3484 -3488 0
-3339 -3485 3489 0
3339 -3489 0
3485 -3489 0
3488 3489 -3490 0
-3488 3490 0
-3489 3490 0
-66 -3439 3491 0
66 -3491 0
3439 -3491 0
-3345 -3491 -3492 0
3345 3491 -3492 0
3345 -3491 3492 0
-3345 3491 3492 0
-3492 -3490 -3493 0
3492 3490 -3493 0
3492 -3490 3493 0
-3492 3490 3493 0
-3492 -3490 3494 0
3492 -3494 0
3490 -3494 0
-3345 -3491 3495 0
3345 -3495 0
3491 -3495 0
3494 3495 -3496 0
-3494 3496 0
-3495 3496 0
-74 -3439 3497 0
74 -3497 0
3439 -3497 0
-3351 -3497 -3498 0
3351 3497 -3498 0
3351 -3497 3498 0
-3351 3497 3498 0
-3498 -3496 -3499 0
3498 3496 -3499 0
3498 -3496 3499 0
-3498 3496 3499 0
-3498 -3496 3500 0
3498 -3500 0
3496 -3500 0
-3351 -3497 3501 0
3351 -3501 0
3497 -3501 0
3500 3501 -3502 0
-3500 3502 0
-3501 3502 0
-82 -3439 3503 0
82 -3503 0
3439 -3503 0
-3357 -3503 -3504 0
3357 3503 -3504 0
3357 -3503 3504 0
-3357 3503 3504 0
-3504 -3502 -3505 0
3504 3502 -3505 0
3504 -3502 3505 0
-3504 3502 3505 0
-3504 -3502 3506 0
3504 -3506 0
3502 -3506 0
-3357 -3503 3507 0
3357 -3507 0
3503 -3507 0
3506 3507 -3508 0
-3506 3508 0
-3507 3508 0
-90 -3439 3509 0
90 -3509 0
3439 -3509 0
-3363 -3509 -3510 0
3363 3509 -3510 0
3363 -3509 3510 0
-3363 3509 3510 0
-3510 -3508 -3511 0
3510 3508 -3511 0
3510 -3508 3511 0
-3510 3508 3511 0
-3510 -3508 3512 0
3510 -3512 0
3508 -3512 0
-3363 -3509 3513 0
3363 -3513 0
3509 -3513 0
3512 3513 -3514 0
-3512 3514 0
-3513 3514 0
-98 -3439 3515 0
98 -3515 0
3439 -3515 0
-3369 -3515 -3516 0
3369 3515 -3516 0
3369 -3515 3516 0
-3369 3515 3516 0
-3516 -3514 -3517 0
3516 3514 -3517 0
3516 -3514 3517 0
-3516 3514 3517 0
-3516 -3514 3518 0
3516 -3518 0
3514 -3518 0
-3369 -3515 3519 0
3369 -3519 0
3515 -3519 0
3518 3519 -3520 0
-3518 3520 0
-3519 3520 0
-106 -3439 3521 0
106 -3521 0
3439 -3521 0
-3375 -3521 -3522 0
3375 3521 -3522 0
3375 -3521 3522 0
-3375 3521 3522 0
-3522 -3520 -3523 0
3522 3520 -3523 0
3522 -3520 3523 0
-3522 3520 3523 0
-3522 -3520 3524 0
3522 -3524 0
3520 -3524 0
-3375 -3521 3525 0
3375 -3525 0
3521 -3525 0
3524 3525 -3526 0
-3524 3526 0
-3525 3526 0
-114 -3439 3527 0
114 -3527 0
3439 -3527 0
-3381 -3527 -3528 0
3381 3527 -3528 0
3381 -3527 3528 0
-3381 3527 3528 0
-3528 -3526 -3529 0
3528 3526 -3529 0
3528 -3526 3529 0
-3528 3526 3529 0
-3528 -3526 3530 0
3528 -3530 0
3526 -3530 0
-3381 -3527 3531 0
3381 -3531 0
3527 -3531 0
3530 3531 -3532 0
-3530 3532 0
-3531 3532 0
-122 -3439 3533 0
122 -3533 0
3439 -3533 0
-3387 -3533 -3534 0
3387 3533 -3534 0
3387 -3533 3534 0
-3387 3533 3534 0
-3534 -3532 -3535 0
3534 3532 -3535 0
3534 -3532 3535 0
-3534 3532 3535 0
-3534 -3532 3536 0
3534 -3536 0
3532 -3536 0
-3387 -3533 3537 0
3387 -3537 0
3533 -3537 0
3536 3537 -3538 0
-3536 3538 0
-3537 3538 0
-130 -3439 3539 0
130 -3539 0
3439 -3539 0
-3393 -3539 -3540 0
3393 3539 -3540 0
3393 -3539 3540 0
-3393 3539 3540 0
-3540 -3538 -3541 0
3540 3538 -3541 0
3540 -3538 3541 0
-3540 3538 3541 0
-3540 -3538 3542 0
3540 -3542 0
3538 -3542 0
-3393 -3539 3543 0
3393 -3543 0
3539 -3543 0
3542 3543 -3544 0
-3542 3544 0
-3543 3544 0
-138 -3439 3545 0
138 -3545 0
3439 -3545 0
-3399 -3545 -3546 0
3399 3545 -3546 0
3399 -3545 3546 0
-3399 3545 3546 0
-3546 -3544 -3547 0
3546 3544 -3547 0
3546 -3544 3547 0
-3546 3544 3547 0
-3546 -3544 3548 0
3546 -3548 0
3544 -3548 0
-3399 -3545 3549 0
3399 -3549 0
3545 -3549 0
3548 3549 -3550 0
-3548 3550 0
-3549 3550 0
-146 -3439 3551 0
146 -3551 0
3439 -3551 0
-3405 -3551 -3552 0
3405 3551 -3552 0
3405 -3551 3552 0
-3405 3551 3552 0
-3552 -3550 -3553 0
3552 3550 -3553 0
3552 -3550 3553 0
-3552 3550 3553 0
-3552 -3550 3554 0
3552 -3554 0
3550 -3554 0
-3405 -3551 3555 0
3405 -3555 0
3551 -3555 0
3554 3555 -3556 0
-3554 3556 0
-3555 3556 0
-154 -3439 3557 0
154 -3557 0
3439 -3557 0
-3411 -3557 -3558 0
3411 3557 -3558 0
3411 -3557 3558 0
-3411 3557 3558 0
-3558 -3556 -3559 0
3558 3556 -3559 0
3558 -3556 3559 0
-3558 3556 3559 0
-3558 -3556 3560 0
3558 -3560 0
3556 -3560 0
-3411 -3557 3561 0
3411 -3561 0
3557 -3561 0
3560 3561 -3562 0
-3560 3562 0
-3561 3562 0
-162 -3439 3563 0
162 -3563 0
3439 -3563 0
-3417 -3563 -3564 0
3417 3563 -3564 0
3417 -3563 3564 0
-3417 3563 3564 0
-3564 -3562 -3565 0
3564 3562 -3565 0
3564 -3562 3565 0
-3564 3562 3565 0
-3564 -3562 3566 0
3564 -3566 0
3562 -3566 0
-3417 -3563 3567 0
3417 -3567 0
3563 -3567 0
3566 3567 -3568 0
-3566 3568 0
-3567 3568 0
-170 -3439 3569 0
170 -3569 0
3439 -3569 0
-3423 -3569 -3570 0
3423 3569 -3570 0
3423 -3569 3570 0
-3423 3569 3570 0
-3570 -3568 -3571 0
3570 3568 -3571 0
3570 -3568 3571 0
-3570 3568 3571 0
-3570 -3568 3572 0
3570 -3572 0
3568 -3572 0
-3423 -3569 3573 0
3423 -3573 0
3569 -3573 0
3572 3573 -3574 0
-3572 3574 0
-3573 3574 0
-178 -3439 3575 0
178 -3575 0
3439 -3575 0
-3429 -3575 -3576 0
3429 3575 -3576 0
3429 -3575 3576 0
-3429 3575 3576 0
-3576 -3574 -3577 0
3576 3574 -3577 0
3576 -3574 3577 0
-3576 3574 3577 0
-3576 -3574 3578 0
3576 -3578 0
3574 -3578 0
-3429 -3575 3579 0
3429 -3579 0
3575 -3579 0
3578 3579 -3580 0
-3578 3580 0
-3579 3580 0
-186 -3439 3581 0
186 -3581 0
3439 -3581 0
-3435 -3581 -3582 0
3435 3581 -3582 0
3435 -3581 3582 0
-3435 3581 3582 0
-3582 -3580 -3583 0
3582 3580 -3583 0
3582 -3580 3583 0
-3582 3580 3583 0
-3582 -3580 3584 0
3582 -3584 0
3580 -3584 0
-3435 -3581 3585 0
3435 -3585 0
3581 -3585 0
3584 3585 -3586 0
-3584 3586 0
-3585 3586 0
-194 -3439 3587 0
194 -3587 0
3439 -3587 0
-3438 -3587 -3588 0
3438 3587 -3588 0
3438 -3587 3588 0
-3438 3587 3588 0
-3588 -3586 -3589 0
3588 3586 -3589 0
3588 -3586 3589 0
-3588 3586 3589 0
-3588 -3586 3590 0
3588 -3590 0
3586 -3590 0
-3438 -3587 3591 0
3438 -3591 0
3587 -3591 0
3590 3591 -3592 0
-3590 3592 0
-3591 3592 0
-1 -3593 3594 0
1 -3594 0
3593 -3594 0
-3445 -3594 -3595 0
3445 3594 -3595 0
3445 -3594 3595 0
-3445 3594 3595 0
-3445 -3594 3596 0
3445 -3596 0
3594 -3596 0
-4 -3593 3597 0
4 -3597 0
3593 -3597 0
-3451 -3597 -3598 0
3451 3597 -3598 0
3451 -3597 3598 0
-3451 3597 3598 0
-3598 -3596 -3599 0
3598 3596 -3599 0
3598 -3596 3599 0
-3598 3596 3599 0
-3598 -3596 3600 0
3598 -3600 0
3596 -3600 0
-3451 -3597 3601 0
3451 -3601 0
3597 -3601 0
3600 3601 -3602 0
-3600 3602 0
-3601 3602 0
-10 -3593 3603 0
10 -3603 0
3593 -3603 0
-3457 -3603 -3604 0
3457 3603 -3604 0
3457 -3603 3604 0
-3457 3603 3604 0
-3604 -3602 -3605 0
3604 3602 -3605 0
3604 -3602 3605 0
-3604 3602 3605 0
-3604 -3602 3606 0
3604 -3606 0
3602 -3606 0
-3457 -3603 3607 0
3457 -3607 0
3603 -3607 0
3606 3607 -3608 0
-3606 3608 0
-3607 3608 0
-18 -3593 3609 0
18 -3609 0
3593 -3609 0
-3463 -3609 -3610 0
3463 3609 -3610 0
3463 -3609 3610 0
-3463 3609 3610 0
-3610 -3608 -3611 0
3610 3608 -3611 0
3610 -3608 3611 0
-3610 3608 3611 0
-3610 -3608 3612 0
3610 -3612 0
3608 -3612 0
-3463 -3609 3613 0
3463 -3613 0
3609 -3613 0
3612 3613 -3614 0
-3612 3614 0
-3613 3614 0
-26 -3593 3615 0
26 -3615 0
3593 -3615 0
-3469 -3615 -3616 0
3469 3615 -3616 0
3469 -3615 3616 0
-3469 3615 3616 0
-3616 -3614 -3617 0
3616 3614 -3617 0
3616 -3614 3617 0
-3616 3614 3617 0
-3616 -3614 3618 0
3616 -3618 0
3614 -3618 0
-3469 -3615 3619 0
3469 -3619 0
3615 -3619 0
3618 3619 -3620 0
-3618 3620 0
-3619 3620 0
-34 -3593 3621 0
34 -3621 0
3593 -3621 0
-3475 -3621 -3622 0
3475 3621 -3622 0
3475 -3621 3622 0
-3475 3621 3622 0
-3622 -3620 -3623 0
3622 3620 -3623 0
3622 -3620 3623 0
-3622 3620 3623 0
-3622 -3620 3624 0
3622 -3624 0
3620 -3624 0
-3475 -3621 3625 0
3475 -3625 0
3621 -3625 0
3624 3625 -3626 0
-3624 3626 0
-3625 3626 0
-42 -3593 3627 0
42 -3627 0
3593 -3627 0
-3481 -3627 -3628 0
3481 3627 -3628 0
3481 -3627 3628 0
-3481 3627 3628 0
-3628 -3626 -3629 0
3628 3626 -3629 0
3628 -3626 3629 0
-3628 3626 3629 0
-3628 -3626 3630 0
3628 -3630 0
3626 -3630 0
-3481 -3627 3631 0
3481 -3631 0
3627 -3631 0
3630 3631 -3632 0
-3630 3632 0
-3631 3632 0
-50 -3593 3633 0
50 -3633 0
3593 -3633 0
-3487 -3633 -3634 0
3487 3633 -3634 0
3487 -3633 3634 0
-3487 3633 3634 0
-3634 -3632 -3635 0
3634 3632 -3635 0
3634 -3632 3635 0
-3634 3632 3635 0
-3634 -3632 3636 0
3634 -3636 0
3632 -3636 0
-3487 -3633 3637 0
3487 -3637 0
3633 -3637 0
3636 3637 -3638 0
-3636 3638 0
-3637 3638 0
-58 -3593 3639 0
58 -3639 0
3593 -3639 0
-3493 -3639 -3640 0
3493 3639 -3640 0
3493 -3639 3640 0
-3493 3639 3640 0
-3640 -3638 -3641 0
3640 3638 -3641 0
3640 -3638 3641 0
-3640 3638 3641 0
-3640 -3638 3642 0
3640 -3642 0
3638 -3642 0
-3493 -3639 3643 0
3493 -3643 0
3639 -3643 0
3642 3643 -3644 0
-3642 3644 0
-3643 3644 0
-66 -3593 3645 0
66 -3645 0
3593 -3645 0
-3499 -3645 -3646 0
3499 3645 -3646 0
3499 -3645 3646 0
-3499 3645 3646 0
-3646 -3644 -3647 0
3646 3644 -3647 0
3646 -3644 3647 0
-3646 3644 3647 0
-3646 -3644 3648 0
3646 -3648 0
3644 -3648 0
-3499 -3645 3649 0
3499 -3649 0
3645 -3649 0
3648 3649 -3650 0
-3648 3650 0
-3649 3650 0
-74 -3593 3651 0
74 -3651 0
3593 -3651 0
-3505 -3651 -3652 0
3505 3651 -3652 0
3505 -3651 3652 0
-3505 3651 3652 0
-3652 -3650 -3653 0
3652 3650 -3653 0
3652 -3650 3653 0
-3652 3650 3653 0
-3652 -3650 3654 0
3652 -3654 0
3650 -3654 0
-3505 -3651 3655 0
3505 -3655 0
3651 -3655 0
3654 3655 -3656 0
-3654 3656 0
-3655 3656 0
-82 -3593 3657 0
82 -3657 0
3593 -3657 0
-3511 -3657 -3658 0
3511 3657 -3658 0
3511 -3657 3658 0
-3511 3657 3658 0
-3658 -3656 -3659 0
3658 3656 -3659 0
3658 -3656 3659 0
-3658 3656 3659 0
-3658 -3656 3660 0
3658 -3660 0
3656 -3660 0
-3511 -3657 3661 0
3511 -3661 0
3657 -3661 0
3660 3661 -3662 0
-3660 3662 0
-3661 3662 0
-90 -3593 3663 0
90 -3663 0
3593 -3663 0
-3517 -3663 -3664 0
3517 3663 -3664 0
3517 -3663 3664 0
-3517 3663 3664 0
-3664 -3662 -3665 0
3664 3662 -3665 0
3664 -3662 3665 0
-3664 3662 3665 0
-3664 -3662 3666 0
3664 -3666 0
3662 -3666 0
-3517 -3663 3667 0
3517 -3667 0
3663 -3667 0
3666 3667 -3668 0
-3666 3668 0
-3667 3668 0
-98 -3593 3669 0
98 -3669 0
3593 -3669 0
-3523 -3669 -3670 0
3523 3669 -3670 0
3523 -3669 3670 0
-3523 3669 3670 0
-3670 -3668 -3671 0
3670 3668 -3671 0
3670 -3668 3671 0
-3670 3668 3671 0
-3670 -3668 3672 0
3670 -3672 0
3668 -3672 0
-3523 -3669 3673 0
3523 -3673 0
3669 -3673 0
3672 3673 -3674 0
-3672 3674 0
-3673 3674 0
-106 -3593 3675 0
106 -3675 0
3593 -3675 0
-3529 -3675 -3676 0
3529 3675 -3676 0
3529 -3675 3676 0
-3529 3675 3676 0
-3676 -3674 -3677 0
3676 3674 -3677 0
3676 -3674 3677 0
-3676 3674 3677 0
-3676 -3674 3678 0
3676 -3678 0
3674 -3678 0
-3529 -3675 3679 0
3529 -3679 0
3675 -3679 0
3678 3679 -3680 0
-3678 3680 0
-3679 3680 0
-114 -3593 3681 0
114 -3681 0
3593 -3681 0
-3535 -3681 -3682 0
3535 3681 -3682 0
3535 -3681 3682 0
-3535 3681 3682 0
-3682 -3680 -3683 0
3682 3680 -3683 0
3682 -3680 3683 0
-3682 3680 3683 0
-3682 -3680 3684 0
3682 -3684 0
3680 -3684 0
-3535 -3681 3685 0
3535 -3685 0
3681 -3685 0
3684 3685 -3686 0
-3684 3686 0
-3685 3686 0
-122 -3593 3687 0
122 -3687 0
3593 -3687 0
-3541 -3687 -3688 0
3541 3687 -3688 0
3541 -3687 3688 0
-3541 3687 3688 0
-3688 -3686 -3689 0
3688 3686 -3689 0
3688 -3686 3689 0
-3688 3686 3689 0
-3688 -3686 3690 0
3688 -3690 0
3686 -3690 0
-3541 -3687 3691 0
3541 -3691 0
3687 -3691 0
3690 3691 -3692 0
-3690 3692 0
-3691 3692 0
-130 -3593 3693 0
130 -3693 0
3593 -3693 0
-3547 -3693 -3694 0
3547 3693 -3694 0
3547 -3693 3694 0
-3547 3693 3694 0
-3694 -3692 -3695 0
3694 3692 -3695 0
3694 -3692 3695 0
-3694 3692 3695 0
-3694 -3692 3696 0
3694 -3696 0
3692 -3696 0
-3547 -3693 3697 0
3547 -3697 0
3693 -3697 0
3696 3697 -3698 0
-3696 3698 0
-3697 3698 0
-138 -3593 3699 0
138 -3699 0
3593 -3699 0
-3553 -3699 -3700 0
3553 3699 -3700 0
3553 -3699 3700 0
-3553 3699 3700 0
-3700 -3698 -3701 0
3700 3698 -3701 0
3700 -3698 3701 0
-3700 3698 3701 0
-3700 -3698 3702 0
3700 -3702 0
3698 -3702 0
-3553 -3699 3703 0
3553 -3703 0
3699 -3703 0
3702 3703 -3704 0
-3702 3704 0
-3703 3704 0
-146 -3593 3705 0
146 -3705 0
3593 -3705 0
-3559 -3705 -3706 0
3559 3705 -3706 0
3559 -3705 3706 0
-3559 3705 3706 0
-3706 -3704 -3707 0
3706 3704 -3707 0
3706 -3704 3707 0
-3706 3704 3707 0
-3706 -3704 3708 0
3706 -3708 0
3704 -3708 0
-3559 -3705 3709 0
3559 -3709 0
3705 -3709 0
3708 3709 -3710 0
-3708 3710 0
-3709 3710 0
-154 -3593 3711 0
154 -3711 0
3593 -3711 0
-3565 -3711 -3712 0
3565 3711 -3712 0
3565 -3711 3712 0
-3565 3711 3712 0
-3712 -3710 -3713 0
3712 3710 -3713 0
3712 -3710 3713 0
-3712 3710 3713 0
-3712 -3710 3714 0
3712 -3714 0
3710 -3714 0
-3565 -3711 3715 0
3565 -3715 0
3711 -3715 0
3714 3715 -3716 0
-3714 3716 0
-3715 3716 0
-162 -3593 3717 0
162 -3717 0
3593 -3717 0
-3571 -3717 -3718 0
3571 3717 -3718 0
3571 -3717 3718 0
-3571 3717 3718 0
-3718 -3716 -3719 0
3718 3716 -3719 0
3718 -3716 3719 0
-3718 3716 3719 0
-3718 -3716 3720 0
3718 -3720 0
3716 -3720 0
-3571 -3717 3721 0
3571 -3721 0
3717 -3721 0
3720 3721 -3722 0
-3720 3722 0
-3721 3722 0
-170 -3593 3723 0
170 -3723 0
3593 -3723 0
-3577 -3723 -3724 0
3577 3723 -3724 0
3577 -3723 3724 0
-3577 3723 3724 0
-3724 -3722 -3725 0
3724 3722 -3725 0
3724 -3722 3725 0
-3724 3722 3725 0
-3724 -3722 3726 0
3724 -3726 0
3722 -3726 0
-3577 -3723 3727 0
3577 -3727 0
3723 -3727 0
3726 3727 -3728 0
-3726 3728 0
-3727 3728 0
-178 -3593 3729 0
178 -3729 0
3593 -3729 0
-3583 -3729 -3730 0
3583 3729 -3730 0
3583 -3729 3730 0
-3583 3729 3730 0
-3730 -3728 -3731 0
3730 3728 -3731 0
3730 -3728 3731 0
-3730 3728 3731 0
-3730 -3728 3732 0
3730 -3732 0
3728 -3732 0
-3583 -3729 3733 0
3583 -3733 0
3729 -3733 0
3732 3733 -3734 0
-3732 3734 0
-3733 3734 0
-186 -3593 3735 0
186 -3735 0
3593 -3735 0
-3589 -3735 -3736 0
3589 3735 -3736 0
3589 -3735 3736 0
-3589 3735 3736 0
-3736 -3734 -3737 0
3736 3734 -3737 0
3736 -3734 3737 0
-3736 3734 3737 0
-3736 -3734 3738 0
3736 -3738 0
3734 -3738 0
-3589 -3735 3739 0
3589 -3739 0
3735 -3739 0
3738 3739 -3740 0
-3738 3740 0
-3739 3740 0
-194 -3593 3741 0
194 -3741 0
3593 -3741 0
-3592 -3741 -3742 0
3592 3741 -3742 0
3592 -3741 3742 0
-3592 3741 3742 0
-3742 -3740 -3743 0
3742 3740 -3743 0
3742 -3740 3743 0
-3742 3740 3743 0
-3742 -3740 3744 0
3742 -3744 0
3740 -3744 0
-3592 -3741 3745 0
3592 -3745 0
3741 -3745 0
3744 3745 -3746 0
-3744 3746 0
-3745 3746 0
-1 -3747 3748 0
1 -3748 0
3747 -3748 0
-3599 -3748 -3749 0
3599 3748 -3749 0
3599 -3748 3749 0
-3599 3748 3749 0
-3599 -3748 3750 0
3599 -3750 0
3748 -3750 0
-4 -3747 3751 0
4 -3751 0
3747 -3751 0
-3605 -3751 -3752 0
3605 3751 -3752 0
3605 -3751 3752 0
-3605 3751 3752 0
-3752 -3750 -3753 0
3752 3750 -3753 0
3752 -3750 3753 0
-3752 3750 3753 0
-3752 -3750 3754 0
3752 -3754 0
3750 -3754 0
-3605 -3751 3755 0
3605 -3755 0
3751 -3755 0
3754 3755 -3756 0
-3754 3756 0
-3755 3756 0
-10 -3747 3757 0
10 -3757 0
3747 -3757 0
-3611 -3757 -3758 0
3611 3757 -3758 0
3611 -3757 3758 0
-3611 3757 3758 0
-3758 -3756 -3759 0
3758 3756 -3759 0
3758 -3756 3759 0
-3758 3756 3759 0
-3758 -3756 3760 0
3758 -3760 0
3756 -3760 0
-3611 -3757 3761 0
3611 -3761 0
3757 -3761 0
3760 3761 -3762 0
-3760 3762 0
-3761 3762 0
-18 -3747 3763 0
18 -3763 0
3747 -3763 0
-3617 -3763 -3764 0
3617 3763 -3764 0
3617 -3763 3764 0
-3617 3763 3764 0
-3764 -3762 -3765 0
3764 3762 -3765 0
3764 -3762 3765 0
-3764 3762 3765 0
-3764 -3762 3766 0
3764 -3766 0
3762 -3766 0
-3617 -3763 3767 0
3617 -3767 0
3763 -3767 0
3766 3767 -3768 0
-3766 3768 0
-3767 3768 0
-26 -3747 3769 0
26 -3769 0
3747 -3769 0
-3623 -3769 -3770 0
3623 3769 -3770 0
3623 -3769 3770 0
-3623 3769 3770 0
-3770 -3768 -3771 0
3770 3768 -3771 0
3770 -3768 3771 0
-3770 3768 3771 0
-3770 -3768 3772 0
3770 -3772 0
3768 -3772 0
-3623 -3769 3773 0
3623 -3773 0
3769 -3773 0
3772 3773 -3774 0
-3772 3774 0
-3773 3774 0
-34 -3747 3775 0
34 -3775 0
3747 -3775 0
-3629 -3775 -3776 0
3629 3775 -3776 0
3629 -3775 3776 0
-3629 3775 3776 0
-3776 -3774 -3777 0
3776 3774 -3777 0
3776 -3774 3777 0
-3776 3774 3777 0
-3776 -3774 3778 0
3776 -3778 0
3774 -3778 0
-3629 -3775 3779 0
3629 -3779 0
3775 -3779 0
3778 3779 -3780 0
-3778 3780 0
-3779 3780 0
-42 -3747 3781 0
42 -3781 0
3747 -3781 0
-3635 -3781 -3782 0
3635 3781 -3782 0
3635 -3781 3782 0
-3635 3781 3782 0
-3782 -3780 -3783 0
3782 3780 -3783 0
3782 -3780 3783 0
-3782 3780 3783 0
-3782 -3780 3784 0
3782 -3784 0
3780 -3784 0
-3635 -3781 3785 0
3635 -3785 0
3781 -3785 0
3784 3785 -3786 0
-3784 3786 0
-3785 3786 0
-50 -3747 3787 0
50 -3787 0
3747 -3787 0
-3641 -3787 -3788 0
3641 3787 -3788 0
3641 -3787 3788 0
-3641 3787 3788 0
-3788 -3786 -3789 0
3788 3786 -3789 0
3788 -3786 3789 0
-3788 3786 3789 0
-3788 -3786 3790 0
3788 -3790 0
3786 -3790 0
-3641 -3787 3791 0
3641 -3791 0
3787 -3791 0
3790 3791 -3792 0
-3790 3792 0
-3791 3792 0
-58 -3747 3793 0
58 -3793 0
3747 -3793 0
-3647 -3793 -3794 0
3647 3793 -3794 0
3647 -3793 3794 0
-3647 3793 3794 0
-3794 -3792 -3795 0
3794 3792 -3795 0
3794 -3792 3795 0
-3794 3792 3795 0
-3794 -3792 3796 0
3794 -3796 0
3792 -3796 0
-3647 -3793 3797 0
3647 -3797 0
3793 -3797 0
3796 3797 -3798 0
-3796 3798 0
-3797 3798 0
-66 -3747 3799 0
66 -3799 0
3747 -3799 0
-3653 -3799 -3800 0
3653 3799 -3800 0
3653 -3799 3800 0
-3653 3799 3800 0
-3800 -3798 -3801 0
3800 3798 -3801 0
3800 -3798 3801 0
-3800 3798 3801 0
-3800 -3798 3802 0
3800 -3802 0
3798 -3802 0
-3653 -3799 3803 0
3653 -3803 0
3799 -3803 0
3802 3803 -3804 0
-3802 3804 0
-3803 3804 0
-74 -3747 3805 0
74 -3805 0
3747 -3805 0
-3659 -3805 -3806 0
3659 3805 -3806 0
3659 -3805 3806 0
-3659 3805 3806 0
-3806 -3804 -3807 0
3806 3804 -3807 0
3806 -3804 3807 0
-3806 3804 3807 0
-3806 -3804 3808 0
3806 -3808 0
3804 -3808 0
-3659 -3805 3809 0
3659 -3809 0
3805 -3809 0
3808 3809 -3810 0
-3808 3810 0
-3809 3810 0
-82 -3747 3811 0
82 -3811 0
3747 -3811 0
-3665 -3811 -3812 0
3665 3811 -3812 0
3665 -3811 3812 0
-3665 3811 3812 0
-3812 -3810 -3813 0
3812 3810 -3813 0
3812 -3810 3813 0
-3812 3810 3813 0
-3812 -3810 3814 0
3812 -3814 0
3810 -3814 0
-3665 -3811 3815 0
3665 -3815 0
3811 -3815 0
3814 3815 -3816 0
-3814 3816 0
-3815 3816 0
-90 -3747 3817 0
90 -3817 0
3747 -3817 0
-3671 -3817 -3818 0
3671 3817 -3818 0
3671 -3817 3818 0
-3671 3817 3818 0
-3818 -3816 -3819 0
3818 3816 -3819 0
3818 -3816 3819 0
-3818 3816 3819 0
-3818 -3816 3820 0
3818 -3820 0
3816 -3820 0
-3671 -3817 3821 0
3671 -3821 0
3817 -3821 0
3820 3821 -3822 0
-3820 3822 0
-3821 3822 0
-98 -3747 3823 0
98 -3823 0
3747 -3823 0
-3677 -3823 -3824 0
3677 3823 -3824 0
3677 -3823 3824 0
-3677 3823 3824 0
-3824 -3822 -3825 0
3824 3822 -3825 0
3824 -3822 3825 0
-3824 3822 3825 0
-3824 -3822 3826 0
3824 -3826 0
3822 -3826 0
-3677 -3823 3827 0
3677 -3827 0
3823 -3827 0
3826 3827 -3828 0
-3826 3828 0
-3827 3828 0
-106 -3747 3829 0
106 -3829 0
3747 -3829 0
-3683 -3829 -3830 0
3683 3829 -3830 0
3683 -3829 3830 0
-3683 3829 3830 0
-3830 -3828 -3831 0
3830 3828 -3831 0
3830 -3828 3831 0
-3830 3828 3831 0
-3830 -3828 3832 0
3830 -3832 0
3828 -3832 0
-3683 -3829 3833 0
3683 -3833 0
3829 -3833 0
3832 3833 -3834 0
-3832 3834 0
-3833 3834 0
-114 -3747 3835 0
114 -3835 0
3747 -3835 0
-3689 -3835 -3836 0
3689 3835 -3836 0
3689 -3835 3836 0
-3689 3835 3836 0
-3836 -3834 -3837 0
3836 3834 -3837 0
3836 -3834 3837 0
-3836 3834 3837 0
-3836 -3834 3838 0
3836 -3838 0
3834 -3838 0
-3689 -3835 3839 0
3689 -3839 0
3835 -3839 0
3838 3839 -3840 0
-3838 3840 0
-3839 3840 0
-122 -3747 3841 0
122 -3841 0
3747 -3841 0
-3695 -3841 -3842 0
3695 3841 -3842 0
3695 -3841 3842 0
-3695 3841 3842 0
-3842 -3840 -3843 0
3842 3840 -3843 0
3842 -3840 3843 0
-3842 3840 3843 0
-3842 -3840 3844 0
3842 -3844 0
3840 -3844 0
-3695 -3841 3845 0
3695 -3845 0
3841 -3845 0
3844 3845 -3846 0
-3844 3846 0
-3845 3846 0
-130 -3747 3847 0
130 -3847 0
3747 -3847 0
-3701 -3847 -3848 0
3701 3847 -3848 0
3701 -3847 3848 0
-3701 3847 3848 0
-3848 -3846 -3849 0
3848 3846 -3849 0
3848 -3846 3849 0
-3848 3846 3849 0
-3848 -3846 3850 0
3848 -3850 0
3846 -3850 0
-3701 -3847 3851 0
3701 -3851 0
3847 -3851 0
3850 3851 -3852 0
-3850 3852 0
-3851 3852 0
-138 -3747 3853 0
138 -3853 0
3747 -3853 0
-3707 -3853 -3854 0
3707 3853 -3854 0
3707 -3853 3854 0
-3707 3853 3854 0
-3854 -3852 -3855 0
3854 3852 -3855 0
3854 -3852 3855 0
-3854 3852 3855 0
-3854 -3852 3856 0
3854 -3856 0
3852 -3856 0
-3707 -3853 3857 0
3707 -3857 0
3853 -3857 0
3856 3857 -3858 0
-3856 3858 0
-3857 3858 0
-146 -3747 3859 0
146 -3859 0
3747 -3859 0
-3713 -3859 -3860 0
3713 3859 -3860 0
3713 -3859 3860 0
-3713 3859 3860 0
-3860 -3858 -3861 0
3860 3858 -3861 0
3860 -3858 3861 0
-3860 3858 3861 0
-3860 -3858 3862 0
3860 -3862 0
3858 -3862 0
-3713 -3859 3863 0
3713 -3863 0
3859 -3863 0
3862 3863 -3864 0
-3862 3864 0
-3863 3864 0
-154 -3747 3865 0
154 -3865 0
3747 -3865 0
-3719 -3865 -3866 0
3719 3865 -3866 0
3719 -3865 3866 0
-3719 3865 3866 0
-3866 -3864 -3867 0
3866 3864 -3867 0
3866 -3864 3867 0
-3866 3864 3867 0
-3866 -3864 3868 0
3866 -3868 0
3864 -3868 0
-3719 -3865 3869 0
3719 -3869 0
3865 -3869 0
3868 3869 -3870 0
-3868 3870 0
-3869 3870 0
-162 -3747 3871 0
162 -3871 0
3747 -3871 0
-3725 -3871 -3872 0
3725 3871 -3872 0
3725 -3871 3872 0
-3725 3871 3872 0
-3872 -3870 -3873 0
3872 3870 -3873 0
3872 -3870 3873 0
-3872 3870 3873 0
-3872 -3870 3874 0
3872 -3874 0
3870 -3874 0
-3725 -3871 3875 0
3725 -3875 0
3871 -3875 0
3874 3875 -3876 0
-3874 3876 0
-3875 3876 0
-170 -3747 3877 0
170 -3877 0
3747 -3877 0
-3731 -3877 -3878 0
3731 3877 -3878 0
3731 -3877 3878 0
-3731 3877 3878 0
-3878 -3876 -3879 0
3878 3876 -3879 0
3878 -3876 3879 0
-3878 3876 3879 0
-3878 -3876 3880 0
3878 -3880 0
3876 -3880 0
-3731 -3877 3881 0
3731 -3881 0
3877 -3881 0
3880 3881 -3882 0
-3880 3882 0
-3881 3882 0
-178 -3747 3883 0
178 -3883 0
3747 -3883 0
-3737 -3883 -3884 0
3737 3883 -3884 0
3737 -3883 3884 0
-3737 3883 3884 0
-3884 -3882 -3885 0
3884 3882 -3885 0
3884 -3882 3885 0
-3884 3882 3885 0
-3884 -3882 3886 0
3884 -3886 0
3882 -3886 0
-3737 -3883 3887 0
3737 -3887 0
3883 -3887 0
3886 3887 -3888 0
-3886 3888 0
-3887 3888 0
-186 -3747 3889 0
186 -3889 0
3747 -3889 0
-3743 -3889 -3890 0
3743 3889 -3890 0
3743 -3889 3890 0
-3743 3889 3890 0
-3890 -3888 -3891 0
3890 3888 -3891 0
3890 -3888 3891 0
-3890 3888 3891 0
-3890 -3888 3892 0
3890 -3892 0
3888 -3892 0
-3743 -3889 3893 0
3743 -3893 0
3889 -3893 0
3892 3893 -3894 0
-3892 3894 0
-3893 3894 0
-194 -3747 3895 0
194 -3895 0
3747 -3895 0
-3746 -3895 -3896 0
3746 3895 -3896 0
3746 -3895 3896 0
-3746 3895 3896 0
-3896 -3894 -3897 0
3896 3894 -3897 0
3896 -3894 3897 0
-3896 3894 3897 0
-3896 -3894 3898 0
3896 -3898 0
3894 -3898 0
-3746 -3895 3899 0
3746 -3899 0
3895 -3899 0
3898 3899 -3900 0
-3898 3900 0
-3899 3900 0
3 0
-8 0
207 0
361 0
-515 0
669 0
-823 0
-977 0
-1131 0
-1285 0
-1439 0
-1593 0
-1747 0
1901 0
-2055 0
-2209 0
2363 0
-2517 0
-2671 0
-2825 0
-2979 0
-3133 0
-3287 0
-3441 0
3595 0
-3749 0
-3753 0
-3759 0
-3765 0
-3771 0
-3777 0
-3783 0
-3789 0
-3795 0
-3801 0
-3807 0
-3813 0
-3819 0
-3825 0
-3831 0
-3837 0
-3843 0
-3849 0
-3855 0
-3861 0
-3867 0
-3873 0
-3879 0
-3885 0
-3891 0
-3897 0
-3900 0
