p cnf 4872 16095
-1 -2 3 0
1 -3 0
2 -3 0
-4 -2 5 0
4 -5 0
2 -5 0
-1 -6 7 0
1 -7 0
6 -7 0
-5 -7 -8 0
5 7 -8 0
5 -7 8 0
-5 7 8 0
-5 -7 9 0
5 -9 0
7 -9 0
-10 -2 11 0
10 -11 0
2 -11 0
-4 -6 12 0
4 -12 0
6 -12 0
-11 -12 -13 0
11 12 -13 0
11 -12 13 0
-11 12 13 0
-13 -9 -14 0
13 9 -14 0
13 -9 14 0
-13 9 14 0
-13 -9 15 0
13 -15 0
9 -15 0
-11 -12 16 0
11 -16 0
12 -16 0
15 16 -17 0
-15 17 0
-16 17 0
-18 -2 19 0
18 -19 0
2 -19 0
-10 -6 20 0
10 -20 0
6 -20 0
-19 -20 -21 0
19 20 -21 0
19 -20 21 0
-19 20 21 0
-21 -17 -22 0
21 17 -22 0
21 -17 22 0
-21 17 22 0
-21 -17 23 0
21 -23 0
17 -23 0
-19 -20 24 0
19 -24 0
20 -24 0
23 24 -25 0
-23 25 0
-24 25 0
-26 -2 27 0
26 -27 0
2 -27 0
-18 -6 28 0
18 -28 0
6 -28 0
-27 -28 -29 0
27 28 -29 0
27 -28 29 0
-27 28 29 0
-29 -25 -30 0
29 25 -30 0
29 -25 30 0
-29 25 30 0
-29 -25 31 0
29 -31 0
25 -31 0
-27 -28 32 0
27 -32 0
28 -32 0
31 32 -33 0
-31 33 0
-32 33 0
-34 -2 35 0
34 -35 0
2 -35 0
-26 -6 36 0
26 -36 0
6 -36 0
-35 -36 -37 0
35 36 -37 0
35 -36 37 0
-35 36 37 0
-37 -33 -38 0
37 33 -38 0
37 -33 38 0
-37 33 38 0
-37 -33 39 0
37 -39 0
33 -39 0
-35 -36 40 0
35 -40 0
36 -40 0
39 40 -41 0
-39 41 0
-40 41 0
-42 -2 43 0
42 -43 0
2 -43 0
-34 -6 44 0
34 -44 0
6 -44 0
-43 -44 -45 0
43 44 -45 0
43 -44 45 0
-43 44 45 0
-45 -41 -46 0
45 41 -46 0
45 -41 46 0
-45 41 46 0
-45 -41 47 0
45 -47 0
41 -47 0
-43 -44 48 0
43 -48 0
44 -48 0
47 48 -49 0
-47 49 0
-48 49 0
-50 -2 51 0
50 -51 0
2 -51 0
-42 -6 52 0
42 -52 0
6 -52 0
-51 -52 -53 0
51 52 -53 0
51 -52 53 0
-51 52 53 0
-53 -49 -54 0
53 49 -54 0
53 -49 54 0
-53 49 54 0
-53 -49 55 0
53 -55 0
49 -55 0
-51 -52 56 0
51 -56 0
52 -56 0
55 56 -57 0
-55 57 0
-56 57 0
-58 -2 59 0
58 -59 0
2 -59 0
-50 -6 60 0
50 -60 0
6 -60 0
-59 -60 -61 0
59 60 -61 0
59 -60 61 0
-59 60 61 0
-61 -57 -62 0
61 57 -62 0
61 -57 62 0
-61 57 62 0
-61 -57 63 0
61 -63 0
57 -63 0
-59 -60 64 0
59 -64 0
60 -64 0
63 64 -65 0
-63 65 0
-64 65 0
-66 -2 67 0
66 -67 0
2 -67 0
-58 -6 68 0
58 -68 0
6 -68 0
-67 -68 -69 0
67 68 -69 0
67 -68 69 0
-67 68 69 0
-69 -65 -70 0
69 65 -70 0
69 -65 70 0
-69 65 70 0
-69 -65 71 0
69 -71 0
65 -71 0
-67 -68 72 0
67 -72 0
68 -72 0
71 72 -73 0
-71 73 0
-72 73 0
-74 -2 75 0
74 -75 0
2 -75 0
-66 -6 76 0
66 -76 0
6 -76 0
-75 -76 -77 0
75 76 -77 0
75 -76 77 0
-75 76 77 0
-77 -73 -78 0
77 73 -78 0
77 -73 78 0
-77 73 78 0
-77 -73 79 0
77 -79 0
73 -79 0
-75 -76 80 0
75 -80 0
76 -80 0
79 80 -81 0
-79 81 0
-80 81 0
-82 -2 83 0
82 -83 0
2 -83 0
-74 -6 84 0
74 -84 0
6 -84 0
-83 -84 -85 0
83 84 -85 0
83 -84 85 0
-83 84 85 0
-85 -81 -86 0
85 81 -86 0
85 -81 86 0
-85 81 86 0
-85 -81 87 0
85 -87 0
81 -87 0
-83 -84 88 0
83 -88 0
84 -88 0
87 88 -89 0
-87 89 0
-88 89 0
-90 -2 91 0
90 -91 0
2 -91 0
-82 -6 92 0
82 -92 0
6 -92 0
-91 -92 -93 0
91 92 -93 0
91 -92 93 0
-91 92 93 0
-93 -89 -94 0
93 89 -94 0
93 -89 94 0
-93 89 94 0
-93 -89 95 0
93 -95 0
89 -95 0
-91 -92 96 0
91 -96 0
92 -96 0
95 96 -97 0
-95 97 0
-96 97 0
-98 -2 99 0
98 -99 0
2 -99 0
-90 -6 100 0
90 -100 0
6 -100 0
-99 -100 -101 0
99 100 -101 0
99 -100 101 0
-99 100 101 0
-101 -97 -102 0
101 97 -102 0
101 -97 102 0
-101 97 102 0
-101 -97 103 0
101 -103 0
97 -103 0
-99 -100 104 0
99 -104 0
100 -104 0
103 104 -105 0
-103 105 0
-104 105 0
-106 -2 107 0
106 -107 0
2 -107 0
-98 -6 108 0
98 -108 0
6 -108 0
-107 -108 -109 0
107 108 -109 0
107 -108 109 0
-107 108 109 0
-109 -105 -110 0
109 105 -110 0
109 -105 110 0
-109 105 110 0
-109 -105 111 0
109 -111 0
105 -111 0
-107 -108 112 0
107 -112 0
108 -112 0
111 112 -113 0
-111 113 0
-112 113 0
-114 -2 115 0
114 -115 0
2 -115 0
-106 -6 116 0
106 -116 0
6 -116 0
-115 -116 -117 0
115 116 -117 0
115 -116 117 0
-115 116 117 0
-117 -113 -118 0
117 113 -118 0
117 -113 118 0
-117 113 118 0
-117 -113 119 0
117 -119 0
113 -119 0
-115 -116 120 0
115 -120 0
116 -120 0
119 120 -121 0
-119 121 0
-120 121 0
-122 -2 123 0
122 -123 0
2 -123 0
-114 -6 124 0
114 -124 0
6 -124 0
-123 -124 -125 0
123 124 -125 0
123 -124 125 0
-123 124 125 0
-125 -121 -126 0
125 121 -126 0
125 -121 126 0
-125 121 126 0
-125 -121 127 0
125 -127 0
121 -127 0
-123 -124 128 0
123 -128 0
124 -128 0
127 128 -129 0
-127 129 0
-128 129 0
-130 -2 131 0
130 -131 0
2 -131 0
-122 -6 132 0
122 -132 0
6 -132 0
-131 -132 -133 0
131 132 -133 0
131 -132 133 0
-131 132 133 0
-133 -129 -134 0
133 129 -134 0
133 -129 134 0
-133 129 134 0
-133 -129 135 0
133 -135 0
129 -135 0
-131 -132 136 0
131 -136 0
132 -136 0
135 136 -137 0
-135 137 0
-136 137 0
-138 -2 139 0
138 -139 0
2 -139 0
-130 -6 140 0
130 -140 0
6 -140 0
-139 -140 -141 0
139 140 -141 0
139 -140 141 0
-139 140 141 0
-141 -137 -142 0
141 137 -142 0
141 -137 142 0
-141 137 142 0
-141 -137 143 0
141 -143 0
137 -143 0
-139 -140 144 0
139 -144 0
140 -144 0
143 144 -145 0
-143 145 0
-144 145 0
-146 -2 147 0
146 -147 0
2 -147 0
-138 -6 148 0
138 -148 0
6 -148 0
-147 -148 -149 0
147 148 -149 0
147 -148 149 0
-147 148 149 0
-149 -145 -150 0
149 145 -150 0
149 -145 150 0
-149 145 150 0
-149 -145 151 0
149 -151 0
145 -151 0
-147 -148 152 0
147 -152 0
148 -152 0
151 152 -153 0
-151 153 0
-152 153 0
-154 -2 155 0
154 -155 0
2 -155 0
-146 -6 156 0
146 -156 0
6 -156 0
-155 -156 -157 0
155 156 -157 0
155 -156 157 0
-155 156 157 0
-157 -153 -158 0
157 153 -158 0
157 -153 158 0
-157 153 158 0
-157 -153 159 0
157 -159 0
153 -159 0
-155 -156 160 0
155 -160 0
156 -160 0
159 160 -161 0
-159 161 0
-160 161 0
-162 -2 163 0
162 -163 0
2 -163 0
-154 -6 164 0
154 -164 0
6 -164 0
-163 -164 -165 0
163 164 -165 0
163 -164 165 0
-163 164 165 0
-165 -161 -166 0
165 161 -166 0
165 -161 166 0
-165 161 166 0
-165 -161 167 0
165 -167 0
161 -167 0
-163 -164 168 0
163 -168 0
164 -168 0
167 168 -169 0
-167 169 0
-168 169 0
-170 -2 171 0
170 -171 0
2 -171 0
-162 -6 172 0
162 -172 0
6 -172 0
-171 -172 -173 0
171 172 -173 0
171 -172 173 0
-171 172 173 0
-173 -169 -174 0
173 169 -174 0
173 -169 174 0
-173 169 174 0
-173 -169 175 0
173 -175 0
169 -175 0
-171 -172 176 0
171 -176 0
172 -176 0
175 176 -177 0
-175 177 0
-176 177 0
-178 -2 179 0
178 -179 0
2 -179 0
-170 -6 180 0
170 -180 0
6 -180 0
-179 -180 -181 0
179 180 -181 0
179 -180 181 0
-179 180 181 0
-181 -177 -182 0
181 177 -182 0
181 -177 182 0
-181 177 182 0
-181 -177 183 0
181 -183 0
177 -183 0
-179 -180 184 0
179 -184 0
180 -184 0
183 184 -185 0
-183 185 0
-184 185 0
-186 -2 187 0
186 -187 0
2 -187 0
-178 -6 188 0
178 -188 0
6 -188 0
-187 -188 -189 0
187 188 -189 0
187 -188 189 0
-187 188 189 0
-189 -185 -190 0
189 185 -190 0
189 -185 190 0
-189 185 190 0
-189 -185 191 0
189 -191 0
185 -191 0
-187 -188 192 0
187 -192 0
188 -192 0
191 192 -193 0
-191 193 0
-192 193 0
-194 -2 195 0
194 -195 0
2 -195 0
-186 -6 196 0
186 -196 0
6 -196 0
-195 -196 -197 0
195 196 -197 0
195 -196 197 0
-195 196 197 0
-197 -193 -198 0
197 193 -198 0
197 -193 198 0
-197 193 198 0
-197 -193 199 0
197 -199 0
193 -199 0
-195 -196 200 0
195 -200 0
196 -200 0
199 200 -201 0
-199 201 0
-200 201 0
-202 -2 203 0
202 -203 0
2 -203 0
-194 -6 204 0
194 -204 0
6 -204 0
-203 -204 -205 0
203 204 -205 0
203 -204 205 0
-203 204 205 0
-205 -201 -206 0
205 201 -206 0
205 -201 206 0
-205 201 206 0
-205 -201 207 0
205 -207 0
201 -207 0
-203 -204 208 0
203 -208 0
204 -208 0
207 208 -209 0
-207 209 0
-208 209 0
-210 -2 211 0
210 -211 0
2 -211 0
-202 -6 212 0
202 -212 0
6 -212 0
-211 -212 -213 0
211 212 -213 0
211 -212 213 0
-211 212 213 0
-213 -209 -214 0
213 209 -214 0
213 -209 214 0
-213 209 214 0
-213 -209 215 0
213 -215 0
209 -215 0
-211 -212 216 0
211 -216 0
212 -216 0
215 216 -217 0
-215 217 0
-216 217 0
-218 -2 219 0
218 -219 0
2 -219 0
-210 -6 220 0
210 -220 0
6 -220 0
-219 -220 -221 0
219 220 -221 0
219 -220 221 0
-219 220 221 0
-221 -217 -222 0
221 217 -222 0
221 -217 222 0
-221 217 222 0
-221 -217 223 0
221 -223 0
217 -223 0
-219 -220 224 0
219 -224 0
220 -224 0
223 224 -225 0
-223 225 0
-224 225 0
-218 -6 226 0
218 -226 0
6 -226 0
-225 -226 -227 0
225 226 -227 0
225 -226 227 0
-225 226 227 0
-225 -226 228 0
225 -228 0
226 -228 0
-1 -229 230 0
1 -230 0
229 -230 0
-14 -230 -231 0
14 230 -231 0
14 -230 231 0
-14 230 231 0
-14 -230 232 0
14 -232 0
230 -232 0
-4 -229 233 0
4 -233 0
229 -233 0
-22 -233 -234 0
22 233 -234 0
22 -233 234 0
-22 233 234 0
-234 -232 -235 0
234 232 -235 0
234 -232 235 0
-234 232 235 0
-234 -232 236 0
234 -236 0
232 -236 0
-22 -233 237 0
22 -237 0
233 -237 0
236 237 -238 0
-236 238 0
-237 238 0
-10 -229 239 0
10 -239 0
229 -239 0
-30 -239 -240 0
30 239 -240 0
30 -239 240 0
-30 239 240 0
-240 -238 -241 0
240 238 -241 0
240 -238 241 0
-240 238 241 0
-240 -238 242 0
240 -242 0
238 -242 0
-30 -239 243 0
30 -243 0
239 -243 0
242 243 -244 0
-242 244 0
-243 244 0
-18 -229 245 0
18 -245 0
229 -245 0
-38 -245 -246 0
38 245 -246 0
38 -245 246 0
-38 245 246 0
-246 -244 -247 0
246 244 -247 0
246 -244 247 0
-246 244 247 0
-246 -244 248 0
246 -248 0
244 -248 0
-38 -245 249 0
38 -249 0
245 -249 0
248 249 -250 0
-248 250 0
-249 250 0
-26 -229 251 0
26 -251 0
229 -251 0
-46 -251 -252 0
46 251 -252 0
46 -251 252 0
-46 251 252 0
-252 -250 -253 0
252 250 -253 0
252 -250 253 0
-252 250 253 0
-252 -250 254 0
252 -254 0
250 -254 0
-46 -251 255 0
46 -255 0
251 -255 0
254 255 -256 0
-254 256 0
-255 256 0
-34 -229 257 0
34 -257 0
229 -257 0
-54 -257 -258 0
54 257 -258 0
54 -257 258 0
-54 257 258 0
-258 -256 -259 0
258 256 -259 0
258 -256 259 0
-258 256 259 0
-258 -256 260 0
258 -260 0
256 -260 0
-54 -257 261 0
54 -261 0
257 -261 0
260 261 -262 0
-260 262 0
-261 262 0
-42 -229 263 0
42 -263 0
229 -263 0
-62 -263 -264 0
62 263 -264 0
62 -263 264 0
-62 263 264 0
-264 -262 -265 0
264 262 -265 0
264 -262 265 0
-264 262 265 0
-264 -262 266 0
264 -266 0
262 -266 0
-62 -263 267 0
62 -267 0
263 -267 0
266 267 -268 0
-266 268 0
-267 268 0
-50 -229 269 0
50 -269 0
229 -269 0
-70 -269 -270 0
70 269 -270 0
70 -269 270 0
-70 269 270 0
-270 -268 -271 0
270 268 -271 0
270 -268 271 0
-270 268 271 0
-270 -268 272 0
270 -272 0
268 -272 0
-70 -269 273 0
70 -273 0
269 -273 0
272 273 -274 0
-272 274 0
-273 274 0
-58 -229 275 0
58 -275 0
229 -275 0
-78 -275 -276 0
78 275 -276 0
78 -275 276 0
-78 275 276 0
-276 -274 -277 0
276 274 -277 0
276 -274 277 0
-276 274 277 0
-276 -274 278 0
276 -278 0
274 -278 0
-78 -275 279 0
78 -279 0
275 -279 0
278 279 -280 0
-278 280 0
-279 280 0
-66 -229 281 0
66 -281 0
229 -281 0
-86 -281 -282 0
86 281 -282 0
86 -281 282 0
-86 281 282 0
-282 -280 -283 0
282 280 -283 0
282 -280 283 0
-282 280 283 0
-282 -280 284 0
282 -284 0
280 -284 0
-86 -281 285 0
86 -285 0
281 -285 0
284 285 -286 0
-284 286 0
-285 286 0
-74 -229 287 0
74 -287 0
229 -287 0
-94 -287 -288 0
94 287 -288 0
94 -287 288 0
-94 287 288 0
-288 -286 -289 0
288 286 -289 0
288 -286 289 0
-288 286 289 0
-288 -286 290 0
288 -290 0
286 -290 0
-94 -287 291 0
94 -291 0
287 -291 0
290 291 -292 0
-290 292 0
-291 292 0
-82 -229 293 0
82 -293 0
229 -293 0
-102 -293 -294 0
102 293 -294 0
102 -293 294 0
-102 293 294 0
-294 -292 -295 0
294 292 -295 0
294 -292 295 0
-294 292 295 0
-294 -292 296 0
294 -296 0
292 -296 0
-102 -293 297 0
102 -297 0
293 -297 0
296 297 -298 0
-296 298 0
-297 298 0
-90 -229 299 0
90 -299 0
229 -299 0
-110 -299 -300 0
110 299 -300 0
110 -299 300 0
-110 299 300 0
-300 -298 -301 0
300 298 -301 0
300 -298 301 0
-300 298 301 0
-300 -298 302 0
300 -302 0
298 -302 0
-110 -299 303 0
110 -303 0
299 -303 0
302 303 -304 0
-302 304 0
-303 304 0
-98 -229 305 0
98 -305 0
229 -305 0
-118 -305 -306 0
118 305 -306 0
118 -305 306 0
-118 305 306 0
-306 -304 -307 0
306 304 -307 0
306 -304 307 0
-306 304 307 0
-306 -304 308 0
306 -308 0
304 -308 0
-118 -305 309 0
118 -309 0
305 -309 0
308 309 -310 0
-308 310 0
-309 310 0
-106 -229 311 0
106 -311 0
229 -311 0
-126 -311 -312 0
126 311 -312 0
126 -311 312 0
-126 311 312 0
-312 -310 -313 0
312 310 -313 0
312 -310 313 0
-312 310 313 0
-312 -310 314 0
312 -314 0
310 -314 0
-126 -311 315 0
126 -315 0
311 -315 0
314 315 -316 0
-314 316 0
-315 316 0
-114 -229 317 0
114 -317 0
229 -317 0
-134 -317 -318 0
134 317 -318 0
134 -317 318 0
-134 317 318 0
-318 -316 -319 0
318 316 -319 0
318 -316 319 0
-318 316 319 0
-318 -316 320 0
318 -320 0
316 -320 0
-134 -317 321 0
134 -321 0
317 -321 0
320 321 -322 0
-320 322 0
-321 322 0
-122 -229 323 0
122 -323 0
229 -323 0
-142 -323 -324 0
142 323 -324 0
142 -323 324 0
-142 323 324 0
-324 -322 -325 0
324 322 -325 0
324 -322 325 0
-324 322 325 0
-324 -322 326 0
324 -326 0
322 -326 0
-142 -323 327 0
142 -327 0
323 -327 0
326 327 -328 0
-326 328 0
-327 328 0
-130 -229 329 0
130 -329 0
229 -329 0
-150 -329 -330 0
150 329 -330 0
150 -329 330 0
-150 329 330 0
-330 -328 -331 0
330 328 -331 0
330 -328 331 0
-330 328 331 0
-330 -328 332 0
330 -332 0
328 -332 0
-150 -329 333 0
150 -333 0
329 -333 0
332 333 -334 0
-332 334 0
-333 334 0
-138 -229 335 0
138 -335 0
229 -335 0
-158 -335 -336 0
158 335 -336 0
158 -335 336 0
-158 335 336 0
-336 -334 -337 0
336 334 -337 0
336 -334 337 0
-336 334 337 0
-336 -334 338 0
336 -338 0
334 -338 0
-158 -335 339 0
158 -339 0
335 -339 0
338 339 -340 0
-338 340 0
-339 340 0
-146 -229 341 0
146 -341 0
229 -341 0
-166 -341 -342 0
166 341 -342 0
166 -341 342 0
-166 341 342 0
-342 -340 -343 0
342 340 -343 0
342 -340 343 0
-342 340 343 0
-342 -340 344 0
342 -344 0
340 -344 0
-166 -341 345 0
166 -345 0
341 -345 0
344 345 -346 0
-344 346 0
-345 346 0
-154 -229 347 0
154 -347 0
229 -347 0
-174 -347 -348 0
174 347 -348 0
174 -347 348 0
-174 347 348 0
-348 -346 -349 0
348 346 -349 0
348 -346 349 0
-348 346 349 0
-348 -346 350 0
348 -350 0
346 -350 0
-174 -347 351 0
174 -351 0
347 -351 0
350 351 -352 0
-350 352 0
-351 352 0
-162 -229 353 0
162 -353 0
229 -353 0
-182 -353 -354 0
182 353 -354 0
182 -353 354 0
-182 353 354 0
-354 -352 -355 0
354 352 -355 0
354 -352 355 0
-354 352 355 0
-354 -352 356 0
354 -356 0
352 -356 0
-182 -353 357 0
182 -357 0
353 -357 0
356 357 -358 0
-356 358 0
-357 358 0
-170 -229 359 0
170 -359 0
229 -359 0
-190 -359 -360 0
190 359 -360 0
190 -359 360 0
-190 359 360 0
-360 -358 -361 0
360 358 -361 0
360 -358 361 0
-360 358 361 0
-360 -358 362 0
360 -362 0
358 -362 0
-190 -359 363 0
190 -363 0
359 -363 0
362 363 -364 0
-362 364 0
-363 364 0
-178 -229 365 0
178 -365 0
229 -365 0
-198 -365 -366 0
198 365 -366 0
198 -365 366 0
-198 365 366 0
-366 -364 -367 0
366 364 -367 0
366 -364 367 0
-366 364 367 0
-366 -364 368 0
366 -368 0
364 -368 0
-198 -365 369 0
198 -369 0
365 -369 0
368 369 -370 0
-368 370 0
-369 370 0
-186 -229 371 0
186 -371 0
229 -371 0
-206 -371 -372 0
206 371 -372 0
206 -371 372 0
-206 371 372 0
-372 -370 -373 0
372 370 -373 0
372 -370 373 0
-372 370 373 0
-372 -370 374 0
372 -374 0
370 -374 0
-206 -371 375 0
206 -375 0
371 -375 0
374 375 -376 0
-374 376 0
-375 376 0
-194 -229 377 0
194 -377 0
229 -377 0
-214 -377 -378 0
214 377 -378 0
214 -377 378 0
-214 377 378 0
-378 -376 -379 0
378 376 -379 0
378 -376 379 0
-378 376 379 0
-378 -376 380 0
378 -380 0
376 -380 0
-214 -377 381 0
214 -381 0
377 -381 0
380 381 -382 0
-380 382 0
-381 382 0
-202 -229 383 0
202 -383 0
229 -383 0
-222 -383 -384 0
222 383 -384 0
222 -383 384 0
-222 383 384 0
-384 -382 -385 0
384 382 -385 0
384 -382 385 0
-384 382 385 0
-384 -382 386 0
384 -386 0
382 -386 0
-222 -383 387 0
222 -387 0
383 -387 0
386 387 -388 0
-386 388 0
-387 388 0
-210 -229 389 0
210 -389 0
229 -389 0
-227 -389 -390 0
227 389 -390 0
227 -389 390 0
-227 389 390 0
-390 -388 -391 0
390 388 -391 0
390 -388 391 0
-390 388 391 0
-390 -388 392 0
390 -392 0
388 -392 0
-227 -389 393 0
227 -393 0
389 -393 0
392 393 -394 0
-392 394 0
-393 394 0
-218 -229 395 0
218 -395 0
229 -395 0
-228 -395 -396 0
228 395 -396 0
228 -395 396 0
-228 395 396 0
-396 -394 -397 0
396 394 -397 0
396 -394 397 0
-396 394 397 0
-396 -394 398 0
396 -398 0
394 -398 0
-228 -395 399 0
228 -399 0
395 -399 0
398 399 -400 0
-398 400 0
-399 400 0
-1 -401 402 0
1 -402 0
401 -402 0
-235 -402 -403 0
235 402 -403 0
235 -402 403 0
-235 402 403 0
-235 -402 404 0
235 -404 0
402 -404 0
-4 -401 405 0
4 -405 0
401 -405 0
-241 -405 -406 0
241 405 -406 0
241 -405 406 0
-241 405 406 0
-406 -404 -407 0
406 404 -407 0
406 -404 407 0
-406 404 407 0
-406 -404 408 0
406 -408 0
404 -408 0
-241 -405 409 0
241 -409 0
405 -409 0
408 409 -410 0
-408 410 0
-409 410 0
-10 -401 411 0
10 -411 0
401 -411 0
-247 -411 -412 0
247 411 -412 0
247 -411 412 0
-247 411 412 0
-412 -410 -413 0
412 410 -413 0
412 -410 413 0
-412 410 413 0
-412 -410 414 0
412 -414 0
410 -414 0
-247 -411 415 0
247 -415 0
411 -415 0
414 415 -416 0
-414 416 0
-415 416 0
-18 -401 417 0
18 -417 0
401 -417 0
-253 -417 -418 0
253 417 -418 0
253 -417 418 0
-253 417 418 0
-418 -416 -419 0
418 416 -419 0
418 -416 419 0
-418 416 419 0
-418 -416 420 0
418 -420 0
416 -420 0
-253 -417 421 0
253 -421 0
417 -421 0
420 421 -422 0
-420 422 0
-421 422 0
-26 -401 423 0
26 -423 0
401 -423 0
-259 -423 -424 0
259 423 -424 0
259 -423 424 0
-259 423 424 0
-424 -422 -425 0
424 422 -425 0
424 -422 425 0
-424 422 425 0
-424 -422 426 0
424 -426 0
422 -426 0
-259 -423 427 0
259 -427 0
423 -427 0
426 427 -428 0
-426 428 0
-427 428 0
-34 -401 429 0
34 -429 0
401 -429 0
-265 -429 -430 0
265 429 -430 0
265 -429 430 0
-265 429 430 0
-430 -428 -431 0
430 428 -431 0
430 -428 431 0
-430 428 431 0
-430 -428 432 0
430 -432 0
428 -432 0
-265 -429 433 0
265 -433 0
429 -433 0
432 433 -434 0
-432 434 0
-433 434 0
-42 -401 435 0
42 -435 0
401 -435 0
-271 -435 -436 0
271 435 -436 0
271 -435 436 0
-271 435 436 0
-436 -434 -437 0
436 434 -437 0
436 -434 437 0
-436 434 437 0
-436 -434 438 0
436 -438 0
434 -438 0
-271 -435 439 0
271 -439 0
435 -439 0
438 439 -440 0
-438 440 0
-439 440 0
-50 -401 441 0
50 -441 0
401 -441 0
-277 -441 -442 0
277 441 -442 0
277 -441 442 0
-277 441 442 0
-442 -440 -443 0
442 440 -443 0
442 -440 443 0
-442 440 443 0
-442 -440 444 0
442 -444 0
440 -444 0
-277 -441 445 0
277 -445 0
441 -445 0
444 445 -446 0
-444 446 0
-445 446 0
-58 -401 447 0
58 -447 0
401 -447 0
-283 -447 -448 0
283 447 -448 0
283 -447 448 0
-283 447 448 0
-448 -446 -449 0
448 446 -449 0
448 -446 449 0
-448 446 449 0
-448 -446 450 0
448 -450 0
446 -450 0
-283 -447 451 0
283 -451 0
447 -451 0
450 451 -452 0
-450 452 0
-451 452 0
-66 -401 453 0
66 -453 0
401 -453 0
-289 -453 -454 0
289 453 -454 0
289 -453 454 0
-289 453 454 0
-454 -452 -455 0
454 452 -455 0
454 -452 455 0
-454 452 455 0
-454 -452 456 0
454 -456 0
452 -456 0
-289 -453 457 0
289 -457 0
453 -457 0
456 457 -458 0
-456 458 0
-457 458 0
-74 -401 459 0
74 -459 0
401 -459 0
-295 -459 -460 0
295 459 -460 0
295 -459 460 0
-295 459 460 0
-460 -458 -461 0
460 458 -461 0
460 -458 461 0
-460 458 461 0
-460 -458 462 0
460 -462 0
458 -462 0
-295 -459 463 0
295 -463 0
459 -463 0
462 463 -464 0
-462 464 0
-463 464 0
-82 -401 465 0
82 -465 0
401 -465 0
-301 -465 -466 0
301 465 -466 0
301 -465 466 0
-301 465 466 0
-466 -464 -467 0
466 464 -467 0
466 -464 467 0
-466 464 467 0
-466 -464 468 0
466 -468 0
464 -468 0
-301 -465 469 0
301 -469 0
465 -469 0
468 469 -470 0
-468 470 0
-469 470 0
-90 -401 471 0
90 -471 0
401 -471 0
-307 -471 -472 0
307 471 -472 0
307 -471 472 0
-307 471 472 0
-472 -470 -473 0
472 470 -473 0
472 -470 473 0
-472 470 473 0
-472 -470 474 0
472 -474 0
470 -474 0
-307 -471 475 0
307 -475 0
471 -475 0
474 475 -476 0
-474 476 0
-475 476 0
-98 -401 477 0
98 -477 0
401 -477 0
-313 -477 -478 0
313 477 -478 0
313 -477 478 0
-313 477 478 0
-478 -476 -479 0
478 476 -479 0
478 -476 479 0
-478 476 479 0
-478 -476 480 0
478 -480 0
476 -480 0
-313 -477 481 0
313 -481 0
477 -481 0
480 481 -482 0
-480 482 0
-481 482 0
-106 -401 483 0
106 -483 0
401 -483 0
-319 -483 -484 0
319 483 -484 0
319 -483 484 0
-319 483 484 0
-484 -482 -485 0
484 482 -485 0
484 -482 485 0
-484 482 485 0
-484 -482 486 0
484 -486 0
482 -486 0
-319 -483 487 0
319 -487 0
483 -487 0
486 487 -488 0
-486 488 0
-487 488 0
-114 -401 489 0
114 -489 0
401 -489 0
-325 -489 -490 0
325 489 -490 0
325 -489 490 0
-325 489 490 0
-490 -488 -491 0
490 488 -491 0
490 -488 491 0
-490 488 491 0
-490 -488 492 0
490 -492 0
488 -492 0
-325 -489 493 0
325 -493 0
489 -493 0
492 493 -494 0
-492 494 0
-493 494 0
-122 -401 495 0
122 -495 0
401 -495 0
-331 -495 -496 0
331 495 -496 0
331 -495 496 0
-331 495 496 0
-496 -494 -497 0
496 494 -497 0
496 -494 497 0
-496 494 497 0
-496 -494 498 0
496 -498 0
494 -498 0
-331 -495 499 0
331 -499 0
495 -499 0
498 499 -500 0
-498 500 0
-499 500 0
-130 -401 501 0
130 -501 0
401 -501 0
-337 -501 -502 0
337 501 -502 0
337 -501 502 0
-337 501 502 0
-502 -500 -503 0
502 500 -503 0
502 -500 503 0
-502 500 503 0
-502 -500 504 0
502 -504 0
500 -504 0
-337 -501 505 0
337 -505 0
501 -505 0
504 505 -506 0
-504 506 0
-505 506 0
-138 -401 507 0
138 -507 0
401 -507 0
-343 -507 -508 0
343 507 -508 0
343 -507 508 0
-343 507 508 0
-508 -506 -509 0
508 506 -509 0
508 -506 509 0
-508 506 509 0
-508 -506 510 0
508 -510 0
506 -510 0
-343 -507 511 0
343 -511 0
507 -511 0
510 511 -512 0
-510 512 0
-511 512 0
-146 -401 513 0
146 -513 0
401 -513 0
-349 -513 -514 0
349 513 -514 0
349 -513 514 0
-349 513 514 0
-514 -512 -515 0
514 512 -515 0
514 -512 515 0
-514 512 515 0
-514 -512 516 0
514 -516 0
512 -516 0
-349 -513 517 0
349 -517 0
513 -517 0
516 517 -518 0
-516 518 0
-517 518 0
-154 -401 519 0
154 -519 0
401 -519 0
-355 -519 -520 0
355 519 -520 0
355 -519 520 0
-355 519 520 0
-520 -518 -521 0
520 518 -521 0
520 -518 521 0
-520 518 521 0
-520 -518 522 0
520 -522 0
518 -522 0
-355 -519 523 0
355 -523 0
519 -523 0
522 523 -524 0
-522 524 0
-523 524 0
-162 -401 525 0
162 -525 0
401 -525 0
-361 -525 -526 0
361 525 -526 0
361 -525 526 0
-361 525 526 0
-526 -524 -527 0
526 524 -527 0
526 -524 527 0
-526 524 527 0
-526 -524 528 0
526 -528 0
524 -528 0
-361 -525 529 0
361 -529 0
525 -529 0
528 529 -530 0
-528 530 0
-529 530 0
-170 -401 531 0
170 -531 0
401 -531 0
-367 -531 -532 0
367 531 -532 0
367 -531 532 0
-367 531 532 0
-532 -530 -533 0
532 530 -533 0
532 -530 533 0
-532 530 533 0
-532 -530 534 0
532 -534 0
530 -534 0
-367 -531 535 0
367 -535 0
531 -535 0
534 535 -536 0
-534 536 0
-535 536 0
-178 -401 537 0
178 -537 0
401 -537 0
-373 -537 -538 0
373 537 -538 0
373 -537 538 0
-373 537 538 0
-538 -536 -539 0
538 536 -539 0
538 -536 539 0
-538 536 539 0
-538 -536 540 0
538 -540 0
536 -540 0
-373 -537 541 0
373 -541 0
537 -541 0
540 541 -542 0
-540 542 0
-541 542 0
-186 -401 543 0
186 -543 0
401 -543 0
-379 -543 -544 0
379 543 -544 0
379 -543 544 0
-379 543 544 0
-544 -542 -545 0
544 542 -545 0
544 -542 545 0
-544 542 545 0
-544 -542 546 0
544 -546 0
542 -546 0
-379 -543 547 0
379 -547 0
543 -547 0
546 547 -548 0
-546 548 0
-547 548 0
-194 -401 549 0
194 -549 0
401 -549 0
-385 -549 -550 0
385 549 -550 0
385 -549 550 0
-385 549 550 0
-550 -548 -551 0
550 548 -551 0
550 -548 551 0
-550 548 551 0
-550 -548 552 0
550 -552 0
548 -552 0
-385 -549 553 0
385 -553 0
549 -553 0
552 553 -554 0
-552 554 0
-553 554 0
-202 -401 555 0
202 -555 0
401 -555 0
-391 -555 -556 0
391 555 -556 0
391 -555 556 0
-391 555 556 0
-556 -554 -557 0
556 554 -557 0
556 -554 557 0
-556 554 557 0
-556 -554 558 0
556 -558 0
554 -558 0
-391 -555 559 0
391 -559 0
555 -559 0
558 559 -560 0
-558 560 0
-559 560 0
-210 -401 561 0
210 -561 0
401 -561 0
-397 -561 -562 0
397 561 -562 0
397 -561 562 0
-397 561 562 0
-562 -560 -563 0
562 560 -563 0
562 -560 563 0
-562 560 563 0
-562 -560 564 0
562 -564 0
560 -564 0
-397 -561 565 0
397 -565 0
561 -565 0
564 565 -566 0
-564 566 0
-565 566 0
-218 -401 567 0
218 -567 0
401 -567 0
-400 -567 -568 0
400 567 -568 0
400 -567 568 0
-400 567 568 0
-568 -566 -569 0
568 566 -569 0
568 -566 569 0
-568 566 569 0
-568 -566 570 0
568 -570 0
566 -570 0
-400 -567 571 0
400 -571 0
567 -571 0
570 571 -572 0
-570 572 0
-571 572 0
-1 -573 574 0
1 -574 0
573 -574 0
-407 -574 -575 0
407 574 -575 0
407 -574 575 0
-407 574 575 0
-407 -574 576 0
407 -576 0
574 -576 0
-4 -573 577 0
4 -577 0
573 -577 0
-413 -577 -578 0
413 577 -578 0
413 -577 578 0
-413 577 578 0
-578 -576 -579 0
578 576 -579 0
578 -576 579 0
-578 576 579 0
-578 -576 580 0
578 -580 0
576 -580 0
-413 -577 581 0
413 -581 0
577 -581 0
580 581 -582 0
-580 582 0
-581 582 0
-10 -573 583 0
10 -583 0
573 -583 0
-419 -583 -584 0
419 583 -584 0
419 -583 584 0
-419 583 584 0
-584 -582 -585 0
584 582 -585 0
584 -582 585 0
-584 582 585 0
-584 -582 586 0
584 -586 0
582 -586 0
-419 -583 587 0
419 -587 0
583 -587 0
586 587 -588 0
-586 588 0
-587 588 0
-18 -573 589 0
18 -589 0
573 -589 0
-425 -589 -590 0
425 589 -590 0
425 -589 590 0
-425 589 590 0
-590 -588 -591 0
590 588 -591 0
590 -588 591 0
-590 588 591 0
-590 -588 592 0
590 -592 0
588 -592 0
-425 -589 593 0
425 -593 0
589 -593 0
592 593 -594 0
-592 594 0
-593 594 0
-26 -573 595 0
26 -595 0
573 -595 0
-431 -595 -596 0
431 595 -596 0
431 -595 596 0
-431 595 596 0
-596 -594 -597 0
596 594 -597 0
596 -594 597 0
-596 594 597 0
-596 -594 598 0
596 -598 0
594 -598 0
-431 -595 599 0
431 -599 0
595 -599 0
598 599 -600 0
-598 600 0
-599 600 0
-34 -573 601 0
34 -601 0
573 -601 0
-437 -601 -602 0
437 601 -602 0
437 -601 602 0
-437 601 602 0
-602 -600 -603 0
602 600 -603 0
602 -600 603 0
-602 600 603 0
-602 -600 604 0
602 -604 0
600 -604 0
-437 -601 605 0
437 -605 0
601 -605 0
604 605 -606 0
-604 606 0
-605 606 0
-42 -573 607 0
42 -607 0
573 -607 0
-443 -607 -608 0
443 607 -608 0
443 -607 608 0
-443 607 608 0
-608 -606 -609 0
608 606 -609 0
608 -606 609 0
-608 606 609 0
-608 -606 610 0
608 -610 0
606 -610 0
-443 -607 611 0
443 -611 0
607 -611 0
610 611 -612 0
-610 612 0
-611 612 0
-50 -573 613 0
50 -613 0
573 -613 0
-449 -613 -614 0
449 613 -614 0
449 -613 614 0
-449 613 614 0
-614 -612 -615 0
614 612 -615 0
614 -612 615 0
-614 612 615 0
-614 -612 616 0
614 -616 0
612 -616 0
-449 -613 617 0
449 -617 0
613 -617 0
616 617 -618 0
-616 618 0
-617 618 0
-58 -573 619 0
58 -619 0
573 -619 0
-455 -619 -620 0
455 619 -620 0
455 -619 620 0
-455 619 620 0
-620 -618 -621 0
620 618 -621 0
620 -618 621 0
-620 618 621 0
-620 -618 622 0
620 -622 0
618 -622 0
-455 -619 623 0
455 -623 0
619 -623 0
622 623 -624 0
-622 624 0
-623 624 0
-66 -573 625 0
66 -625 0
573 -625 0
-461 -625 -626 0
461 625 -626 0
461 -625 626 0
-461 625 626 0
-626 -624 -627 0
626 624 -627 0
626 -624 627 0
-626 624 627 0
-626 -624 628 0
626 -628 0
624 -628 0
-461 -625 629 0
461 -629 0
625 -629 0
628 629 -630 0
-628 630 0
-629 630 0
-74 -573 631 0
74 -631 0
573 -631 0
-467 -631 -632 0
467 631 -632 0
467 -631 632 0
-467 631 632 0
-632 -630 -633 0
632 630 -633 0
632 -630 633 0
-632 630 633 0
-632 -630 634 0
632 -634 0
630 -634 0
-467 -631 635 0
467 -635 0
631 -635 0
634 635 -636 0
-634 636 0
-635 636 0
-82 -573 637 0
82 -637 0
573 -637 0
-473 -637 -638 0
473 637 -638 0
473 -637 638 0
-473 637 638 0
-638 -636 -639 0
638 636 -639 0
638 -636 639 0
-638 636 639 0
-638 -636 640 0
638 -640 0
636 -640 0
-473 -637 641 0
473 -641 0
637 -641 0
640 641 -642 0
-640 642 0
-641 642 0
-90 -573 643 0
90 -643 0
573 -643 0
-479 -643 -644 0
479 643 -644 0
479 -643 644 0
-479 643 644 0
-644 -642 -645 0
644 642 -645 0
644 -642 645 0
-644 642 645 0
-644 -642 646 0
644 -646 0
642 -646 0
-479 -643 647 0
479 -647 0
643 -647 0
646 647 -648 0
-646 648 0
-647 648 0
-98 -573 649 0
98 -649 0
573 -649 0
-485 -649 -650 0
485 649 -650 0
485 -649 650 0
-485 649 650 0
-650 -648 -651 0
650 648 -651 0
650 -648 651 0
-650 648 651 0
-650 -648 652 0
650 -652 0
648 -652 0
-485 -649 653 0
485 -653 0
649 -653 0
652 653 -654 0
-652 654 0
-653 654 0
-106 -573 655 0
106 -655 0
573 -655 0
-491 -655 -656 0
491 655 -656 0
491 -655 656 0
-491 655 656 0
-656 -654 -657 0
656 654 -657 0
656 -654 657 0
-656 654 657 0
-656 -654 658 0
656 -658 0
654 -658 0
-491 -655 659 0
491 -659 0
655 -659 0
658 659 -660 0
-658 660 0
-659 660 0
-114 -573 661 0
114 -661 0
573 -661 0
-497 -661 -662 0
497 661 -662 0
497 -661 662 0
-497 661 662 0
-662 -660 -663 0
662 660 -663 0
662 -660 663 0
-662 660 663 0
-662 -660 664 0
662 -664 0
660 -664 0
-497 -661 665 0
497 -665 0
661 -665 0
664 665 -666 0
-664 666 0
-665 666 0
-122 -573 667 0
122 -667 0
573 -667 0
-503 -667 -668 0
503 667 -668 0
503 -667 668 0
-503 667 668 0
-668 -666 -669 0
668 666 -669 0
668 -666 669 0
-668 666 669 0
-668 -666 670 0
668 -670 0
666 -670 0
-503 -667 671 0
503 -671 0
667 -671 0
670 671 -672 0
-670 672 0
-671 672 0
-130 -573 673 0
130 -673 0
573 -673 0
-509 -673 -674 0
509 673 -674 0
509 -673 674 0
-509 673 674 0
-674 -672 -675 0
674 672 -675 0
674 -672 675 0
-674 672 675 0
-674 -672 676 0
674 -676 0
672 -676 0
-509 -673 677 0
509 -677 0
673 -677 0
676 677 -678 0
-676 678 0
-677 678 0
-138 -573 679 0
138 -679 0
573 -679 0
-515 -679 -680 0
515 679 -680 0
515 -679 680 0
-515 679 680 0
-680 -678 -681 0
680 678 -681 0
680 -678 681 0
-680 678 681 0
-680 -678 682 0
680 -682 0
678 -682 0
-515 -679 683 0
515 -683 0
679 -683 0
682 683 -684 0
-682 684 0
-683 684 0
-146 -573 685 0
146 -685 0
573 -685 0
-521 -685 -686 0
521 685 -686 0
521 -685 686 0
-521 685 686 0
-686 -684 -687 0
686 684 -687 0
686 -684 687 0
-686 684 687 0
-686 -684 688 0
686 -688 0
684 -688 0
-521 -685 689 0
521 -689 0
685 -689 0
688 689 -690 0
-688 690 0
-689 690 0
-154 -573 691 0
154 -691 0
573 -691 0
-527 -691 -692 0
527 691 -692 0
527 -691 692 0
-527 691 692 0
-692 -690 -693 0
692 690 -693 0
692 -690 693 0
-692 690 693 0
-692 -690 694 0
692 -694 0
690 -694 0
-527 -691 695 0
527 -695 0
691 -695 0
694 695 -696 0
-694 696 0
-695 696 0
-162 -573 697 0
162 -697 0
573 -697 0
-533 -697 -698 0
533 697 -698 0
533 -697 698 0
-533 697 698 0
-698 -696 -699 0
698 696 -699 0
698 -696 699 0
-698 696 699 0
-698 -696 700 0
698 -700 0
696 -700 0
-533 -697 701 0
533 -701 0
697 -701 0
700 701 -702 0
-700 702 0
-701 702 0
-170 -573 703 0
170 -703 0
573 -703 0
-539 -703 -704 0
539 703 -704 0
539 -703 704 0
-539 703 704 0
-704 -702 -705 0
704 702 -705 0
704 -702 705 0
-704 702 705 0
-704 -702 706 0
704 -706 0
702 -706 0
-539 -703 707 0
539 -707 0
703 -707 0
706 707 -708 0
-706 708 0
-707 708 0
-178 -573 709 0
178 -709 0
573 -709 0
-545 -709 -710 0
545 709 -710 0
545 -709 710 0
-545 709 710 0
-710 -708 -711 0
710 708 -711 0
710 -708 711 0
-710 708 711 0
-710 -708 712 0
710 -712 0
708 -712 0
-545 -709 713 0
545 -713 0
709 -713 0
712 713 -714 0
-712 714 0
-713 714 0
-186 -573 715 0
186 -715 0
573 -715 0
-551 -715 -716 0
551 715 -716 0
551 -715 716 0
-551 715 716 0
-716 -714 -717 0
716 714 -717 0
716 -714 717 0
-716 714 717 0
-716 -714 718 0
716 -718 0
714 -718 0
-551 -715 719 0
551 -719 0
715 -719 0
718 719 -720 0
-718 720 0
-719 720 0
-194 -573 721 0
194 -721 0
573 -721 0
-557 -721 -722 0
557 721 -722 0
557 -721 722 0
-557 721 722 0
-722 -720 -723 0
722 720 -723 0
722 -720 723 0
-722 720 723 0
-722 -720 724 0
722 -724 0
720 -724 0
-557 -721 725 0
557 -725 0
721 -725 0
724 725 -726 0
-724 726 0
-725 726 0
-202 -573 727 0
202 -727 0
573 -727 0
-563 -727 -728 0
563 727 -728 0
563 -727 728 0
-563 727 728 0
-728 -726 -729 0
728 726 -729 0
728 -726 729 0
-728 726 729 0
-728 -726 730 0
728 -730 0
726 -730 0
-563 -727 731 0
563 -731 0
727 -731 0
730 731 -732 0
-730 732 0
-731 732 0
-210 -573 733 0
210 -733 0
573 -733 0
-569 -733 -734 0
569 733 -734 0
569 -733 734 0
-569 733 734 0
-734 -732 -735 0
734 732 -735 0
734 -732 735 0
-734 732 735 0
-734 -732 736 0
734 -736 0
732 -736 0
-569 -733 737 0
569 -737 0
733 -737 0
736 737 -738 0
-736 738 0
-737 738 0
-218 -573 739 0
218 -739 0
573 -739 0
-572 -739 -740 0
572 739 -740 0
572 -739 740 0
-572 739 740 0
-740 -738 -741 0
740 738 -741 0
740 -738 741 0
-740 738 741 0
-740 -738 742 0
740 -742 0
738 -742 0
-572 -739 743 0
572 -743 0
739 -743 0
742 743 -744 0
-742 744 0
-743 744 0
-1 -745 746 0
1 -746 0
745 -746 0
-579 -746 -747 0
579 746 -747 0
579 -746 747 0
-579 746 747 0
-579 -746 748 0
579 -748 0
746 -748 0
-4 -745 749 0
4 -749 0
745 -749 0
-585 -749 -750 0
585 749 -750 0
585 -749 750 0
-585 749 750 0
-750 -748 -751 0
750 748 -751 0
750 -748 751 0
-750 748 751 0
-750 -748 752 0
750 -752 0
748 -752 0
-585 -749 753 0
585 -753 0
749 -753 0
752 753 -754 0
-752 754 0
-753 754 0
-10 -745 755 0
10 -755 0
745 -755 0
-591 -755 -756 0
591 755 -756 0
591 -755 756 0
-591 755 756 0
-756 -754 -757 0
756 754 -757 0
756 -754 757 0
-756 754 757 0
-756 -754 758 0
756 -758 0
754 -758 0
-591 -755 759 0
591 -759 0
755 -759 0
758 759 -760 0
-758 760 0
-759 760 0
-18 -745 761 0
18 -761 0
745 -761 0
-597 -761 -762 0
597 761 -762 0
597 -761 762 0
-597 761 762 0
-762 -760 -763 0
762 760 -763 0
762 -760 763 0
-762 760 763 0
-762 -760 764 0
762 -764 0
760 -764 0
-597 -761 765 0
597 -765 0
761 -765 0
764 765 -766 0
-764 766 0
-765 766 0
-26 -745 767 0
26 -767 0
745 -767 0
-603 -767 -768 0
603 767 -768 0
603 -767 768 0
-603 767 768 0
-768 -766 -769 0
768 766 -769 0
768 -766 769 0
-768 766 769 0
-768 -766 770 0
768 -770 0
766 -770 0
-603 -767 771 0
603 -771 0
767 -771 0
770 771 -772 0
-770 772 0
-771 772 0
-34 -745 773 0
34 -773 0
745 -773 0
-609 -773 -774 0
609 773 -774 0
609 -773 774 0
-609 773 774 0
-774 -772 -775 0
774 772 -775 0
774 -772 775 0
-774 772 775 0
-774 -772 776 0
774 -776 0
772 -776 0
-609 -773 777 0
609 -777 0
773 -777 0
776 777 -778 0
-776 778 0
-777 778 0
-42 -745 779 0
42 -779 0
745 -779 0
-615 -779 -780 0
615 779 -780 0
615 -779 780 0
-615 779 780 0
-780 -778 -781 0
780 778 -781 0
780 -778 781 0
-780 778 781 0
-780 -778 782 0
780 -782 0
778 -782 0
-615 -779 783 0
615 -783 0
779 -783 0
782 783 -784 0
-782 784 0
-783 784 0
-50 -745 785 0
50 -785 0
745 -785 0
-621 -785 -786 0
621 785 -786 0
621 -785 786 0
-621 785 786 0
-786 -784 -787 0
786 784 -787 0
786 -784 787 0
-786 784 787 0
-786 -784 788 0
786 -788 0
784 -788 0
-621 -785 789 0
621 -789 0
785 -789 0
788 789 -790 0
-788 790 0
-789 790 0
-58 -745 791 0
58 -791 0
745 -791 0
-627 -791 -792 0
627 791 -792 0
627 -791 792 0
-627 791 792 0
-792 -790 -793 0
792 790 -793 0
792 -790 793 0
-792 790 793 0
-792 -790 794 0
792 -794 0
790 -794 0
-627 -791 795 0
627 -795 0
791 -795 0
794 795 -796 0
-794 796 0
-795 796 0
-66 -745 797 0
66 -797 0
745 -797 0
-633 -797 -798 0
633 797 -798 0
633 -797 798 0
-633 797 798 0
-798 -796 -799 0
798 796 -799 0
798 -796 799 0
-798 796 799 0
-798 -796 800 0
798 -800 0
796 -800 0
-633 -797 801 0
633 -801 0
797 -801 0
800 801 -802 0
-800 802 0
-801 802 0
-74 -745 803 0
74 -803 0
745 -803 0
-639 -803 -804 0
639 803 -804 0
639 -803 804 0
-639 803 804 0
-804 -802 -805 0
804 802 -805 0
804 -802 805 0
-804 802 805 0
-804 -802 806 0
804 -806 0
802 -806 0
-639 -803 807 0
639 -807 0
803 -807 0
806 807 -808 0
-806 808 0
-807 808 0
-82 -745 809 0
82 -809 0
745 -809 0
-645 -809 -810 0
645 809 -810 0
645 -809 810 0
-645 809 810 0
-810 -808 -811 0
810 808 -811 0
810 -808 811 0
-810 808 811 0
-810 -808 812 0
810 -812 0
808 -812 0
-645 -809 813 0
645 -813 0
809 -813 0
812 813 -814 0
-812 814 0
-813 814 0
-90 -745 815 0
90 -815 0
745 -815 0
-651 -815 -816 0
651 815 -816 0
651 -815 816 0
-651 815 816 0
-816 -814 -817 0
816 814 -817 0
816 -814 817 0
-816 814 817 0
-816 -814 818 0
816 -818 0
814 -818 0
-651 -815 819 0
651 -819 0
815 -819 0
818 819 -820 0
-818 820 0
-819 820 0
-98 -745 821 0
98 -821 0
745 -821 0
-657 -821 -822 0
657 821 -822 0
657 -821 822 0
-657 821 822 0
-822 -820 -823 0
822 820 -823 0
822 -820 823 0
-822 820 823 0
-822 -820 824 0
822 -824 0
820 -824 0
-657 -821 825 0
657 -825 0
821 -825 0
824 825 -826 0
-824 826 0
-825 826 0
-106 -745 827 0
106 -827 0
745 -827 0
-663 -827 -828 0
663 827 -828 0
663 -827 828 0
-663 827 828 0
-828 -826 -829 0
828 826 -829 0
828 -826 829 0
-828 826 829 0
-828 -826 830 0
828 -830 0
826 -830 0
-663 -827 831 0
663 -831 0
827 -831 0
830 831 -832 0
-830 832 0
-831 832 0
-114 -745 833 0
114 -833 0
745 -833 0
-669 -833 -834 0
669 833 -834 0
669 -833 834 0
-669 833 834 0
-834 -832 -835 0
834 832 -835 0
834 -832 835 0
-834 832 835 0
-834 -832 836 0
834 -836 0
832 -836 0
-669 -833 837 0
669 -837 0
833 -837 0
836 837 -838 0
-836 838 0
-837 838 0
-122 -745 839 0
122 -839 0
745 -839 0
-675 -839 -840 0
675 839 -840 0
675 -839 840 0
-675 839 840 0
-840 -838 -841 0
840 838 -841 0
840 -838 841 0
-840 838 841 0
-840 -838 842 0
840 -842 0
838 -842 0
-675 -839 843 0
675 -843 0
839 -843 0
842 843 -844 0
-842 844 0
-843 844 0
-130 -745 845 0
130 -845 0
745 -845 0
-681 -845 -846 0
681 845 -846 0
681 -845 846 0
-681 845 846 0
-846 -844 -847 0
846 844 -847 0
846 -844 847 0
-846 844 847 0
-846 -844 848 0
846 -848 0
844 -848 0
-681 -845 849 0
681 -849 0
845 -849 0
848 849 -850 0
-848 850 0
-849 850 0
-138 -745 851 0
138 -851 0
745 -851 0
-687 -851 -852 0
687 851 -852 0
687 -851 852 0
-687 851 852 0
-852 -850 -853 0
852 850 -853 0
852 -850 853 0
-852 850 853 0
-852 -850 854 0
852 -854 0
850 -854 0
-687 -851 855 0
687 -855 0
851 -855 0
854 855 -856 0
-854 856 0
-855 856 0
-146 -745 857 0
146 -857 0
745 -857 0
-693 -857 -858 0
693 857 -858 0
693 -857 858 0
-693 857 858 0
-858 -856 -859 0
858 856 -859 0
858 -856 859 0
-858 856 859 0
-858 -856 860 0
858 -860 0
856 -860 0
-693 -857 861 0
693 -861 0
857 -861 0
860 861 -862 0
-860 862 0
-861 862 0
-154 -745 863 0
154 -863 0
745 -863 0
-699 -863 -864 0
699 863 -864 0
699 -863 864 0
-699 863 864 0
-864 -862 -865 0
864 862 -865 0
864 -862 865 0
-864 862 865 0
-864 -862 866 0
864 -866 0
862 -866 0
-699 -863 867 0
699 -867 0
863 -867 0
866 867 -868 0
-866 868 0
-867 868 0
-162 -745 869 0
162 -869 0
745 -869 0
-705 -869 -870 0
705 869 -870 0
705 -869 870 0
-705 869 870 0
-870 -868 -871 0
870 868 -871 0
870 -868 871 0
-870 868 871 0
-870 -868 872 0
870 -872 0
868 -872 0
-705 -869 873 0
705 -873 0
869 -873 0
872 873 -874 0
-872 874 0
-873 874 0
-170 -745 875 0
170 -875 0
745 -875 0
-711 -875 -876 0
711 875 -876 0
711 -875 876 0
-711 875 876 0
-876 -874 -877 0
876 874 -877 0
876 -874 877 0
-876 874 877 0
-876 -874 878 0
876 -878 0
874 -878 0
-711 -875 879 0
711 -879 0
875 -879 0
878 879 -880 0
-878 880 0
-879 880 0
-178 -745 881 0
178 -881 0
745 -881 0
-717 -881 -882 0
717 881 -882 0
717 -881 882 0
-717 881 882 0
-882 -880 -883 0
882 880 -883 0
882 -880 883 0
-882 880 883 0
-882 -880 884 0
882 -884 0
880 -884 0
-717 -881 885 0
717 -885 0
881 -885 0
884 885 -886 0
-884 886 0
-885 886 0
-186 -745 887 0
186 -887 0
745 -887 0
-723 -887 -888 0
723 887 -888 0
723 -887 888 0
-723 887 888 0
-888 -886 -889 0
888 886 -889 0
888 -886 889 0
-888 886 889 0
-888 -886 890 0
888 -890 0
886 -890 0
-723 -887 891 0
723 -891 0
887 -891 0
890 891 -892 0
-890 892 0
-891 892 0
-194 -745 893 0
194 -893 0
745 -893 0
-729 -893 -894 0
729 893 -894 0
729 -893 894 0
-729 893 894 0
-894 -892 -895 0
894 892 -895 0
894 -892 895 0
-894 892 895 0
-894 -892 896 0
894 -896 0
892 -896 0
-729 -893 897 0
729 -897 0
893 -897 0
896 897 -898 0
-896 898 0
-897 898 0
-202 -745 899 0
202 -899 0
745 -899 0
-735 -899 -900 0
735 899 -900 0
735 -899 900 0
-735 899 900 0
-900 -898 -901 0
900 898 -901 0
900 -898 901 0
-900 898 901 0
-900 -898 902 0
900 -902 0
898 -902 0
-735 -899 903 0
735 -903 0
899 -903 0
902 903 -904 0
-902 904 0
-903 904 0
-210 -745 905 0
210 -905 0
745 -905 0
-741 -905 -906 0
741 905 -906 0
741 -905 906 0
-741 905 906 0
-906 -904 -907 0
906 904 -907 0
906 -904 907 0
-906 904 907 0
-906 -904 908 0
906 -908 0
904 -908 0
-741 -905 909 0
741 -909 0
905 -909 0
908 909 -910 0
-908 910 0
-909 910 0
-218 -745 911 0
218 -911 0
745 -911 0
-744 -911 -912 0
744 911 -912 0
744 -911 912 0
-744 911 912 0
-912 -910 -913 0
912 910 -913 0
912 -910 913 0
-912 910 913 0
-912 -910 914 0
912 -914 0
910 -914 0
-744 -911 915 0
744 -915 0
911 -915 0
914 915 -916 0
-914 916 0
-915 916 0
-1 -917 918 0
1 -918 0
917 -918 0
-751 -918 -919 0
751 918 -919 0
751 -918 919 0
-751 918 919 0
-751 -918 920 0
751 -920 0
918 -920 0
-4 -917 921 0
4 -921 0
917 -921 0
-757 -921 -922 0
757 921 -922 0
757 -921 922 0
-757 921 922 0
-922 -920 -923 0
922 920 -923 0
922 -920 923 0
-922 920 923 0
-922 -920 924 0
922 -924 0
920 -924 0
-757 -921 925 0
757 -925 0
921 -925 0
924 925 -926 0
-924 926 0
-925 926 0
-10 -917 927 0
10 -927 0
917 -927 0
-763 -927 -928 0
763 927 -928 0
763 -927 928 0
-763 927 928 0
-928 -926 -929 0
928 926 -929 0
928 -926 929 0
-928 926 929 0
-928 -926 930 0
928 -930 0
926 -930 0
-763 -927 931 0
763 -931 0
927 -931 0
930 931 -932 0
-930 932 0
-931 932 0
-18 -917 933 0
18 -933 0
917 -933 0
-769 -933 -934 0
769 933 -934 0
769 -933 934 0
-769 933 934 0
-934 -932 -935 0
934 932 -935 0
934 -932 935 0
-934 932 935 0
-934 -932 936 0
934 -936 0
932 -936 0
-769 -933 937 0
769 -937 0
933 -937 0
936 937 -938 0
-936 938 0
-937 938 0
-26 -917 939 0
26 -939 0
917 -939 0
-775 -939 -940 0
775 939 -940 0
775 -939 940 0
-775 939 940 0
-940 -938 -941 0
940 938 -941 0
940 -938 941 0
-940 938 941 0
-940 -938 942 0
940 -942 0
938 -942 0
-775 -939 943 0
775 -943 0
939 -943 0
942 943 -944 0
-942 944 0
-943 944 0
-34 -917 945 0
34 -945 0
917 -945 0
-781 -945 -946 0
781 945 -946 0
781 -945 946 0
-781 945 946 0
-946 -944 -947 0
946 944 -947 0
946 -944 947 0
-946 944 947 0
-946 -944 948 0
946 -948 0
944 -948 0
-781 -945 949 0
781 -949 0
945 -949 0
948 949 -950 0
-948 950 0
-949 950 0
-42 -917 951 0
42 -951 0
917 -951 0
-787 -951 -952 0
787 951 -952 0
787 -951 952 0
-787 951 952 0
-952 -950 -953 0
952 950 -953 0
952 -950 953 0
-952 950 953 0
-952 -950 954 0
952 -954 0
950 -954 0
-787 -951 955 0
787 -955 0
951 -955 0
954 955 -956 0
-954 956 0
-955 956 0
-50 -917 957 0
50 -957 0
917 -957 0
-793 -957 -958 0
793 957 -958 0
793 -957 958 0
-793 957 958 0
-958 -956 -959 0
958 956 -959 0
958 -956 959 0
-958 956 959 0
-958 -956 960 0
958 -960 0
956 -960 0
-793 -957 961 0
793 -961 0
957 -961 0
960 961 -962 0
-960 962 0
-961 962 0
-58 -917 963 0
58 -963 0
917 -963 0
-799 -963 -964 0
799 963 -964 0
799 -963 964 0
-799 963 964 0
-964 -962 -965 0
964 962 -965 0
964 -962 965 0
-964 962 965 0
-964 -962 966 0
964 -966 0
962 -966 0
-799 -963 967 0
799 -967 0
963 -967 0
966 967 -968 0
-966 968 0
-967 968 0
-66 -917 969 0
66 -969 0
917 -969 0
-805 -969 -970 0
805 969 -970 0
805 -969 970 0
-805 969 970 0
-970 -968 -971 0
970 968 -971 0
970 -968 971 0
-970 968 971 0
-970 -968 972 0
970 -972 0
968 -972 0
-805 -969 973 0
805 -973 0
969 -973 0
972 973 -974 0
-972 974 0
-973 974 0
-74 -917 975 0
74 -975 0
917 -975 0
-811 -975 -976 0
811 975 -976 0
811 -975 976 0
-811 975 976 0
-976 -974 -977 0
976 974 -977 0
976 -974 977 0
-976 974 977 0
-976 -974 978 0
976 -978 0
974 -978 0
-811 -975 979 0
811 -979 0
975 -979 0
978 979 -980 0
-978 980 0
-979 980 0
-82 -917 981 0
82 -981 0
917 -981 0
-817 -981 -982 0
817 981 -982 0
817 -981 982 0
-817 981 982 0
-982 -980 -983 0
982 980 -983 0
982 -980 983 0
-982 980 983 0
-982 -980 984 0
982 -984 0
980 -984 0
-817 -981 985 0
817 -985 0
981 -985 0
984 985 -986 0
-984 986 0
-985 986 0
-90 -917 987 0
90 -987 0
917 -987 0
-823 -987 -988 0
823 987 -988 0
823 -987 988 0
-823 987 988 0
-988 -986 -989 0
988 986 -989 0
988 -986 989 0
-988 986 989 0
-988 -986 990 0
988 -990 0
986 -990 0
-823 -987 991 0
823 -991 0
987 -991 0
990 991 -992 0
-990 992 0
-991 992 0
-98 -917 993 0
98 -993 0
917 -993 0
-829 -993 -994 0
829 993 -994 0
829 -993 994 0
-829 993 994 0
-994 -992 -995 0
994 992 -995 0
994 -992 995 0
-994 992 995 0
-994 -992 996 0
994 -996 0
992 -996 0
-829 -993 997 0
829 -997 0
993 -997 0
996 997 -998 0
-996 998 0
-997 998 0
-106 -917 999 0
106 -999 0
917 -999 0
-835 -999 -1000 0
835 999 -1000 0
835 -999 1000 0
-835 999 1000 0
-1000 -998 -1001 0
1000 998 -1001 0
1000 -998 1001 0
-1000 998 1001 0
-1000 -998 1002 0
1000 -1002 0
998 -1002 0
-835 -999 1003 0
835 -1003 0
999 -1003 0
1002 1003 -1004 0
-1002 1004 0
-1003 1004 0
-114 -917 1005 0
114 -1005 0
917 -1005 0
-841 -1005 -1006 0
841 1005 -1006 0
841 -1005 1006 0
-841 1005 1006 0
-1006 -1004 -1007 0
1006 1004 -1007 0
1006 -1004 1007 0
-1006 1004 1007 0
-1006 -1004 1008 0
1006 -1008 0
1004 -1008 0
-841 -1005 1009 0
841 -1009 0
1005 -1009 0
1008 1009 -1010 0
-1008 1010 0
-1009 1010 0
-122 -917 1011 0
122 -1011 0
917 -1011 0
-847 -1011 -1012 0
847 1011 -1012 0
847 -1011 1012 0
-847 1011 1012 0
-1012 -1010 -1013 0
1012 1010 -1013 0
1012 -1010 1013 0
-1012 1010 1013 0
-1012 -1010 1014 0
1012 -1014 0
1010 -1014 0
-847 -1011 1015 0
847 -1015 0
1011 -1015 0
1014 1015 -1016 0
-1014 1016 0
-1015 1016 0
-130 -917 1017 0
130 -1017 0
917 -1017 0
-853 -1017 -1018 0
853 1017 -1018 0
853 -1017 1018 0
-853 1017 1018 0
-1018 -1016 -1019 0
1018 1016 -1019 0
1018 -1016 1019 0
-1018 1016 1019 0
-1018 -1016 1020 0
1018 -1020 0
1016 -1020 0
-853 -1017 1021 0
853 -1021 0
1017 -1021 0
1020 1021 -1022 0
-1020 1022 0
-1021 1022 0
-138 -917 1023 0
138 -1023 0
917 -1023 0
-859 -1023 -1024 0
859 1023 -1024 0
859 -1023 1024 0
-859 1023 1024 0
-1024 -1022 -1025 0
1024 1022 -1025 0
1024 -1022 1025 0
-1024 1022 1025 0
-1024 -1022 1026 0
1024 -1026 0
1022 -1026 0
-859 -1023 1027 0
859 -1027 0
1023 -1027 0
1026 1027 -1028 0
-1026 1028 0
-1027 1028 0
-146 -917 1029 0
146 -1029 0
917 -1029 0
-865 -1029 -1030 0
865 1029 -1030 0
865 -1029 1030 0
-865 1029 1030 0
-1030 -1028 -1031 0
1030 1028 -1031 0
1030 -1028 1031 0
-1030 1028 1031 0
-1030 -1028 1032 0
1030 -1032 0
1028 -1032 0
-865 -1029 1033 0
865 -1033 0
1029 -1033 0
1032 1033 -1034 0
-1032 1034 0
-1033 1034 0
-154 -917 1035 0
154 -1035 0
917 -1035 0
-871 -1035 -1036 0
871 1035 -1036 0
871 -1035 1036 0
-871 1035 1036 0
-1036 -1034 -1037 0
1036 1034 -1037 0
1036 -1034 1037 0
-1036 1034 1037 0
-1036 -1034 1038 0
1036 -1038 0
1034 -1038 0
-871 -1035 1039 0
871 -1039 0
1035 -1039 0
1038 1039 -1040 0
-1038 1040 0
-1039 1040 0
-162 -917 1041 0
162 -1041 0
917 -1041 0
-877 -1041 -1042 0
877 1041 -1042 0
877 -1041 1042 0
-877 1041 1042 0
-1042 -1040 -1043 0
1042 1040 -1043 0
1042 -1040 1043 0
-1042 1040 1043 0
-1042 -1040 1044 0
1042 -1044 0
1040 -1044 0
-877 -1041 1045 0
877 -1045 0
1041 -1045 0
1044 1045 -1046 0
-1044 1046 0
-1045 1046 0
-170 -917 1047 0
170 -1047 0
917 -1047 0
-883 -1047 -1048 0
883 1047 -1048 0
883 -1047 1048 0
-883 1047 1048 0
-1048 -1046 -1049 0
1048 1046 -1049 0
1048 -1046 1049 0
-1048 1046 1049 0
-1048 -1046 1050 0
1048 -1050 0
1046 -1050 0
-883 -1047 1051 0
883 -1051 0
1047 -1051 0
1050 1051 -1052 0
-1050 1052 0
-1051 1052 0
-178 -917 1053 0
178 -1053 0
917 -1053 0
-889 -1053 -1054 0
889 1053 -1054 0
889 -1053 1054 0
-889 1053 1054 0
-1054 -1052 -1055 0
1054 1052 -1055 0
1054 -1052 1055 0
-1054 1052 1055 0
-1054 -1052 1056 0
1054 -1056 0
1052 -1056 0
-889 -1053 1057 0
889 -1057 0
1053 -1057 0
1056 1057 -1058 0
-1056 1058 0
-1057 1058 0
-186 -917 1059 0
186 -1059 0
917 -1059 0
-895 -1059 -1060 0
895 1059 -1060 0
895 -1059 1060 0
-895 1059 1060 0
-1060 -1058 -1061 0
1060 1058 -1061 0
1060 -1058 1061 0
-1060 1058 1061 0
-1060 -1058 1062 0
1060 -1062 0
1058 -1062 0
-895 -1059 1063 0
895 -1063 0
1059 -1063 0
1062 1063 -1064 0
-1062 1064 0
-1063 1064 0
-194 -917 1065 0
194 -1065 0
917 -1065 0
-901 -1065 -1066 0
901 1065 -1066 0
901 -1065 1066 0
-901 1065 1066 0
-1066 -1064 -1067 0
1066 1064 -1067 0
1066 -1064 1067 0
-1066 1064 1067 0
-1066 -1064 1068 0
1066 -1068 0
1064 -1068 0
-901 -1065 1069 0
901 -1069 0
1065 -1069 0
1068 1069 -1070 0
-1068 1070 0
-1069 1070 0
-202 -917 1071 0
202 -1071 0
917 -1071 0
-907 -1071 -1072 0
907 1071 -1072 0
907 -1071 1072 0
-907 1071 1072 0
-1072 -1070 -1073 0
1072 1070 -1073 0
1072 -1070 1073 0
-1072 1070 1073 0
-1072 -1070 1074 0
1072 -1074 0
1070 -1074 0
-907 -1071 1075 0
907 -1075 0
1071 -1075 0
1074 1075 -1076 0
-1074 1076 0
-1075 1076 0
-210 -917 1077 0
210 -1077 0
917 -1077 0
-913 -1077 -1078 0
913 1077 -1078 0
913 -1077 1078 0
-913 1077 1078 0
-1078 -1076 -1079 0
1078 1076 -1079 0
1078 -1076 1079 0
-1078 1076 1079 0
-1078 -1076 1080 0
1078 -1080 0
1076 -1080 0
-913 -1077 1081 0
913 -1081 0
1077 -1081 0
1080 1081 -1082 0
-1080 1082 0
-1081 1082 0
-218 -917 1083 0
218 -1083 0
917 -1083 0
-916 -1083 -1084 0
916 1083 -1084 0
916 -1083 1084 0
-916 1083 1084 0
-1084 -1082 -1085 0
1084 1082 -1085 0
1084 -1082 1085 0
-1084 1082 1085 0
-1084 -1082 1086 0
1084 -1086 0
1082 -1086 0
-916 -1083 1087 0
916 -1087 0
1083 -1087 0
1086 1087 -1088 0
-1086 1088 0
-1087 1088 0
-1 -1089 1090 0
1 -1090 0
1089 -1090 0
-923 -1090 -1091 0
923 1090 -1091 0
923 -1090 1091 0
-923 1090 1091 0
-923 -1090 1092 0
923 -1092 0
1090 -1092 0
-4 -1089 1093 0
4 -1093 0
1089 -1093 0
-929 -1093 -1094 0
929 1093 -1094 0
929 -1093 1094 0
-929 1093 1094 0
-1094 -1092 -1095 0
1094 1092 -1095 0
1094 -1092 1095 0
-1094 1092 1095 0
-1094 -1092 1096 0
1094 -1096 0
1092 -1096 0
-929 -1093 1097 0
929 -1097 0
1093 -1097 0
1096 1097 -1098 0
-1096 1098 0
-1097 1098 0
-10 -1089 1099 0
10 -1099 0
1089 -1099 0
-935 -1099 -1100 0
935 1099 -1100 0
935 -1099 1100 0
-935 1099 1100 0
-1100 -1098 -1101 0
1100 1098 -1101 0
1100 -1098 1101 0
-1100 1098 1101 0
-1100 -1098 1102 0
1100 -1102 0
1098 -1102 0
-935 -1099 1103 0
935 -1103 0
1099 -1103 0
1102 1103 -1104 0
-1102 1104 0
-1103 1104 0
-18 -1089 1105 0
18 -1105 0
1089 -1105 0
-941 -1105 -1106 0
941 1105 -1106 0
941 -1105 1106 0
-941 1105 1106 0
-1106 -1104 -1107 0
1106 1104 -1107 0
1106 -1104 1107 0
-1106 1104 1107 0
-1106 -1104 1108 0
1106 -1108 0
1104 -1108 0
-941 -1105 1109 0
941 -1109 0
1105 -1109 0
1108 1109 -1110 0
-1108 1110 0
-1109 1110 0
-26 -1089 1111 0
26 -1111 0
1089 -1111 0
-947 -1111 -1112 0
947 1111 -1112 0
947 -1111 1112 0
-947 1111 1112 0
-1112 -1110 -1113 0
1112 1110 -1113 0
1112 -1110 1113 0
-1112 1110 1113 0
-1112 -1110 1114 0
1112 -1114 0
1110 -1114 0
-947 -1111 1115 0
947 -1115 0
1111 -1115 0
1114 1115 -1116 0
-1114 1116 0
-1115 1116 0
-34 -1089 1117 0
34 -1117 0
1089 -1117 0
-953 -1117 -1118 0
953 1117 -1118 0
953 -1117 1118 0
-953 1117 1118 0
-1118 -1116 -1119 0
1118 1116 -1119 0
1118 -1116 1119 0
-1118 1116 1119 0
-1118 -1116 1120 0
1118 -1120 0
1116 -1120 0
-953 -1117 1121 0
953 -1121 0
1117 -1121 0
1120 1121 -1122 0
-1120 1122 0
-1121 1122 0
-42 -1089 1123 0
42 -1123 0
1089 -1123 0
-959 -1123 -1124 0
959 1123 -1124 0
959 -1123 1124 0
-959 1123 1124 0
-1124 -1122 -1125 0
1124 1122 -1125 0
1124 -1122 1125 0
-1124 1122 1125 0
-1124 -1122 1126 0
1124 -1126 0
1122 -1126 0
-959 -1123 1127 0
959 -1127 0
1123 -1127 0
1126 1127 -1128 0
-1126 1128 0
-1127 1128 0
-50 -1089 1129 0
50 -1129 0
1089 -1129 0
-965 -1129 -1130 0
965 1129 -1130 0
965 -1129 1130 0
-965 1129 1130 0
-1130 -1128 -1131 0
1130 1128 -1131 0
1130 -1128 1131 0
-1130 1128 1131 0
-1130 -1128 1132 0
1130 -1132 0
1128 -1132 0
-965 -1129 1133 0
965 -1133 0
1129 -1133 0
1132 1133 -1134 0
-1132 1134 0
-1133 1134 0
-58 -1089 1135 0
58 -1135 0
1089 -1135 0
-971 -1135 -1136 0
971 1135 -1136 0
971 -1135 1136 0
-971 1135 1136 0
-1136 -1134 -1137 0
1136 1134 -1137 0
1136 -1134 1137 0
-1136 1134 1137 0
-1136 -1134 1138 0
1136 -1138 0
1134 -1138 0
-971 -1135 1139 0
971 -1139 0
1135 -1139 0
1138 1139 -1140 0
-1138 1140 0
-1139 1140 0
-66 -1089 1141 0
66 -1141 0
1089 -1141 0
-977 -1141 -1142 0
977 1141 -1142 0
977 -1141 1142 0
-977 1141 1142 0
-1142 -1140 -1143 0
1142 1140 -1143 0
1142 -1140 1143 0
-1142 1140 1143 0
-1142 -1140 1144 0
1142 -1144 0
1140 -1144 0
-977 -1141 1145 0
977 -1145 0
1141 -1145 0
1144 1145 -1146 0
-1144 1146 0
-1145 1146 0
-74 -1089 1147 0
74 -1147 0
1089 -1147 0
-983 -1147 -1148 0
983 1147 -1148 0
983 -1147 1148 0
-983 1147 1148 0
-1148 -1146 -1149 0
1148 1146 -1149 0
1148 -1146 1149 0
-1148 1146 1149 0
-1148 -1146 1150 0
1148 -1150 0
1146 -1150 0
-983 -1147 1151 0
983 -1151 0
1147 -1151 0
1150 1151 -1152 0
-1150 1152 0
-1151 1152 0
-82 -1089 1153 0
82 -1153 0
1089 -1153 0
-989 -1153 -1154 0
989 1153 -1154 0
989 -1153 1154 0
-989 1153 1154 0
-1154 -1152 -1155 0
1154 1152 -1155 0
1154 -1152 1155 0
-1154 1152 1155 0
-1154 -1152 1156 0
1154 -1156 0
1152 -1156 0
-989 -1153 1157 0
989 -1157 0
1153 -1157 0
1156 1157 -1158 0
-1156 1158 0
-1157 1158 0
-90 -1089 1159 0
90 -1159 0
1089 -1159 0
-995 -1159 -1160 0
995 1159 -1160 0
995 -1159 1160 0
-995 1159 1160 0
-1160 -1158 -1161 0
1160 1158 -1161 0
1160 -1158 1161 0
-1160 1158 1161 0
-1160 -1158 1162 0
1160 -1162 0
1158 -1162 0
-995 -1159 1163 0
995 -1163 0
1159 -1163 0
1162 1163 -1164 0
-1162 1164 0
-1163 1164 0
-98 -1089 1165 0
98 -1165 0
1089 -1165 0
-1001 -1165 -1166 0
1001 1165 -1166 0
1001 -1165 1166 0
-1001 1165 1166 0
-1166 -1164 -1167 0
1166 1164 -1167 0
1166 -1164 1167 0
-1166 1164 1167 0
-1166 -1164 1168 0
1166 -1168 0
1164 -1168 0
-1001 -1165 1169 0
1001 -1169 0
1165 -1169 0
1168 1169 -1170 0
-1168 1170 0
-1169 1170 0
-106 -1089 1171 0
106 -1171 0
1089 -1171 0
-1007 -1171 -1172 0
1007 1171 -1172 0
1007 -1171 1172 0
-1007 1171 1172 0
-1172 -1170 -1173 0
1172 1170 -1173 0
1172 -1170 1173 0
-1172 1170 1173 0
-1172 -1170 1174 0
1172 -1174 0
1170 -1174 0
-1007 -1171 1175 0
1007 -1175 0
1171 -1175 0
1174 1175 -1176 0
-1174 1176 0
-1175 1176 0
-114 -1089 1177 0
114 -1177 0
1089 -1177 0
-1013 -1177 -1178 0
1013 1177 -1178 0
1013 -1177 1178 0
-1013 1177 1178 0
-1178 -1176 -1179 0
1178 1176 -1179 0
1178 -1176 1179 0
-1178 1176 1179 0
-1178 -1176 1180 0
1178 -1180 0
1176 -1180 0
-1013 -1177 1181 0
1013 -1181 0
1177 -1181 0
1180 1181 -1182 0
-1180 1182 0
-1181 1182 0
-122 -1089 1183 0
122 -1183 0
1089 -1183 0
-1019 -1183 -1184 0
1019 1183 -1184 0
1019 -1183 1184 0
-1019 1183 1184 0
-1184 -1182 -1185 0
1184 1182 -1185 0
1184 -1182 1185 0
-1184 1182 1185 0
-1184 -1182 1186 0
1184 -1186 0
1182 -1186 0
-1019 -1183 1187 0
1019 -1187 0
1183 -1187 0
1186 1187 -1188 0
-1186 1188 0
-1187 1188 0
-130 -1089 1189 0
130 -1189 0
1089 -1189 0
-1025 -1189 -1190 0
1025 1189 -1190 0
1025 -1189 1190 0
-1025 1189 1190 0
-1190 -1188 -1191 0
1190 1188 -1191 0
1190 -1188 1191 0
-1190 1188 1191 0
-1190 -1188 1192 0
1190 -1192 0
1188 -1192 0
-1025 -1189 1193 0
1025 -1193 0
1189 -1193 0
1192 1193 -1194 0
-1192 1194 0
-1193 1194 0
-138 -1089 1195 0
138 -1195 0
1089 -1195 0
-1031 -1195 -1196 0
1031 1195 -1196 0
1031 -1195 1196 0
-1031 1195 1196 0
-1196 -1194 -1197 0
1196 1194 -1197 0
1196 -1194 1197 0
-1196 1194 1197 0
-1196 -1194 1198 0
1196 -1198 0
1194 -1198 0
-1031 -1195 1199 0
1031 -1199 0
1195 -1199 0
1198 1199 -1200 0
-1198 1200 0
-1199 1200 0
-146 -1089 1201 0
146 -1201 0
1089 -1201 0
-1037 -1201 -1202 0
1037 1201 -1202 0
1037 -1201 1202 0
-1037 1201 1202 0
-1202 -1200 -1203 0
1202 1200 -1203 0
1202 -1200 1203 0
-1202 1200 1203 0
-1202 -1200 1204 0
1202 -1204 0
1200 -1204 0
-1037 -1201 1205 0
1037 -1205 0
1201 -1205 0
1204 1205 -1206 0
-1204 1206 0
-1205 1206 0
-154 -1089 1207 0
154 -1207 0
1089 -1207 0
-1043 -1207 -1208 0
1043 1207 -1208 0
1043 -1207 1208 0
-1043 1207 1208 0
-1208 -1206 -1209 0
1208 1206 -1209 0
1208 -1206 1209 0
-1208 1206 1209 0
-1208 -1206 1210 0
1208 -1210 0
1206 -1210 0
-1043 -1207 1211 0
1043 -1211 0
1207 -1211 0
1210 1211 -1212 0
-1210 1212 0
-1211 1212 0
-162 -1089 1213 0
162 -1213 0
1089 -1213 0
-1049 -1213 -1214 0
1049 1213 -1214 0
1049 -1213 1214 0
-1049 1213 1214 0
-1214 -1212 -1215 0
1214 1212 -1215 0
1214 -1212 1215 0
-1214 1212 1215 0
-1214 -1212 1216 0
1214 -1216 0
1212 -1216 0
-1049 -1213 1217 0
1049 -1217 0
1213 -1217 0
1216 1217 -1218 0
-1216 1218 0
-1217 1218 0
-170 -1089 1219 0
170 -1219 0
1089 -1219 0
-1055 -1219 -1220 0
1055 1219 -1220 0
1055 -1219 1220 0
-1055 1219 1220 0
-1220 -1218 -1221 0
1220 1218 -1221 0
1220 -1218 1221 0
-1220 1218 1221 0
-1220 -1218 1222 0
1220 -1222 0
1218 -1222 0
-1055 -1219 1223 0
1055 -1223 0
1219 -1223 0
1222 1223 -1224 0
-1222 1224 0
-1223 1224 0
-178 -1089 1225 0
178 -1225 0
1089 -1225 0
-1061 -1225 -1226 0
1061 1225 -1226 0
1061 -1225 1226 0
-1061 1225 1226 0
-1226 -1224 -1227 0
1226 1224 -1227 0
1226 -1224 1227 0
-1226 1224 1227 0
-1226 -1224 1228 0
1226 -1228 0
1224 -1228 0
-1061 -1225 1229 0
1061 -1229 0
1225 -1229 0
1228 1229 -1230 0
-1228 1230 0
-1229 1230 0
-186 -1089 1231 0
186 -1231 0
1089 -1231 0
-1067 -1231 -1232 0
1067 1231 -1232 0
1067 -1231 1232 0
-1067 1231 1232 0
-1232 -1230 -1233 0
1232 1230 -1233 0
1232 -1230 1233 0
-1232 1230 1233 0
-1232 -1230 1234 0
1232 -1234 0
1230 -1234 0
-1067 -1231 1235 0
1067 -1235 0
1231 -1235 0
1234 1235 -1236 0
-1234 1236 0
-1235 1236 0
-194 -1089 1237 0
194 -1237 0
1089 -1237 0
-1073 -1237 -1238 0
1073 1237 -1238 0
1073 -1237 1238 0
-1073 1237 1238 0
-1238 -1236 -1239 0
1238 1236 -1239 0
1238 -1236 1239 0
-1238 1236 1239 0
-1238 -1236 1240 0
1238 -1240 0
1236 -1240 0
-1073 -1237 1241 0
1073 -1241 0
1237 -1241 0
1240 1241 -1242 0
-1240 1242 0
-1241 1242 0
-202 -1089 1243 0
202 -1243 0
1089 -1243 0
-1079 -1243 -1244 0
1079 1243 -1244 0
1079 -1243 1244 0
-1079 1243 1244 0
-1244 -1242 -1245 0
1244 1242 -1245 0
1244 -1242 1245 0
-1244 1242 1245 0
-1244 -1242 1246 0
1244 -1246 0
1242 -1246 0
-1079 -1243 1247 0
1079 -1247 0
1243 -1247 0
1246 1247 -1248 0
-1246 1248 0
-1247 1248 0
-210 -1089 1249 0
210 -1249 0
1089 -1249 0
-1085 -1249 -1250 0
1085 1249 -1250 0
1085 -1249 1250 0
-1085 1249 1250 0
-1250 -1248 -1251 0
1250 1248 -1251 0
1250 -1248 1251 0
-1250 1248 1251 0
-1250 -1248 1252 0
1250 -1252 0
1248 -1252 0
-1085 -1249 1253 0
1085 -1253 0
1249 -1253 0
1252 1253 -1254 0
-1252 1254 0
-1253 1254 0
-218 -1089 1255 0
218 -1255 0
1089 -1255 0
-1088 -1255 -1256 0
1088 1255 -1256 0
1088 -1255 1256 0
-1088 1255 1256 0
-1256 -1254 -1257 0
1256 1254 -1257 0
1256 -1254 1257 0
-1256 1254 1257 0
-1256 -1254 1258 0
1256 -1258 0
1254 -1258 0
-1088 -1255 1259 0
1088 -1259 0
1255 -1259 0
1258 1259 -1260 0
-1258 1260 0
-1259 1260 0
-1 -1261 1262 0
1 -1262 0
1261 -1262 0
-1095 -1262 -1263 0
1095 1262 -1263 0
1095 -1262 1263 0
-1095 1262 1263 0
-1095 -1262 1264 0
1095 -1264 0
1262 -1264 0
-4 -1261 1265 0
4 -1265 0
1261 -1265 0
-1101 -1265 -1266 0
1101 1265 -1266 0
1101 -1265 1266 0
-1101 1265 1266 0
-1266 -1264 -1267 0
1266 1264 -1267 0
1266 -1264 1267 0
-1266 1264 1267 0
-1266 -1264 1268 0
1266 -1268 0
1264 -1268 0
-1101 -1265 1269 0
1101 -1269 0
1265 -1269 0
1268 1269 -1270 0
-1268 1270 0
-1269 1270 0
-10 -1261 1271 0
10 -1271 0
1261 -1271 0
-1107 -1271 -1272 0
1107 1271 -1272 0
1107 -1271 1272 0
-1107 1271 1272 0
-1272 -1270 -1273 0
1272 1270 -1273 0
1272 -1270 1273 0
-1272 1270 1273 0
-1272 -1270 1274 0
1272 -1274 0
1270 -1274 0
-1107 -1271 1275 0
1107 -1275 0
1271 -1275 0
1274 1275 -1276 0
-1274 1276 0
-1275 1276 0
-18 -1261 1277 0
18 -1277 0
1261 -1277 0
-1113 -1277 -1278 0
1113 1277 -1278 0
1113 -1277 1278 0
-1113 1277 1278 0
-1278 -1276 -1279 0
1278 1276 -1279 0
1278 -1276 1279 0
-1278 1276 1279 0
-1278 -1276 1280 0
1278 -1280 0
1276 -1280 0
-1113 -1277 1281 0
1113 -1281 0
1277 -1281 0
1280 1281 -1282 0
-1280 1282 0
-1281 1282 0
-26 -1261 1283 0
26 -1283 0
1261 -1283 0
-1119 -1283 -1284 0
1119 1283 -1284 0
1119 -1283 1284 0
-1119 1283 1284 0
-1284 -1282 -1285 0
1284 1282 -1285 0
1284 -1282 1285 0
-1284 1282 1285 0
-1284 -1282 1286 0
1284 -1286 0
1282 -1286 0
-1119 -1283 1287 0
1119 -1287 0
1283 -1287 0
1286 1287 -1288 0
-1286 1288 0
-1287 1288 0
-34 -1261 1289 0
34 -1289 0
1261 -1289 0
-1125 -1289 -1290 0
1125 1289 -1290 0
1125 -1289 1290 0
-1125 1289 1290 0
-1290 -1288 -1291 0
1290 1288 -1291 0
1290 -1288 1291 0
-1290 1288 1291 0
-1290 -1288 1292 0
1290 -1292 0
1288 -1292 0
-1125 -1289 1293 0
1125 -1293 0
1289 -1293 0
1292 1293 -1294 0
-1292 1294 0
-1293 1294 0
-42 -1261 1295 0
42 -1295 0
1261 -1295 0
-1131 -1295 -1296 0
1131 1295 -1296 0
1131 -1295 1296 0
-1131 1295 1296 0
-1296 -1294 -1297 0
1296 1294 -1297 0
1296 -1294 1297 0
-1296 1294 1297 0
-1296 -1294 1298 0
1296 -1298 0
1294 -1298 0
-1131 -1295 1299 0
1131 -1299 0
1295 -1299 0
1298 1299 -1300 0
-1298 1300 0
-1299 1300 0
-50 -1261 1301 0
50 -1301 0
1261 -1301 0
-1137 -1301 -1302 0
1137 1301 -1302 0
1137 -1301 1302 0
-1137 1301 1302 0
-1302 -1300 -1303 0
1302 1300 -1303 0
1302 -1300 1303 0
-1302 1300 1303 0
-1302 -1300 1304 0
1302 -1304 0
1300 -1304 0
-1137 -1301 1305 0
1137 -1305 0
1301 -1305 0
1304 1305 -1306 0
-1304 1306 0
-1305 1306 0
-58 -1261 1307 0
58 -1307 0
1261 -1307 0
-1143 -1307 -1308 0
1143 1307 -1308 0
1143 -1307 1308 0
-1143 1307 1308 0
-1308 -1306 -1309 0
1308 1306 -1309 0
1308 -1306 1309 0
-1308 1306 1309 0
-1308 -1306 1310 0
1308 -1310 0
1306 -1310 0
-1143 -1307 1311 0
1143 -1311 0
1307 -1311 0
1310 1311 -1312 0
-1310 1312 0
-1311 1312 0
-66 -1261 1313 0
66 -1313 0
1261 -1313 0
-1149 -1313 -1314 0
1149 1313 -1314 0
1149 -1313 1314 0
-1149 1313 1314 0
-1314 -1312 -1315 0
1314 1312 -1315 0
1314 -1312 1315 0
-1314 1312 1315 0
-1314 -1312 1316 0
1314 -1316 0
1312 -1316 0
-1149 -1313 1317 0
1149 -1317 0
1313 -1317 0
1316 1317 -1318 0
-1316 1318 0
-1317 1318 0
-74 -1261 1319 0
74 -1319 0
1261 -1319 0
-1155 -1319 -1320 0
1155 1319 -1320 0
1155 -1319 1320 0
-1155 1319 1320 0
-1320 -1318 -1321 0
1320 1318 -1321 0
1320 -1318 1321 0
-1320 1318 1321 0
-1320 -1318 1322 0
1320 -1322 0
1318 -1322 0
-1155 -1319 1323 0
1155 -1323 0
1319 -1323 0
1322 1323 -1324 0
-1322 1324 0
-1323 1324 0
-82 -1261 1325 0
82 -1325 0
1261 -1325 0
-1161 -1325 -1326 0
1161 1325 -1326 0
1161 -1325 1326 0
-1161 1325 1326 0
-1326 -1324 -1327 0
1326 1324 -1327 0
1326 -1324 1327 0
-1326 1324 1327 0
-1326 -1324 1328 0
1326 -1328 0
1324 -1328 0
-1161 -1325 1329 0
1161 -1329 0
1325 -1329 0
1328 1329 -1330 0
-1328 1330 0
-1329 1330 0
-90 -1261 1331 0
90 -1331 0
1261 -1331 0
-1167 -1331 -1332 0
1167 1331 -1332 0
1167 -1331 1332 0
-1167 1331 1332 0
-1332 -1330 -1333 0
1332 1330 -1333 0
1332 -1330 1333 0
-1332 1330 1333 0
-1332 -1330 1334 0
1332 -1334 0
1330 -1334 0
-1167 -1331 1335 0
1167 -1335 0
1331 -1335 0
1334 1335 -1336 0
-1334 1336 0
-1335 1336 0
-98 -1261 1337 0
98 -1337 0
1261 -1337 0
-1173 -1337 -1338 0
1173 1337 -1338 0
1173 -1337 1338 0
-1173 1337 1338 0
-1338 -1336 -1339 0
1338 1336 -1339 0
1338 -1336 1339 0
-1338 1336 1339 0
-1338 -1336 1340 0
1338 -1340 0
1336 -1340 0
-1173 -1337 1341 0
1173 -1341 0
1337 -1341 0
1340 1341 -1342 0
-1340 1342 0
-1341 1342 0
-106 -1261 1343 0
106 -1343 0
1261 -1343 0
-1179 -1343 -1344 0
1179 1343 -1344 0
1179 -1343 1344 0
-1179 1343 1344 0
-1344 -1342 -1345 0
1344 1342 -1345 0
1344 -1342 1345 0
-1344 1342 1345 0
-1344 -1342 1346 0
1344 -1346 0
1342 -1346 0
-1179 -1343 1347 0
1179 -1347 0
1343 -1347 0
1346 1347 -1348 0
-1346 1348 0
-1347 1348 0
-114 -1261 1349 0
114 -1349 0
1261 -1349 0
-1185 -1349 -1350 0
1185 1349 -1350 0
1185 -1349 1350 0
-1185 1349 1350 0
-1350 -1348 -1351 0
1350 1348 -1351 0
1350 -1348 1351 0
-1350 1348 1351 0
-1350 -1348 1352 0
1350 -1352 0
1348 -1352 0
-1185 -1349 1353 0
1185 -1353 0
1349 -1353 0
1352 1353 -1354 0
-1352 1354 0
-1353 1354 0
-122 -1261 1355 0
122 -1355 0
1261 -1355 0
-1191 -1355 -1356 0
1191 1355 -1356 0
1191 -1355 1356 0
-1191 1355 1356 0
-1356 -1354 -1357 0
1356 1354 -1357 0
1356 -1354 1357 0
-1356 1354 1357 0
-1356 -1354 1358 0
1356 -1358 0
1354 -1358 0
-1191 -1355 1359 0
1191 -1359 0
1355 -1359 0
1358 1359 -1360 0
-1358 1360 0
-1359 1360 0
-130 -1261 1361 0
130 -1361 0
1261 -1361 0
-1197 -1361 -1362 0
1197 1361 -1362 0
1197 -1361 1362 0
-1197 1361 1362 0
-1362 -1360 -1363 0
1362 1360 -1363 0
1362 -1360 1363 0
-1362 1360 1363 0
-1362 -1360 1364 0
1362 -1364 0
1360 -1364 0
-1197 -1361 1365 0
1197 -1365 0
1361 -1365 0
1364 1365 -1366 0
-1364 1366 0
-1365 1366 0
-138 -1261 1367 0
138 -1367 0
1261 -1367 0
-1203 -1367 -1368 0
1203 1367 -1368 0
1203 -1367 1368 0
-1203 1367 1368 0
-1368 -1366 -1369 0
1368 1366 -1369 0
1368 -1366 1369 0
-1368 1366 1369 0
-1368 -1366 1370 0
1368 -1370 0
1366 -1370 0
-1203 -1367 1371 0
1203 -1371 0
1367 -1371 0
1370 1371 -1372 0
-1370 1372 0
-1371 1372 0
-146 -1261 1373 0
146 -1373 0
1261 -1373 0
-1209 -1373 -1374 0
1209 1373 -1374 0
1209 -1373 1374 0
-1209 1373 1374 0
-1374 -1372 -1375 0
1374 1372 -1375 0
1374 -1372 1375 0
-1374 1372 1375 0
-1374 -1372 1376 0
1374 -1376 0
1372 -1376 0
-1209 -1373 1377 0
1209 -1377 0
1373 -1377 0
1376 1377 -1378 0
-1376 1378 0
-1377 1378 0
-154 -1261 1379 0
154 -1379 0
1261 -1379 0
-1215 -1379 -1380 0
1215 1379 -1380 0
1215 -1379 1380 0
-1215 1379 1380 0
-1380 -1378 -1381 0
1380 1378 -1381 0
1380 -1378 1381 0
-1380 1378 1381 0
-1380 -1378 1382 0
1380 -1382 0
1378 -1382 0
-1215 -1379 1383 0
1215 -1383 0
1379 -1383 0
1382 1383 -1384 0
-1382 1384 0
-1383 1384 0
-162 -1261 1385 0
162 -1385 0
1261 -1385 0
-1221 -1385 -1386 0
1221 1385 -1386 0
1221 -1385 1386 0
-1221 1385 1386 0
-1386 -1384 -1387 0
1386 1384 -1387 0
1386 -1384 1387 0
-1386 1384 1387 0
-1386 -1384 1388 0
1386 -1388 0
1384 -1388 0
-1221 -1385 1389 0
1221 -1389 0
1385 -1389 0
1388 1389 -1390 0
-1388 1390 0
-1389 1390 0
-170 -1261 1391 0
170 -1391 0
1261 -1391 0
-1227 -1391 -1392 0
1227 1391 -1392 0
1227 -1391 1392 0
-1227 1391 1392 0
-1392 -1390 -1393 0
1392 1390 -1393 0
1392 -1390 1393 0
-1392 1390 1393 0
-1392 -1390 1394 0
1392 -1394 0
1390 -1394 0
-1227 -1391 1395 0
1227 -1395 0
1391 -1395 0
1394 1395 -1396 0
-1394 1396 0
-1395 1396 0
-178 -1261 1397 0
178 -1397 0
1261 -1397 0
-1233 -1397 -1398 0
1233 1397 -1398 0
1233 -1397 1398 0
-1233 1397 1398 0
-1398 -1396 -1399 0
1398 1396 -1399 0
1398 -1396 1399 0
-1398 1396 1399 0
-1398 -1396 1400 0
1398 -1400 0
1396 -1400 0
-1233 -1397 1401 0
1233 -1401 0
1397 -1401 0
1400 1401 -1402 0
-1400 1402 0
-1401 1402 0
-186 -1261 1403 0
186 -1403 0
1261 -1403 0
-1239 -1403 -1404 0
1239 1403 -1404 0
1239 -1403 1404 0
-1239 1403 1404 0
-1404 -1402 -1405 0
1404 1402 -1405 0
1404 -1402 1405 0
-1404 1402 1405 0
-1404 -1402 1406 0
1404 -1406 0
1402 -1406 0
-1239 -1403 1407 0
1239 -1407 0
1403 -1407 0
1406 1407 -1408 0
-1406 1408 0
-1407 1408 0
-194 -1261 1409 0
194 -1409 0
1261 -1409 0
-1245 -1409 -1410 0
1245 1409 -1410 0
1245 -1409 1410 0
-1245 1409 1410 0
-1410 -1408 -1411 0
1410 1408 -1411 0
1410 -1408 1411 0
-1410 1408 1411 0
-1410 -1408 1412 0
1410 -1412 0
1408 -1412 0
-1245 -1409 1413 0
1245 -1413 0
1409 -1413 0
1412 1413 -1414 0
-1412 1414 0
-1413 1414 0
-202 -1261 1415 0
202 -1415 0
1261 -1415 0
-1251 -1415 -1416 0
1251 1415 -1416 0
1251 -1415 1416 0
-1251 1415 1416 0
-1416 -1414 -1417 0
1416 1414 -1417 0
1416 -1414 1417 0
-1416 1414 1417 0
-1416 -1414 1418 0
1416 -1418 0
1414 -1418 0
-1251 -1415 1419 0
1251 -1419 0
1415 -1419 0
1418 1419 -1420 0
-1418 1420 0
-1419 1420 0
-210 -1261 1421 0
210 -1421 0
1261 -1421 0
-1257 -1421 -1422 0
1257 1421 -1422 0
1257 -1421 1422 0
-1257 1421 1422 0
-1422 -1420 -1423 0
1422 1420 -1423 0
1422 -1420 1423 0
-1422 1420 1423 0
-1422 -1420 1424 0
1422 -1424 0
1420 -1424 0
-1257 -1421 1425 0
1257 -1425 0
1421 -1425 0
1424 1425 -1426 0
-1424 1426 0
-1425 1426 0
-218 -1261 1427 0
218 -1427 0
1261 -1427 0
-1260 -1427 -1428 0
1260 1427 -1428 0
1260 -1427 1428 0
-1260 1427 1428 0
-1428 -1426 -1429 0
1428 1426 -1429 0
1428 -1426 1429 0
-1428 1426 1429 0
-1428 -1426 1430 0
1428 -1430 0
1426 -1430 0
-1260 -1427 1431 0
1260 -1431 0
1427 -1431 0
1430 1431 -1432 0
-1430 1432 0
-1431 1432 0
-1 -1433 1434 0
1 -1434 0
1433 -1434 0
-1267 -1434 -1435 0
1267 1434 -1435 0
1267 -1434 1435 0
-1267 1434 1435 0
-1267 -1434 1436 0
1267 -1436 0
1434 -1436 0
-4 -1433 1437 0
4 -1437 0
1433 -1437 0
-1273 -1437 -1438 0
1273 1437 -1438 0
1273 -1437 1438 0
-1273 1437 1438 0
-1438 -1436 -1439 0
1438 1436 -1439 0
1438 -1436 1439 0
-1438 1436 1439 0
-1438 -1436 1440 0
1438 -1440 0
1436 -1440 0
-1273 -1437 1441 0
1273 -1441 0
1437 -1441 0
1440 1441 -1442 0
-1440 1442 0
-1441 1442 0
-10 -1433 1443 0
10 -1443 0
1433 -1443 0
-1279 -1443 -1444 0
1279 1443 -1444 0
1279 -1443 1444 0
-1279 1443 1444 0
-1444 -1442 -1445 0
1444 1442 -1445 0
1444 -1442 1445 0
-1444 1442 1445 0
-1444 -1442 1446 0
1444 -1446 0
1442 -1446 0
-1279 -1443 1447 0
1279 -1447 0
1443 -1447 0
1446 1447 -1448 0
-1446 1448 0
-1447 1448 0
-18 -1433 1449 0
18 -1449 0
1433 -1449 0
-1285 -1449 -1450 0
1285 1449 -1450 0
1285 -1449 1450 0
-1285 1449 1450 0
-1450 -1448 -1451 0
1450 1448 -1451 0
1450 -1448 1451 0
-1450 1448 1451 0
-1450 -1448 1452 0
1450 -1452 0
1448 -1452 0
-1285 -1449 1453 0
1285 -1453 0
1449 -1453 0
1452 1453 -1454 0
-1452 1454 0
-1453 1454 0
-26 -1433 1455 0
26 -1455 0
1433 -1455 0
-1291 -1455 -1456 0
1291 1455 -1456 0
1291 -1455 1456 0
-1291 1455 1456 0
-1456 -1454 -1457 0
1456 1454 -1457 0
1456 -1454 1457 0
-1456 1454 1457 0
-1456 -1454 1458 0
1456 -1458 0
1454 -1458 0
-1291 -1455 1459 0
1291 -1459 0
1455 -1459 0
1458 1459 -1460 0
-1458 1460 0
-1459 1460 0
-34 -1433 1461 0
34 -1461 0
1433 -1461 0
-1297 -1461 -1462 0
1297 1461 -1462 0
1297 -1461 1462 0
-1297 1461 1462 0
-1462 -1460 -1463 0
1462 1460 -1463 0
1462 -1460 1463 0
-1462 1460 1463 0
-1462 -1460 1464 0
1462 -1464 0
1460 -1464 0
-1297 -1461 1465 0
1297 -1465 0
1461 -1465 0
1464 1465 -1466 0
-1464 1466 0
-1465 1466 0
-42 -1433 1467 0
42 -1467 0
1433 -1467 0
-1303 -1467 -1468 0
1303 1467 -1468 0
1303 -1467 1468 0
-1303 1467 1468 0
-1468 -1466 -1469 0
1468 1466 -1469 0
1468 -1466 1469 0
-1468 1466 1469 0
-1468 -1466 1470 0
1468 -1470 0
1466 -1470 0
-1303 -1467 1471 0
1303 -1471 0
1467 -1471 0
1470 1471 -1472 0
-1470 1472 0
-1471 1472 0
-50 -1433 1473 0
50 -1473 0
1433 -1473 0
-1309 -1473 -1474 0
1309 1473 -1474 0
1309 -1473 1474 0
-1309 1473 1474 0
-1474 -1472 -1475 0
1474 1472 -1475 0
1474 -1472 1475 0
-1474 1472 1475 0
-1474 -1472 1476 0
1474 -1476 0
1472 -1476 0
-1309 -1473 1477 0
1309 -1477 0
1473 -1477 0
1476 1477 -1478 0
-1476 1478 0
-1477 1478 0
-58 -1433 1479 0
58 -1479 0
1433 -1479 0
-1315 -1479 -1480 0
1315 1479 -1480 0
1315 -1479 1480 0
-1315 1479 1480 0
-1480 -1478 -1481 0
1480 1478 -1481 0
1480 -1478 1481 0
-1480 1478 1481 0
-1480 -1478 1482 0
1480 -1482 0
1478 -1482 0
-1315 -1479 1483 0
1315 -1483 0
1479 -1483 0
1482 1483 -1484 0
-1482 1484 0
-1483 1484 0
-66 -1433 1485 0
66 -1485 0
1433 -1485 0
-1321 -1485 -1486 0
1321 1485 -1486 0
1321 -1485 1486 0
-1321 1485 1486 0
-1486 -1484 -1487 0
1486 1484 -1487 0
1486 -1484 1487 0
-1486 1484 1487 0
-1486 -1484 1488 0
1486 -1488 0
1484 -1488 0
-1321 -1485 1489 0
1321 -1489 0
1485 -1489 0
1488 1489 -1490 0
-1488 1490 0
-1489 1490 0
-74 -1433 1491 0
74 -1491 0
1433 -1491 0
-1327 -1491 -1492 0
1327 1491 -1492 0
1327 -1491 1492 0
-1327 1491 1492 0
-1492 -1490 -1493 0
1492 1490 -1493 0
1492 -1490 1493 0
-1492 1490 1493 0
-1492 -1490 1494 0
1492 -1494 0
1490 -1494 0
-1327 -1491 1495 0
1327 -1495 0
1491 -1495 0
1494 1495 -1496 0
-1494 1496 0
-1495 1496 0
-82 -1433 1497 0
82 -1497 0
1433 -1497 0
-1333 -1497 -1498 0
1333 1497 -1498 0
1333 -1497 1498 0
-1333 1497 1498 0
-1498 -1496 -1499 0
1498 1496 -1499 0
1498 -1496 1499 0
-1498 1496 1499 0
-1498 -1496 1500 0
1498 -1500 0
1496 -1500 0
-1333 -1497 1501 0
1333 -1501 0
1497 -1501 0
1500 1501 -1502 0
-1500 1502 0
-1501 1502 0
-90 -1433 1503 0
90 -1503 0
1433 -1503 0
-1339 -1503 -1504 0
1339 1503 -1504 0
1339 -1503 1504 0
-1339 1503 1504 0
-1504 -1502 -1505 0
1504 1502 -1505 0
1504 -1502 1505 0
-1504 1502 1505 0
-1504 -1502 1506 0
1504 -1506 0
1502 -1506 0
-1339 -1503 1507 0
1339 -1507 0
1503 -1507 0
1506 1507 -1508 0
-1506 1508 0
-1507 1508 0
-98 -1433 1509 0
98 -1509 0
1433 -1509 0
-1345 -1509 -1510 0
1345 1509 -1510 0
1345 -1509 1510 0
-1345 1509 1510 0
-1510 -1508 -1511 0
1510 1508 -1511 0
1510 -1508 1511 0
-1510 1508 1511 0
-1510 -1508 1512 0
1510 -1512 0
1508 -1512 0
-1345 -1509 1513 0
1345 -1513 0
1509 -1513 0
1512 1513 -1514 0
-1512 1514 0
-1513 1514 0
-106 -1433 1515 0
106 -1515 0
1433 -1515 0
-1351 -1515 -1516 0
1351 1515 -1516 0
1351 -1515 1516 0
-1351 1515 1516 0
-1516 -1514 -1517 0
1516 1514 -1517 0
1516 -1514 1517 0
-1516 1514 1517 0
-1516 -1514 1518 0
1516 -1518 0
1514 -1518 0
-1351 -1515 1519 0
1351 -1519 0
1515 -1519 0
1518 1519 -1520 0
-1518 1520 0
-1519 1520 0
-114 -1433 1521 0
114 -1521 0
1433 -1521 0
-1357 -1521 -1522 0
1357 1521 -1522 0
1357 -1521 1522 0
-1357 1521 1522 0
-1522 -1520 -1523 0
1522 1520 -1523 0
1522 -1520 1523 0
-1522 1520 1523 0
-1522 -1520 1524 0
1522 -1524 0
1520 -1524 0
-1357 -1521 1525 0
1357 -1525 0
1521 -1525 0
1524 1525 -1526 0
-1524 1526 0
-1525 1526 0
-122 -1433 1527 0
122 -1527 0
1433 -1527 0
-1363 -1527 -1528 0
1363 1527 -1528 0
1363 -1527 1528 0
-1363 1527 1528 0
-1528 -1526 -1529 0
1528 1526 -1529 0
1528 -1526 1529 0
-1528 1526 1529 0
-1528 -1526 1530 0
1528 -1530 0
1526 -1530 0
-1363 -1527 1531 0
1363 -1531 0
1527 -1531 0
1530 1531 -1532 0
-1530 1532 0
-1531 1532 0
-130 -1433 1533 0
130 -1533 0
1433 -1533 0
-1369 -1533 -1534 0
1369 1533 -1534 0
1369 -1533 1534 0
-1369 1533 1534 0
-1534 -1532 -1535 0
1534 1532 -1535 0
1534 -1532 1535 0
-1534 1532 1535 0
-1534 -1532 1536 0
1534 -1536 0
1532 -1536 0
-1369 -1533 1537 0
1369 -1537 0
1533 -1537 0
1536 1537 -1538 0
-1536 1538 0
-1537 1538 0
-138 -1433 1539 0
138 -1539 0
1433 -1539 0
-1375 -1539 -1540 0
1375 1539 -1540 0
1375 -1539 1540 0
-1375 1539 1540 0
-1540 -1538 -1541 0
1540 1538 -1541 0
1540 -1538 1541 0
-1540 1538 1541 0
-1540 -1538 1542 0
1540 -1542 0
1538 -1542 0
-1375 -1539 1543 0
1375 -1543 0
1539 -1543 0
1542 1543 -1544 0
-1542 1544 0
-1543 1544 0
-146 -1433 1545 0
146 -1545 0
1433 -1545 0
-1381 -1545 -1546 0
1381 1545 -1546 0
1381 -1545 1546 0
-1381 1545 1546 0
-1546 -1544 -1547 0
1546 1544 -1547 0
1546 -1544 1547 0
-1546 1544 1547 0
-1546 -1544 1548 0
1546 -1548 0
1544 -1548 0
-1381 -1545 1549 0
1381 -1549 0
1545 -1549 0
1548 1549 -1550 0
-1548 1550 0
-1549 1550 0
-154 -1433 1551 0
154 -1551 0
1433 -1551 0
-1387 -1551 -1552 0
1387 1551 -1552 0
1387 -1551 1552 0
-1387 1551 1552 0
-1552 -1550 -1553 0
1552 1550 -1553 0
1552 -1550 1553 0
-1552 1550 1553 0
-1552 -1550 1554 0
1552 -1554 0
1550 -1554 0
-1387 -1551 1555 0
1387 -1555 0
1551 -1555 0
1554 1555 -1556 0
-1554 1556 0
-1555 1556 0
-162 -1433 1557 0
162 -1557 0
1433 -1557 0
-1393 -1557 -1558 0
1393 1557 -1558 0
1393 -1557 1558 0
-1393 1557 1558 0
-1558 -1556 -1559 0
1558 1556 -1559 0
1558 -1556 1559 0
-1558 1556 1559 0
-1558 -1556 1560 0
1558 -1560 0
1556 -1560 0
-1393 -1557 1561 0
1393 -1561 0
1557 -1561 0
1560 1561 -1562 0
-1560 1562 0
-1561 1562 0
-170 -1433 1563 0
170 -1563 0
1433 -1563 0
-1399 -1563 -1564 0
1399 1563 -1564 0
1399 -1563 1564 0
-1399 1563 1564 0
-1564 -1562 -1565 0
1564 1562 -1565 0
1564 -1562 1565 0
-1564 1562 1565 0
-1564 -1562 1566 0
1564 -1566 0
1562 -1566 0
-1399 -1563 1567 0
1399 -1567 0
1563 -1567 0
1566 1567 -1568 0
-1566 1568 0
-1567 1568 0
-178 -1433 1569 0
178 -1569 0
1433 -1569 0
-1405 -1569 -1570 0
1405 1569 -1570 0
1405 -1569 1570 0
-1405 1569 1570 0
-1570 -1568 -1571 0
1570 1568 -1571 0
1570 -1568 1571 0
-1570 1568 1571 0
-1570 -1568 1572 0
1570 -1572 0
1568 -1572 0
-1405 -1569 1573 0
1405 -1573 0
1569 -1573 0
1572 1573 -1574 0
-1572 1574 0
-1573 1574 0
-186 -1433 1575 0
186 -1575 0
1433 -1575 0
-1411 -1575 -1576 0
1411 1575 -1576 0
1411 -1575 1576 0
-1411 1575 1576 0
-1576 -1574 -1577 0
1576 1574 -1577 0
1576 -1574 1577 0
-1576 1574 1577 0
-1576 -1574 1578 0
1576 -1578 0
1574 -1578 0
-1411 -1575 1579 0
1411 -1579 0
1575 -1579 0
1578 1579 -1580 0
-1578 1580 0
-1579 1580 0
-194 -1433 1581 0
194 -1581 0
1433 -1581 0
-1417 -1581 -1582 0
1417 1581 -1582 0
1417 -1581 1582 0
-1417 1581 1582 0
-1582 -1580 -1583 0
1582 1580 -1583 0
1582 -1580 1583 0
-1582 1580 1583 0
-1582 -1580 1584 0
1582 -1584 0
1580 -1584 0
-1417 -1581 1585 0
1417 -1585 0
1581 -1585 0
1584 1585 -1586 0
-1584 1586 0
-1585 1586 0
-202 -1433 1587 0
202 -1587 0
1433 -1587 0
-1423 -1587 -1588 0
1423 1587 -1588 0
1423 -1587 1588 0
-1423 1587 1588 0
-1588 -1586 -1589 0
1588 1586 -1589 0
1588 -1586 1589 0
-1588 1586 1589 0
-1588 -1586 1590 0
1588 -1590 0
1586 -1590 0
-1423 -1587 1591 0
1423 -1591 0
1587 -1591 0
1590 1591 -1592 0
-1590 1592 0
-1591 1592 0
-210 -1433 1593 0
210 -1593 0
1433 -1593 0
-1429 -1593 -1594 0
1429 1593 -1594 0
1429 -1593 1594 0
-1429 1593 1594 0
-1594 -1592 -1595 0
1594 1592 -1595 0
1594 -1592 1595 0
-1594 1592 1595 0
-1594 -1592 1596 0
1594 -1596 0
1592 -1596 0
-1429 -1593 1597 0
1429 -1597 0
1593 -1597 0
1596 1597 -1598 0
-1596 1598 0
-1597 1598 0
-218 -1433 1599 0
218 -1599 0
1433 -1599 0
-1432 -1599 -1600 0
1432 1599 -1600 0
1432 -1599 1600 0
-1432 1599 1600 0
-1600 -1598 -1601 0
1600 1598 -1601 0
1600 -1598 1601 0
-1600 1598 1601 0
-1600 -1598 1602 0
1600 -1602 0
1598 -1602 0
-1432 -1599 1603 0
1432 -1603 0
1599 -1603 0
1602 1603 -1604 0
-1602 1604 0
-1603 1604 0
-1 -1605 1606 0
1 -1606 0
1605 -1606 0
-1439 -1606 -1607 0
1439 1606 -1607 0
1439 -1606 1607 0
-1439 1606 1607 0
-1439 -1606 1608 0
1439 -1608 0
1606 -1608 0
-4 -1605 1609 0
4 -1609 0
1605 -1609 0
-1445 -1609 -1610 0
1445 1609 -1610 0
1445 -1609 1610 0
-1445 1609 1610 0
-1610 -1608 -1611 0
1610 1608 -1611 0
1610 -1608 1611 0
-1610 1608 1611 0
-1610 -1608 1612 0
1610 -1612 0
1608 -1612 0
-1445 -1609 1613 0
1445 -1613 0
1609 -1613 0
1612 1613 -1614 0
-1612 1614 0
-1613 1614 0
-10 -1605 1615 0
10 -1615 0
1605 -1615 0
-1451 -1615 -1616 0
1451 1615 -1616 0
1451 -1615 1616 0
-1451 1615 1616 0
-1616 -1614 -1617 0
1616 1614 -1617 0
1616 -1614 1617 0
-1616 1614 1617 0
-1616 -1614 1618 0
1616 -1618 0
1614 -1618 0
-1451 -1615 1619 0
1451 -1619 0
1615 -1619 0
1618 1619 -1620 0
-1618 1620 0
-1619 1620 0
-18 -1605 1621 0
18 -1621 0
1605 -1621 0
-1457 -1621 -1622 0
1457 1621 -1622 0
1457 -1621 1622 0
-1457 1621 1622 0
-1622 -1620 -1623 0
1622 1620 -1623 0
1622 -1620 1623 0
-1622 1620 1623 0
-1622 -1620 1624 0
1622 -1624 0
1620 -1624 0
-1457 -1621 1625 0
1457 -1625 0
1621 -1625 0
1624 1625 -1626 0
-1624 1626 0
-1625 1626 0
-26 -1605 1627 0
26 -1627 0
1605 -1627 0
-1463 -1627 -1628 0
1463 1627 -1628 0
1463 -1627 1628 0
-1463 1627 1628 0
-1628 -1626 -1629 0
1628 1626 -1629 0
1628 -1626 1629 0
-1628 1626 1629 0
-1628 -1626 1630 0
1628 -1630 0
1626 -1630 0
-1463 -1627 1631 0
1463 -1631 0
1627 -1631 0
1630 1631 -1632 0
-1630 1632 0
-1631 1632 0
-34 -1605 1633 0
34 -1633 0
1605 -1633 0
-1469 -1633 -1634 0
1469 1633 -1634 0
1469 -1633 1634 0
-1469 1633 1634 0
-1634 -1632 -1635 0
1634 1632 -1635 0
1634 -1632 1635 0
-1634 1632 1635 0
-1634 -1632 1636 0
1634 -1636 0
1632 -1636 0
-1469 -1633 1637 0
1469 -1637 0
1633 -1637 0
1636 1637 -1638 0
-1636 1638 0
-1637 1638 0
-42 -1605 1639 0
42 -1639 0
1605 -1639 0
-1475 -1639 -1640 0
1475 1639 -1640 0
1475 -1639 1640 0
-1475 1639 1640 0
-1640 -1638 -1641 0
1640 1638 -1641 0
1640 -1638 1641 0
-1640 1638 1641 0
-1640 -1638 1642 0
1640 -1642 0
1638 -1642 0
-1475 -1639 1643 0
1475 -1643 0
1639 -1643 0
1642 1643 -1644 0
-1642 1644 0
-1643 1644 0
-50 -1605 1645 0
50 -1645 0
1605 -1645 0
-1481 -1645 -1646 0
1481 1645 -1646 0
1481 -1645 1646 0
-1481 1645 1646 0
-1646 -1644 -1647 0
1646 1644 -1647 0
1646 -1644 1647 0
-1646 1644 1647 0
-1646 -1644 1648 0
1646 -1648 0
1644 -1648 0
-1481 -1645 1649 0
1481 -1649 0
1645 -1649 0
1648 1649 -1650 0
-1648 1650 0
-1649 1650 0
-58 -1605 1651 0
58 -1651 0
1605 -1651 0
-1487 -1651 -1652 0
1487 1651 -1652 0
1487 -1651 1652 0
-1487 1651 1652 0
-1652 -1650 -1653 0
1652 1650 -1653 0
1652 -1650 1653 0
-1652 1650 1653 0
-1652 -1650 1654 0
1652 -1654 0
1650 -1654 0
-1487 -1651 1655 0
1487 -1655 0
1651 -1655 0
1654 1655 -1656 0
-1654 1656 0
-1655 1656 0
-66 -1605 1657 0
66 -1657 0
1605 -1657 0
-1493 -1657 -1658 0
1493 1657 -1658 0
1493 -1657 1658 0
-1493 1657 1658 0
-1658 -1656 -1659 0
1658 1656 -1659 0
1658 -1656 1659 0
-1658 1656 1659 0
-1658 -1656 1660 0
1658 -1660 0
1656 -1660 0
-1493 -1657 1661 0
1493 -1661 0
1657 -1661 0
1660 1661 -1662 0
-1660 1662 0
-1661 1662 0
-74 -1605 1663 0
74 -1663 0
1605 -1663 0
-1499 -1663 -1664 0
1499 1663 -1664 0
1499 -1663 1664 0
-1499 1663 1664 0
-1664 -1662 -1665 0
1664 1662 -1665 0
1664 -1662 1665 0
-1664 1662 1665 0
-1664 -1662 1666 0
1664 -1666 0
1662 -1666 0
-1499 -1663 1667 0
1499 -1667 0
1663 -1667 0
1666 1667 -1668 0
-1666 1668 0
-1667 1668 0
-82 -1605 1669 0
82 -1669 0
1605 -1669 0
-1505 -1669 -1670 0
1505 1669 -1670 0
1505 -1669 1670 0
-1505 1669 1670 0
-1670 -1668 -1671 0
1670 1668 -1671 0
1670 -1668 1671 0
-1670 1668 1671 0
-1670 -1668 1672 0
1670 -1672 0
1668 -1672 0
-1505 -1669 1673 0
1505 -1673 0
1669 -1673 0
1672 1673 -1674 0
-1672 1674 0
-1673 1674 0
-90 -1605 1675 0
90 -1675 0
1605 -1675 0
-1511 -1675 -1676 0
1511 1675 -1676 0
1511 -1675 1676 0
-1511 1675 1676 0
-1676 -1674 -1677 0
1676 1674 -1677 0
1676 -1674 1677 0
-1676 1674 1677 0
-1676 -1674 1678 0
1676 -1678 0
1674 -1678 0
-1511 -1675 1679 0
1511 -1679 0
1675 -1679 0
1678 1679 -1680 0
-1678 1680 0
-1679 1680 0
-98 -1605 1681 0
98 -1681 0
1605 -1681 0
-1517 -1681 -1682 0
1517 1681 -1682 0
1517 -1681 1682 0
-1517 1681 1682 0
-1682 -1680 -1683 0
1682 1680 -1683 0
1682 -1680 1683 0
-1682 1680 1683 0
-1682 -1680 1684 0
1682 -1684 0
1680 -1684 0
-1517 -1681 1685 0
1517 -1685 0
1681 -1685 0
1684 1685 -1686 0
-1684 1686 0
-1685 1686 0
-106 -1605 1687 0
106 -1687 0
1605 -1687 0
-1523 -1687 -1688 0
1523 1687 -1688 0
1523 -1687 1688 0
-1523 1687 1688 0
-1688 -1686 -1689 0
1688 1686 -1689 0
1688 -1686 1689 0
-1688 1686 1689 0
-1688 -1686 1690 0
1688 -1690 0
1686 -1690 0
-1523 -1687 1691 0
1523 -1691 0
1687 -1691 0
1690 1691 -1692 0
-1690 1692 0
-1691 1692 0
-114 -1605 1693 0
114 -1693 0
1605 -1693 0
-1529 -1693 -1694 0
1529 1693 -1694 0
1529 -1693 1694 0
-1529 1693 1694 0
-1694 -1692 -1695 0
1694 1692 -1695 0
1694 -1692 1695 0
-1694 1692 1695 0
-1694 -1692 1696 0
1694 -1696 0
1692 -1696 0
-1529 -1693 1697 0
1529 -1697 0
1693 -1697 0
1696 1697 -1698 0
-1696 1698 0
-1697 1698 0
-122 -1605 1699 0
122 -1699 0
1605 -1699 0
-1535 -1699 -1700 0
1535 1699 -1700 0
1535 -1699 1700 0
-1535 1699 1700 0
-1700 -1698 -1701 0
1700 1698 -1701 0
1700 -1698 1701 0
-1700 1698 1701 0
-1700 -1698 1702 0
1700 -1702 0
1698 -1702 0
-1535 -1699 1703 0
1535 -1703 0
1699 -1703 0
1702 1703 -1704 0
-1702 1704 0
-1703 1704 0
-130 -1605 1705 0
130 -1705 0
1605 -1705 0
-1541 -1705 -1706 0
1541 1705 -1706 0
1541 -1705 1706 0
-1541 1705 1706 0
-1706 -1704 -1707 0
1706 1704 -1707 0
1706 -1704 1707 0
-1706 1704 1707 0
-1706 -1704 1708 0
1706 -1708 0
1704 -1708 0
-1541 -1705 1709 0
1541 -1709 0
1705 -1709 0
1708 1709 -1710 0
-1708 1710 0
-1709 1710 0
-138 -1605 1711 0
138 -1711 0
1605 -1711 0
-1547 -1711 -1712 0
1547 1711 -1712 0
1547 -1711 1712 0
-1547 1711 1712 0
-1712 -1710 -1713 0
1712 1710 -1713 0
1712 -1710 1713 0
-1712 1710 1713 0
-1712 -1710 1714 0
1712 -1714 0
1710 -1714 0
-1547 -1711 1715 0
1547 -1715 0
1711 -1715 0
1714 1715 -1716 0
-1714 1716 0
-1715 1716 0
-146 -1605 1717 0
146 -1717 0
1605 -1717 0
-1553 -1717 -1718 0
1553 1717 -1718 0
1553 -1717 1718 0
-1553 1717 1718 0
-1718 -1716 -1719 0
1718 1716 -1719 0
1718 -1716 1719 0
-1718 1716 1719 0
-1718 -1716 1720 0
1718 -1720 0
1716 -1720 0
-1553 -1717 1721 0
1553 -1721 0
1717 -1721 0
1720 1721 -1722 0
-1720 1722 0
-1721 1722 0
-154 -1605 1723 0
154 -1723 0
1605 -1723 0
-1559 -1723 -1724 0
1559 1723 -1724 0
1559 -1723 1724 0
-1559 1723 1724 0
-1724 -1722 -1725 0
1724 1722 -1725 0
1724 -1722 1725 0
-1724 1722 1725 0
-1724 -1722 1726 0
1724 -1726 0
1722 -1726 0
-1559 -1723 1727 0
1559 -1727 0
1723 -1727 0
1726 1727 -1728 0
-1726 1728 0
-1727 1728 0
-162 -1605 1729 0
162 -1729 0
1605 -1729 0
-1565 -1729 -1730 0
1565 1729 -1730 0
1565 -1729 1730 0
-1565 1729 1730 0
-1730 -1728 -1731 0
1730 1728 -1731 0
1730 -1728 1731 0
-1730 1728 1731 0
-1730 -1728 1732 0
1730 -1732 0
1728 -1732 0
-1565 -1729 1733 0
1565 -1733 0
1729 -1733 0
1732 1733 -1734 0
-1732 1734 0
-1733 1734 0
-170 -1605 1735 0
170 -1735 0
1605 -1735 0
-1571 -1735 -1736 0
1571 1735 -1736 0
1571 -1735 1736 0
-1571 1735 1736 0
-1736 -1734 -1737 0
1736 1734 -1737 0
1736 -1734 1737 0
-1736 1734 1737 0
-1736 -1734 1738 0
1736 -1738 0
1734 -1738 0
-1571 -1735 1739 0
1571 -1739 0
1735 -1739 0
1738 1739 -1740 0
-1738 1740 0
-1739 1740 0
-178 -1605 1741 0
178 -1741 0
1605 -1741 0
-1577 -1741 -1742 0
1577 1741 -1742 0
1577 -1741 1742 0
-1577 1741 1742 0
-1742 -1740 -1743 0
1742 1740 -1743 0
1742 -1740 1743 0
-1742 1740 1743 0
-1742 -1740 1744 0
1742 -1744 0
1740 -1744 0
-1577 -1741 1745 0
1577 -1745 0
1741 -1745 0
1744 1745 -1746 0
-1744 1746 0
-1745 1746 0
-186 -1605 1747 0
186 -1747 0
1605 -1747 0
-1583 -1747 -1748 0
1583 1747 -1748 0
1583 -1747 1748 0
-1583 1747 1748 0
-1748 -1746 -1749 0
1748 1746 -1749 0
1748 -1746 1749 0
-1748 1746 1749 0
-1748 -1746 1750 0
1748 -1750 0
1746 -1750 0
-1583 -1747 1751 0
1583 -1751 0
1747 -1751 0
1750 1751 -1752 0
-1750 1752 0
-1751 1752 0
-194 -1605 1753 0
194 -1753 0
1605 -1753 0
-1589 -1753 -1754 0
1589 1753 -1754 0
1589 -1753 1754 0
-1589 1753 1754 0
-1754 -1752 -1755 0
1754 1752 -1755 0
1754 -1752 1755 0
-1754 1752 1755 0
-1754 -1752 1756 0
1754 -1756 0
1752 -1756 0
-1589 -1753 1757 0
1589 -1757 0
1753 -1757 0
1756 1757 -1758 0
-1756 1758 0
-1757 1758 0
-202 -1605 1759 0
202 -1759 0
1605 -1759 0
-1595 -1759 -1760 0
1595 1759 -1760 0
1595 -1759 1760 0
-1595 1759 1760 0
-1760 -1758 -1761 0
1760 1758 -1761 0
1760 -1758 1761 0
-1760 1758 1761 0
-1760 -1758 1762 0
1760 -1762 0
1758 -1762 0
-1595 -1759 1763 0
1595 -1763 0
1759 -1763 0
1762 1763 -1764 0
-1762 1764 0
-1763 1764 0
-210 -1605 1765 0
210 -1765 0
1605 -1765 0
-1601 -1765 -1766 0
1601 1765 -1766 0
1601 -1765 1766 0
-1601 1765 1766 0
-1766 -1764 -1767 0
1766 1764 -1767 0
1766 -1764 1767 0
-1766 1764 1767 0
-1766 -1764 1768 0
1766 -1768 0
1764 -1768 0
-1601 -1765 1769 0
1601 -1769 0
1765 -1769 0
1768 1769 -1770 0
-1768 1770 0
-1769 1770 0
-218 -1605 1771 0
218 -1771 0
1605 -1771 0
-1604 -1771 -1772 0
1604 1771 -1772 0
1604 -1771 1772 0
-1604 1771 1772 0
-1772 -1770 -1773 0
1772 1770 -1773 0
1772 -1770 1773 0
-1772 1770 1773 0
-1772 -1770 1774 0
1772 -1774 0
1770 -1774 0
-1604 -1771 1775 0
1604 -1775 0
1771 -1775 0
1774 1775 -1776 0
-1774 1776 0
-1775 1776 0
-1 -1777 1778 0
1 -1778 0
1777 -1778 0
-1611 -1778 -1779 0
1611 1778 -1779 0
1611 -1778 1779 0
-1611 1778 1779 0
-1611 -1778 1780 0
1611 -1780 0
1778 -1780 0
-4 -1777 1781 0
4 -1781 0
1777 -1781 0
-1617 -1781 -1782 0
1617 1781 -1782 0
1617 -1781 1782 0
-1617 1781 1782 0
-1782 -1780 -1783 0
1782 1780 -1783 0
1782 -1780 1783 0
-1782 1780 1783 0
-1782 -1780 1784 0
1782 -1784 0
1780 -1784 0
-1617 -1781 1785 0
1617 -1785 0
1781 -1785 0
1784 1785 -1786 0
-1784 1786 0
-1785 1786 0
-10 -1777 1787 0
10 -1787 0
1777 -1787 0
-1623 -1787 -1788 0
1623 1787 -1788 0
1623 -1787 1788 0
-1623 1787 1788 0
-1788 -1786 -1789 0
1788 1786 -1789 0
1788 -1786 1789 0
-1788 1786 1789 0
-1788 -1786 1790 0
1788 -1790 0
1786 -1790 0
-1623 -1787 1791 0
1623 -1791 0
1787 -1791 0
1790 1791 -1792 0
-1790 1792 0
-1791 1792 0
-18 -1777 1793 0
18 -1793 0
1777 -1793 0
-1629 -1793 -1794 0
1629 1793 -1794 0
1629 -1793 1794 0
-1629 1793 1794 0
-1794 -1792 -1795 0
1794 1792 -1795 0
1794 -1792 1795 0
-1794 1792 1795 0
-1794 -1792 1796 0
1794 -1796 0
1792 -1796 0
-1629 -1793 1797 0
1629 -1797 0
1793 -1797 0
1796 1797 -1798 0
-1796 1798 0
-1797 1798 0
-26 -1777 1799 0
26 -1799 0
1777 -1799 0
-1635 -1799 -1800 0
1635 1799 -1800 0
1635 -1799 1800 0
-1635 1799 1800 0
-1800 -1798 -1801 0
1800 1798 -1801 0
1800 -1798 1801 0
-1800 1798 1801 0
-1800 -1798 1802 0
1800 -1802 0
1798 -1802 0
-1635 -1799 1803 0
1635 -1803 0
1799 -1803 0
1802 1803 -1804 0
-1802 1804 0
-1803 1804 0
-34 -1777 1805 0
34 -1805 0
1777 -1805 0
-1641 -1805 -1806 0
1641 1805 -1806 0
1641 -1805 1806 0
-1641 1805 1806 0
-1806 -1804 -1807 0
1806 1804 -1807 0
1806 -1804 1807 0
-1806 1804 1807 0
-1806 -1804 1808 0
1806 -1808 0
1804 -1808 0
-1641 -1805 1809 0
1641 -1809 0
1805 -1809 0
1808 1809 -1810 0
-1808 1810 0
-1809 1810 0
-42 -1777 1811 0
42 -1811 0
1777 -1811 0
-1647 -1811 -1812 0
1647 1811 -1812 0
1647 -1811 1812 0
-1647 1811 1812 0
-1812 -1810 -1813 0
1812 1810 -1813 0
1812 -1810 1813 0
-1812 1810 1813 0
-1812 -1810 1814 0
1812 -1814 0
1810 -1814 0
-1647 -1811 1815 0
1647 -1815 0
1811 -1815 0
1814 1815 -1816 0
-1814 1816 0
-1815 1816 0
-50 -1777 1817 0
50 -1817 0
1777 -1817 0
-1653 -1817 -1818 0
1653 1817 -1818 0
1653 -1817 1818 0
-1653 1817 1818 0
-1818 -1816 -1819 0
1818 1816 -1819 0
1818 -1816 1819 0
-1818 1816 1819 0
-1818 -1816 1820 0
1818 -1820 0
1816 -1820 0
-1653 -1817 1821 0
1653 -1821 0
1817 -1821 0
1820 1821 -1822 0
-1820 1822 0
-1821 1822 0
-58 -1777 1823 0
58 -1823 0
1777 -1823 0
-1659 -1823 -1824 0
1659 1823 -1824 0
1659 -1823 1824 0
-1659 1823 1824 0
-1824 -1822 -1825 0
1824 1822 -1825 0
1824 -1822 1825 0
-1824 1822 1825 0
-1824 -1822 1826 0
1824 -1826 0
1822 -1826 0
-1659 -1823 1827 0
1659 -1827 0
1823 -1827 0
1826 1827 -1828 0
-1826 1828 0
-1827 1828 0
-66 -1777 1829 0
66 -1829 0
1777 -1829 0
-1665 -1829 -1830 0
1665 1829 -1830 0
1665 -1829 1830 0
-1665 1829 1830 0
-1830 -1828 -1831 0
1830 1828 -1831 0
1830 -1828 1831 0
-1830 1828 1831 0
-1830 -1828 1832 0
1830 -1832 0
1828 -1832 0
-1665 -1829 1833 0
1665 -1833 0
1829 -1833 0
1832 1833 -1834 0
-1832 1834 0
-1833 1834 0
-74 -1777 1835 0
74 -1835 0
1777 -1835 0
-1671 -1835 -1836 0
1671 1835 -1836 0
1671 -1835 1836 0
-1671 1835 1836 0
-1836 -1834 -1837 0
1836 1834 -1837 0
1836 -1834 1837 0
-1836 1834 1837 0
-1836 -1834 1838 0
1836 -1838 0
1834 -1838 0
-1671 -1835 1839 0
1671 -1839 0
1835 -1839 0
1838 1839 -1840 0
-1838 1840 0
-1839 1840 0
-82 -1777 1841 0
82 -1841 0
1777 -1841 0
-1677 -1841 -1842 0
1677 1841 -1842 0
1677 -1841 1842 0
-1677 1841 1842 0
-1842 -1840 -1843 0
1842 1840 -1843 0
1842 -1840 1843 0
-1842 1840 1843 0
-1842 -1840 1844 0
1842 -1844 0
1840 -1844 0
-1677 -1841 1845 0
1677 -1845 0
1841 -1845 0
1844 1845 -1846 0
-1844 1846 0
-1845 1846 0
-90 -1777 1847 0
90 -1847 0
1777 -1847 0
-1683 -1847 -1848 0
1683 1847 -1848 0
1683 -1847 1848 0
-1683 1847 1848 0
-1848 -1846 -1849 0
1848 1846 -1849 0
1848 -1846 1849 0
-1848 1846 1849 0
-1848 -1846 1850 0
1848 -1850 0
1846 -1850 0
-1683 -1847 1851 0
1683 -1851 0
1847 -1851 0
1850 1851 -1852 0
-1850 1852 0
-1851 1852 0
-98 -1777 1853 0
98 -1853 0
1777 -1853 0
-1689 -1853 -1854 0
1689 1853 -1854 0
1689 -1853 1854 0
-1689 1853 1854 0
-1854 -1852 -1855 0
1854 1852 -1855 0
1854 -1852 1855 0
-1854 1852 1855 0
-1854 -1852 1856 0
1854 -1856 0
1852 -1856 0
-1689 -1853 1857 0
1689 -1857 0
1853 -1857 0
1856 1857 -1858 0
-1856 1858 0
-1857 1858 0
-106 -1777 1859 0
106 -1859 0
1777 -1859 0
-1695 -1859 -1860 0
1695 1859 -1860 0
1695 -1859 1860 0
-1695 1859 1860 0
-1860 -1858 -1861 0
1860 1858 -1861 0
1860 -1858 1861 0
-1860 1858 1861 0
-1860 -1858 1862 0
1860 -1862 0
1858 -1862 0
-1695 -1859 1863 0
1695 -1863 0
1859 -1863 0
1862 1863 -1864 0
-1862 1864 0
-1863 1864 0
-114 -1777 1865 0
114 -1865 0
1777 -1865 0
-1701 -1865 -1866 0
1701 1865 -1866 0
1701 -1865 1866 0
-1701 1865 1866 0
-1866 -1864 -1867 0
1866 1864 -1867 0
1866 -1864 1867 0
-1866 1864 1867 0
-1866 -1864 1868 0
1866 -1868 0
1864 -1868 0
-1701 -1865 1869 0
1701 -1869 0
1865 -1869 0
1868 1869 -1870 0
-1868 1870 0
-1869 1870 0
-122 -1777 1871 0
122 -1871 0
1777 -1871 0
-1707 -1871 -1872 0
1707 1871 -1872 0
1707 -1871 1872 0
-1707 1871 1872 0
-1872 -1870 -1873 0
1872 1870 -1873 0
1872 -1870 1873 0
-1872 1870 1873 0
-1872 -1870 1874 0
1872 -1874 0
1870 -1874 0
-1707 -1871 1875 0
1707 -1875 0
1871 -1875 0
1874 1875 -1876 0
-1874 1876 0
-1875 1876 0
-130 -1777 1877 0
130 -1877 0
1777 -1877 0
-1713 -1877 -1878 0
1713 1877 -1878 0
1713 -1877 1878 0
-1713 1877 1878 0
-1878 -1876 -1879 0
1878 1876 -1879 0
1878 -1876 1879 0
-1878 1876 1879 0
-1878 -1876 1880 0
1878 -1880 0
1876 -1880 0
-1713 -1877 1881 0
1713 -1881 0
1877 -1881 0
1880 1881 -1882 0
-1880 1882 0
-1881 1882 0
-138 -1777 1883 0
138 -1883 0
1777 -1883 0
-1719 -1883 -1884 0
1719 1883 -1884 0
1719 -1883 1884 0
-1719 1883 1884 0
-1884 -1882 -1885 0
1884 1882 -1885 0
1884 -1882 1885 0
-1884 1882 1885 0
-1884 -1882 1886 0
1884 -1886 0
1882 -1886 0
-1719 -1883 1887 0
1719 -1887 0
1883 -1887 0
1886 1887 -1888 0
-1886 1888 0
-1887 1888 0
-146 -1777 1889 0
146 -1889 0
1777 -1889 0
-1725 -1889 -1890 0
1725 1889 -1890 0
1725 -1889 1890 0
-1725 1889 1890 0
-1890 -1888 -1891 0
1890 1888 -1891 0
1890 -1888 1891 0
-1890 1888 1891 0
-1890 -1888 1892 0
1890 -1892 0
1888 -1892 0
-1725 -1889 1893 0
1725 -1893 0
1889 -1893 0
1892 1893 -1894 0
-1892 1894 0
-1893 1894 0
-154 -1777 1895 0
154 -1895 0
1777 -1895 0
-1731 -1895 -1896 0
1731 1895 -1896 0
1731 -1895 1896 0
-1731 1895 1896 0
-1896 -1894 -1897 0
1896 1894 -1897 0
1896 -1894 1897 0
-1896 1894 1897 0
-1896 -1894 1898 0
1896 -1898 0
1894 -1898 0
-1731 -1895 1899 0
1731 -1899 0
1895 -1899 0
1898 1899 -1900 0
-1898 1900 0
-1899 1900 0
-162 -1777 1901 0
162 -1901 0
1777 -1901 0
-1737 -1901 -1902 0
1737 1901 -1902 0
1737 -1901 1902 0
-1737 1901 1902 0
-1902 -1900 -1903 0
1902 1900 -1903 0
1902 -1900 1903 0
-1902 1900 1903 0
-1902 -1900 1904 0
1902 -1904 0
1900 -1904 0
-1737 -1901 1905 0
1737 -1905 0
1901 -1905 0
1904 1905 -1906 0
-1904 1906 0
-1905 1906 0
-170 -1777 1907 0
170 -1907 0
1777 -1907 0
-1743 -1907 -1908 0
1743 1907 -1908 0
1743 -1907 1908 0
-1743 1907 1908 0
-1908 -1906 -1909 0
1908 1906 -1909 0
1908 -1906 1909 0
-1908 1906 1909 0
-1908 -1906 1910 0
1908 -1910 0
1906 -1910 0
-1743 -1907 1911 0
1743 -1911 0
1907 -1911 0
1910 1911 -1912 0
-1910 1912 0
-1911 1912 0
-178 -1777 1913 0
178 -1913 0
1777 -1913 0
-1749 -1913 -1914 0
1749 1913 -1914 0
1749 -1913 1914 0
-1749 1913 1914 0
-1914 -1912 -1915 0
1914 1912 -1915 0
1914 -1912 1915 0
-1914 1912 1915 0
-1914 -1912 1916 0
1914 -1916 0
1912 -1916 0
-1749 -1913 1917 0
1749 -1917 0
1913 -1917 0
1916 1917 -1918 0
-1916 1918 0
-1917 1918 0
-186 -1777 1919 0
186 -1919 0
1777 -1919 0
-1755 -1919 -1920 0
1755 1919 -1920 0
1755 -1919 1920 0
-1755 1919 1920 0
-1920 -1918 -1921 0
1920 1918 -1921 0
1920 -1918 1921 0
-1920 1918 1921 0
-1920 -1918 1922 0
1920 -1922 0
1918 -1922 0
-1755 -1919 1923 0
1755 -1923 0
1919 -1923 0
1922 1923 -1924 0
-1922 1924 0
-1923 1924 0
-194 -1777 1925 0
194 -1925 0
1777 -1925 0
-1761 -1925 -1926 0
1761 1925 -1926 0
1761 -1925 1926 0
-1761 1925 1926 0
-1926 -1924 -1927 0
1926 1924 -1927 0
1926 -1924 1927 0
-1926 1924 1927 0
-1926 -1924 1928 0
1926 -1928 0
1924 -1928 0
-1761 -1925 1929 0
1761 -1929 0
1925 -1929 0
1928 1929 -1930 0
-1928 1930 0
-1929 1930 0
-202 -1777 1931 0
202 -1931 0
1777 -1931 0
-1767 -1931 -1932 0
1767 1931 -1932 0
1767 -1931 1932 0
-1767 1931 1932 0
-1932 -1930 -1933 0
1932 1930 -1933 0
1932 -1930 1933 0
-1932 1930 1933 0
-1932 -1930 1934 0
1932 -1934 0
1930 -1934 0
-1767 -1931 1935 0
1767 -1935 0
1931 -1935 0
1934 1935 -1936 0
-1934 1936 0
-1935 1936 0
-210 -1777 1937 0
210 -1937 0
1777 -1937 0
-1773 -1937 -1938 0
1773 1937 -1938 0
1773 -1937 1938 0
-1773 1937 1938 0
-1938 -1936 -1939 0
1938 1936 -1939 0
1938 -1936 1939 0
-1938 1936 1939 0
-1938 -1936 1940 0
1938 -1940 0
1936 -1940 0
-1773 -1937 1941 0
1773 -1941 0
1937 -1941 0
1940 1941 -1942 0
-1940 1942 0
-1941 1942 0
-218 -1777 1943 0
218 -1943 0
1777 -1943 0
-1776 -1943 -1944 0
1776 1943 -1944 0
1776 -1943 1944 0
-1776 1943 1944 0
-1944 -1942 -1945 0
1944 1942 -1945 0
1944 -1942 1945 0
-1944 1942 1945 0
-1944 -1942 1946 0
1944 -1946 0
1942 -1946 0
-1776 -1943 1947 0
1776 -1947 0
1943 -1947 0
1946 1947 -1948 0
-1946 1948 0
-1947 1948 0
-1 -1949 1950 0
1 -1950 0
1949 -1950 0
-1783 -1950 -1951 0
1783 1950 -1951 0
1783 -1950 1951 0
-1783 1950 1951 0
-1783 -1950 1952 0
1783 -1952 0
1950 -1952 0
-4 -1949 1953 0
4 -1953 0
1949 -1953 0
-1789 -1953 -1954 0
1789 1953 -1954 0
1789 -1953 1954 0
-1789 1953 1954 0
-1954 -1952 -1955 0
1954 1952 -1955 0
1954 -1952 1955 0
-1954 1952 1955 0
-1954 -1952 1956 0
1954 -1956 0
1952 -1956 0
-1789 -1953 1957 0
1789 -1957 0
1953 -1957 0
1956 1957 -1958 0
-1956 1958 0
-1957 1958 0
-10 -1949 1959 0
10 -1959 0
1949 -1959 0
-1795 -1959 -1960 0
1795 1959 -1960 0
1795 -1959 1960 0
-1795 1959 1960 0
-1960 -1958 -1961 0
1960 1958 -1961 0
1960 -1958 1961 0
-1960 1958 1961 0
-1960 -1958 1962 0
1960 -1962 0
1958 -1962 0
-1795 -1959 1963 0
1795 -1963 0
1959 -1963 0
1962 1963 -1964 0
-1962 1964 0
-1963 1964 0
-18 -1949 1965 0
18 -1965 0
1949 -1965 0
-1801 -1965 -1966 0
1801 1965 -1966 0
1801 -1965 1966 0
-1801 1965 1966 0
-1966 -1964 -1967 0
1966 1964 -1967 0
1966 -1964 1967 0
-1966 1964 1967 0
-1966 -1964 1968 0
1966 -1968 0
1964 -1968 0
-1801 -1965 1969 0
1801 -1969 0
1965 -1969 0
1968 1969 -1970 0
-1968 1970 0
-1969 1970 0
-26 -1949 1971 0
26 -1971 0
1949 -1971 0
-1807 -1971 -1972 0
1807 1971 -1972 0
1807 -1971 1972 0
-1807 1971 1972 0
-1972 -1970 -1973 0
1972 1970 -1973 0
1972 -1970 1973 0
-1972 1970 1973 0
-1972 -1970 1974 0
1972 -1974 0
1970 -1974 0
-1807 -1971 1975 0
1807 -1975 0
1971 -1975 0
1974 1975 -1976 0
-1974 1976 0
-1975 1976 0
-34 -1949 1977 0
34 -1977 0
1949 -1977 0
-1813 -1977 -1978 0
1813 1977 -1978 0
1813 -1977 1978 0
-1813 1977 1978 0
-1978 -1976 -1979 0
1978 1976 -1979 0
1978 -1976 1979 0
-1978 1976 1979 0
-1978 -1976 1980 0
1978 -1980 0
1976 -1980 0
-1813 -1977 1981 0
1813 -1981 0
1977 -1981 0
1980 1981 -1982 0
-1980 1982 0
-1981 1982 0
-42 -1949 1983 0
42 -1983 0
1949 -1983 0
-1819 -1983 -1984 0
1819 1983 -1984 0
1819 -1983 1984 0
-1819 1983 1984 0
-1984 -1982 -1985 0
1984 1982 -1985 0
1984 -1982 1985 0
-1984 1982 1985 0
-1984 -1982 1986 0
1984 -1986 0
1982 -1986 0
-1819 -1983 1987 0
1819 -1987 0
1983 -1987 0
1986 1987 -1988 0
-1986 1988 0
-1987 1988 0
-50 -1949 1989 0
50 -1989 0
1949 -1989 0
-1825 -1989 -1990 0
1825 1989 -1990 0
1825 -1989 1990 0
-1825 1989 1990 0
-1990 -1988 -1991 0
1990 1988 -1991 0
1990 -1988 1991 0
-1990 1988 1991 0
-1990 -1988 1992 0
1990 -1992 0
1988 -1992 0
-1825 -1989 1993 0
1825 -1993 0
1989 -1993 0
1992 1993 -1994 0
-1992 1994 0
-1993 1994 0
-58 -1949 1995 0
58 -1995 0
1949 -1995 0
-1831 -1995 -1996 0
1831 1995 -1996 0
1831 -1995 1996 0
-1831 1995 1996 0
-1996 -1994 -1997 0
1996 1994 -1997 0
1996 -1994 1997 0
-1996 1994 1997 0
-1996 -1994 1998 0
1996 -1998 0
1994 -1998 0
-1831 -1995 1999 0
1831 -1999 0
1995 -1999 0
1998 1999 -2000 0
-1998 2000 0
-1999 2000 0
-66 -1949 2001 0
66 -2001 0
1949 -2001 0
-1837 -2001 -2002 0
1837 2001 -2002 0
1837 -2001 2002 0
-1837 2001 2002 0
-2002 -2000 -2003 0
2002 2000 -2003 0
2002 -2000 2003 0
-2002 2000 2003 0
-2002 -2000 2004 0
2002 -2004 0
2000 -2004 0
-1837 -2001 2005 0
1837 -2005 0
2001 -2005 0
2004 2005 -2006 0
-2004 2006 0
-2005 2006 0
-74 -1949 2007 0
74 -2007 0
1949 -2007 0
-1843 -2007 -2008 0
1843 2007 -2008 0
1843 -2007 2008 0
-1843 2007 2008 0
-2008 -2006 -2009 0
2008 2006 -2009 0
2008 -2006 2009 0
-2008 2006 2009 0
-2008 -2006 2010 0
2008 -2010 0
2006 -2010 0
-1843 -2007 2011 0
1843 -2011 0
2007 -2011 0
2010 2011 -2012 0
-2010 2012 0
-2011 2012 0
-82 -1949 2013 0
82 -2013 0
1949 -2013 0
-1849 -2013 -2014 0
1849 2013 -2014 0
1849 -2013 2014 0
-1849 2013 2014 0
-2014 -2012 -2015 0
2014 2012 -2015 0
2014 -2012 2015 0
-2014 2012 2015 0
-2014 -2012 2016 0
2014 -2016 0
2012 -2016 0
-1849 -2013 2017 0
1849 -2017 0
2013 -2017 0
2016 2017 -2018 0
-2016 2018 0
-2017 2018 0
-90 -1949 2019 0
90 -2019 0
1949 -2019 0
-1855 -2019 -2020 0
1855 2019 -2020 0
1855 -2019 2020 0
-1855 2019 2020 0
-2020 -2018 -2021 0
2020 2018 -2021 0
2020 -2018 2021 0
-2020 2018 2021 0
-2020 -2018 2022 0
2020 -2022 0
2018 -2022 0
-1855 -2019 2023 0
1855 -2023 0
2019 -2023 0
2022 2023 -2024 0
-2022 2024 0
-2023 2024 0
-98 -1949 2025 0
98 -2025 0
1949 -2025 0
-1861 -2025 -2026 0
1861 2025 -2026 0
1861 -2025 2026 0
-1861 2025 2026 0
-2026 -2024 -2027 0
2026 2024 -2027 0
2026 -2024 2027 0
-2026 2024 2027 0
-2026 -2024 2028 0
2026 -2028 0
2024 -2028 0
-1861 -2025 2029 0
1861 -2029 0
2025 -2029 0
2028 2029 -2030 0
-2028 2030 0
-2029 2030 0
-106 -1949 2031 0
106 -2031 0
1949 -2031 0
-1867 -2031 -2032 0
1867 2031 -2032 0
1867 -2031 2032 0
-1867 2031 2032 0
-2032 -2030 -2033 0
2032 2030 -2033 0
2032 -2030 2033 0
-2032 2030 2033 0
-2032 -2030 2034 0
2032 -2034 0
2030 -2034 0
-1867 -2031 2035 0
1867 -2035 0
2031 -2035 0
2034 2035 -2036 0
-2034 2036 0
-2035 2036 0
-114 -1949 2037 0
114 -2037 0
1949 -2037 0
-1873 -2037 -2038 0
1873 2037 -2038 0
1873 -2037 2038 0
-1873 2037 2038 0
-2038 -2036 -2039 0
2038 2036 -2039 0
2038 -2036 2039 0
-2038 2036 2039 0
-2038 -2036 2040 0
2038 -2040 0
2036 -2040 0
-1873 -2037 2041 0
1873 -2041 0
2037 -2041 0
2040 2041 -2042 0
-2040 2042 0
-2041 2042 0
-122 -1949 2043 0
122 -2043 0
1949 -2043 0
-1879 -2043 -2044 0
1879 2043 -2044 0
1879 -2043 2044 0
-1879 2043 2044 0
-2044 -2042 -2045 0
2044 2042 -2045 0
2044 -2042 2045 0
-2044 2042 2045 0
-2044 -2042 2046 0
2044 -2046 0
2042 -2046 0
-1879 -2043 2047 0
1879 -2047 0
2043 -2047 0
2046 2047 -2048 0
-2046 2048 0
-2047 2048 0
-130 -1949 2049 0
130 -2049 0
1949 -2049 0
-1885 -2049 -2050 0
1885 2049 -2050 0
1885 -2049 2050 0
-1885 2049 2050 0
-2050 -2048 -2051 0
2050 2048 -2051 0
2050 -2048 2051 0
-2050 2048 2051 0
-2050 -2048 2052 0
2050 -2052 0
2048 -2052 0
-1885 -2049 2053 0
1885 -2053 0
2049 -2053 0
2052 2053 -2054 0
-2052 2054 0
-2053 2054 0
-138 -1949 2055 0
138 -2055 0
1949 -2055 0
-1891 -2055 -2056 0
1891 2055 -2056 0
1891 -2055 2056 0
-1891 2055 2056 0
-2056 -2054 -2057 0
2056 2054 -2057 0
2056 -2054 2057 0
-2056 2054 2057 0
-2056 -2054 2058 0
2056 -2058 0
2054 -2058 0
-1891 -2055 2059 0
1891 -2059 0
2055 -2059 0
2058 2059 -2060 0
-2058 2060 0
-2059 2060 0
-146 -1949 2061 0
146 -2061 0
1949 -2061 0
-1897 -2061 -2062 0
1897 2061 -2062 0
1897 -2061 2062 0
-1897 2061 2062 0
-2062 -2060 -2063 0
2062 2060 -2063 0
2062 -2060 2063 0
-2062 2060 2063 0
-2062 -2060 2064 0
2062 -2064 0
2060 -2064 0
-1897 -2061 2065 0
1897 -2065 0
2061 -2065 0
2064 2065 -2066 0
-2064 2066 0
-2065 2066 0
-154 -1949 2067 0
154 -2067 0
1949 -2067 0
-1903 -2067 -2068 0
1903 2067 -2068 0
1903 -2067 2068 0
-1903 2067 2068 0
-2068 -2066 -2069 0
2068 2066 -2069 0
2068 -2066 2069 0
-2068 2066 2069 0
-2068 -2066 2070 0
2068 -2070 0
2066 -2070 0
-1903 -2067 2071 0
1903 -2071 0
2067 -2071 0
2070 2071 -2072 0
-2070 2072 0
-2071 2072 0
-162 -1949 2073 0
162 -2073 0
1949 -2073 0
-1909 -2073 -2074 0
1909 2073 -2074 0
1909 -2073 2074 0
-1909 2073 2074 0
-2074 -2072 -2075 0
2074 2072 -2075 0
2074 -2072 2075 0
-2074 2072 2075 0
-2074 -2072 2076 0
2074 -2076 0
2072 -2076 0
-1909 -2073 2077 0
1909 -2077 0
2073 -2077 0
2076 2077 -2078 0
-2076 2078 0
-2077 2078 0
-170 -1949 2079 0
170 -2079 0
1949 -2079 0
-1915 -2079 -2080 0
1915 2079 -2080 0
1915 -2079 2080 0
-1915 2079 2080 0
-2080 -2078 -2081 0
2080 2078 -2081 0
2080 -2078 2081 0
-2080 2078 2081 0
-2080 -2078 2082 0
2080 -2082 0
2078 -2082 0
-1915 -2079 2083 0
1915 -2083 0
2079 -2083 0
2082 2083 -2084 0
-2082 2084 0
-2083 2084 0
-178 -1949 2085 0
178 -2085 0
1949 -2085 0
-1921 -2085 -2086 0
1921 2085 -2086 0
1921 -2085 2086 0
-1921 2085 2086 0
-2086 -2084 -2087 0
2086 2084 -2087 0
2086 -2084 2087 0
-2086 2084 2087 0
-2086 -2084 2088 0
2086 -2088 0
2084 -2088 0
-1921 -2085 2089 0
1921 -2089 0
2085 -2089 0
2088 2089 -2090 0
-2088 2090 0
-2089 2090 0
-186 -1949 2091 0
186 -2091 0
1949 -2091 0
-1927 -2091 -2092 0
1927 2091 -2092 0
1927 -2091 2092 0
-1927 2091 2092 0
-2092 -2090 -2093 0
2092 2090 -2093 0
2092 -2090 2093 0
-2092 2090 2093 0
-2092 -2090 2094 0
2092 -2094 0
2090 -2094 0
-1927 -2091 2095 0
1927 -2095 0
2091 -2095 0
2094 2095 -2096 0
-2094 2096 0
-2095 2096 0
-194 -1949 2097 0
194 -2097 0
1949 -2097 0
-1933 -2097 -2098 0
1933 2097 -2098 0
1933 -2097 2098 0
-1933 2097 2098 0
-2098 -2096 -2099 0
2098 2096 -2099 0
2098 -2096 2099 0
-2098 2096 2099 0
-2098 -2096 2100 0
2098 -2100 0
2096 -2100 0
-1933 -2097 2101 0
1933 -2101 0
2097 -2101 0
2100 2101 -2102 0
-2100 2102 0
-2101 2102 0
-202 -1949 2103 0
202 -2103 0
1949 -2103 0
-1939 -2103 -2104 0
1939 2103 -2104 0
1939 -2103 2104 0
-1939 2103 2104 0
-2104 -2102 -2105 0
2104 2102 -2105 0
2104 -2102 2105 0
-2104 2102 2105 0
-2104 -2102 2106 0
2104 -2106 0
2102 -2106 0
-1939 -2103 2107 0
1939 -2107 0
2103 -2107 0
2106 2107 -2108 0
-2106 2108 0
-2107 2108 0
-210 -1949 2109 0
210 -2109 0
1949 -2109 0
-1945 -2109 -2110 0
1945 2109 -2110 0
1945 -2109 2110 0
-1945 2109 2110 0
-2110 -2108 -2111 0
2110 2108 -2111 0
2110 -2108 2111 0
-2110 2108 2111 0
-2110 -2108 2112 0
2110 -2112 0
2108 -2112 0
-1945 -2109 2113 0
1945 -2113 0
2109 -2113 0
2112 2113 -2114 0
-2112 2114 0
-2113 2114 0
-218 -1949 2115 0
218 -2115 0
1949 -2115 0
-1948 -2115 -2116 0
1948 2115 -2116 0
1948 -2115 2116 0
-1948 2115 2116 0
-2116 -2114 -2117 0
2116 2114 -2117 0
2116 -2114 2117 0
-2116 2114 2117 0
-2116 -2114 2118 0
2116 -2118 0
2114 -2118 0
-1948 -2115 2119 0
1948 -2119 0
2115 -2119 0
2118 2119 -2120 0
-2118 2120 0
-2119 2120 0
-1 -2121 2122 0
1 -2122 0
2121 -2122 0
-1955 -2122 -2123 0
1955 2122 -2123 0
1955 -2122 2123 0
-1955 2122 2123 0
-1955 -2122 2124 0
1955 -2124 0
2122 -2124 0
-4 -2121 2125 0
4 -2125 0
2121 -2125 0
-1961 -2125 -2126 0
1961 2125 -2126 0
1961 -2125 2126 0
-1961 2125 2126 0
-2126 -2124 -2127 0
2126 2124 -2127 0
2126 -2124 2127 0
-2126 2124 2127 0
-2126 -2124 2128 0
2126 -2128 0
2124 -2128 0
-1961 -2125 2129 0
1961 -2129 0
2125 -2129 0
2128 2129 -2130 0
-2128 2130 0
-2129 2130 0
-10 -2121 2131 0
10 -2131 0
2121 -2131 0
-1967 -2131 -2132 0
1967 2131 -2132 0
1967 -2131 2132 0
-1967 2131 2132 0
-2132 -2130 -2133 0
2132 2130 -2133 0
2132 -2130 2133 0
-2132 2130 2133 0
-2132 -2130 2134 0
2132 -2134 0
2130 -2134 0
-1967 -2131 2135 0
1967 -2135 0
2131 -2135 0
2134 2135 -2136 0
-2134 2136 0
-2135 2136 0
-18 -2121 2137 0
18 -2137 0
2121 -2137 0
-1973 -2137 -2138 0
1973 2137 -2138 0
1973 -2137 2138 0
-1973 2137 2138 0
-2138 -2136 -2139 0
2138 2136 -2139 0
2138 -2136 2139 0
-2138 2136 2139 0
-2138 -2136 2140 0
2138 -2140 0
2136 -2140 0
-1973 -2137 2141 0
1973 -2141 0
2137 -2141 0
2140 2141 -2142 0
-2140 2142 0
-2141 2142 0
-26 -2121 2143 0
26 -2143 0
2121 -2143 0
-1979 -2143 -2144 0
1979 2143 -2144 0
1979 -2143 2144 0
-1979 2143 2144 0
-2144 -2142 -2145 0
2144 2142 -2145 0
2144 -2142 2145 0
-2144 2142 2145 0
-2144 -2142 2146 0
2144 -2146 0
2142 -2146 0
-1979 -2143 2147 0
1979 -2147 0
2143 -2147 0
2146 2147 -2148 0
-2146 2148 0
-2147 2148 0
-34 -2121 2149 0
34 -2149 0
2121 -2149 0
-1985 -2149 -2150 0
1985 2149 -2150 0
1985 -2149 2150 0
-1985 2149 2150 0
-2150 -2148 -2151 0
2150 2148 -2151 0
2150 -2148 2151 0
-2150 2148 2151 0
-2150 -2148 2152 0
2150 -2152 0
2148 -2152 0
-1985 -2149 2153 0
1985 -2153 0
2149 -2153 0
2152 2153 -2154 0
-2152 2154 0
-2153 2154 0
-42 -2121 2155 0
42 -2155 0
2121 -2155 0
-1991 -2155 -2156 0
1991 2155 -2156 0
1991 -2155 2156 0
-1991 2155 2156 0
-2156 -2154 -2157 0
2156 2154 -2157 0
2156 -2154 2157 0
-2156 2154 2157 0
-2156 -2154 2158 0
2156 -2158 0
2154 -2158 0
-1991 -2155 2159 0
1991 -2159 0
2155 -2159 0
2158 2159 -2160 0
-2158 2160 0
-2159 2160 0
-50 -2121 2161 0
50 -2161 0
2121 -2161 0
-1997 -2161 -2162 0
1997 2161 -2162 0
1997 -2161 2162 0
-1997 2161 2162 0
-2162 -2160 -2163 0
2162 2160 -2163 0
2162 -2160 2163 0
-2162 2160 2163 0
-2162 -2160 2164 0
2162 -2164 0
2160 -2164 0
-1997 -2161 2165 0
1997 -2165 0
2161 -2165 0
2164 2165 -2166 0
-2164 2166 0
-2165 2166 0
-58 -2121 2167 0
58 -2167 0
2121 -2167 0
-2003 -2167 -2168 0
2003 2167 -2168 0
2003 -2167 2168 0
-2003 2167 2168 0
-2168 -2166 -2169 0
2168 2166 -2169 0
2168 -2166 2169 0
-2168 2166 2169 0
-2168 -2166 2170 0
2168 -2170 0
2166 -2170 0
-2003 -2167 2171 0
2003 -2171 0
2167 -2171 0
2170 2171 -2172 0
-2170 2172 0
-2171 2172 0
-66 -2121 2173 0
66 -2173 0
2121 -2173 0
-2009 -2173 -2174 0
2009 2173 -2174 0
2009 -2173 2174 0
-2009 2173 2174 0
-2174 -2172 -2175 0
2174 2172 -2175 0
2174 -2172 2175 0
-2174 2172 2175 0
-2174 -2172 2176 0
2174 -2176 0
2172 -2176 0
-2009 -2173 2177 0
2009 -2177 0
2173 -2177 0
2176 2177 -2178 0
-2176 2178 0
-2177 2178 0
-74 -2121 2179 0
74 -2179 0
2121 -2179 0
-2015 -2179 -2180 0
2015 2179 -2180 0
2015 -2179 2180 0
-2015 2179 2180 0
-2180 -2178 -2181 0
2180 2178 -2181 0
2180 -2178 2181 0
-2180 2178 2181 0
-2180 -2178 2182 0
2180 -2182 0
2178 -2182 0
-2015 -2179 2183 0
2015 -2183 0
2179 -2183 0
2182 2183 -2184 0
-2182 2184 0
-2183 2184 0
-82 -2121 2185 0
82 -2185 0
2121 -2185 0
-2021 -2185 -2186 0
2021 2185 -2186 0
2021 -2185 2186 0
-2021 2185 2186 0
-2186 -2184 -2187 0
2186 2184 -2187 0
2186 -2184 2187 0
-2186 2184 2187 0
-2186 -2184 2188 0
2186 -2188 0
2184 -2188 0
-2021 -2185 2189 0
2021 -2189 0
2185 -2189 0
2188 2189 -2190 0
-2188 2190 0
-2189 2190 0
-90 -2121 2191 0
90 -2191 0
2121 -2191 0
-2027 -2191 -2192 0
2027 2191 -2192 0
2027 -2191 2192 0
-2027 2191 2192 0
-2192 -2190 -2193 0
2192 2190 -2193 0
2192 -2190 2193 0
-2192 2190 2193 0
-2192 -2190 2194 0
2192 -2194 0
2190 -2194 0
-2027 -2191 2195 0
2027 -2195 0
2191 -2195 0
2194 2195 -2196 0
-2194 2196 0
-2195 2196 0
-98 -2121 2197 0
98 -2197 0
2121 -2197 0
-2033 -2197 -2198 0
2033 2197 -2198 0
2033 -2197 2198 0
-2033 2197 2198 0
-2198 -2196 -2199 0
2198 2196 -2199 0
2198 -2196 2199 0
-2198 2196 2199 0
-2198 -2196 2200 0
2198 -2200 0
2196 -2200 0
-2033 -2197 2201 0
2033 -2201 0
2197 -2201 0
2200 2201 -2202 0
-2200 2202 0
-2201 2202 0
-106 -2121 2203 0
106 -2203 0
2121 -2203 0
-2039 -2203 -2204 0
2039 2203 -2204 0
2039 -2203 2204 0
-2039 2203 2204 0
-2204 -2202 -2205 0
2204 2202 -2205 0
2204 -2202 2205 0
-2204 2202 2205 0
-2204 -2202 2206 0
2204 -2206 0
2202 -2206 0
-2039 -2203 2207 0
2039 -2207 0
2203 -2207 0
2206 2207 -2208 0
-2206 2208 0
-2207 2208 0
-114 -2121 2209 0
114 -2209 0
2121 -2209 0
-2045 -2209 -2210 0
2045 2209 -2210 0
2045 -2209 2210 0
-2045 2209 2210 0
-2210 -2208 -2211 0
2210 2208 -2211 0
2210 -2208 2211 0
-2210 2208 2211 0
-2210 -2208 2212 0
2210 -2212 0
2208 -2212 0
-2045 -2209 2213 0
2045 -2213 0
2209 -2213 0
2212 2213 -2214 0
-2212 2214 0
-2213 2214 0
-122 -2121 2215 0
122 -2215 0
2121 -2215 0
-2051 -2215 -2216 0
2051 2215 -2216 0
2051 -2215 2216 0
-2051 2215 2216 0
-2216 -2214 -2217 0
2216 2214 -2217 0
2216 -2214 2217 0
-2216 2214 2217 0
-2216 -2214 2218 0
2216 -2218 0
2214 -2218 0
-2051 -2215 2219 0
2051 -2219 0
2215 -2219 0
2218 2219 -2220 0
-2218 2220 0
-2219 2220 0
-130 -2121 2221 0
130 -2221 0
2121 -2221 0
-2057 -2221 -2222 0
2057 2221 -2222 0
2057 -2221 2222 0
-2057 2221 2222 0
-2222 -2220 -2223 0
2222 2220 -2223 0
2222 -2220 2223 0
-2222 2220 2223 0
-2222 -2220 2224 0
2222 -2224 0
2220 -2224 0
-2057 -2221 2225 0
2057 -2225 0
2221 -2225 0
2224 2225 -2226 0
-2224 2226 0
-2225 2226 0
-138 -2121 2227 0
138 -2227 0
2121 -2227 0
-2063 -2227 -2228 0
2063 2227 -2228 0
2063 -2227 2228 0
-2063 2227 2228 0
-2228 -2226 -2229 0
2228 2226 -2229 0
2228 -2226 2229 0
-2228 2226 2229 0
-2228 -2226 2230 0
2228 -2230 0
2226 -2230 0
-2063 -2227 2231 0
2063 -2231 0
2227 -2231 0
2230 2231 -2232 0
-2230 2232 0
-2231 2232 0
-146 -2121 2233 0
146 -2233 0
2121 -2233 0
-2069 -2233 -2234 0
2069 2233 -2234 0
2069 -2233 2234 0
-2069 2233 2234 0
-2234 -2232 -2235 0
2234 2232 -2235 0
2234 -2232 2235 0
-2234 2232 2235 0
-2234 -2232 2236 0
2234 -2236 0
2232 -2236 0
-2069 -2233 2237 0
2069 -2237 0
2233 -2237 0
2236 2237 -2238 0
-2236 2238 0
-2237 2238 0
-154 -2121 2239 0
154 -2239 0
2121 -2239 0
-2075 -2239 -2240 0
2075 2239 -2240 0
2075 -2239 2240 0
-2075 2239 2240 0
-2240 -2238 -2241 0
2240 2238 -2241 0
2240 -2238 2241 0
-2240 2238 2241 0
-2240 -2238 2242 0
2240 -2242 0
2238 -2242 0
-2075 -2239 2243 0
2075 -2243 0
2239 -2243 0
2242 2243 -2244 0
-2242 2244 0
-2243 2244 0
-162 -2121 2245 0
162 -2245 0
2121 -2245 0
-2081 -2245 -2246 0
2081 2245 -2246 0
2081 -2245 2246 0
-2081 2245 2246 0
-2246 -2244 -2247 0
2246 2244 -2247 0
2246 -2244 2247 0
-2246 2244 2247 0
-2246 -2244 2248 0
2246 -2248 0
2244 -2248 0
-2081 -2245 2249 0
2081 -2249 0
2245 -2249 0
2248 2249 -2250 0
-2248 2250 0
-2249 2250 0
-170 -2121 2251 0
170 -2251 0
2121 -2251 0
-2087 -2251 -2252 0
2087 2251 -2252 0
2087 -2251 2252 0
-2087 2251 2252 0
-2252 -2250 -2253 0
2252 2250 -2253 0
2252 -2250 2253 0
-2252 2250 2253 0
-2252 -2250 2254 0
2252 -2254 0
2250 -2254 0
-2087 -2251 2255 0
2087 -2255 0
2251 -2255 0
2254 2255 -2256 0
-2254 2256 0
-2255 2256 0
-178 -2121 2257 0
178 -2257 0
2121 -2257 0
-2093 -2257 -2258 0
2093 2257 -2258 0
2093 -2257 2258 0
-2093 2257 2258 0
-2258 -2256 -2259 0
2258 2256 -2259 0
2258 -2256 2259 0
-2258 2256 2259 0
-2258 -2256 2260 0
2258 -2260 0
2256 -2260 0
-2093 -2257 2261 0
2093 -2261 0
2257 -2261 0
2260 2261 -2262 0
-2260 2262 0
-2261 2262 0
-186 -2121 2263 0
186 -2263 0
2121 -2263 0
-2099 -2263 -2264 0
2099 2263 -2264 0
2099 -2263 2264 0
-2099 2263 2264 0
-2264 -2262 -2265 0
2264 2262 -2265 0
2264 -2262 2265 0
-2264 2262 2265 0
-2264 -2262 2266 0
2264 -2266 0
2262 -2266 0
-2099 -2263 2267 0
2099 -2267 0
2263 -2267 0
2266 2267 -2268 0
-2266 2268 0
-2267 2268 0
-194 -2121 2269 0
194 -2269 0
2121 -2269 0
-2105 -2269 -2270 0
2105 2269 -2270 0
2105 -2269 2270 0
-2105 2269 2270 0
-2270 -2268 -2271 0
2270 2268 -2271 0
2270 -2268 2271 0
-2270 2268 2271 0
-2270 -2268 2272 0
2270 -2272 0
2268 -2272 0
-2105 -2269 2273 0
2105 -2273 0
2269 -2273 0
2272 2273 -2274 0
-2272 2274 0
-2273 2274 0
-202 -2121 2275 0
202 -2275 0
2121 -2275 0
-2111 -2275 -2276 0
2111 2275 -2276 0
2111 -2275 2276 0
-2111 2275 2276 0
-2276 -2274 -2277 0
2276 2274 -2277 0
2276 -2274 2277 0
-2276 2274 2277 0
-2276 -2274 2278 0
2276 -2278 0
2274 -2278 0
-2111 -2275 2279 0
2111 -2279 0
2275 -2279 0
2278 2279 -2280 0
-2278 2280 0
-2279 2280 0
-210 -2121 2281 0
210 -2281 0
2121 -2281 0
-2117 -2281 -2282 0
2117 2281 -2282 0
2117 -2281 2282 0
-2117 2281 2282 0
-2282 -2280 -2283 0
2282 2280 -2283 0
2282 -2280 2283 0
-2282 2280 2283 0
-2282 -2280 2284 0
2282 -2284 0
2280 -2284 0
-2117 -2281 2285 0
2117 -2285 0
2281 -2285 0
2284 2285 -2286 0
-2284 2286 0
-2285 2286 0
-218 -2121 2287 0
218 -2287 0
2121 -2287 0
-2120 -2287 -2288 0
2120 2287 -2288 0
2120 -2287 2288 0
-2120 2287 2288 0
-2288 -2286 -2289 0
2288 2286 -2289 0
2288 -2286 2289 0
-2288 2286 2289 0
-2288 -2286 2290 0
2288 -2290 0
2286 -2290 0
-2120 -2287 2291 0
2120 -2291 0
2287 -2291 0
2290 2291 -2292 0
-2290 2292 0
-2291 2292 0
-1 -2293 2294 0
1 -2294 0
2293 -2294 0
-2127 -2294 -2295 0
2127 2294 -2295 0
2127 -2294 2295 0
-2127 2294 2295 0
-2127 -2294 2296 0
2127 -2296 0
2294 -2296 0
-4 -2293 2297 0
4 -2297 0
2293 -2297 0
-2133 -2297 -2298 0
2133 2297 -2298 0
2133 -2297 2298 0
-2133 2297 2298 0
-2298 -2296 -2299 0
2298 2296 -2299 0
2298 -2296 2299 0
-2298 2296 2299 0
-2298 -2296 2300 0
2298 -2300 0
2296 -2300 0
-2133 -2297 2301 0
2133 -2301 0
2297 -2301 0
2300 2301 -2302 0
-2300 2302 0
-2301 2302 0
-10 -2293 2303 0
10 -2303 0
2293 -2303 0
-2139 -2303 -2304 0
2139 2303 -2304 0
2139 -2303 2304 0
-2139 2303 2304 0
-2304 -2302 -2305 0
2304 2302 -2305 0
2304 -2302 2305 0
-2304 2302 2305 0
-2304 -2302 2306 0
2304 -2306 0
2302 -2306 0
-2139 -2303 2307 0
2139 -2307 0
2303 -2307 0
2306 2307 -2308 0
-2306 2308 0
-2307 2308 0
-18 -2293 2309 0
18 -2309 0
2293 -2309 0
-2145 -2309 -2310 0
2145 2309 -2310 0
2145 -2309 2310 0
-2145 2309 2310 0
-2310 -2308 -2311 0
2310 2308 -2311 0
2310 -2308 2311 0
-2310 2308 2311 0
-2310 -2308 2312 0
2310 -2312 0
2308 -2312 0
-2145 -2309 2313 0
2145 -2313 0
2309 -2313 0
2312 2313 -2314 0
-2312 2314 0
-2313 2314 0
-26 -2293 2315 0
26 -2315 0
2293 -2315 0
-2151 -2315 -2316 0
2151 2315 -2316 0
2151 -2315 2316 0
-2151 2315 2316 0
-2316 -2314 -2317 0
2316 2314 -2317 0
2316 -2314 2317 0
-2316 2314 2317 0
-2316 -2314 2318 0
2316 -2318 0
2314 -2318 0
-2151 -2315 2319 0
2151 -2319 0
2315 -2319 0
2318 2319 -2320 0
-2318 2320 0
-2319 2320 0
-34 -2293 2321 0
34 -2321 0
2293 -2321 0
-2157 -2321 -2322 0
2157 2321 -2322 0
2157 -2321 2322 0
-2157 2321 2322 0
-2322 -2320 -2323 0
2322 2320 -2323 0
2322 -2320 2323 0
-2322 2320 2323 0
-2322 -2320 2324 0
2322 -2324 0
2320 -2324 0
-2157 -2321 2325 0
2157 -2325 0
2321 -2325 0
2324 2325 -2326 0
-2324 2326 0
-2325 2326 0
-42 -2293 2327 0
42 -2327 0
2293 -2327 0
-2163 -2327 -2328 0
2163 2327 -2328 0
2163 -2327 2328 0
-2163 2327 2328 0
-2328 -2326 -2329 0
2328 2326 -2329 0
2328 -2326 2329 0
-2328 2326 2329 0
-2328 -2326 2330 0
2328 -2330 0
2326 -2330 0
-2163 -2327 2331 0
2163 -2331 0
2327 -2331 0
2330 2331 -2332 0
-2330 2332 0
-2331 2332 0
-50 -2293 2333 0
50 -2333 0
2293 -2333 0
-2169 -2333 -2334 0
2169 2333 -2334 0
2169 -2333 2334 0
-2169 2333 2334 0
-2334 -2332 -2335 0
2334 2332 -2335 0
2334 -2332 2335 0
-2334 2332 2335 0
-2334 -2332 2336 0
2334 -2336 0
2332 -2336 0
-2169 -2333 2337 0
2169 -2337 0
2333 -2337 0
2336 2337 -2338 0
-2336 2338 0
-2337 2338 0
-58 -2293 2339 0
58 -2339 0
2293 -2339 0
-2175 -2339 -2340 0
2175 2339 -2340 0
2175 -2339 2340 0
-2175 2339 2340 0
-2340 -2338 -2341 0
2340 2338 -2341 0
2340 -2338 2341 0
-2340 2338 2341 0
-2340 -2338 2342 0
2340 -2342 0
2338 -2342 0
-2175 -2339 2343 0
2175 -2343 0
2339 -2343 0
2342 2343 -2344 0
-2342 2344 0
-2343 2344 0
-66 -2293 2345 0
66 -2345 0
2293 -2345 0
-2181 -2345 -2346 0
2181 2345 -2346 0
2181 -2345 2346 0
-2181 2345 2346 0
-2346 -2344 -2347 0
2346 2344 -2347 0
2346 -2344 2347 0
-2346 2344 2347 0
-2346 -2344 2348 0
2346 -2348 0
2344 -2348 0
-2181 -2345 2349 0
2181 -2349 0
2345 -2349 0
2348 2349 -2350 0
-2348 2350 0
-2349 2350 0
-74 -2293 2351 0
74 -2351 0
2293 -2351 0
-2187 -2351 -2352 0
2187 2351 -2352 0
2187 -2351 2352 0
-2187 2351 2352 0
-2352 -2350 -2353 0
2352 2350 -2353 0
2352 -2350 2353 0
-2352 2350 2353 0
-2352 -2350 2354 0
2352 -2354 0
2350 -2354 0
-2187 -2351 2355 0
2187 -2355 0
2351 -2355 0
2354 2355 -2356 0
-2354 2356 0
-2355 2356 0
-82 -2293 2357 0
82 -2357 0
2293 -2357 0
-2193 -2357 -2358 0
2193 2357 -2358 0
2193 -2357 2358 0
-2193 2357 2358 0
-2358 -2356 -2359 0
2358 2356 -2359 0
2358 -2356 2359 0
-2358 2356 2359 0
-2358 -2356 2360 0
2358 -2360 0
2356 -2360 0
-2193 -2357 2361 0
2193 -2361 0
2357 -2361 0
2360 2361 -2362 0
-2360 2362 0
-2361 2362 0
-90 -2293 2363 0
90 -2363 0
2293 -2363 0
-2199 -2363 -2364 0
2199 2363 -2364 0
2199 -2363 2364 0
-2199 2363 2364 0
-2364 -2362 -2365 0
2364 2362 -2365 0
2364 -2362 2365 0
-2364 2362 2365 0
-2364 -2362 2366 0
2364 -2366 0
2362 -2366 0
-2199 -2363 2367 0
2199 -2367 0
2363 -2367 0
2366 2367 -2368 0
-2366 2368 0
-2367 2368 0
-98 -2293 2369 0
98 -2369 0
2293 -2369 0
-2205 -2369 -2370 0
2205 2369 -2370 0
2205 -2369 2370 0
-2205 2369 2370 0
-2370 -2368 -2371 0
2370 2368 -2371 0
2370 -2368 2371 0
-2370 2368 2371 0
-2370 -2368 2372 0
2370 -2372 0
2368 -2372 0
-2205 -2369 2373 0
2205 -2373 0
2369 -2373 0
2372 2373 -2374 0
-2372 2374 0
-2373 2374 0
-106 -2293 2375 0
106 -2375 0
2293 -2375 0
-2211 -2375 -2376 0
2211 2375 -2376 0
2211 -2375 2376 0
-2211 2375 2376 0
-2376 -2374 -2377 0
2376 2374 -2377 0
2376 -2374 2377 0
-2376 2374 2377 0
-2376 -2374 2378 0
2376 -2378 0
2374 -2378 0
-2211 -2375 2379 0
2211 -2379 0
2375 -2379 0
2378 2379 -2380 0
-2378 2380 0
-2379 2380 0
-114 -2293 2381 0
114 -2381 0
2293 -2381 0
-2217 -2381 -2382 0
2217 2381 -2382 0
2217 -2381 2382 0
-2217 2381 2382 0
-2382 -2380 -2383 0
2382 2380 -2383 0
2382 -2380 2383 0
-2382 2380 2383 0
-2382 -2380 2384 0
2382 -2384 0
2380 -2384 0
-2217 -2381 2385 0
2217 -2385 0
2381 -2385 0
2384 2385 -2386 0
-2384 2386 0
-2385 2386 0
-122 -2293 2387 0
122 -2387 0
2293 -2387 0
-2223 -2387 -2388 0
2223 2387 -2388 0
2223 -2387 2388 0
-2223 2387 2388 0
-2388 -2386 -2389 0
2388 2386 -2389 0
2388 -2386 2389 0
-2388 2386 2389 0
-2388 -2386 2390 0
2388 -2390 0
2386 -2390 0
-2223 -2387 2391 0
2223 -2391 0
2387 -2391 0
2390 2391 -2392 0
-2390 2392 0
-2391 2392 0
-130 -2293 2393 0
130 -2393 0
2293 -2393 0
-2229 -2393 -2394 0
2229 2393 -2394 0
2229 -2393 2394 0
-2229 2393 2394 0
-2394 -2392 -2395 0
2394 2392 -2395 0
2394 -2392 2395 0
-2394 2392 2395 0
-2394 -2392 2396 0
2394 -2396 0
2392 -2396 0
-2229 -2393 2397 0
2229 -2397 0
2393 -2397 0
2396 2397 -2398 0
-2396 2398 0
-2397 2398 0
-138 -2293 2399 0
138 -2399 0
2293 -2399 0
-2235 -2399 -2400 0
2235 2399 -2400 0
2235 -2399 2400 0
-2235 2399 2400 0
-2400 -2398 -2401 0
2400 2398 -2401 0
2400 -2398 2401 0
-2400 2398 2401 0
-2400 -2398 2402 0
2400 -2402 0
2398 -2402 0
-2235 -2399 2403 0
2235 -2403 0
2399 -2403 0
2402 2403 -2404 0
-2402 2404 0
-2403 2404 0
-146 -2293 2405 0
146 -2405 0
2293 -2405 0
-2241 -2405 -2406 0
2241 2405 -2406 0
2241 -2405 2406 0
-2241 2405 2406 0
-2406 -2404 -2407 0
2406 2404 -2407 0
2406 -2404 2407 0
-2406 2404 2407 0
-2406 -2404 2408 0
2406 -2408 0
2404 -2408 0
-2241 -2405 2409 0
2241 -2409 0
2405 -2409 0
2408 2409 -2410 0
-2408 2410 0
-2409 2410 0
-154 -2293 2411 0
154 -2411 0
2293 -2411 0
-2247 -2411 -2412 0
2247 2411 -2412 0
2247 -2411 2412 0
-2247 2411 2412 0
-2412 -2410 -2413 0
2412 2410 -2413 0
2412 -2410 2413 0
-2412 2410 2413 0
-2412 -2410 2414 0
2412 -2414 0
2410 -2414 0
-2247 -2411 2415 0
2247 -2415 0
2411 -2415 0
2414 2415 -2416 0
-2414 2416 0
-2415 2416 0
-162 -2293 2417 0
162 -2417 0
2293 -2417 0
-2253 -2417 -2418 0
2253 2417 -2418 0
2253 -2417 2418 0
-2253 2417 2418 0
-2418 -2416 -2419 0
2418 2416 -2419 0
2418 -2416 2419 0
-2418 2416 2419 0
-2418 -2416 2420 0
2418 -2420 0
2416 -2420 0
-2253 -2417 2421 0
2253 -2421 0
2417 -2421 0
2420 2421 -2422 0
-2420 2422 0
-2421 2422 0
-170 -2293 2423 0
170 -2423 0
2293 -2423 0
-2259 -2423 -2424 0
2259 2423 -2424 0
2259 -2423 2424 0
-2259 2423 2424 0
-2424 -2422 -2425 0
2424 2422 -2425 0
2424 -2422 2425 0
-2424 2422 2425 0
-2424 -2422 2426 0
2424 -2426 0
2422 -2426 0
-2259 -2423 2427 0
2259 -2427 0
2423 -2427 0
2426 2427 -2428 0
-2426 2428 0
-2427 2428 0
-178 -2293 2429 0
178 -2429 0
2293 -2429 0
-2265 -2429 -2430 0
2265 2429 -2430 0
2265 -2429 2430 0
-2265 2429 2430 0
-2430 -2428 -2431 0
2430 2428 -2431 0
2430 -2428 2431 0
-2430 2428 2431 0
-2430 -2428 2432 0
2430 -2432 0
2428 -2432 0
-2265 -2429 2433 0
2265 -2433 0
2429 -2433 0
2432 2433 -2434 0
-2432 2434 0
-2433 2434 0
-186 -2293 2435 0
186 -2435 0
2293 -2435 0
-2271 -2435 -2436 0
2271 2435 -2436 0
2271 -2435 2436 0
-2271 2435 2436 0
-2436 -2434 -2437 0
2436 2434 -2437 0
2436 -2434 2437 0
-2436 2434 2437 0
-2436 -2434 2438 0
2436 -2438 0
2434 -2438 0
-2271 -2435 2439 0
2271 -2439 0
2435 -2439 0
2438 2439 -2440 0
-2438 2440 0
-2439 2440 0
-194 -2293 2441 0
194 -2441 0
2293 -2441 0
-2277 -2441 -2442 0
2277 2441 -2442 0
2277 -2441 2442 0
-2277 2441 2442 0
-2442 -2440 -2443 0
2442 2440 -2443 0
2442 -2440 2443 0
-2442 2440 2443 0
-2442 -2440 2444 0
2442 -2444 0
2440 -2444 0
-2277 -2441 2445 0
2277 -2445 0
2441 -2445 0
2444 2445 -2446 0
-2444 2446 0
-2445 2446 0
-202 -2293 2447 0
202 -2447 0
2293 -2447 0
-2283 -2447 -2448 0
2283 2447 -2448 0
2283 -2447 2448 0
-2283 2447 2448 0
-2448 -2446 -2449 0
2448 2446 -2449 0
2448 -2446 2449 0
-2448 2446 2449 0
-2448 -2446 2450 0
2448 -2450 0
2446 -2450 0
-2283 -2447 2451 0
2283 -2451 0
2447 -2451 0
2450 2451 -2452 0
-2450 2452 0
-2451 2452 0
-210 -2293 2453 0
210 -2453 0
2293 -2453 0
-2289 -2453 -2454 0
2289 2453 -2454 0
2289 -2453 2454 0
-2289 2453 2454 0
-2454 -2452 -2455 0
2454 2452 -2455 0
2454 -2452 2455 0
-2454 2452 2455 0
-2454 -2452 2456 0
2454 -2456 0
2452 -2456 0
-2289 -2453 2457 0
2289 -2457 0
2453 -2457 0
2456 2457 -2458 0
-2456 2458 0
-2457 2458 0
-218 -2293 2459 0
218 -2459 0
2293 -2459 0
-2292 -2459 -2460 0
2292 2459 -2460 0
2292 -2459 2460 0
-2292 2459 2460 0
-2460 -2458 -2461 0
2460 2458 -2461 0
2460 -2458 2461 0
-2460 2458 2461 0
-2460 -2458 2462 0
2460 -2462 0
2458 -2462 0
-2292 -2459 2463 0
2292 -2463 0
2459 -2463 0
2462 2463 -2464 0
-2462 2464 0
-2463 2464 0
-1 -2465 2466 0
1 -2466 0
2465 -2466 0
-2299 -2466 -2467 0
2299 2466 -2467 0
2299 -2466 2467 0
-2299 2466 2467 0
-2299 -2466 2468 0
2299 -2468 0
2466 -2468 0
-4 -2465 2469 0
4 -2469 0
2465 -2469 0
-2305 -2469 -2470 0
2305 2469 -2470 0
2305 -2469 2470 0
-2305 2469 2470 0
-2470 -2468 -2471 0
2470 2468 -2471 0
2470 -2468 2471 0
-2470 2468 2471 0
-2470 -2468 2472 0
2470 -2472 0
2468 -2472 0
-2305 -2469 2473 0
2305 -2473 0
2469 -2473 0
2472 2473 -2474 0
-2472 2474 0
-2473 2474 0
-10 -2465 2475 0
10 -2475 0
2465 -2475 0
-2311 -2475 -2476 0
2311 2475 -2476 0
2311 -2475 2476 0
-2311 2475 2476 0
-2476 -2474 -2477 0
2476 2474 -2477 0
2476 -2474 2477 0
-2476 2474 2477 0
-2476 -2474 2478 0
2476 -2478 0
2474 -2478 0
-2311 -2475 2479 0
2311 -2479 0
2475 -2479 0
2478 2479 -2480 0
-2478 2480 0
-2479 2480 0
-18 -2465 2481 0
18 -2481 0
2465 -2481 0
-2317 -2481 -2482 0
2317 2481 -2482 0
2317 -2481 2482 0
-2317 2481 2482 0
-2482 -2480 -2483 0
2482 2480 -2483 0
2482 -2480 2483 0
-2482 2480 2483 0
-2482 -2480 2484 0
2482 -2484 0
2480 -2484 0
-2317 -2481 2485 0
2317 -2485 0
2481 -2485 0
2484 2485 -2486 0
-2484 2486 0
-2485 2486 0
-26 -2465 2487 0
26 -2487 0
2465 -2487 0
-2323 -2487 -2488 0
2323 2487 -2488 0
2323 -2487 2488 0
-2323 2487 2488 0
-2488 -2486 -2489 0
2488 2486 -2489 0
2488 -2486 2489 0
-2488 2486 2489 0
-2488 -2486 2490 0
2488 -2490 0
2486 -2490 0
-2323 -2487 2491 0
2323 -2491 0
2487 -2491 0
2490 2491 -2492 0
-2490 2492 0
-2491 2492 0
-34 -2465 2493 0
34 -2493 0
2465 -2493 0
-2329 -2493 -2494 0
2329 2493 -2494 0
2329 -2493 2494 0
-2329 2493 2494 0
-2494 -2492 -2495 0
2494 2492 -2495 0
2494 -2492 2495 0
-2494 2492 2495 0
-2494 -2492 2496 0
2494 -2496 0
2492 -2496 0
-2329 -2493 2497 0
2329 -2497 0
2493 -2497 0
2496 2497 -2498 0
-2496 2498 0
-2497 2498 0
-42 -2465 2499 0
42 -2499 0
2465 -2499 0
-2335 -2499 -2500 0
2335 2499 -2500 0
2335 -2499 2500 0
-2335 2499 2500 0
-2500 -2498 -2501 0
2500 2498 -2501 0
2500 -2498 2501 0
-2500 2498 2501 0
-2500 -2498 2502 0
2500 -2502 0
2498 -2502 0
-2335 -2499 2503 0
2335 -2503 0
2499 -2503 0
2502 2503 -2504 0
-2502 2504 0
-2503 2504 0
-50 -2465 2505 0
50 -2505 0
2465 -2505 0
-2341 -2505 -2506 0
2341 2505 -2506 0
2341 -2505 2506 0
-2341 2505 2506 0
-2506 -2504 -2507 0
2506 2504 -2507 0
2506 -2504 2507 0
-2506 2504 2507 0
-2506 -2504 2508 0
2506 -2508 0
2504 -2508 0
-2341 -2505 2509 0
2341 -2509 0
2505 -2509 0
2508 2509 -2510 0
-2508 2510 0
-2509 2510 0
-58 -2465 2511 0
58 -2511 0
2465 -2511 0
-2347 -2511 -2512 0
2347 2511 -2512 0
2347 -2511 2512 0
-2347 2511 2512 0
-2512 -2510 -2513 0
2512 2510 -2513 0
2512 -2510 2513 0
-2512 2510 2513 0
-2512 -2510 2514 0
2512 -2514 0
2510 -2514 0
-2347 -2511 2515 0
2347 -2515 0
2511 -2515 0
2514 2515 -2516 0
-2514 2516 0
-2515 2516 0
-66 -2465 2517 0
66 -2517 0
2465 -2517 0
-2353 -2517 -2518 0
2353 2517 -2518 0
2353 -2517 2518 0
-2353 2517 2518 0
-2518 -2516 -2519 0
2518 2516 -2519 0
2518 -2516 2519 0
-2518 2516 2519 0
-2518 -2516 2520 0
2518 -2520 0
2516 -2520 0
-2353 -2517 2521 0
2353 -2521 0
2517 -2521 0
2520 2521 -2522 0
-2520 2522 0
-2521 2522 0
-74 -2465 2523 0
74 -2523 0
2465 -2523 0
-2359 -2523 -2524 0
2359 2523 -2524 0
2359 -2523 2524 0
-2359 2523 2524 0
-2524 -2522 -2525 0
2524 2522 -2525 0
2524 -2522 2525 0
-2524 2522 2525 0
-2524 -2522 2526 0
2524 -2526 0
2522 -2526 0
-2359 -2523 2527 0
2359 -2527 0
2523 -2527 0
2526 2527 -2528 0
-2526 2528 0
-2527 2528 0
-82 -2465 2529 0
82 -2529 0
2465 -2529 0
-2365 -2529 -2530 0
2365 2529 -2530 0
2365 -2529 2530 0
-2365 2529 2530 0
-2530 -2528 -2531 0
2530 2528 -2531 0
2530 -2528 2531 0
-2530 2528 2531 0
-2530 -2528 2532 0
2530 -2532 0
2528 -2532 0
-2365 -2529 2533 0
2365 -2533 0
2529 -2533 0
2532 2533 -2534 0
-2532 2534 0
-2533 2534 0
-90 -2465 2535 0
90 -2535 0
2465 -2535 0
-2371 -2535 -2536 0
2371 2535 -2536 0
2371 -2535 2536 0
-2371 2535 2536 0
-2536 -2534 -2537 0
2536 2534 -2537 0
2536 -2534 2537 0
-2536 2534 2537 0
-2536 -2534 2538 0
2536 -2538 0
2534 -2538 0
-2371 -2535 2539 0
2371 -2539 0
2535 -2539 0
2538 2539 -2540 0
-2538 2540 0
-2539 2540 0
-98 -2465 2541 0
98 -2541 0
2465 -2541 0
-2377 -2541 -2542 0
2377 2541 -2542 0
2377 -2541 2542 0
-2377 2541 2542 0
-2542 -2540 -2543 0
2542 2540 -2543 0
2542 -2540 2543 0
-2542 2540 2543 0
-2542 -2540 2544 0
2542 -2544 0
2540 -2544 0
-2377 -2541 2545 0
2377 -2545 0
2541 -2545 0
2544 2545 -2546 0
-2544 2546 0
-2545 2546 0
-106 -2465 2547 0
106 -2547 0
2465 -2547 0
-2383 -2547 -2548 0
2383 2547 -2548 0
2383 -2547 2548 0
-2383 2547 2548 0
-2548 -2546 -2549 0
2548 2546 -2549 0
2548 -2546 2549 0
-2548 2546 2549 0
-2548 -2546 2550 0
2548 -2550 0
2546 -2550 0
-2383 -2547 2551 0
2383 -2551 0
2547 -2551 0
2550 2551 -2552 0
-2550 2552 0
-2551 2552 0
-114 -2465 2553 0
114 -2553 0
2465 -2553 0
-2389 -2553 -2554 0
2389 2553 -2554 0
2389 -2553 2554 0
-2389 2553 2554 0
-2554 -2552 -2555 0
2554 2552 -2555 0
2554 -2552 2555 0
-2554 2552 2555 0
-2554 -2552 2556 0
2554 -2556 0
2552 -2556 0
-2389 -2553 2557 0
2389 -2557 0
2553 -2557 0
2556 2557 -2558 0
-2556 2558 0
-2557 2558 0
-122 -2465 2559 0
122 -2559 0
2465 -2559 0
-2395 -2559 -2560 0
2395 2559 -2560 0
2395 -2559 2560 0
-2395 2559 2560 0
-2560 -2558 -2561 0
2560 2558 -2561 0
2560 -2558 2561 0
-2560 2558 2561 0
-2560 -2558 2562 0
2560 -2562 0
2558 -2562 0
-2395 -2559 2563 0
2395 -2563 0
2559 -2563 0
2562 2563 -2564 0
-2562 2564 0
-2563 2564 0
-130 -2465 2565 0
130 -2565 0
2465 -2565 0
-2401 -2565 -2566 0
2401 2565 -2566 0
2401 -2565 2566 0
-2401 2565 2566 0
-2566 -2564 -2567 0
2566 2564 -2567 0
2566 -2564 2567 0
-2566 2564 2567 0
-2566 -2564 2568 0
2566 -2568 0
2564 -2568 0
-2401 -2565 2569 0
2401 -2569 0
2565 -2569 0
2568 2569 -2570 0
-2568 2570 0
-2569 2570 0
-138 -2465 2571 0
138 -2571 0
2465 -2571 0
-2407 -2571 -2572 0
2407 2571 -2572 0
2407 -2571 2572 0
-2407 2571 2572 0
-2572 -2570 -2573 0
2572 2570 -2573 0
2572 -2570 2573 0
-2572 2570 2573 0
-2572 -2570 2574 0
2572 -2574 0
2570 -2574 0
-2407 -2571 2575 0
2407 -2575 0
2571 -2575 0
2574 2575 -2576 0
-2574 2576 0
-2575 2576 0
-146 -2465 2577 0
146 -2577 0
2465 -2577 0
-2413 -2577 -2578 0
2413 2577 -2578 0
2413 -2577 2578 0
-2413 2577 2578 0
-2578 -2576 -2579 0
2578 2576 -2579 0
2578 -2576 2579 0
-2578 2576 2579 0
-2578 -2576 2580 0
2578 -2580 0
2576 -2580 0
-2413 -2577 2581 0
2413 -2581 0
2577 -2581 0
2580 2581 -2582 0
-2580 2582 0
-2581 2582 0
-154 -2465 2583 0
154 -2583 0
2465 -2583 0
-2419 -2583 -2584 0
2419 2583 -2584 0
2419 -2583 2584 0
-2419 2583 2584 0
-2584 -2582 -2585 0
2584 2582 -2585 0
2584 -2582 2585 0
-2584 2582 2585 0
-2584 -2582 2586 0
2584 -2586 0
2582 -2586 0
-2419 -2583 2587 0
2419 -2587 0
2583 -2587 0
2586 2587 -2588 0
-2586 2588 0
-2587 2588 0
-162 -2465 2589 0
162 -2589 0
2465 -2589 0
-2425 -2589 -2590 0
2425 2589 -2590 0
2425 -2589 2590 0
-2425 2589 2590 0
-2590 -2588 -2591 0
2590 2588 -2591 0
2590 -2588 2591 0
-2590 2588 2591 0
-2590 -2588 2592 0
2590 -2592 0
2588 -2592 0
-2425 -2589 2593 0
2425 -2593 0
2589 -2593 0
2592 2593 -2594 0
-2592 2594 0
-2593 2594 0
-170 -2465 2595 0
170 -2595 0
2465 -2595 0
-2431 -2595 -2596 0
2431 2595 -2596 0
2431 -2595 2596 0
-2431 2595 2596 0
-2596 -2594 -2597 0
2596 2594 -2597 0
2596 -2594 2597 0
-2596 2594 2597 0
-2596 -2594 2598 0
2596 -2598 0
2594 -2598 0
-2431 -2595 2599 0
2431 -2599 0
2595 -2599 0
2598 2599 -2600 0
-2598 2600 0
-2599 2600 0
-178 -2465 2601 0
178 -2601 0
2465 -2601 0
-2437 -2601 -2602 0
2437 2601 -2602 0
2437 -2601 2602 0
-2437 2601 2602 0
-2602 -2600 -2603 0
2602 2600 -2603 0
2602 -2600 2603 0
-2602 2600 2603 0
-2602 -2600 2604 0
2602 -2604 0
2600 -2604 0
-2437 -2601 2605 0
2437 -2605 0
2601 -2605 0
2604 2605 -2606 0
-2604 2606 0
-2605 2606 0
-186 -2465 2607 0
186 -2607 0
2465 -2607 0
-2443 -2607 -2608 0
2443 2607 -2608 0
2443 -2607 2608 0
-2443 2607 2608 0
-2608 -2606 -2609 0
2608 2606 -2609 0
2608 -2606 2609 0
-2608 2606 2609 0
-2608 -2606 2610 0
2608 -2610 0
2606 -2610 0
-2443 -2607 2611 0
2443 -2611 0
2607 -2611 0
2610 2611 -2612 0
-2610 2612 0
-2611 2612 0
-194 -2465 2613 0
194 -2613 0
2465 -2613 0
-2449 -2613 -2614 0
2449 2613 -2614 0
2449 -2613 2614 0
-2449 2613 2614 0
-2614 -2612 -2615 0
2614 2612 -2615 0
2614 -2612 2615 0
-2614 2612 2615 0
-2614 -2612 2616 0
2614 -2616 0
2612 -2616 0
-2449 -2613 2617 0
2449 -2617 0
2613 -2617 0
2616 2617 -2618 0
-2616 2618 0
-2617 2618 0
-202 -2465 2619 0
202 -2619 0
2465 -2619 0
-2455 -2619 -2620 0
2455 2619 -2620 0
2455 -2619 2620 0
-2455 2619 2620 0
-2620 -2618 -2621 0
2620 2618 -2621 0
2620 -2618 2621 0
-2620 2618 2621 0
-2620 -2618 2622 0
2620 -2622 0
2618 -2622 0
-2455 -2619 2623 0
2455 -2623 0
2619 -2623 0
2622 2623 -2624 0
-2622 2624 0
-2623 2624 0
-210 -2465 2625 0
210 -2625 0
2465 -2625 0
-2461 -2625 -2626 0
2461 2625 -2626 0
2461 -2625 2626 0
-2461 2625 2626 0
-2626 -2624 -2627 0
2626 2624 -2627 0
2626 -2624 2627 0
-2626 2624 2627 0
-2626 -2624 2628 0
2626 -2628 0
2624 -2628 0
-2461 -2625 2629 0
2461 -2629 0
2625 -2629 0
2628 2629 -2630 0
-2628 2630 0
-2629 2630 0
-218 -2465 2631 0
218 -2631 0
2465 -2631 0
-2464 -2631 -2632 0
2464 2631 -2632 0
2464 -2631 2632 0
-2464 2631 2632 0
-2632 -2630 -2633 0
2632 2630 -2633 0
2632 -2630 2633 0
-2632 2630 2633 0
-2632 -2630 2634 0
2632 -2634 0
2630 -2634 0
-2464 -2631 2635 0
2464 -2635 0
2631 -2635 0
2634 2635 -2636 0
-2634 2636 0
-2635 2636 0
-1 -2637 2638 0
1 -2638 0
2637 -2638 0
-2471 -2638 -2639 0
2471 2638 -2639 0
2471 -2638 2639 0
-2471 2638 2639 0
-2471 -2638 2640 0
2471 -2640 0
2638 -2640 0
-4 -2637 2641 0
4 -2641 0
2637 -2641 0
-2477 -2641 -2642 0
2477 2641 -2642 0
2477 -2641 2642 0
-2477 2641 2642 0
-2642 -2640 -2643 0
2642 2640 -2643 0
2642 -2640 2643 0
-2642 2640 2643 0
-2642 -2640 2644 0
2642 -2644 0
2640 -2644 0
-2477 -2641 2645 0
2477 -2645 0
2641 -2645 0
2644 2645 -2646 0
-2644 2646 0
-2645 2646 0
-10 -2637 2647 0
10 -2647 0
2637 -2647 0
-2483 -2647 -2648 0
2483 2647 -2648 0
2483 -2647 2648 0
-2483 2647 2648 0
-2648 -2646 -2649 0
2648 2646 -2649 0
2648 -2646 2649 0
-2648 2646 2649 0
-2648 -2646 2650 0
2648 -2650 0
2646 -2650 0
-2483 -2647 2651 0
2483 -2651 0
2647 -2651 0
2650 2651 -2652 0
-2650 2652 0
-2651 2652 0
-18 -2637 2653 0
18 -2653 0
2637 -2653 0
-2489 -2653 -2654 0
2489 2653 -2654 0
2489 -2653 2654 0
-2489 2653 2654 0
-2654 -2652 -2655 0
2654 2652 -2655 0
2654 -2652 2655 0
-2654 2652 2655 0
-2654 -2652 2656 0
2654 -2656 0
2652 -2656 0
-2489 -2653 2657 0
2489 -2657 0
2653 -2657 0
2656 2657 -2658 0
-2656 2658 0
-2657 2658 0
-26 -2637 2659 0
26 -2659 0
2637 -2659 0
-2495 -2659 -2660 0
2495 2659 -2660 0
2495 -2659 2660 0
-2495 2659 2660 0
-2660 -2658 -2661 0
2660 2658 -2661 0
2660 -2658 2661 0
-2660 2658 2661 0
-2660 -2658 2662 0
2660 -2662 0
2658 -2662 0
-2495 -2659 2663 0
2495 -2663 0
2659 -2663 0
2662 2663 -2664 0
-2662 2664 0
-2663 2664 0
-34 -2637 2665 0
34 -2665 0
2637 -2665 0
-2501 -2665 -2666 0
2501 2665 -2666 0
2501 -2665 2666 0
-2501 2665 2666 0
-2666 -2664 -2667 0
2666 2664 -2667 0
2666 -2664 2667 0
-2666 2664 2667 0
-2666 -2664 2668 0
2666 -2668 0
2664 -2668 0
-2501 -2665 2669 0
2501 -2669 0
2665 -2669 0
2668 2669 -2670 0
-2668 2670 0
-2669 2670 0
-42 -2637 2671 0
42 -2671 0
2637 -2671 0
-2507 -2671 -2672 0
2507 2671 -2672 0
2507 -2671 2672 0
-2507 2671 2672 0
-2672 -2670 -2673 0
2672 2670 -2673 0
2672 -2670 2673 0
-2672 2670 2673 0
-2672 -2670 2674 0
2672 -2674 0
2670 -2674 0
-2507 -2671 2675 0
2507 -2675 0
2671 -2675 0
2674 2675 -2676 0
-2674 2676 0
-2675 2676 0
-50 -2637 2677 0
50 -2677 0
2637 -2677 0
-2513 -2677 -2678 0
2513 2677 -2678 0
2513 -2677 2678 0
-2513 2677 2678 0
-2678 -2676 -2679 0
2678 2676 -2679 0
2678 -2676 2679 0
-2678 2676 2679 0
-2678 -2676 2680 0
2678 -2680 0
2676 -2680 0
-2513 -2677 2681 0
2513 -2681 0
2677 -2681 0
2680 2681 -2682 0
-2680 2682 0
-2681 2682 0
-58 -2637 2683 0
58 -2683 0
2637 -2683 0
-2519 -2683 -2684 0
2519 2683 -2684 0
2519 -2683 2684 0
-2519 2683 2684 0
-2684 -2682 -2685 0
2684 2682 -2685 0
2684 -2682 2685 0
-2684 2682 2685 0
-2684 -2682 2686 0
2684 -2686 0
2682 -2686 0
-2519 -2683 2687 0
2519 -2687 0
2683 -2687 0
2686 2687 -2688 0
-2686 2688 0
-2687 2688 0
-66 -2637 2689 0
66 -2689 0
2637 -2689 0
-2525 -2689 -2690 0
2525 2689 -2690 0
2525 -2689 2690 0
-2525 2689 2690 0
-2690 -2688 -2691 0
2690 2688 -2691 0
2690 -2688 2691 0
-2690 2688 2691 0
-2690 -2688 2692 0
2690 -2692 0
2688 -2692 0
-2525 -2689 2693 0
2525 -2693 0
2689 -2693 0
2692 2693 -2694 0
-2692 2694 0
-2693 2694 0
-74 -2637 2695 0
74 -2695 0
2637 -2695 0
-2531 -2695 -2696 0
2531 2695 -2696 0
2531 -2695 2696 0
-2531 2695 2696 0
-2696 -2694 -2697 0
2696 2694 -2697 0
2696 -2694 2697 0
-2696 2694 2697 0
-2696 -2694 2698 0
2696 -2698 0
2694 -2698 0
-2531 -2695 2699 0
2531 -2699 0
2695 -2699 0
2698 2699 -2700 0
-2698 2700 0
-2699 2700 0
-82 -2637 2701 0
82 -2701 0
2637 -2701 0
-2537 -2701 -2702 0
2537 2701 -2702 0
2537 -2701 2702 0
-2537 2701 2702 0
-2702 -2700 -2703 0
2702 2700 -2703 0
2702 -2700 2703 0
-2702 2700 2703 0
-2702 -2700 2704 0
2702 -2704 0
2700 -2704 0
-2537 -2701 2705 0
2537 -2705 0
2701 -2705 0
2704 2705 -2706 0
-2704 2706 0
-2705 2706 0
-90 -2637 2707 0
90 -2707 0
2637 -2707 0
-2543 -2707 -2708 0
2543 2707 -2708 0
2543 -2707 2708 0
-2543 2707 2708 0
-2708 -2706 -2709 0
2708 2706 -2709 0
2708 -2706 2709 0
-2708 2706 2709 0
-2708 -2706 2710 0
2708 -2710 0
2706 -2710 0
-2543 -2707 2711 0
2543 -2711 0
2707 -2711 0
2710 2711 -2712 0
-2710 2712 0
-2711 2712 0
-98 -2637 2713 0
98 -2713 0
2637 -2713 0
-2549 -2713 -2714 0
2549 2713 -2714 0
2549 -2713 2714 0
-2549 2713 2714 0
-2714 -2712 -2715 0
2714 2712 -2715 0
2714 -2712 2715 0
-2714 2712 2715 0
-2714 -2712 2716 0
2714 -2716 0
2712 -2716 0
-2549 -2713 2717 0
2549 -2717 0
2713 -2717 0
2716 2717 -2718 0
-2716 2718 0
-2717 2718 0
-106 -2637 2719 0
106 -2719 0
2637 -2719 0
-2555 -2719 -2720 0
2555 2719 -2720 0
2555 -2719 2720 0
-2555 2719 2720 0
-2720 -2718 -2721 0
2720 2718 -2721 0
2720 -2718 2721 0
-2720 2718 2721 0
-2720 -2718 2722 0
2720 -2722 0
2718 -2722 0
-2555 -2719 2723 0
2555 -2723 0
2719 -2723 0
2722 2723 -2724 0
-2722 2724 0
-2723 2724 0
-114 -2637 2725 0
114 -2725 0
2637 -2725 0
-2561 -2725 -2726 0
2561 2725 -2726 0
2561 -2725 2726 0
-2561 2725 2726 0
-2726 -2724 -2727 0
2726 2724 -2727 0
2726 -2724 2727 0
-2726 2724 2727 0
-2726 -2724 2728 0
2726 -2728 0
2724 -2728 0
-2561 -2725 2729 0
2561 -2729 0
2725 -2729 0
2728 2729 -2730 0
-2728 2730 0
-2729 2730 0
-122 -2637 2731 0
122 -2731 0
2637 -2731 0
-2567 -2731 -2732 0
2567 2731 -2732 0
2567 -2731 2732 0
-2567 2731 2732 0
-2732 -2730 -2733 0
2732 2730 -2733 0
2732 -2730 2733 0
-2732 2730 2733 0
-2732 -2730 2734 0
2732 -2734 0
2730 -2734 0
-2567 -2731 2735 0
2567 -2735 0
2731 -2735 0
2734 2735 -2736 0
-2734 2736 0
-2735 2736 0
-130 -2637 2737 0
130 -2737 0
2637 -2737 0
-2573 -2737 -2738 0
2573 2737 -2738 0
2573 -2737 2738 0
-2573 2737 2738 0
-2738 -2736 -2739 0
2738 2736 -2739 0
2738 -2736 2739 0
-2738 2736 2739 0
-2738 -2736 2740 0
2738 -2740 0
2736 -2740 0
-2573 -2737 2741 0
2573 -2741 0
2737 -2741 0
2740 2741 -2742 0
-2740 2742 0
-2741 2742 0
-138 -2637 2743 0
138 -2743 0
2637 -2743 0
-2579 -2743 -2744 0
2579 2743 -2744 0
2579 -2743 2744 0
-2579 2743 2744 0
-2744 -2742 -2745 0
2744 2742 -2745 0
2744 -2742 2745 0
-2744 2742 2745 0
-2744 -2742 2746 0
2744 -2746 0
2742 -2746 0
-2579 -2743 2747 0
2579 -2747 0
2743 -2747 0
2746 2747 -2748 0
-2746 2748 0
-2747 2748 0
-146 -2637 2749 0
146 -2749 0
2637 -2749 0
-2585 -2749 -2750 0
2585 2749 -2750 0
2585 -2749 2750 0
-2585 2749 2750 0
-2750 -2748 -2751 0
2750 2748 -2751 0
2750 -2748 2751 0
-2750 2748 2751 0
-2750 -2748 2752 0
2750 -2752 0
2748 -2752 0
-2585 -2749 2753 0
2585 -2753 0
2749 -2753 0
2752 2753 -2754 0
-2752 2754 0
-2753 2754 0
-154 -2637 2755 0
154 -2755 0
2637 -2755 0
-2591 -2755 -2756 0
2591 2755 -2756 0
2591 -2755 2756 0
-2591 2755 2756 0
-2756 -2754 -2757 0
2756 2754 -2757 0
2756 -2754 2757 0
-2756 2754 2757 0
-2756 -2754 2758 0
2756 -2758 0
2754 -2758 0
-2591 -2755 2759 0
2591 -2759 0
2755 -2759 0
2758 2759 -2760 0
-2758 2760 0
-2759 2760 0
-162 -2637 2761 0
162 -2761 0
2637 -2761 0
-2597 -2761 -2762 0
2597 2761 -2762 0
2597 -2761 2762 0
-2597 2761 2762 0
-2762 -2760 -2763 0
2762 2760 -2763 0
2762 -2760 2763 0
-2762 2760 2763 0
-2762 -2760 2764 0
2762 -2764 0
2760 -2764 0
-2597 -2761 2765 0
2597 -2765 0
2761 -2765 0
2764 2765 -2766 0
-2764 2766 0
-2765 2766 0
-170 -2637 2767 0
170 -2767 0
2637 -2767 0
-2603 -2767 -2768 0
2603 2767 -2768 0
2603 -2767 2768 0
-2603 2767 2768 0
-2768 -2766 -2769 0
2768 2766 -2769 0
2768 -2766 2769 0
-2768 2766 2769 0
-2768 -2766 2770 0
2768 -2770 0
2766 -2770 0
-2603 -2767 2771 0
2603 -2771 0
2767 -2771 0
2770 2771 -2772 0
-2770 2772 0
-2771 2772 0
-178 -2637 2773 0
178 -2773 0
2637 -2773 0
-2609 -2773 -2774 0
2609 2773 -2774 0
2609 -2773 2774 0
-2609 2773 2774 0
-2774 -2772 -2775 0
2774 2772 -2775 0
2774 -2772 2775 0
-2774 2772 2775 0
-2774 -2772 2776 0
2774 -2776 0
2772 -2776 0
-2609 -2773 2777 0
2609 -2777 0
2773 -2777 0
2776 2777 -2778 0
-2776 2778 0
-2777 2778 0
-186 -2637 2779 0
186 -2779 0
2637 -2779 0
-2615 -2779 -2780 0
2615 2779 -2780 0
2615 -2779 2780 0
-2615 2779 2780 0
-2780 -2778 -2781 0
2780 2778 -2781 0
2780 -2778 2781 0
-2780 2778 2781 0
-2780 -2778 2782 0
2780 -2782 0
2778 -2782 0
-2615 -2779 2783 0
2615 -2783 0
2779 -2783 0
2782 2783 -2784 0
-2782 2784 0
-2783 2784 0
-194 -2637 2785 0
194 -2785 0
2637 -2785 0
-2621 -2785 -2786 0
2621 2785 -2786 0
2621 -2785 2786 0
-2621 2785 2786 0
-2786 -2784 -2787 0
2786 2784 -2787 0
2786 -2784 2787 0
-2786 2784 2787 0
-2786 -2784 2788 0
2786 -2788 0
2784 -2788 0
-2621 -2785 2789 0
2621 -2789 0
2785 -2789 0
2788 2789 -2790 0
-2788 2790 0
-2789 2790 0
-202 -2637 2791 0
202 -2791 0
2637 -2791 0
-2627 -2791 -2792 0
2627 2791 -2792 0
2627 -2791 2792 0
-2627 2791 2792 0
-2792 -2790 -2793 0
2792 2790 -2793 0
2792 -2790 2793 0
-2792 2790 2793 0
-2792 -2790 2794 0
2792 -2794 0
2790 -2794 0
-2627 -2791 2795 0
2627 -2795 0
2791 -2795 0
2794 2795 -2796 0
-2794 2796 0
-2795 2796 0
-210 -2637 2797 0
210 -2797 0
2637 -2797 0
-2633 -2797 -2798 0
2633 2797 -2798 0
2633 -2797 2798 0
-2633 2797 2798 0
-2798 -2796 -2799 0
2798 2796 -2799 0
2798 -2796 2799 0
-2798 2796 2799 0
-2798 -2796 2800 0
2798 -2800 0
2796 -2800 0
-2633 -2797 2801 0
2633 -2801 0
2797 -2801 0
2800 2801 -2802 0
-2800 2802 0
-2801 2802 0
-218 -2637 2803 0
218 -2803 0
2637 -2803 0
-2636 -2803 -2804 0
2636 2803 -2804 0
2636 -2803 2804 0
-2636 2803 2804 0
-2804 -2802 -2805 0
2804 2802 -2805 0
2804 -2802 2805 0
-2804 2802 2805 0
-2804 -2802 2806 0
2804 -2806 0
2802 -2806 0
-2636 -2803 2807 0
2636 -2807 0
2803 -2807 0
2806 2807 -2808 0
-2806 2808 0
-2807 2808 0
-1 -2809 2810 0
1 -2810 0
2809 -2810 0
-2643 -2810 -2811 0
2643 2810 -2811 0
2643 -2810 2811 0
-2643 2810 2811 0
-2643 -2810 2812 0
2643 -2812 0
2810 -2812 0
-4 -2809 2813 0
4 -2813 0
2809 -2813 0
-2649 -2813 -2814 0
2649 2813 -2814 0
2649 -2813 2814 0
-2649 2813 2814 0
-2814 -2812 -2815 0
2814 2812 -2815 0
2814 -2812 2815 0
-2814 2812 2815 0
-2814 -2812 2816 0
2814 -2816 0
2812 -2816 0
-2649 -2813 2817 0
2649 -2817 0
2813 -2817 0
2816 2817 -2818 0
-2816 2818 0
-2817 2818 0
-10 -2809 2819 0
10 -2819 0
2809 -2819 0
-2655 -2819 -2820 0
2655 2819 -2820 0
2655 -2819 2820 0
-2655 2819 2820 0
-2820 -2818 -2821 0
2820 2818 -2821 0
2820 -2818 2821 0
-2820 2818 2821 0
-2820 -2818 2822 0
2820 -2822 0
2818 -2822 0
-2655 -2819 2823 0
2655 -2823 0
2819 -2823 0
2822 2823 -2824 0
-2822 2824 0
-2823 2824 0
-18 -2809 2825 0
18 -2825 0
2809 -2825 0
-2661 -2825 -2826 0
2661 2825 -2826 0
2661 -2825 2826 0
-2661 2825 2826 0
-2826 -2824 -2827 0
2826 2824 -2827 0
2826 -2824 2827 0
-2826 2824 2827 0
-2826 -2824 2828 0
2826 -2828 0
2824 -2828 0
-2661 -2825 2829 0
2661 -2829 0
2825 -2829 0
2828 2829 -2830 0
-2828 2830 0
-2829 2830 0
-26 -2809 2831 0
26 -2831 0
2809 -2831 0
-2667 -2831 -2832 0
2667 2831 -2832 0
2667 -2831 2832 0
-2667 2831 2832 0
-2832 -2830 -2833 0
2832 2830 -2833 0
2832 -2830 2833 0
-2832 2830 2833 0
-2832 -2830 2834 0
2832 -2834 0
2830 -2834 0
-2667 -2831 2835 0
2667 -2835 0
2831 -2835 0
2834 2835 -2836 0
-2834 2836 0
-2835 2836 0
-34 -2809 2837 0
34 -2837 0
2809 -2837 0
-2673 -2837 -2838 0
2673 2837 -2838 0
2673 -2837 2838 0
-2673 2837 2838 0
-2838 -2836 -2839 0
2838 2836 -2839 0
2838 -2836 2839 0
-2838 2836 2839 0
-2838 -2836 2840 0
2838 -2840 0
2836 -2840 0
-2673 -2837 2841 0
2673 -2841 0
2837 -2841 0
2840 2841 -2842 0
-2840 2842 0
-2841 2842 0
-42 -2809 2843 0
42 -2843 0
2809 -2843 0
-2679 -2843 -2844 0
2679 2843 -2844 0
2679 -2843 2844 0
-2679 2843 2844 0
-2844 -2842 -2845 0
2844 2842 -2845 0
2844 -2842 2845 0
-2844 2842 2845 0
-2844 -2842 2846 0
2844 -2846 0
2842 -2846 0
-2679 -2843 2847 0
2679 -2847 0
2843 -2847 0
2846 2847 -2848 0
-2846 2848 0
-2847 2848 0
-50 -2809 2849 0
50 -2849 0
2809 -2849 0
-2685 -2849 -2850 0
2685 2849 -2850 0
2685 -2849 2850 0
-2685 2849 2850 0
-2850 -2848 -2851 0
2850 2848 -2851 0
2850 -2848 2851 0
-2850 2848 2851 0
-2850 -2848 2852 0
2850 -2852 0
2848 -2852 0
-2685 -2849 2853 0
2685 -2853 0
2849 -2853 0
2852 2853 -2854 0
-2852 2854 0
-2853 2854 0
-58 -2809 2855 0
58 -2855 0
2809 -2855 0
-2691 -2855 -2856 0
2691 2855 -2856 0
2691 -2855 2856 0
-2691 2855 2856 0
-2856 -2854 -2857 0
2856 2854 -2857 0
2856 -2854 2857 0
-2856 2854 2857 0
-2856 -2854 2858 0
2856 -2858 0
2854 -2858 0
-2691 -2855 2859 0
2691 -2859 0
2855 -2859 0
2858 2859 -2860 0
-2858 2860 0
-2859 2860 0
-66 -2809 2861 0
66 -2861 0
2809 -2861 0
-2697 -2861 -2862 0
2697 2861 -2862 0
2697 -2861 2862 0
-2697 2861 2862 0
-2862 -2860 -2863 0
2862 2860 -2863 0
2862 -2860 2863 0
-2862 2860 2863 0
-2862 -2860 2864 0
2862 -2864 0
2860 -2864 0
-2697 -2861 2865 0
2697 -2865 0
2861 -2865 0
2864 2865 -2866 0
-2864 2866 0
-2865 2866 0
-74 -2809 2867 0
74 -2867 0
2809 -2867 0
-2703 -2867 -2868 0
2703 2867 -2868 0
2703 -2867 2868 0
-2703 2867 2868 0
-2868 -2866 -2869 0
2868 2866 -2869 0
2868 -2866 2869 0
-2868 2866 2869 0
-2868 -2866 2870 0
2868 -2870 0
2866 -2870 0
-2703 -2867 2871 0
2703 -2871 0
2867 -2871 0
2870 2871 -2872 0
-2870 2872 0
-2871 2872 0
-82 -2809 2873 0
82 -2873 0
2809 -2873 0
-2709 -2873 -2874 0
2709 2873 -2874 0
2709 -2873 2874 0
-2709 2873 2874 0
-2874 -2872 -2875 0
2874 2872 -2875 0
2874 -2872 2875 0
-2874 2872 2875 0
-2874 -2872 2876 0
2874 -2876 0
2872 -2876 0
-2709 -2873 2877 0
2709 -2877 0
2873 -2877 0
2876 2877 -2878 0
-2876 2878 0
-2877 2878 0
-90 -2809 2879 0
90 -2879 0
2809 -2879 0
-2715 -2879 -2880 0
2715 2879 -2880 0
2715 -2879 2880 0
-2715 2879 2880 0
-2880 -2878 -2881 0
2880 2878 -2881 0
2880 -2878 2881 0
-2880 2878 2881 0
-2880 -2878 2882 0
2880 -2882 0
2878 -2882 0
-2715 -2879 2883 0
2715 -2883 0
2879 -2883 0
2882 2883 -2884 0
-2882 2884 0
-2883 2884 0
-98 -2809 2885 0
98 -2885 0
2809 -2885 0
-2721 -2885 -2886 0
2721 2885 -2886 0
2721 -2885 2886 0
-2721 2885 2886 0
-2886 -2884 -2887 0
2886 2884 -2887 0
2886 -2884 2887 0
-2886 2884 2887 0
-2886 -2884 2888 0
2886 -2888 0
2884 -2888 0
-2721 -2885 2889 0
2721 -2889 0
2885 -2889 0
2888 2889 -2890 0
-2888 2890 0
-2889 2890 0
-106 -2809 2891 0
106 -2891 0
2809 -2891 0
-2727 -2891 -2892 0
2727 2891 -2892 0
2727 -2891 2892 0
-2727 2891 2892 0
-2892 -2890 -2893 0
2892 2890 -2893 0
2892 -2890 2893 0
-2892 2890 2893 0
-2892 -2890 2894 0
2892 -2894 0
2890 -2894 0
-2727 -2891 2895 0
2727 -2895 0
2891 -2895 0
2894 2895 -2896 0
-2894 2896 0
-2895 2896 0
-114 -2809 2897 0
114 -2897 0
2809 -2897 0
-2733 -2897 -2898 0
2733 2897 -2898 0
2733 -2897 2898 0
-2733 2897 2898 0
-2898 -2896 -2899 0
2898 2896 -2899 0
2898 -2896 2899 0
-2898 2896 2899 0
-2898 -2896 2900 0
2898 -2900 0
2896 -2900 0
-2733 -2897 2901 0
2733 -2901 0
2897 -2901 0
2900 2901 -2902 0
-2900 2902 0
-2901 2902 0
-122 -2809 2903 0
122 -2903 0
2809 -2903 0
-2739 -2903 -2904 0
2739 2903 -2904 0
2739 -2903 2904 0
-2739 2903 2904 0
-2904 -2902 -2905 0
2904 2902 -2905 0
2904 -2902 2905 0
-2904 2902 2905 0
-2904 -2902 2906 0
2904 -2906 0
2902 -2906 0
-2739 -2903 2907 0
2739 -2907 0
2903 -2907 0
2906 2907 -2908 0
-2906 2908 0
-2907 2908 0
-130 -2809 2909 0
130 -2909 0
2809 -2909 0
-2745 -2909 -2910 0
2745 2909 -2910 0
2745 -2909 2910 0
-2745 2909 2910 0
-2910 -2908 -2911 0
2910 2908 -2911 0
2910 -2908 2911 0
-2910 2908 2911 0
-2910 -2908 2912 0
2910 -2912 0
2908 -2912 0
-2745 -2909 2913 0
2745 -2913 0
2909 -2913 0
2912 2913 -2914 0
-2912 2914 0
-2913 2914 0
-138 -2809 2915 0
138 -2915 0
2809 -2915 0
-2751 -2915 -2916 0
2751 2915 -2916 0
2751 -2915 2916 0
-2751 2915 2916 0
-2916 -2914 -2917 0
2916 2914 -2917 0
2916 -2914 2917 0
-2916 2914 2917 0
-2916 -2914 2918 0
2916 -2918 0
2914 -2918 0
-2751 -2915 2919 0
2751 -2919 0
2915 -2919 0
2918 2919 -2920 0
-2918 2920 0
-2919 2920 0
-146 -2809 2921 0
146 -2921 0
2809 -2921 0
-2757 -2921 -2922 0
2757 2921 -2922 0
2757 -2921 2922 0
-2757 2921 2922 0
-2922 -2920 -2923 0
2922 2920 -2923 0
2922 -2920 2923 0
-2922 2920 2923 0
-2922 -2920 2924 0
2922 -2924 0
2920 -2924 0
-2757 -2921 2925 0
2757 -2925 0
2921 -2925 0
2924 2925 -2926 0
-2924 2926 0
-2925 2926 0
-154 -2809 2927 0
154 -2927 0
2809 -2927 0
-2763 -2927 -2928 0
2763 2927 -2928 0
2763 -2927 2928 0
-2763 2927 2928 0
-2928 -2926 -2929 0
2928 2926 -2929 0
2928 -2926 2929 0
-2928 2926 2929 0
-2928 -2926 2930 0
2928 -2930 0
2926 -2930 0
-2763 -2927 2931 0
2763 -2931 0
2927 -2931 0
2930 2931 -2932 0
-2930 2932 0
-2931 2932 0
-162 -2809 2933 0
162 -2933 0
2809 -2933 0
-2769 -2933 -2934 0
2769 2933 -2934 0
2769 -2933 2934 0
-2769 2933 2934 0
-2934 -2932 -2935 0
2934 2932 -2935 0
2934 -2932 2935 0
-2934 2932 2935 0
-2934 -2932 2936 0
2934 -2936 0
2932 -2936 0
-2769 -2933 2937 0
2769 -2937 0
2933 -2937 0
2936 2937 -2938 0
-2936 2938 0
-2937 2938 0
-170 -2809 2939 0
170 -2939 0
2809 -2939 0
-2775 -2939 -2940 0
2775 2939 -2940 0
2775 -2939 2940 0
-2775 2939 2940 0
-2940 -2938 -2941 0
2940 2938 -2941 0
2940 -2938 2941 0
-2940 2938 2941 0
-2940 -2938 2942 0
2940 -2942 0
2938 -2942 0
-2775 -2939 2943 0
2775 -2943 0
2939 -2943 0
2942 2943 -2944 0
-2942 2944 0
-2943 2944 0
-178 -2809 2945 0
178 -2945 0
2809 -2945 0
-2781 -2945 -2946 0
2781 2945 -2946 0
2781 -2945 2946 0
-2781 2945 2946 0
-2946 -2944 -2947 0
2946 2944 -2947 0
2946 -2944 2947 0
-2946 2944 2947 0
-2946 -2944 2948 0
2946 -2948 0
2944 -2948 0
-2781 -2945 2949 0
2781 -2949 0
2945 -2949 0
2948 2949 -2950 0
-2948 2950 0
-2949 2950 0
-186 -2809 2951 0
186 -2951 0
2809 -2951 0
-2787 -2951 -2952 0
2787 2951 -2952 0
2787 -2951 2952 0
-2787 2951 2952 0
-2952 -2950 -2953 0
2952 2950 -2953 0
2952 -2950 2953 0
-2952 2950 2953 0
-2952 -2950 2954 0
2952 -2954 0
2950 -2954 0
-2787 -2951 2955 0
2787 -2955 0
2951 -2955 0
2954 2955 -2956 0
-2954 2956 0
-2955 2956 0
-194 -2809 2957 0
194 -2957 0
2809 -2957 0
-2793 -2957 -2958 0
2793 2957 -2958 0
2793 -2957 2958 0
-2793 2957 2958 0
-2958 -2956 -2959 0
2958 2956 -2959 0
2958 -2956 2959 0
-2958 2956 2959 0
-2958 -2956 2960 0
2958 -2960 0
2956 -2960 0
-2793 -2957 2961 0
2793 -2961 0
2957 -2961 0
2960 2961 -2962 0
-2960 2962 0
-2961 2962 0
-202 -2809 2963 0
202 -2963 0
2809 -2963 0
-2799 -2963 -2964 0
2799 2963 -2964 0
2799 -2963 2964 0
-2799 2963 2964 0
-2964 -2962 -2965 0
2964 2962 -2965 0
2964 -2962 2965 0
-2964 2962 2965 0
-2964 -2962 2966 0
2964 -2966 0
2962 -2966 0
-2799 -2963 2967 0
2799 -2967 0
2963 -2967 0
2966 2967 -2968 0
-2966 2968 0
-2967 2968 0
-210 -2809 2969 0
210 -2969 0
2809 -2969 0
-2805 -2969 -2970 0
2805 2969 -2970 0
2805 -2969 2970 0
-2805 2969 2970 0
-2970 -2968 -2971 0
2970 2968 -2971 0
2970 -2968 2971 0
-2970 2968 2971 0
-2970 -2968 2972 0
2970 -2972 0
2968 -2972 0
-2805 -2969 2973 0
2805 -2973 0
2969 -2973 0
2972 2973 -2974 0
-2972 2974 0
-2973 2974 0
-218 -2809 2975 0
218 -2975 0
2809 -2975 0
-2808 -2975 -2976 0
2808 2975 -2976 0
2808 -2975 2976 0
-2808 2975 2976 0
-2976 -2974 -2977 0
2976 2974 -2977 0
2976 -2974 2977 0
-2976 2974 2977 0
-2976 -2974 2978 0
2976 -2978 0
2974 -2978 0
-2808 -2975 2979 0
2808 -2979 0
2975 -2979 0
2978 2979 -2980 0
-2978 2980 0
-2979 2980 0
-1 -2981 2982 0
1 -2982 0
2981 -2982 0
-2815 -2982 -2983 0
2815 2982 -2983 0
2815 -2982 2983 0
-2815 2982 2983 0
-2815 -2982 2984 0
2815 -2984 0
2982 -2984 0
-4 -2981 2985 0
4 -2985 0
2981 -2985 0
-2821 -2985 -2986 0
2821 2985 -2986 0
2821 -2985 2986 0
-2821 2985 2986 0
-2986 -2984 -2987 0
2986 2984 -2987 0
2986 -2984 2987 0
-2986 2984 2987 0
-2986 -2984 2988 0
2986 -2988 0
2984 -2988 0
-2821 -2985 2989 0
2821 -2989 0
2985 -2989 0
2988 2989 -2990 0
-2988 2990 0
-2989 2990 0
-10 -2981 2991 0
10 -2991 0
2981 -2991 0
-2827 -2991 -2992 0
2827 2991 -2992 0
2827 -2991 2992 0
-2827 2991 2992 0
-2992 -2990 -2993 0
2992 2990 -2993 0
2992 -2990 2993 0
-2992 2990 2993 0
-2992 -2990 2994 0
2992 -2994 0
2990 -2994 0
-2827 -2991 2995 0
2827 -2995 0
2991 -2995 0
2994 2995 -2996 0
-2994 2996 0
-2995 2996 0
-18 -2981 2997 0
18 -2997 0
2981 -2997 0
-2833 -2997 -2998 0
2833 2997 -2998 0
2833 -2997 2998 0
-2833 2997 2998 0
-2998 -2996 -2999 0
2998 2996 -2999 0
2998 -2996 2999 0
-2998 2996 2999 0
-2998 -2996 3000 0
2998 -3000 0
2996 -3000 0
-2833 -2997 3001 0
2833 -3001 0
2997 -3001 0
3000 3001 -3002 0
-3000 3002 0
-3001 3002 0
-26 -2981 3003 0
26 -3003 0
2981 -3003 0
-2839 -3003 -3004 0
2839 3003 -3004 0
2839 -3003 3004 0
-2839 3003 3004 0
-3004 -3002 -3005 0
3004 3002 -3005 0
3004 -3002 3005 0
-3004 3002 3005 0
-3004 -3002 3006 0
3004 -3006 0
3002 -3006 0
-2839 -3003 3007 0
2839 -3007 0
3003 -3007 0
3006 3007 -3008 0
-3006 3008 0
-3007 3008 0
-34 -2981 3009 0
34 -3009 0
2981 -3009 0
-2845 -3009 -3010 0
2845 3009 -3010 0
2845 -3009 3010 0
-2845 3009 3010 0
-3010 -3008 -3011 0
3010 3008 -3011 0
3010 -3008 3011 0
-3010 3008 3011 0
-3010 -3008 3012 0
3010 -3012 0
3008 -3012 0
-2845 -3009 3013 0
2845 -3013 0
3009 -3013 0
3012 3013 -3014 0
-3012 3014 0
-3013 3014 0
-42 -2981 3015 0
42 -3015 0
2981 -3015 0
-2851 -3015 -3016 0
2851 3015 -3016 0
2851 -3015 3016 0
-2851 3015 3016 0
-3016 -3014 -3017 0
3016 3014 -3017 0
3016 -3014 3017 0
-3016 3014 3017 0
-3016 -3014 3018 0
3016 -3018 0
3014 -3018 0
-2851 -3015 3019 0
2851 -3019 0
3015 -3019 0
3018 3019 -3020 0
-3018 3020 0
-3019 3020 0
-50 -2981 3021 0
50 -3021 0
2981 -3021 0
-2857 -3021 -3022 0
2857 3021 -3022 0
2857 -3021 3022 0
-2857 3021 3022 0
-3022 -3020 -3023 0
3022 3020 -3023 0
3022 -3020 3023 0
-3022 3020 3023 0
-3022 -3020 3024 0
3022 -3024 0
3020 -3024 0
-2857 -3021 3025 0
2857 -3025 0
3021 -3025 0
3024 3025 -3026 0
-3024 3026 0
-3025 3026 0
-58 -2981 3027 0
58 -3027 0
2981 -3027 0
-2863 -3027 -3028 0
2863 3027 -3028 0
2863 -3027 3028 0
-2863 3027 3028 0
-3028 -3026 -3029 0
3028 3026 -3029 0
3028 -3026 3029 0
-3028 3026 3029 0
-3028 -3026 3030 0
3028 -3030 0
3026 -3030 0
-2863 -3027 3031 0
2863 -3031 0
3027 -3031 0
3030 3031 -3032 0
-3030 3032 0
-3031 3032 0
-66 -2981 3033 0
66 -3033 0
2981 -3033 0
-2869 -3033 -3034 0
2869 3033 -3034 0
2869 -3033 3034 0
-2869 3033 3034 0
-3034 -3032 -3035 0
3034 3032 -3035 0
3034 -3032 3035 0
-3034 3032 3035 0
-3034 -3032 3036 0
3034 -3036 0
3032 -3036 0
-2869 -3033 3037 0
2869 -3037 0
3033 -3037 0
3036 3037 -3038 0
-3036 3038 0
-3037 3038 0
-74 -2981 3039 0
74 -3039 0
2981 -3039 0
-2875 -3039 -3040 0
2875 3039 -3040 0
2875 -3039 3040 0
-2875 3039 3040 0
-3040 -3038 -3041 0
3040 3038 -3041 0
3040 -3038 3041 0
-3040 3038 3041 0
-3040 -3038 3042 0
3040 -3042 0
3038 -3042 0
-2875 -3039 3043 0
2875 -3043 0
3039 -3043 0
3042 3043 -3044 0
-3042 3044 0
-3043 3044 0
-82 -2981 3045 0
82 -3045 0
2981 -3045 0
-2881 -3045 -3046 0
2881 3045 -3046 0
2881 -3045 3046 0
-2881 3045 3046 0
-3046 -3044 -3047 0
3046 3044 -3047 0
3046 -3044 3047 0
-3046 3044 3047 0
-3046 -3044 3048 0
3046 -3048 0
3044 -3048 0
-2881 -3045 3049 0
2881 -3049 0
3045 -3049 0
3048 3049 -3050 0
-3048 3050 0
-3049 3050 0
-90 -2981 3051 0
90 -3051 0
2981 -3051 0
-2887 -3051 -3052 0
2887 3051 -3052 0
2887 -3051 3052 0
-2887 3051 3052 0
-3052 -3050 -3053 0
3052 3050 -3053 0
3052 -3050 3053 0
-3052 3050 3053 0
-3052 -3050 3054 0
3052 -3054 0
3050 -3054 0
-2887 -3051 3055 0
2887 -3055 0
3051 -3055 0
3054 3055 -3056 0
-3054 3056 0
-3055 3056 0
-98 -2981 3057 0
98 -3057 0
2981 -3057 0
-2893 -3057 -3058 0
2893 3057 -3058 0
2893 -3057 3058 0
-2893 3057 3058 0
-3058 -3056 -3059 0
3058 3056 -3059 0
3058 -3056 3059 0
-3058 3056 3059 0
-3058 -3056 3060 0
3058 -3060 0
3056 -3060 0
-2893 -3057 3061 0
2893 -3061 0
3057 -3061 0
3060 3061 -3062 0
-3060 3062 0
-3061 3062 0
-106 -2981 3063 0
106 -3063 0
2981 -3063 0
-2899 -3063 -3064 0
2899 3063 -3064 0
2899 -3063 3064 0
-2899 3063 3064 0
-3064 -3062 -3065 0
3064 3062 -3065 0
3064 -3062 3065 0
-3064 3062 3065 0
-3064 -3062 3066 0
3064 -3066 0
3062 -3066 0
-2899 -3063 3067 0
2899 -3067 0
3063 -3067 0
3066 3067 -3068 0
-3066 3068 0
-3067 3068 0
-114 -2981 3069 0
114 -3069 0
2981 -3069 0
-2905 -3069 -3070 0
2905 3069 -3070 0
2905 -3069 3070 0
-2905 3069 3070 0
-3070 -3068 -3071 0
3070 3068 -3071 0
3070 -3068 3071 0
-3070 3068 3071 0
-3070 -3068 3072 0
3070 -3072 0
3068 -3072 0
-2905 -3069 3073 0
2905 -3073 0
3069 -3073 0
3072 3073 -3074 0
-3072 3074 0
-3073 3074 0
-122 -2981 3075 0
122 -3075 0
2981 -3075 0
-2911 -3075 -3076 0
2911 3075 -3076 0
2911 -3075 3076 0
-2911 3075 3076 0
-3076 -3074 -3077 0
3076 3074 -3077 0
3076 -3074 3077 0
-3076 3074 3077 0
-3076 -3074 3078 0
3076 -3078 0
3074 -3078 0
-2911 -3075 3079 0
2911 -3079 0
3075 -3079 0
3078 3079 -3080 0
-3078 3080 0
-3079 3080 0
-130 -2981 3081 0
130 -3081 0
2981 -3081 0
-2917 -3081 -3082 0
2917 3081 -3082 0
2917 -3081 3082 0
-2917 3081 3082 0
-3082 -3080 -3083 0
3082 3080 -3083 0
3082 -3080 3083 0
-3082 3080 3083 0
-3082 -3080 3084 0
3082 -3084 0
3080 -3084 0
-2917 -3081 3085 0
2917 -3085 0
3081 -3085 0
3084 3085 -3086 0
-3084 3086 0
-3085 3086 0
-138 -2981 3087 0
138 -3087 0
2981 -3087 0
-2923 -3087 -3088 0
2923 3087 -3088 0
2923 -3087 3088 0
-2923 3087 3088 0
-3088 -3086 -3089 0
3088 3086 -3089 0
3088 -3086 3089 0
-3088 3086 3089 0
-3088 -3086 3090 0
3088 -3090 0
3086 -3090 0
-2923 -3087 3091 0
2923 -3091 0
3087 -3091 0
3090 3091 -3092 0
-3090 3092 0
-3091 3092 0
-146 -2981 3093 0
146 -3093 0
2981 -3093 0
-2929 -3093 -3094 0
2929 3093 -3094 0
2929 -3093 3094 0
-2929 3093 3094 0
-3094 -3092 -3095 0
3094 3092 -3095 0
3094 -3092 3095 0
-3094 3092 3095 0
-3094 -3092 3096 0
3094 -3096 0
3092 -3096 0
-2929 -3093 3097 0
2929 -3097 0
3093 -3097 0
3096 3097 -3098 0
-3096 3098 0
-3097 3098 0
-154 -2981 3099 0
154 -3099 0
2981 -3099 0
-2935 -3099 -3100 0
2935 3099 -3100 0
2935 -3099 3100 0
-2935 3099 3100 0
-3100 -3098 -3101 0
3100 3098 -3101 0
3100 -3098 3101 0
-3100 3098 3101 0
-3100 -3098 3102 0
3100 -3102 0
3098 -3102 0
-2935 -3099 3103 0
2935 -3103 0
3099 -3103 0
3102 3103 -3104 0
-3102 3104 0
-3103 3104 0
-162 -2981 3105 0
162 -3105 0
2981 -3105 0
-2941 -3105 -3106 0
2941 3105 -3106 0
2941 -3105 3106 0
-2941 3105 3106 0
-3106 -3104 -3107 0
3106 3104 -3107 0
3106 -3104 3107 0
-3106 3104 3107 0
-3106 -3104 3108 0
3106 -3108 0
3104 -3108 0
-2941 -3105 3109 0
2941 -3109 0
3105 -3109 0
3108 3109 -3110 0
-3108 3110 0
-3109 3110 0
-170 -2981 3111 0
170 -3111 0
2981 -3111 0
-2947 -3111 -3112 0
2947 3111 -3112 0
2947 -3111 3112 0
-2947 3111 3112 0
-3112 -3110 -3113 0
3112 3110 -3113 0
3112 -3110 3113 0
-3112 3110 3113 0
-3112 -3110 3114 0
3112 -3114 0
3110 -3114 0
-2947 -3111 3115 0
2947 -3115 0
3111 -3115 0
3114 3115 -3116 0
-3114 3116 0
-3115 3116 0
-178 -2981 3117 0
178 -3117 0
2981 -3117 0
-2953 -3117 -3118 0
2953 3117 -3118 0
2953 -3117 3118 0
-2953 3117 3118 0
-3118 -3116 -3119 0
3118 3116 -3119 0
3118 -3116 3119 0
-3118 3116 3119 0
-3118 -3116 3120 0
3118 -3120 0
3116 -3120 0
-2953 -3117 3121 0
2953 -3121 0
3117 -3121 0
3120 3121 -3122 0
-3120 3122 0
-3121 3122 0
-186 -2981 3123 0
186 -3123 0
2981 -3123 0
-2959 -3123 -3124 0
2959 3123 -3124 0
2959 -3123 3124 0
-2959 3123 3124 0
-3124 -3122 -3125 0
3124 3122 -3125 0
3124 -3122 3125 0
-3124 3122 3125 0
-3124 -3122 3126 0
3124 -3126 0
3122 -3126 0
-2959 -3123 3127 0
2959 -3127 0
3123 -3127 0
3126 3127 -3128 0
-3126 3128 0
-3127 3128 0
-194 -2981 3129 0
194 -3129 0
2981 -3129 0
-2965 -3129 -3130 0
2965 3129 -3130 0
2965 -3129 3130 0
-2965 3129 3130 0
-3130 -3128 -3131 0
3130 3128 -3131 0
3130 -3128 3131 0
-3130 3128 3131 0
-3130 -3128 3132 0
3130 -3132 0
3128 -3132 0
-2965 -3129 3133 0
2965 -3133 0
3129 -3133 0
3132 3133 -3134 0
-3132 3134 0
-3133 3134 0
-202 -2981 3135 0
202 -3135 0
2981 -3135 0
-2971 -3135 -3136 0
2971 3135 -3136 0
2971 -3135 3136 0
-2971 3135 3136 0
-3136 -3134 -3137 0
3136 3134 -3137 0
3136 -3134 3137 0
-3136 3134 3137 0
-3136 -3134 3138 0
3136 -3138 0
3134 -3138 0
-2971 -3135 3139 0
2971 -3139 0
3135 -3139 0
3138 3139 -3140 0
-3138 3140 0
-3139 3140 0
-210 -2981 3141 0
210 -3141 0
2981 -3141 0
-2977 -3141 -3142 0
2977 3141 -3142 0
2977 -3141 3142 0
-2977 3141 3142 0
-3142 -3140 -3143 0
3142 3140 -3143 0
3142 -3140 3143 0
-3142 3140 3143 0
-3142 -3140 3144 0
3142 -3144 0
3140 -3144 0
-2977 -3141 3145 0
2977 -3145 0
3141 -3145 0
3144 3145 -3146 0
-3144 3146 0
-3145 3146 0
-218 -2981 3147 0
218 -3147 0
2981 -3147 0
-2980 -3147 -3148 0
2980 3147 -3148 0
2980 -3147 3148 0
-2980 3147 3148 0
-3148 -3146 -3149 0
3148 3146 -3149 0
3148 -3146 3149 0
-3148 3146 3149 0
-3148 -3146 3150 0
3148 -3150 0
3146 -3150 0
-2980 -3147 3151 0
2980 -3151 0
3147 -3151 0
3150 3151 -3152 0
-3150 3152 0
-3151 3152 0
-1 -3153 3154 0
1 -3154 0
3153 -3154 0
-2987 -3154 -3155 0
2987 3154 -3155 0
2987 -3154 3155 0
-2987 3154 3155 0
-2987 -3154 3156 0
2987 -3156 0
3154 -3156 0
-4 -3153 3157 0
4 -3157 0
3153 -3157 0
-2993 -3157 -3158 0
2993 3157 -3158 0
2993 -3157 3158 0
-2993 3157 3158 0
-3158 -3156 -3159 0
3158 3156 -3159 0
3158 -3156 3159 0
-3158 3156 3159 0
-3158 -3156 3160 0
3158 -3160 0
3156 -3160 0
-2993 -3157 3161 0
2993 -3161 0
3157 -3161 0
3160 3161 -3162 0
-3160 3162 0
-3161 3162 0
-10 -3153 3163 0
10 -3163 0
3153 -3163 0
-2999 -3163 -3164 0
2999 3163 -3164 0
2999 -3163 3164 0
-2999 3163 3164 0
-3164 -3162 -3165 0
3164 3162 -3165 0
3164 -3162 3165 0
-3164 3162 3165 0
-3164 -3162 3166 0
3164 -3166 0
3162 -3166 0
-2999 -3163 3167 0
2999 -3167 0
3163 -3167 0
3166 3167 -3168 0
-3166 3168 0
-3167 3168 0
-18 -3153 3169 0
18 -3169 0
3153 -3169 0
-3005 -3169 -3170 0
3005 3169 -3170 0
3005 -3169 3170 0
-3005 3169 3170 0
-3170 -3168 -3171 0
3170 3168 -3171 0
3170 -3168 3171 0
-3170 3168 3171 0
-3170 -3168 3172 0
3170 -3172 0
3168 -3172 0
-3005 -3169 3173 0
3005 -3173 0
3169 -3173 0
3172 3173 -3174 0
-3172 3174 0
-3173 3174 0
-26 -3153 3175 0
26 -3175 0
3153 -3175 0
-3011 -3175 -3176 0
3011 3175 -3176 0
3011 -3175 3176 0
-3011 3175 3176 0
-3176 -3174 -3177 0
3176 3174 -3177 0
3176 -3174 3177 0
-3176 3174 3177 0
-3176 -3174 3178 0
3176 -3178 0
3174 -3178 0
-3011 -3175 3179 0
3011 -3179 0
3175 -3179 0
3178 3179 -3180 0
-3178 3180 0
-3179 3180 0
-34 -3153 3181 0
34 -3181 0
3153 -3181 0
-3017 -3181 -3182 0
3017 3181 -3182 0
3017 -3181 3182 0
-3017 3181 3182 0
-3182 -3180 -3183 0
3182 3180 -3183 0
3182 -3180 3183 0
-3182 3180 3183 0
-3182 -3180 3184 0
3182 -3184 0
3180 -3184 0
-3017 -3181 3185 0
3017 -3185 0
3181 -3185 0
3184 3185 -3186 0
-3184 3186 0
-3185 3186 0
-42 -3153 3187 0
42 -3187 0
3153 -3187 0
-3023 -3187 -3188 0
3023 3187 -3188 0
3023 -3187 3188 0
-3023 3187 3188 0
-3188 -3186 -3189 0
3188 3186 -3189 0
3188 -3186 3189 0
-3188 3186 3189 0
-3188 -3186 3190 0
3188 -3190 0
3186 -3190 0
-3023 -3187 3191 0
3023 -3191 0
3187 -3191 0
3190 3191 -3192 0
-3190 3192 0
-3191 3192 0
-50 -3153 3193 0
50 -3193 0
3153 -3193 0
-3029 -3193 -3194 0
3029 3193 -3194 0
3029 -3193 3194 0
-3029 3193 3194 0
-3194 -3192 -3195 0
3194 3192 -3195 0
3194 -3192 3195 0
-3194 3192 3195 0
-3194 -3192 3196 0
3194 -3196 0
3192 -3196 0
-3029 -3193 3197 0
3029 -3197 0
3193 -3197 0
3196 3197 -3198 0
-3196 3198 0
-3197 3198 0
-58 -3153 3199 0
58 -3199 0
3153 -3199 0
-3035 -3199 -3200 0
3035 3199 -3200 0
3035 -3199 3200 0
-3035 3199 3200 0
-3200 -3198 -3201 0
3200 3198 -3201 0
3200 -3198 3201 0
-3200 3198 3201 0
-3200 -3198 3202 0
3200 -3202 0
3198 -3202 0
-3035 -3199 3203 0
3035 -3203 0
3199 -3203 0
3202 3203 -3204 0
-3202 3204 0
-3203 3204 0
-66 -3153 3205 0
66 -3205 0
3153 -3205 0
-3041 -3205 -3206 0
3041 3205 -3206 0
3041 -3205 3206 0
-3041 3205 3206 0
-3206 -3204 -3207 0
3206 3204 -3207 0
3206 -3204 3207 0
-3206 3204 3207 0
-3206 -3204 3208 0
3206 -3208 0
3204 -3208 0
-3041 -3205 3209 0
3041 -3209 0
3205 -3209 0
3208 3209 -3210 0
-3208 3210 0
-3209 3210 0
-74 -3153 3211 0
74 -3211 0
3153 -3211 0
-3047 -3211 -3212 0
3047 3211 -3212 0
3047 -3211 3212 0
-3047 3211 3212 0
-3212 -3210 -3213 0
3212 3210 -3213 0
3212 -3210 3213 0
-3212 3210 3213 0
-3212 -3210 3214 0
3212 -3214 0
3210 -3214 0
-3047 -3211 3215 0
3047 -3215 0
3211 -3215 0
3214 3215 -3216 0
-3214 3216 0
-3215 3216 0
-82 -3153 3217 0
82 -3217 0
3153 -3217 0
-3053 -3217 -3218 0
3053 3217 -3218 0
3053 -3217 3218 0
-3053 3217 3218 0
-3218 -3216 -3219 0
3218 3216 -3219 0
3218 -3216 3219 0
-3218 3216 3219 0
-3218 -3216 3220 0
3218 -3220 0
3216 -3220 0
-3053 -3217 3221 0
3053 -3221 0
3217 -3221 0
3220 3221 -3222 0
-3220 3222 0
-3221 3222 0
-90 -3153 3223 0
90 -3223 0
3153 -3223 0
-3059 -3223 -3224 0
3059 3223 -3224 0
3059 -3223 3224 0
-3059 3223 3224 0
-3224 -3222 -3225 0
3224 3222 -3225 0
3224 -3222 3225 0
-3224 3222 3225 0
-3224 -3222 3226 0
3224 -3226 0
3222 -3226 0
-3059 -3223 3227 0
3059 -3227 0
3223 -3227 0
3226 3227 -3228 0
-3226 3228 0
-3227 3228 0
-98 -3153 3229 0
98 -3229 0
3153 -3229 0
-3065 -3229 -3230 0
3065 3229 -3230 0
3065 -3229 3230 0
-3065 3229 3230 0
-3230 -3228 -3231 0
3230 3228 -3231 0
3230 -3228 3231 0
-3230 3228 3231 0
-3230 -3228 3232 0
3230 -3232 0
3228 -3232 0
-3065 -3229 3233 0
3065 -3233 0
3229 -3233 0
3232 3233 -3234 0
-3232 3234 0
-3233 3234 0
-106 -3153 3235 0
106 -3235 0
3153 -3235 0
-3071 -3235 -3236 0
3071 3235 -3236 0
3071 -3235 3236 0
-3071 3235 3236 0
-3236 -3234 -3237 0
3236 3234 -3237 0
3236 -3234 3237 0
-3236 3234 3237 0
-3236 -3234 3238 0
3236 -3238 0
3234 -3238 0
-3071 -3235 3239 0
3071 -3239 0
3235 -3239 0
3238 3239 -3240 0
-3238 3240 0
-3239 3240 0
-114 -3153 3241 0
114 -3241 0
3153 -3241 0
-3077 -3241 -3242 0
3077 3241 -3242 0
3077 -3241 3242 0
-3077 3241 3242 0
-3242 -3240 -3243 0
3242 3240 -3243 0
3242 -3240 3243 0
-3242 3240 3243 0
-3242 -3240 3244 0
3242 -3244 0
3240 -3244 0
-3077 -3241 3245 0
3077 -3245 0
3241 -3245 0
3244 3245 -3246 0
-3244 3246 0
-3245 3246 0
-122 -3153 3247 0
122 -3247 0
3153 -3247 0
-3083 -3247 -3248 0
3083 3247 -3248 0
3083 -3247 3248 0
-3083 3247 3248 0
-3248 -3246 -3249 0
3248 3246 -3249 0
3248 -3246 3249 0
-3248 3246 3249 0
-3248 -3246 3250 0
3248 -3250 0
3246 -3250 0
-3083 -3247 3251 0
3083 -3251 0
3247 -3251 0
3250 3251 -3252 0
-3250 3252 0
-3251 3252 0
-130 -3153 3253 0
130 -3253 0
3153 -3253 0
-3089 -3253 -3254 0
3089 3253 -3254 0
3089 -3253 3254 0
-3089 3253 3254 0
-3254 -3252 -3255 0
3254 3252 -3255 0
3254 -3252 3255 0
-3254 3252 3255 0
-3254 -3252 3256 0
3254 -3256 0
3252 -3256 0
-3089 -3253 3257 0
3089 -3257 0
3253 -3257 0
3256 3257 -3258 0
-3256 3258 0
-3257 3258 0
-138 -3153 3259 0
138 -3259 0
3153 -3259 0
-3095 -3259 -3260 0
3095 3259 -3260 0
3095 -3259 3260 0
-3095 3259 3260 0
-3260 -3258 -3261 0
3260 3258 -3261 0
3260 -3258 3261 0
-3260 3258 3261 0
-3260 -3258 3262 0
3260 -3262 0
3258 -3262 0
-3095 -3259 3263 0
3095 -3263 0
3259 -3263 0
3262 3263 -3264 0
-3262 3264 0
-3263 3264 0
-146 -3153 3265 0
146 -3265 0
3153 -3265 0
-3101 -3265 -3266 0
3101 3265 -3266 0
3101 -3265 3266 0
-3101 3265 3266 0
-3266 -3264 -3267 0
3266 3264 -3267 0
3266 -3264 3267 0
-3266 3264 3267 0
-3266 -3264 3268 0
3266 -3268 0
3264 -3268 0
-3101 -3265 3269 0
3101 -3269 0
3265 -3269 0
3268 3269 -3270 0
-3268 3270 0
-3269 3270 0
-154 -3153 3271 0
154 -3271 0
3153 -3271 0
-3107 -3271 -3272 0
3107 3271 -3272 0
3107 -3271 3272 0
-3107 3271 3272 0
-3272 -3270 -3273 0
3272 3270 -3273 0
3272 -3270 3273 0
-3272 3270 3273 0
-3272 -3270 3274 0
3272 -3274 0
3270 -3274 0
-3107 -3271 3275 0
3107 -3275 0
3271 -3275 0
3274 3275 -3276 0
-3274 3276 0
-3275 3276 0
-162 -3153 3277 0
162 -3277 0
3153 -3277 0
-3113 -3277 -3278 0
3113 3277 -3278 0
3113 -3277 3278 0
-3113 3277 3278 0
-3278 -3276 -3279 0
3278 3276 -3279 0
3278 -3276 3279 0
-3278 3276 3279 0
-3278 -3276 3280 0
3278 -3280 0
3276 -3280 0
-3113 -3277 3281 0
3113 -3281 0
3277 -3281 0
3280 3281 -3282 0
-3280 3282 0
-3281 3282 0
-170 -3153 3283 0
170 -3283 0
3153 -3283 0
-3119 -3283 -3284 0
3119 3283 -3284 0
3119 -3283 3284 0
-3119 3283 3284 0
-3284 -3282 -3285 0
3284 3282 -3285 0
3284 -3282 3285 0
-3284 3282 3285 0
-3284 -3282 3286 0
3284 -3286 0
3282 -3286 0
-3119 -3283 3287 0
3119 -3287 0
3283 -3287 0
3286 3287 -3288 0
-3286 3288 0
-3287 3288 0
-178 -3153 3289 0
178 -3289 0
3153 -3289 0
-3125 -3289 -3290 0
3125 3289 -3290 0
3125 -3289 3290 0
-3125 3289 3290 0
-3290 -3288 -3291 0
3290 3288 -3291 0
3290 -3288 3291 0
-3290 3288 3291 0
-3290 -3288 3292 0
3290 -3292 0
3288 -3292 0
-3125 -3289 3293 0
3125 -3293 0
3289 -3293 0
3292 3293 -3294 0
-3292 3294 0
-3293 3294 0
-186 -3153 3295 0
186 -3295 0
3153 -3295 0
-3131 -3295 -3296 0
3131 3295 -3296 0
3131 -3295 3296 0
-3131 3295 3296 0
-3296 -3294 -3297 0
3296 3294 -3297 0
3296 -3294 3297 0
-3296 3294 3297 0
-3296 -3294 3298 0
3296 -3298 0
3294 -3298 0
-3131 -3295 3299 0
3131 -3299 0
3295 -3299 0
3298 3299 -3300 0
-3298 3300 0
-3299 3300 0
-194 -3153 3301 0
194 -3301 0
3153 -3301 0
-3137 -3301 -3302 0
3137 3301 -3302 0
3137 -3301 3302 0
-3137 3301 3302 0
-3302 -3300 -3303 0
3302 3300 -3303 0
3302 -3300 3303 0
-3302 3300 3303 0
-3302 -3300 3304 0
3302 -3304 0
3300 -3304 0
-3137 -3301 3305 0
3137 -3305 0
3301 -3305 0
3304 3305 -3306 0
-3304 3306 0
-3305 3306 0
-202 -3153 3307 0
202 -3307 0
3153 -3307 0
-3143 -3307 -3308 0
3143 3307 -3308 0
3143 -3307 3308 0
-3143 3307 3308 0
-3308 -3306 -3309 0
3308 3306 -3309 0
3308 -3306 3309 0
-3308 3306 3309 0
-3308 -3306 3310 0
3308 -3310 0
3306 -3310 0
-3143 -3307 3311 0
3143 -3311 0
3307 -3311 0
3310 3311 -3312 0
-3310 3312 0
-3311 3312 0
-210 -3153 3313 0
210 -3313 0
3153 -3313 0
-3149 -3313 -3314 0
3149 3313 -3314 0
3149 -3313 3314 0
-3149 3313 3314 0
-3314 -3312 -3315 0
3314 3312 -3315 0
3314 -3312 3315 0
-3314 3312 3315 0
-3314 -3312 3316 0
3314 -3316 0
3312 -3316 0
-3149 -3313 3317 0
3149 -3317 0
3313 -3317 0
3316 3317 -3318 0
-3316 3318 0
-3317 3318 0
-218 -3153 3319 0
218 -3319 0
3153 -3319 0
-3152 -3319 -3320 0
3152 3319 -3320 0
3152 -3319 3320 0
-3152 3319 3320 0
-3320 -3318 -3321 0
3320 3318 -3321 0
3320 -3318 3321 0
-3320 3318 3321 0
-3320 -3318 3322 0
3320 -3322 0
3318 -3322 0
-3152 -3319 3323 0
3152 -3323 0
3319 -3323 0
3322 3323 -3324 0
-3322 3324 0
-3323 3324 0
-1 -3325 3326 0
1 -3326 0
3325 -3326 0
-3159 -3326 -3327 0
3159 3326 -3327 0
3159 -3326 3327 0
-3159 3326 3327 0
-3159 -3326 3328 0
3159 -3328 0
3326 -3328 0
-4 -3325 3329 0
4 -3329 0
3325 -3329 0
-3165 -3329 -3330 0
3165 3329 -3330 0
3165 -3329 3330 0
-3165 3329 3330 0
-3330 -3328 -3331 0
3330 3328 -3331 0
3330 -3328 3331 0
-3330 3328 3331 0
-3330 -3328 3332 0
3330 -3332 0
3328 -3332 0
-3165 -3329 3333 0
3165 -3333 0
3329 -3333 0
3332 3333 -3334 0
-3332 3334 0
-3333 3334 0
-10 -3325 3335 0
10 -3335 0
3325 -3335 0
-3171 -3335 -3336 0
3171 3335 -3336 0
3171 -3335 3336 0
-3171 3335 3336 0
-3336 -3334 -3337 0
3336 3334 -3337 0
3336 -3334 3337 0
-3336 3334 3337 0
-3336 -3334 3338 0
3336 -3338 0
3334 -3338 0
-3171 -3335 3339 0
3171 -3339 0
3335 -3339 0
3338 3339 -3340 0
-3338 3340 0
-3339 3340 0
-18 -3325 3341 0
18 -3341 0
3325 -3341 0
-3177 -3341 -3342 0
3177 3341 -3342 0
3177 -3341 3342 0
-3177 3341 3342 0
-3342 -3340 -3343 0
3342 3340 -3343 0
3342 -3340 3343 0
-3342 3340 3343 0
-3342 -3340 3344 0
3342 -3344 0
3340 -3344 0
-3177 -3341 3345 0
3177 -3345 0
3341 -3345 0
3344 3345 -3346 0
-3344 3346 0
-3345 3346 0
-26 -3325 3347 0
26 -3347 0
3325 -3347 0
-3183 -3347 -3348 0
3183 3347 -3348 0
3183 -3347 3348 0
-3183 3347 3348 0
-3348 -3346 -3349 0
3348 3346 -3349 0
3348 -3346 3349 0
-3348 3346 3349 0
-3348 -3346 3350 0
3348 -3350 0
3346 -3350 0
-3183 -3347 3351 0
3183 -3351 0
3347 -3351 0
3350 3351 -3352 0
-3350 3352 0
-3351 3352 0
-34 -3325 3353 0
34 -3353 0
3325 -3353 0
-3189 -3353 -3354 0
3189 3353 -3354 0
3189 -3353 3354 0
-3189 3353 3354 0
-3354 -3352 -3355 0
3354 3352 -3355 0
3354 -3352 3355 0
-3354 3352 3355 0
-3354 -3352 3356 0
3354 -3356 0
3352 -3356 0
-3189 -3353 3357 0
3189 -3357 0
3353 -3357 0
3356 3357 -3358 0
-3356 3358 0
-3357 3358 0
-42 -3325 3359 0
42 -3359 0
3325 -3359 0
-3195 -3359 -3360 0
3195 3359 -3360 0
3195 -3359 3360 0
-3195 3359 3360 0
-3360 -3358 -3361 0
3360 3358 -3361 0
3360 -3358 3361 0
-3360 3358 3361 0
-3360 -3358 3362 0
3360 -3362 0
3358 -3362 0
-3195 -3359 3363 0
3195 -3363 0
3359 -3363 0
3362 3363 -3364 0
-3362 3364 0
-3363 3364 0
-50 -3325 3365 0
50 -3365 0
3325 -3365 0
-3201 -3365 -3366 0
3201 3365 -3366 0
3201 -3365 3366 0
-3201 3365 3366 0
-3366 -3364 -3367 0
3366 3364 -3367 0
3366 -3364 3367 0
-3366 3364 3367 0
-3366 -3364 3368 0
3366 -3368 0
3364 -3368 0
-3201 -3365 3369 0
3201 -3369 0
3365 -3369 0
3368 3369 -3370 0
-3368 3370 0
-3369 3370 0
-58 -3325 3371 0
58 -3371 0
3325 -3371 0
-3207 -3371 -3372 0
3207 3371 -3372 0
3207 -3371 3372 0
-3207 3371 3372 0
-3372 -3370 -3373 0
3372 3370 -3373 0
3372 -3370 3373 0
-3372 3370 3373 0
-3372 -3370 3374 0
3372 -3374 0
3370 -3374 0
-3207 -3371 3375 0
3207 -3375 0
3371 -3375 0
3374 3375 -3376 0
-3374 3376 0
-3375 3376 0
-66 -3325 3377 0
66 -3377 0
3325 -3377 0
-3213 -3377 -3378 0
3213 3377 -3378 0
3213 -3377 3378 0
-3213 3377 3378 0
-3378 -3376 -3379 0
3378 3376 -3379 0
3378 -3376 3379 0
-3378 3376 3379 0
-3378 -3376 3380 0
3378 -3380 0
3376 -3380 0
-3213 -3377 3381 0
3213 -3381 0
3377 -3381 0
3380 3381 -3382 0
-3380 3382 0
-3381 3382 0
-74 -3325 3383 0
74 -3383 0
3325 -3383 0
-3219 -3383 -3384 0
3219 3383 -3384 0
3219 -3383 3384 0
-3219 3383 3384 0
-3384 -3382 -3385 0
3384 3382 -3385 0
3384 -3382 3385 0
-3384 3382 3385 0
-3384 -3382 3386 0
3384 -3386 0
3382 -3386 0
-3219 -3383 3387 0
3219 -3387 0
3383 -3387 0
3386 3387 -3388 0
-3386 3388 0
-3387 3388 0
-82 -3325 3389 0
82 -3389 0
3325 -3389 0
-3225 -3389 -3390 0
3225 3389 -3390 0
3225 -3389 3390 0
-3225 3389 3390 0
-3390 -3388 -3391 0
3390 3388 -3391 0
3390 -3388 3391 0
-3390 3388 3391 0
-3390 -3388 3392 0
3390 -3392 0
3388 -3392 0
-3225 -3389 3393 0
3225 -3393 0
3389 -3393 0
3392 3393 -3394 0
-3392 3394 0
-3393 3394 0
-90 -3325 3395 0
90 -3395 0
3325 -3395 0
-3231 -3395 -3396 0
3231 3395 -3396 0
3231 -3395 3396 0
-3231 3395 3396 0
-3396 -3394 -3397 0
3396 3394 -3397 0
3396 -3394 3397 0
-3396 3394 3397 0
-3396 -3394 3398 0
3396 -3398 0
3394 -3398 0
-3231 -3395 3399 0
3231 -3399 0
3395 -3399 0
3398 3399 -3400 0
-3398 3400 0
-3399 3400 0
-98 -3325 3401 0
98 -3401 0
3325 -3401 0
-3237 -3401 -3402 0
3237 3401 -3402 0
3237 -3401 3402 0
-3237 3401 3402 0
-3402 -3400 -3403 0
3402 3400 -3403 0
3402 -3400 3403 0
-3402 3400 3403 0
-3402 -3400 3404 0
3402 -3404 0
3400 -3404 0
-3237 -3401 3405 0
3237 -3405 0
3401 -3405 0
3404 3405 -3406 0
-3404 3406 0
-3405 3406 0
-106 -3325 3407 0
106 -3407 0
3325 -3407 0
-3243 -3407 -3408 0
3243 3407 -3408 0
3243 -3407 3408 0
-3243 3407 3408 0
-3408 -3406 -3409 0
3408 3406 -3409 0
3408 -3406 3409 0
-3408 3406 3409 0
-3408 -3406 3410 0
3408 -3410 0
3406 -3410 0
-3243 -3407 3411 0
3243 -3411 0
3407 -3411 0
3410 3411 -3412 0
-3410 3412 0
-3411 3412 0
-114 -3325 3413 0
114 -3413 0
3325 -3413 0
-3249 -3413 -3414 0
3249 3413 -3414 0
3249 -3413 3414 0
-3249 3413 3414 0
-3414 -3412 -3415 0
3414 3412 -3415 0
3414 -3412 3415 0
-3414 3412 3415 0
-3414 -3412 3416 0
3414 -3416 0
3412 -3416 0
-3249 -3413 3417 0
3249 -3417 0
3413 -3417 0
3416 3417 -3418 0
-3416 3418 0
-3417 3418 0
-122 -3325 3419 0
122 -3419 0
3325 -3419 0
-3255 -3419 -3420 0
3255 3419 -3420 0
3255 -3419 3420 0
-3255 3419 3420 0
-3420 -3418 -3421 0
3420 3418 -3421 0
3420 -3418 3421 0
-3420 3418 3421 0
-3420 -3418 3422 0
3420 -3422 0
3418 -3422 0
-3255 -3419 3423 0
3255 -3423 0
3419 -3423 0
3422 3423 -3424 0
-3422 3424 0
-3423 3424 0
-130 -3325 3425 0
130 -3425 0
3325 -3425 0
-3261 -3425 -3426 0
3261 3425 -3426 0
3261 -3425 3426 0
-3261 3425 3426 0
-3426 -3424 -3427 0
3426 3424 -3427 0
3426 -3424 3427 0
-3426 3424 3427 0
-3426 -3424 3428 0
3426 -3428 0
3424 -3428 0
-3261 -3425 3429 0
3261 -3429 0
3425 -3429 0
3428 3429 -3430 0
-3428 3430 0
-3429 3430 0
-138 -3325 3431 0
138 -3431 0
3325 -3431 0
-3267 -3431 -3432 0
3267 3431 -3432 0
3267 -3431 3432 0
-3267 3431 3432 0
-3432 -3430 -3433 0
3432 3430 -3433 0
3432 -3430 3433 0
-3432 3430 3433 0
-3432 -3430 3434 0
3432 -3434 0
3430 -3434 0
-3267 -3431 3435 0
3267 -3435 0
3431 -3435 0
3434 3435 -3436 0
-3434 3436 0
-3435 3436 0
-146 -3325 3437 0
146 -3437 0
3325 -3437 0
-3273 -3437 -3438 0
3273 3437 -3438 0
3273 -3437 3438 0
-3273 3437 3438 0
-3438 -3436 -3439 0
3438 3436 -3439 0
3438 -3436 3439 0
-3438 3436 3439 0
-3438 -3436 3440 0
3438 -3440 0
3436 -3440 0
-3273 -3437 3441 0
3273 -3441 0
3437 -3441 0
3440 3441 -3442 0
-3440 3442 0
-3441 3442 0
-154 -3325 3443 0
154 -3443 0
3325 -3443 0
-3279 -3443 -3444 0
3279 3443 -3444 0
3279 -3443 3444 0
-3279 3443 3444 0
-3444 -3442 -3445 0
3444 3442 -3445 0
3444 -3442 3445 0
-3444 3442 3445 0
-3444 -3442 3446 0
3444 -3446 0
3442 -3446 0
-3279 -3443 3447 0
3279 -3447 0
3443 -3447 0
3446 3447 -3448 0
-3446 3448 0
-3447 3448 0
-162 -3325 3449 0
162 -3449 0
3325 -3449 0
-3285 -3449 -3450 0
3285 3449 -3450 0
3285 -3449 3450 0
-3285 3449 3450 0
-3450 -3448 -3451 0
3450 3448 -3451 0
3450 -3448 3451 0
-3450 3448 3451 0
-3450 -3448 3452 0
3450 -3452 0
3448 -3452 0
-3285 -3449 3453 0
3285 -3453 0
3449 -3453 0
3452 3453 -3454 0
-3452 3454 0
-3453 3454 0
-170 -3325 3455 0
170 -3455 0
3325 -3455 0
-3291 -3455 -3456 0
3291 3455 -3456 0
3291 -3455 3456 0
-3291 3455 3456 0
-3456 -3454 -3457 0
3456 3454 -3457 0
3456 -3454 3457 0
-3456 3454 3457 0
-3456 -3454 3458 0
3456 -3458 0
3454 -3458 0
-3291 -3455 3459 0
3291 -3459 0
3455 -3459 0
3458 3459 -3460 0
-3458 3460 0
-3459 3460 0
-178 -3325 3461 0
178 -3461 0
3325 -3461 0
-3297 -3461 -3462 0
3297 3461 -3462 0
3297 -3461 3462 0
-3297 3461 3462 0
-3462 -3460 -3463 0
3462 3460 -3463 0
3462 -3460 3463 0
-3462 3460 3463 0
-3462 -3460 3464 0
3462 -3464 0
3460 -3464 0
-3297 -3461 3465 0
3297 -3465 0
3461 -3465 0
3464 3465 -3466 0
-3464 3466 0
-3465 3466 0
-186 -3325 3467 0
186 -3467 0
3325 -3467 0
-3303 -3467 -3468 0
3303 3467 -3468 0
3303 -3467 3468 0
-3303 3467 3468 0
-3468 -3466 -3469 0
3468 3466 -3469 0
3468 -3466 3469 0
-3468 3466 3469 0
-3468 -3466 3470 0
3468 -3470 0
3466 -3470 0
-3303 -3467 3471 0
3303 -3471 0
3467 -3471 0
3470 3471 -3472 0
-3470 3472 0
-3471 3472 0
-194 -3325 3473 0
194 -3473 0
3325 -3473 0
-3309 -3473 -3474 0
3309 3473 -3474 0
3309 -3473 3474 0
-3309 3473 3474 0
-3474 -3472 -3475 0
3474 3472 -3475 0
3474 -3472 3475 0
-3474 3472 3475 0
-3474 -3472 3476 0
3474 -3476 0
3472 -3476 0
-3309 -3473 3477 0
3309 -3477 0
3473 -3477 0
3476 3477 -3478 0
-3476 3478 0
-3477 3478 0
-202 -3325 3479 0
202 -3479 0
3325 -3479 0
-3315 -3479 -3480 0
3315 3479 -3480 0
3315 -3479 3480 0
-3315 3479 3480 0
-3480 -3478 -3481 0
3480 3478 -3481 0
3480 -3478 3481 0
-3480 3478 3481 0
-3480 -3478 3482 0
3480 -3482 0
3478 -3482 0
-3315 -3479 3483 0
3315 -3483 0
3479 -3483 0
3482 3483 -3484 0
-3482 3484 0
-3483 3484 0
-210 -3325 3485 0
210 -3485 0
3325 -3485 0
-3321 -3485 -3486 0
3321 3485 -3486 0
3321 -3485 3486 0
-3321 3485 3486 0
-3486 -3484 -3487 0
3486 3484 -3487 0
3486 -3484 3487 0
-3486 3484 3487 0
-3486 -3484 3488 0
3486 -3488 0
3484 -3488 0
-3321 -3485 3489 0
3321 -3489 0
3485 -3489 0
3488 3489 -3490 0
-3488 3490 0
-3489 3490 0
-218 -3325 3491 0
218 -3491 0
3325 -3491 0
-3324 -3491 -3492 0
3324 3491 -3492 0
3324 -3491 3492 0
-3324 3491 3492 0
-3492 -3490 -3493 0
3492 3490 -3493 0
3492 -3490 3493 0
-3492 3490 3493 0
-3492 -3490 3494 0
3492 -3494 0
3490 -3494 0
-3324 -3491 3495 0
3324 -3495 0
3491 -3495 0
3494 3495 -3496 0
-3494 3496 0
-3495 3496 0
-1 -3497 3498 0
1 -3498 0
3497 -3498 0
-3331 -3498 -3499 0
3331 3498 -3499 0
3331 -3498 3499 0
-3331 3498 3499 0
-3331 -3498 3500 0
3331 -3500 0
3498 -3500 0
-4 -3497 3501 0
4 -3501 0
3497 -3501 0
-3337 -3501 -3502 0
3337 3501 -3502 0
3337 -3501 3502 0
-3337 3501 3502 0
-3502 -3500 -3503 0
3502 3500 -3503 0
3502 -3500 3503 0
-3502 3500 3503 0
-3502 -3500 3504 0
3502 -3504 0
3500 -3504 0
-3337 -3501 3505 0
3337 -3505 0
3501 -3505 0
3504 3505 -3506 0
-3504 3506 0
-3505 3506 0
-10 -3497 3507 0
10 -3507 0
3497 -3507 0
-3343 -3507 -3508 0
3343 3507 -3508 0
3343 -3507 3508 0
-3343 3507 3508 0
-3508 -3506 -3509 0
3508 3506 -3509 0
3508 -3506 3509 0
-3508 3506 3509 0
-3508 -3506 3510 0
3508 -3510 0
3506 -3510 0
-3343 -3507 3511 0
3343 -3511 0
3507 -3511 0
3510 3511 -3512 0
-3510 3512 0
-3511 3512 0
-18 -3497 3513 0
18 -3513 0
3497 -3513 0
-3349 -3513 -3514 0
3349 3513 -3514 0
3349 -3513 3514 0
-3349 3513 3514 0
-3514 -3512 -3515 0
3514 3512 -3515 0
3514 -3512 3515 0
-3514 3512 3515 0
-3514 -3512 3516 0
3514 -3516 0
3512 -3516 0
-3349 -3513 3517 0
3349 -3517 0
3513 -3517 0
3516 3517 -3518 0
-3516 3518 0
-3517 3518 0
-26 -3497 3519 0
26 -3519 0
3497 -3519 0
-3355 -3519 -3520 0
3355 3519 -3520 0
3355 -3519 3520 0
-3355 3519 3520 0
-3520 -3518 -3521 0
3520 3518 -3521 0
3520 -3518 3521 0
-3520 3518 3521 0
-3520 -3518 3522 0
3520 -3522 0
3518 -3522 0
-3355 -3519 3523 0
3355 -3523 0
3519 -3523 0
3522 3523 -3524 0
-3522 3524 0
-3523 3524 0
-34 -3497 3525 0
34 -3525 0
3497 -3525 0
-3361 -3525 -3526 0
3361 3525 -3526 0
3361 -3525 3526 0
-3361 3525 3526 0
-3526 -3524 -3527 0
3526 3524 -3527 0
3526 -3524 3527 0
-3526 3524 3527 0
-3526 -3524 3528 0
3526 -3528 0
3524 -3528 0
-3361 -3525 3529 0
3361 -3529 0
3525 -3529 0
3528 3529 -3530 0
-3528 3530 0
-3529 3530 0
-42 -3497 3531 0
42 -3531 0
3497 -3531 0
-3367 -3531 -3532 0
3367 3531 -3532 0
3367 -3531 3532 0
-3367 3531 3532 0
-3532 -3530 -3533 0
3532 3530 -3533 0
3532 -3530 3533 0
-3532 3530 3533 0
-3532 -3530 3534 0
3532 -3534 0
3530 -3534 0
-3367 -3531 3535 0
3367 -3535 0
3531 -3535 0
3534 3535 -3536 0
-3534 3536 0
-3535 3536 0
-50 -3497 3537 0
50 -3537 0
3497 -3537 0
-3373 -3537 -3538 0
3373 3537 -3538 0
3373 -3537 3538 0
-3373 3537 3538 0
-3538 -3536 -3539 0
3538 3536 -3539 0
3538 -3536 3539 0
-3538 3536 3539 0
-3538 -3536 3540 0
3538 -3540 0
3536 -3540 0
-3373 -3537 3541 0
3373 -3541 0
3537 -3541 0
3540 3541 -3542 0
-3540 3542 0
-3541 3542 0
-58 -3497 3543 0
58 -3543 0
3497 -3543 0
-3379 -3543 -3544 0
3379 3543 -3544 0
3379 -3543 3544 0
-3379 3543 3544 0
-3544 -3542 -3545 0
3544 3542 -3545 0
3544 -3542 3545 0
-3544 3542 3545 0
-3544 -3542 3546 0
3544 -3546 0
3542 -3546 0
-3379 -3543 3547 0
3379 -3547 0
3543 -3547 0
3546 3547 -3548 0
-3546 3548 0
-3547 3548 0
-66 -3497 3549 0
66 -3549 0
3497 -3549 0
-3385 -3549 -3550 0
3385 3549 -3550 0
3385 -3549 3550 0
-3385 3549 3550 0
-3550 -3548 -3551 0
3550 3548 -3551 0
3550 -3548 3551 0
-3550 3548 3551 0
-3550 -3548 3552 0
3550 -3552 0
3548 -3552 0
-3385 -3549 3553 0
3385 -3553 0
3549 -3553 0
3552 3553 -3554 0
-3552 3554 0
-3553 3554 0
-74 -3497 3555 0
74 -3555 0
3497 -3555 0
-3391 -3555 -3556 0
3391 3555 -3556 0
3391 -3555 3556 0
-3391 3555 3556 0
-3556 -3554 -3557 0
3556 3554 -3557 0
3556 -3554 3557 0
-3556 3554 3557 0
-3556 -3554 3558 0
3556 -3558 0
3554 -3558 0
-3391 -3555 3559 0
3391 -3559 0
3555 -3559 0
3558 3559 -3560 0
-3558 3560 0
-3559 3560 0
-82 -3497 3561 0
82 -3561 0
3497 -3561 0
-3397 -3561 -3562 0
3397 3561 -3562 0
3397 -3561 3562 0
-3397 3561 3562 0
-3562 -3560 -3563 0
3562 3560 -3563 0
3562 -3560 3563 0
-3562 3560 3563 0
-3562 -3560 3564 0
3562 -3564 0
3560 -3564 0
-3397 -3561 3565 0
3397 -3565 0
3561 -3565 0
3564 3565 -3566 0
-3564 3566 0
-3565 3566 0
-90 -3497 3567 0
90 -3567 0
3497 -3567 0
-3403 -3567 -3568 0
3403 3567 -3568 0
3403 -3567 3568 0
-3403 3567 3568 0
-3568 -3566 -3569 0
3568 3566 -3569 0
3568 -3566 3569 0
-3568 3566 3569 0
-3568 -3566 3570 0
3568 -3570 0
3566 -3570 0
-3403 -3567 3571 0
3403 -3571 0
3567 -3571 0
3570 3571 -3572 0
-3570 3572 0
-3571 3572 0
-98 -3497 3573 0
98 -3573 0
3497 -3573 0
-3409 -3573 -3574 0
3409 3573 -3574 0
3409 -3573 3574 0
-3409 3573 3574 0
-3574 -3572 -3575 0
3574 3572 -3575 0
3574 -3572 3575 0
-3574 3572 3575 0
-3574 -3572 3576 0
3574 -3576 0
3572 -3576 0
-3409 -3573 3577 0
3409 -3577 0
3573 -3577 0
3576 3577 -3578 0
-3576 3578 0
-3577 3578 0
-106 -3497 3579 0
106 -3579 0
3497 -3579 0
-3415 -3579 -3580 0
3415 3579 -3580 0
3415 -3579 3580 0
-3415 3579 3580 0
-3580 -3578 -3581 0
3580 3578 -3581 0
3580 -3578 3581 0
-3580 3578 3581 0
-3580 -3578 3582 0
3580 -3582 0
3578 -3582 0
-3415 -3579 3583 0
3415 -3583 0
3579 -3583 0
3582 3583 -3584 0
-3582 3584 0
-3583 3584 0
-114 -3497 3585 0
114 -3585 0
3497 -3585 0
-3421 -3585 -3586 0
3421 3585 -3586 0
3421 -3585 3586 0
-3421 3585 3586 0
-3586 -3584 -3587 0
3586 3584 -3587 0
3586 -3584 3587 0
-3586 3584 3587 0
-3586 -3584 3588 0
3586 -3588 0
3584 -3588 0
-3421 -3585 3589 0
3421 -3589 0
3585 -3589 0
3588 3589 -3590 0
-3588 3590 0
-3589 3590 0
-122 -3497 3591 0
122 -3591 0
3497 -3591 0
-3427 -3591 -3592 0
3427 3591 -3592 0
3427 -3591 3592 0
-3427 3591 3592 0
-3592 -3590 -3593 0
3592 3590 -3593 0
3592 -3590 3593 0
-3592 3590 3593 0
-3592 -3590 3594 0
3592 -3594 0
3590 -3594 0
-3427 -3591 3595 0
3427 -3595 0
3591 -3595 0
3594 3595 -3596 0
-3594 3596 0
-3595 3596 0
-130 -3497 3597 0
130 -3597 0
3497 -3597 0
-3433 -3597 -3598 0
3433 3597 -3598 0
3433 -3597 3598 0
-3433 3597 3598 0
-3598 -3596 -3599 0
3598 3596 -3599 0
3598 -3596 3599 0
-3598 3596 3599 0
-3598 -3596 3600 0
3598 -3600 0
3596 -3600 0
-3433 -3597 3601 0
3433 -3601 0
3597 -3601 0
3600 3601 -3602 0
-3600 3602 0
-3601 3602 0
-138 -3497 3603 0
138 -3603 0
3497 -3603 0
-3439 -3603 -3604 0
3439 3603 -3604 0
3439 -3603 3604 0
-3439 3603 3604 0
-3604 -3602 -3605 0
3604 3602 -3605 0
3604 -3602 3605 0
-3604 3602 3605 0
-3604 -3602 3606 0
3604 -3606 0
3602 -3606 0
-3439 -3603 3607 0
3439 -3607 0
3603 -3607 0
3606 3607 -3608 0
-3606 3608 0
-3607 3608 0
-146 -3497 3609 0
146 -3609 0
3497 -3609 0
-3445 -3609 -3610 0
3445 3609 -3610 0
3445 -3609 3610 0
-3445 3609 3610 0
-3610 -3608 -3611 0
3610 3608 -3611 0
3610 -3608 3611 0
-3610 3608 3611 0
-3610 -3608 3612 0
3610 -3612 0
3608 -3612 0
-3445 -3609 3613 0
3445 -3613 0
3609 -3613 0
3612 3613 -3614 0
-3612 3614 0
-3613 3614 0
-154 -3497 3615 0
154 -3615 0
3497 -3615 0
-3451 -3615 -3616 0
3451 3615 -3616 0
3451 -3615 3616 0
-3451 3615 3616 0
-3616 -3614 -3617 0
3616 3614 -3617 0
3616 -3614 3617 0
-3616 3614 3617 0
-3616 -3614 3618 0
3616 -3618 0
3614 -3618 0
-3451 -3615 3619 0
3451 -3619 0
3615 -3619 0
3618 3619 -3620 0
-3618 3620 0
-3619 3620 0
-162 -3497 3621 0
162 -3621 0
3497 -3621 0
-3457 -3621 -3622 0
3457 3621 -3622 0
3457 -3621 3622 0
-3457 3621 3622 0
-3622 -3620 -3623 0
3622 3620 -3623 0
3622 -3620 3623 0
-3622 3620 3623 0
-3622 -3620 3624 0
3622 -3624 0
3620 -3624 0
-3457 -3621 3625 0
3457 -3625 0
3621 -3625 0
3624 3625 -3626 0
-3624 3626 0
-3625 3626 0
-170 -3497 3627 0
170 -3627 0
3497 -3627 0
-3463 -3627 -3628 0
3463 3627 -3628 0
3463 -3627 3628 0
-3463 3627 3628 0
-3628 -3626 -3629 0
3628 3626 -3629 0
3628 -3626 3629 0
-3628 3626 3629 0
-3628 -3626 3630 0
3628 -3630 0
3626 -3630 0
-3463 -3627 3631 0
3463 -3631 0
3627 -3631 0
3630 3631 -3632 0
-3630 3632 0
-3631 3632 0
-178 -3497 3633 0
178 -3633 0
3497 -3633 0
-3469 -3633 -3634 0
3469 3633 -3634 0
3469 -3633 3634 0
-3469 3633 3634 0
-3634 -3632 -3635 0
3634 3632 -3635 0
3634 -3632 3635 0
-3634 3632 3635 0
-3634 -3632 3636 0
3634 -3636 0
3632 -3636 0
-3469 -3633 3637 0
3469 -3637 0
3633 -3637 0
3636 3637 -3638 0
-3636 3638 0
-3637 3638 0
-186 -3497 3639 0
186 -3639 0
3497 -3639 0
-3475 -3639 -3640 0
3475 3639 -3640 0
3475 -3639 3640 0
-3475 3639 3640 0
-3640 -3638 -3641 0
3640 3638 -3641 0
3640 -3638 3641 0
-3640 3638 3641 0
-3640 -3638 3642 0
3640 -3642 0
3638 -3642 0
-3475 -3639 3643 0
3475 -3643 0
3639 -3643 0
3642 3643 -3644 0
-3642 3644 0
-3643 3644 0
-194 -3497 3645 0
194 -3645 0
3497 -3645 0
-3481 -3645 -3646 0
3481 3645 -3646 0
3481 -3645 3646 0
-3481 3645 3646 0
-3646 -3644 -3647 0
3646 3644 -3647 0
3646 -3644 3647 0
-3646 3644 3647 0
-3646 -3644 3648 0
3646 -3648 0
3644 -3648 0
-3481 -3645 3649 0
3481 -3649 0
3645 -3649 0
3648 3649 -3650 0
-3648 3650 0
-3649 3650 0
-202 -3497 3651 0
202 -3651 0
3497 -3651 0
-3487 -3651 -3652 0
3487 3651 -3652 0
3487 -3651 3652 0
-3487 3651 3652 0
-3652 -3650 -3653 0
3652 3650 -3653 0
3652 -3650 3653 0
-3652 3650 3653 0
-3652 -3650 3654 0
3652 -3654 0
3650 -3654 0
-3487 -3651 3655 0
3487 -3655 0
3651 -3655 0
3654 3655 -3656 0
-3654 3656 0
-3655 3656 0
-210 -3497 3657 0
210 -3657 0
3497 -3657 0
-3493 -3657 -3658 0
3493 3657 -3658 0
3493 -3657 3658 0
-3493 3657 3658 0
-3658 -3656 -3659 0
3658 3656 -3659 0
3658 -3656 3659 0
-3658 3656 3659 0
-3658 -3656 3660 0
3658 -3660 0
3656 -3660 0
-3493 -3657 3661 0
3493 -3661 0
3657 -3661 0
3660 3661 -3662 0
-3660 3662 0
-3661 3662 0
-218 -3497 3663 0
218 -3663 0
3497 -3663 0
-3496 -3663 -3664 0
3496 3663 -3664 0
3496 -3663 3664 0
-3496 3663 3664 0
-3664 -3662 -3665 0
3664 3662 -3665 0
3664 -3662 3665 0
-3664 3662 3665 0
-3664 -3662 3666 0
3664 -3666 0
3662 -3666 0
-3496 -3663 3667 0
3496 -3667 0
3663 -3667 0
3666 3667 -3668 0
-3666 3668 0
-3667 3668 0
-1 -3669 3670 0
1 -3670 0
3669 -3670 0
-3503 -3670 -3671 0
3503 3670 -3671 0
3503 -3670 3671 0
-3503 3670 3671 0
-3503 -3670 3672 0
3503 -3672 0
3670 -3672 0
-4 -3669 3673 0
4 -3673 0
3669 -3673 0
-3509 -3673 -3674 0
3509 3673 -3674 0
3509 -3673 3674 0
-3509 3673 3674 0
-3674 -3672 -3675 0
3674 3672 -3675 0
3674 -3672 3675 0
-3674 3672 3675 0
-3674 -3672 3676 0
3674 -3676 0
3672 -3676 0
-3509 -3673 3677 0
3509 -3677 0
3673 -3677 0
3676 3677 -3678 0
-3676 3678 0
-3677 3678 0
-10 -3669 3679 0
10 -3679 0
3669 -3679 0
-3515 -3679 -3680 0
3515 3679 -3680 0
3515 -3679 3680 0
-3515 3679 3680 0
-3680 -3678 -3681 0
3680 3678 -3681 0
3680 -3678 3681 0
-3680 3678 3681 0
-3680 -3678 3682 0
3680 -3682 0
3678 -3682 0
-3515 -3679 3683 0
3515 -3683 0
3679 -3683 0
3682 3683 -3684 0
-3682 3684 0
-3683 3684 0
-18 -3669 3685 0
18 -3685 0
3669 -3685 0
-3521 -3685 -3686 0
3521 3685 -3686 0
3521 -3685 3686 0
-3521 3685 3686 0
-3686 -3684 -3687 0
3686 3684 -3687 0
3686 -3684 3687 0
-3686 3684 3687 0
-3686 -3684 3688 0
3686 -3688 0
3684 -3688 0
-3521 -3685 3689 0
3521 -3689 0
3685 -3689 0
3688 3689 -3690 0
-3688 3690 0
-3689 3690 0
-26 -3669 3691 0
26 -3691 0
3669 -3691 0
-3527 -3691 -3692 0
3527 3691 -3692 0
3527 -3691 3692 0
-3527 3691 3692 0
-3692 -3690 -3693 0
3692 3690 -3693 0
3692 -3690 3693 0
-3692 3690 3693 0
-3692 -3690 3694 0
3692 -3694 0
3690 -3694 0
-3527 -3691 3695 0
3527 -3695 0
3691 -3695 0
3694 3695 -3696 0
-3694 3696 0
-3695 3696 0
-34 -3669 3697 0
34 -3697 0
3669 -3697 0
-3533 -3697 -3698 0
3533 3697 -3698 0
3533 -3697 3698 0
-3533 3697 3698 0
-3698 -3696 -3699 0
3698 3696 -3699 0
3698 -3696 3699 0
-3698 3696 3699 0
-3698 -3696 3700 0
3698 -3700 0
3696 -3700 0
-3533 -3697 3701 0
3533 -3701 0
3697 -3701 0
3700 3701 -3702 0
-3700 3702 0
-3701 3702 0
-42 -3669 3703 0
42 -3703 0
3669 -3703 0
-3539 -3703 -3704 0
3539 3703 -3704 0
3539 -3703 3704 0
-3539 3703 3704 0
-3704 -3702 -3705 0
3704 3702 -3705 0
3704 -3702 3705 0
-3704 3702 3705 0
-3704 -3702 3706 0
3704 -3706 0
3702 -3706 0
-3539 -3703 3707 0
3539 -3707 0
3703 -3707 0
3706 3707 -3708 0
-3706 3708 0
-3707 3708 0
-50 -3669 3709 0
50 -3709 0
3669 -3709 0
-3545 -3709 -3710 0
3545 3709 -3710 0
3545 -3709 3710 0
-3545 3709 3710 0
-3710 -3708 -3711 0
3710 3708 -3711 0
3710 -3708 3711 0
-3710 3708 3711 0
-3710 -3708 3712 0
3710 -3712 0
3708 -3712 0
-3545 -3709 3713 0
3545 -3713 0
3709 -3713 0
3712 3713 -3714 0
-3712 3714 0
-3713 3714 0
-58 -3669 3715 0
58 -3715 0
3669 -3715 0
-3551 -3715 -3716 0
3551 3715 -3716 0
3551 -3715 3716 0
-3551 3715 3716 0
-3716 -3714 -3717 0
3716 3714 -3717 0
3716 -3714 3717 0
-3716 3714 3717 0
-3716 -3714 3718 0
3716 -3718 0
3714 -3718 0
-3551 -3715 3719 0
3551 -3719 0
3715 -3719 0
3718 3719 -3720 0
-3718 3720 0
-3719 3720 0
-66 -3669 3721 0
66 -3721 0
3669 -3721 0
-3557 -3721 -3722 0
3557 3721 -3722 0
3557 -3721 3722 0
-3557 3721 3722 0
-3722 -3720 -3723 0
3722 3720 -3723 0
3722 -3720 3723 0
-3722 3720 3723 0
-3722 -3720 3724 0
3722 -3724 0
3720 -3724 0
-3557 -3721 3725 0
3557 -3725 0
3721 -3725 0
3724 3725 -3726 0
-3724 3726 0
-3725 3726 0
-74 -3669 3727 0
74 -3727 0
3669 -3727 0
-3563 -3727 -3728 0
3563 3727 -3728 0
3563 -3727 3728 0
-3563 3727 3728 0
-3728 -3726 -3729 0
3728 3726 -3729 0
3728 -3726 3729 0
-3728 3726 3729 0
-3728 -3726 3730 0
3728 -3730 0
3726 -3730 0
-3563 -3727 3731 0
3563 -3731 0
3727 -3731 0
3730 3731 -3732 0
-3730 3732 0
-3731 3732 0
-82 -3669 3733 0
82 -3733 0
3669 -3733 0
-3569 -3733 -3734 0
3569 3733 -3734 0
3569 -3733 3734 0
-3569 3733 3734 0
-3734 -3732 -3735 0
3734 3732 -3735 0
3734 -3732 3735 0
-3734 3732 3735 0
-3734 -3732 3736 0
3734 -3736 0
3732 -3736 0
-3569 -3733 3737 0
3569 -3737 0
3733 -3737 0
3736 3737 -3738 0
-3736 3738 0
-3737 3738 0
-90 -3669 3739 0
90 -3739 0
3669 -3739 0
-3575 -3739 -3740 0
3575 3739 -3740 0
3575 -3739 3740 0
-3575 3739 3740 0
-3740 -3738 -3741 0
3740 3738 -3741 0
3740 -3738 3741 0
-3740 3738 3741 0
-3740 -3738 3742 0
3740 -3742 0
3738 -3742 0
-3575 -3739 3743 0
3575 -3743 0
3739 -3743 0
3742 3743 -3744 0
-3742 3744 0
-3743 3744 0
-98 -3669 3745 0
98 -3745 0
3669 -3745 0
-3581 -3745 -3746 0
3581 3745 -3746 0
3581 -3745 3746 0
-3581 3745 3746 0
-3746 -3744 -3747 0
3746 3744 -3747 0
3746 -3744 3747 0
-3746 3744 3747 0
-3746 -3744 3748 0
3746 -3748 0
3744 -3748 0
-3581 -3745 3749 0
3581 -3749 0
3745 -3749 0
3748 3749 -3750 0
-3748 3750 0
-3749 3750 0
-106 -3669 3751 0
106 -3751 0
3669 -3751 0
-3587 -3751 -3752 0
3587 3751 -3752 0
3587 -3751 3752 0
-3587 3751 3752 0
-3752 -3750 -3753 0
3752 3750 -3753 0
3752 -3750 3753 0
-3752 3750 3753 0
-3752 -3750 3754 0
3752 -3754 0
3750 -3754 0
-3587 -3751 3755 0
3587 -3755 0
3751 -3755 0
3754 3755 -3756 0
-3754 3756 0
-3755 3756 0
-114 -3669 3757 0
114 -3757 0
3669 -3757 0
-3593 -3757 -3758 0
3593 3757 -3758 0
3593 -3757 3758 0
-3593 3757 3758 0
-3758 -3756 -3759 0
3758 3756 -3759 0
3758 -3756 3759 0
-3758 3756 3759 0
-3758 -3756 3760 0
3758 -3760 0
3756 -3760 0
-3593 -3757 3761 0
3593 -3761 0
3757 -3761 0
3760 3761 -3762 0
-3760 3762 0
-3761 3762 0
-122 -3669 3763 0
122 -3763 0
3669 -3763 0
-3599 -3763 -3764 0
3599 3763 -3764 0
3599 -3763 3764 0
-3599 3763 3764 0
-3764 -3762 -3765 0
3764 3762 -3765 0
3764 -3762 3765 0
-3764 3762 3765 0
-3764 -3762 3766 0
3764 -3766 0
3762 -3766 0
-3599 -3763 3767 0
3599 -3767 0
3763 -3767 0
3766 3767 -3768 0
-3766 3768 0
-3767 3768 0
-130 -3669 3769 0
130 -3769 0
3669 -3769 0
-3605 -3769 -3770 0
3605 3769 -3770 0
3605 -3769 3770 0
-3605 3769 3770 0
-3770 -3768 -3771 0
3770 3768 -3771 0
3770 -3768 3771 0
-3770 3768 3771 0
-3770 -3768 3772 0
3770 -3772 0
3768 -3772 0
-3605 -3769 3773 0
3605 -3773 0
3769 -3773 0
3772 3773 -3774 0
-3772 3774 0
-3773 3774 0
-138 -3669 3775 0
138 -3775 0
3669 -3775 0
-3611 -3775 -3776 0
3611 3775 -3776 0
3611 -3775 3776 0
-3611 3775 3776 0
-3776 -3774 -3777 0
3776 3774 -3777 0
3776 -3774 3777 0
-3776 3774 3777 0
-3776 -3774 3778 0
3776 -3778 0
3774 -3778 0
-3611 -3775 3779 0
3611 -3779 0
3775 -3779 0
3778 3779 -3780 0
-3778 3780 0
-3779 3780 0
-146 -3669 3781 0
146 -3781 0
3669 -3781 0
-3617 -3781 -3782 0
3617 3781 -3782 0
3617 -3781 3782 0
-3617 3781 3782 0
-3782 -3780 -3783 0
3782 3780 -3783 0
3782 -3780 3783 0
-3782 3780 3783 0
-3782 -3780 3784 0
3782 -3784 0
3780 -3784 0
-3617 -3781 3785 0
3617 -3785 0
3781 -3785 0
3784 3785 -3786 0
-3784 3786 0
-3785 3786 0
-154 -3669 3787 0
154 -3787 0
3669 -3787 0
-3623 -3787 -3788 0
3623 3787 -3788 0
3623 -3787 3788 0
-3623 3787 3788 0
-3788 -3786 -3789 0
3788 3786 -3789 0
3788 -3786 3789 0
-3788 3786 3789 0
-3788 -3786 3790 0
3788 -3790 0
3786 -3790 0
-3623 -3787 3791 0
3623 -3791 0
3787 -3791 0
3790 3791 -3792 0
-3790 3792 0
-3791 3792 0
-162 -3669 3793 0
162 -3793 0
3669 -3793 0
-3629 -3793 -3794 0
3629 3793 -3794 0
3629 -3793 3794 0
-3629 3793 3794 0
-3794 -3792 -3795 0
3794 3792 -3795 0
3794 -3792 3795 0
-3794 3792 3795 0
-3794 -3792 3796 0
3794 -3796 0
3792 -3796 0
-3629 -3793 3797 0
3629 -3797 0
3793 -3797 0
3796 3797 -3798 0
-3796 3798 0
-3797 3798 0
-170 -3669 3799 0
170 -3799 0
3669 -3799 0
-3635 -3799 -3800 0
3635 3799 -3800 0
3635 -3799 3800 0
-3635 3799 3800 0
-3800 -3798 -3801 0
3800 3798 -3801 0
3800 -3798 3801 0
-3800 3798 3801 0
-3800 -3798 3802 0
3800 -3802 0
3798 -3802 0
-3635 -3799 3803 0
3635 -3803 0
3799 -3803 0
3802 3803 -3804 0
-3802 3804 0
-3803 3804 0
-178 -3669 3805 0
178 -3805 0
3669 -3805 0
-3641 -3805 -3806 0
3641 3805 -3806 0
3641 -3805 3806 0
-3641 3805 3806 0
-3806 -3804 -3807 0
3806 3804 -3807 0
3806 -3804 3807 0
-3806 3804 3807 0
-3806 -3804 3808 0
3806 -3808 0
3804 -3808 0
-3641 -3805 3809 0
3641 -3809 0
3805 -3809 0
3808 3809 -3810 0
-3808 3810 0
-3809 3810 0
-186 -3669 3811 0
186 -3811 0
3669 -3811 0
-3647 -3811 -3812 0
3647 3811 -3812 0
3647 -3811 3812 0
-3647 3811 3812 0
-3812 -3810 -3813 0
3812 3810 -3813 0
3812 -3810 3813 0
-3812 3810 3813 0
-3812 -3810 3814 0
3812 -3814 0
3810 -3814 0
-3647 -3811 3815 0
3647 -3815 0
3811 -3815 0
3814 3815 -3816 0
-3814 3816 0
-3815 3816 0
-194 -3669 3817 0
194 -3817 0
3669 -3817 0
-3653 -3817 -3818 0
3653 3817 -3818 0
3653 -3817 3818 0
-3653 3817 3818 0
-3818 -3816 -3819 0
3818 3816 -3819 0
3818 -3816 3819 0
-3818 3816 3819 0
-3818 -3816 3820 0
3818 -3820 0
3816 -3820 0
-3653 -3817 3821 0
3653 -3821 0
3817 -3821 0
3820 3821 -3822 0
-3820 3822 0
-3821 3822 0
-202 -3669 3823 0
202 -3823 0
3669 -3823 0
-3659 -3823 -3824 0
3659 3823 -3824 0
3659 -3823 3824 0
-3659 3823 3824 0
-3824 -3822 -3825 0
3824 3822 -3825 0
3824 -3822 3825 0
-3824 3822 3825 0
-3824 -3822 3826 0
3824 -3826 0
3822 -3826 0
-3659 -3823 3827 0
3659 -3827 0
3823 -3827 0
3826 3827 -3828 0
-3826 3828 0
-3827 3828 0
-210 -3669 3829 0
210 -3829 0
3669 -3829 0
-3665 -3829 -3830 0
3665 3829 -3830 0
3665 -3829 3830 0
-3665 3829 3830 0
-3830 -3828 -3831 0
3830 3828 -3831 0
3830 -3828 3831 0
-3830 3828 3831 0
-3830 -3828 3832 0
3830 -3832 0
3828 -3832 0
-3665 -3829 3833 0
3665 -3833 0
3829 -3833 0
3832 3833 -3834 0
-3832 3834 0
-3833 3834 0
-218 -3669 3835 0
218 -3835 0
3669 -3835 0
-3668 -3835 -3836 0
3668 3835 -3836 0
3668 -3835 3836 0
-3668 3835 3836 0
-3836 -3834 -3837 0
3836 3834 -3837 0
3836 -3834 3837 0
-3836 3834 3837 0
-3836 -3834 3838 0
3836 -3838 0
3834 -3838 0
-3668 -3835 3839 0
3668 -3839 0
3835 -3839 0
3838 3839 -3840 0
-3838 3840 0
-3839 3840 0
-1 -3841 3842 0
1 -3842 0
3841 -3842 0
-3675 -3842 -3843 0
3675 3842 -3843 0
3675 -3842 3843 0
-3675 3842 3843 0
-3675 -3842 3844 0
3675 -3844 0
3842 -3844 0
-4 -3841 3845 0
4 -3845 0
3841 -3845 0
-3681 -3845 -3846 0
3681 3845 -3846 0
3681 -3845 3846 0
-3681 3845 3846 0
-3846 -3844 -3847 0
3846 3844 -3847 0
3846 -3844 3847 0
-3846 3844 3847 0
-3846 -3844 3848 0
3846 -3848 0
3844 -3848 0
-3681 -3845 3849 0
3681 -3849 0
3845 -3849 0
3848 3849 -3850 0
-3848 3850 0
-3849 3850 0
-10 -3841 3851 0
10 -3851 0
3841 -3851 0
-3687 -3851 -3852 0
3687 3851 -3852 0
3687 -3851 3852 0
-3687 3851 3852 0
-3852 -3850 -3853 0
3852 3850 -3853 0
3852 -3850 3853 0
-3852 3850 3853 0
-3852 -3850 3854 0
3852 -3854 0
3850 -3854 0
-3687 -3851 3855 0
3687 -3855 0
3851 -3855 0
3854 3855 -3856 0
-3854 3856 0
-3855 3856 0
-18 -3841 3857 0
18 -3857 0
3841 -3857 0
-3693 -3857 -3858 0
3693 3857 -3858 0
3693 -3857 3858 0
-3693 3857 3858 0
-3858 -3856 -3859 0
3858 3856 -3859 0
3858 -3856 3859 0
-3858 3856 3859 0
-3858 -3856 3860 0
3858 -3860 0
3856 -3860 0
-3693 -3857 3861 0
3693 -3861 0
3857 -3861 0
3860 3861 -3862 0
-3860 3862 0
-3861 3862 0
-26 -3841 3863 0
26 -3863 0
3841 -3863 0
-3699 -3863 -3864 0
3699 3863 -3864 0
3699 -3863 3864 0
-3699 3863 3864 0
-3864 -3862 -3865 0
3864 3862 -3865 0
3864 -3862 3865 0
-3864 3862 3865 0
-3864 -3862 3866 0
3864 -3866 0
3862 -3866 0
-3699 -3863 3867 0
3699 -3867 0
3863 -3867 0
3866 3867 -3868 0
-3866 3868 0
-3867 3868 0
-34 -3841 3869 0
34 -3869 0
3841 -3869 0
-3705 -3869 -3870 0
3705 3869 -3870 0
3705 -3869 3870 0
-3705 3869 3870 0
-3870 -3868 -3871 0
3870 3868 -3871 0
3870 -3868 3871 0
-3870 3868 3871 0
-3870 -3868 3872 0
3870 -3872 0
3868 -3872 0
-3705 -3869 3873 0
3705 -3873 0
3869 -3873 0
3872 3873 -3874 0
-3872 3874 0
-3873 3874 0
-42 -3841 3875 0
42 -3875 0
3841 -3875 0
-3711 -3875 -3876 0
3711 3875 -3876 0
3711 -3875 3876 0
-3711 3875 3876 0
-3876 -3874 -3877 0
3876 3874 -3877 0
3876 -3874 3877 0
-3876 3874 3877 0
-3876 -3874 3878 0
3876 -3878 0
3874 -3878 0
-3711 -3875 3879 0
3711 -3879 0
3875 -3879 0
3878 3879 -3880 0
-3878 3880 0
-3879 3880 0
-50 -3841 3881 0
50 -3881 0
3841 -3881 0
-3717 -3881 -3882 0
3717 3881 -3882 0
3717 -3881 3882 0
-3717 3881 3882 0
-3882 -3880 -3883 0
3882 3880 -3883 0
3882 -3880 3883 0
-3882 3880 3883 0
-3882 -3880 3884 0
3882 -3884 0
3880 -3884 0
-3717 -3881 3885 0
3717 -3885 0
3881 -3885 0
3884 3885 -3886 0
-3884 3886 0
-3885 3886 0
-58 -3841 3887 0
58 -3887 0
3841 -3887 0
-3723 -3887 -3888 0
3723 3887 -3888 0
3723 -3887 3888 0
-3723 3887 3888 0
-3888 -3886 -3889 0
3888 3886 -3889 0
3888 -3886 3889 0
-3888 3886 3889 0
-3888 -3886 3890 0
3888 -3890 0
3886 -3890 0
-3723 -3887 3891 0
3723 -3891 0
3887 -3891 0
3890 3891 -3892 0
-3890 3892 0
-3891 3892 0
-66 -3841 3893 0
66 -3893 0
3841 -3893 0
-3729 -3893 -3894 0
3729 3893 -3894 0
3729 -3893 3894 0
-3729 3893 3894 0
-3894 -3892 -3895 0
3894 3892 -3895 0
3894 -3892 3895 0
-3894 3892 3895 0
-3894 -3892 3896 0
3894 -3896 0
3892 -3896 0
-3729 -3893 3897 0
3729 -3897 0
3893 -3897 0
3896 3897 -3898 0
-3896 3898 0
-3897 3898 0
-74 -3841 3899 0
74 -3899 0
3841 -3899 0
-3735 -3899 -3900 0
3735 3899 -3900 0
3735 -3899 3900 0
-3735 3899 3900 0
-3900 -3898 -3901 0
3900 3898 -3901 0
3900 -3898 3901 0
-3900 3898 3901 0
-3900 -3898 3902 0
3900 -3902 0
3898 -3902 0
-3735 -3899 3903 0
3735 -3903 0
3899 -3903 0
3902 3903 -3904 0
-3902 3904 0
-3903 3904 0
-82 -3841 3905 0
82 -3905 0
3841 -3905 0
-3741 -3905 -3906 0
3741 3905 -3906 0
3741 -3905 3906 0
-3741 3905 3906 0
-3906 -3904 -3907 0
3906 3904 -3907 0
3906 -3904 3907 0
-3906 3904 3907 0
-3906 -3904 3908 0
3906 -3908 0
3904 -3908 0
-3741 -3905 3909 0
3741 -3909 0
3905 -3909 0
3908 3909 -3910 0
-3908 3910 0
-3909 3910 0
-90 -3841 3911 0
90 -3911 0
3841 -3911 0
-3747 -3911 -3912 0
3747 3911 -3912 0
3747 -3911 3912 0
-3747 3911 3912 0
-3912 -3910 -3913 0
3912 3910 -3913 0
3912 -3910 3913 0
-3912 3910 3913 0
-3912 -3910 3914 0
3912 -3914 0
3910 -3914 0
-3747 -3911 3915 0
3747 -3915 0
3911 -3915 0
3914 3915 -3916 0
-3914 3916 0
-3915 3916 0
-98 -3841 3917 0
98 -3917 0
3841 -3917 0
-3753 -3917 -3918 0
3753 3917 -3918 0
3753 -3917 3918 0
-3753 3917 3918 0
-3918 -3916 -3919 0
3918 3916 -3919 0
3918 -3916 3919 0
-3918 3916 3919 0
-3918 -3916 3920 0
3918 -3920 0
3916 -3920 0
-3753 -3917 3921 0
3753 -3921 0
3917 -3921 0
3920 3921 -3922 0
-3920 3922 0
-3921 3922 0
-106 -3841 3923 0
106 -3923 0
3841 -3923 0
-3759 -3923 -3924 0
3759 3923 -3924 0
3759 -3923 3924 0
-3759 3923 3924 0
-3924 -3922 -3925 0
3924 3922 -3925 0
3924 -3922 3925 0
-3924 3922 3925 0
-3924 -3922 3926 0
3924 -3926 0
3922 -3926 0
-3759 -3923 3927 0
3759 -3927 0
3923 -3927 0
3926 3927 -3928 0
-3926 3928 0
-3927 3928 0
-114 -3841 3929 0
114 -3929 0
3841 -3929 0
-3765 -3929 -3930 0
3765 3929 -3930 0
3765 -3929 3930 0
-3765 3929 3930 0
-3930 -3928 -3931 0
3930 3928 -3931 0
3930 -3928 3931 0
-3930 3928 3931 0
-3930 -3928 3932 0
3930 -3932 0
3928 -3932 0
-3765 -3929 3933 0
3765 -3933 0
3929 -3933 0
3932 3933 -3934 0
-3932 3934 0
-3933 3934 0
-122 -3841 3935 0
122 -3935 0
3841 -3935 0
-3771 -3935 -3936 0
3771 3935 -3936 0
3771 -3935 3936 0
-3771 3935 3936 0
-3936 -3934 -3937 0
3936 3934 -3937 0
3936 -3934 3937 0
-3936 3934 3937 0
-3936 -3934 3938 0
3936 -3938 0
3934 -3938 0
-3771 -3935 3939 0
3771 -3939 0
3935 -3939 0
3938 3939 -3940 0
-3938 3940 0
-3939 3940 0
-130 -3841 3941 0
130 -3941 0
3841 -3941 0
-3777 -3941 -3942 0
3777 3941 -3942 0
3777 -3941 3942 0
-3777 3941 3942 0
-3942 -3940 -3943 0
3942 3940 -3943 0
3942 -3940 3943 0
-3942 3940 3943 0
-3942 -3940 3944 0
3942 -3944 0
3940 -3944 0
-3777 -3941 3945 0
3777 -3945 0
3941 -3945 0
3944 3945 -3946 0
-3944 3946 0
-3945 3946 0
-138 -3841 3947 0
138 -3947 0
3841 -3947 0
-3783 -3947 -3948 0
3783 3947 -3948 0
3783 -3947 3948 0
-3783 3947 3948 0
-3948 -3946 -3949 0
3948 3946 -3949 0
3948 -3946 3949 0
-3948 3946 3949 0
-3948 -3946 3950 0
3948 -3950 0
3946 -3950 0
-3783 -3947 3951 0
3783 -3951 0
3947 -3951 0
3950 3951 -3952 0
-3950 3952 0
-3951 3952 0
-146 -3841 3953 0
146 -3953 0
3841 -3953 0
-3789 -3953 -3954 0
3789 3953 -3954 0
3789 -3953 3954 0
-3789 3953 3954 0
-3954 -3952 -3955 0
3954 3952 -3955 0
3954 -3952 3955 0
-3954 3952 3955 0
-3954 -3952 3956 0
3954 -3956 0
3952 -3956 0
-3789 -3953 3957 0
3789 -3957 0
3953 -3957 0
3956 3957 -3958 0
-3956 3958 0
-3957 3958 0
-154 -3841 3959 0
154 -3959 0
3841 -3959 0
-3795 -3959 -3960 0
3795 3959 -3960 0
3795 -3959 3960 0
-3795 3959 3960 0
-3960 -3958 -3961 0
3960 3958 -3961 0
3960 -3958 3961 0
-3960 3958 3961 0
-3960 -3958 3962 0
3960 -3962 0
3958 -3962 0
-3795 -3959 3963 0
3795 -3963 0
3959 -3963 0
3962 3963 -3964 0
-3962 3964 0
-3963 3964 0
-162 -3841 3965 0
162 -3965 0
3841 -3965 0
-3801 -3965 -3966 0
3801 3965 -3966 0
3801 -3965 3966 0
-3801 3965 3966 0
-3966 -3964 -3967 0
3966 3964 -3967 0
3966 -3964 3967 0
-3966 3964 3967 0
-3966 -3964 3968 0
3966 -3968 0
3964 -3968 0
-3801 -3965 3969 0
3801 -3969 0
3965 -3969 0
3968 3969 -3970 0
-3968 3970 0
-3969 3970 0
-170 -3841 3971 0
170 -3971 0
3841 -3971 0
-3807 -3971 -3972 0
3807 3971 -3972 0
3807 -3971 3972 0
-3807 3971 3972 0
-3972 -3970 -3973 0
3972 3970 -3973 0
3972 -3970 3973 0
-3972 3970 3973 0
-3972 -3970 3974 0
3972 -3974 0
3970 -3974 0
-3807 -3971 3975 0
3807 -3975 0
3971 -3975 0
3974 3975 -3976 0
-3974 3976 0
-3975 3976 0
-178 -3841 3977 0
178 -3977 0
3841 -3977 0
-3813 -3977 -3978 0
3813 3977 -3978 0
3813 -3977 3978 0
-3813 3977 3978 0
-3978 -3976 -3979 0
3978 3976 -3979 0
3978 -3976 3979 0
-3978 3976 3979 0
-3978 -3976 3980 0
3978 -3980 0
3976 -3980 0
-3813 -3977 3981 0
3813 -3981 0
3977 -3981 0
3980 3981 -3982 0
-3980 3982 0
-3981 3982 0
-186 -3841 3983 0
186 -3983 0
3841 -3983 0
-3819 -3983 -3984 0
3819 3983 -3984 0
3819 -3983 3984 0
-3819 3983 3984 0
-3984 -3982 -3985 0
3984 3982 -3985 0
3984 -3982 3985 0
-3984 3982 3985 0
-3984 -3982 3986 0
3984 -3986 0
3982 -3986 0
-3819 -3983 3987 0
3819 -3987 0
3983 -3987 0
3986 3987 -3988 0
-3986 3988 0
-3987 3988 0
-194 -3841 3989 0
194 -3989 0
3841 -3989 0
-3825 -3989 -3990 0
3825 3989 -3990 0
3825 -3989 3990 0
-3825 3989 3990 0
-3990 -3988 -3991 0
3990 3988 -3991 0
3990 -3988 3991 0
-3990 3988 3991 0
-3990 -3988 3992 0
3990 -3992 0
3988 -3992 0
-3825 -3989 3993 0
3825 -3993 0
3989 -3993 0
3992 3993 -3994 0
-3992 3994 0
-3993 3994 0
-202 -3841 3995 0
202 -3995 0
3841 -3995 0
-3831 -3995 -3996 0
3831 3995 -3996 0
3831 -3995 3996 0
-3831 3995 3996 0
-3996 -3994 -3997 0
3996 3994 -3997 0
3996 -3994 3997 0
-3996 3994 3997 0
-3996 -3994 3998 0
3996 -3998 0
3994 -3998 0
-3831 -3995 3999 0
3831 -3999 0
3995 -3999 0
3998 3999 -4000 0
-3998 4000 0
-3999 4000 0
-210 -3841 4001 0
210 -4001 0
3841 -4001 0
-3837 -4001 -4002 0
3837 4001 -4002 0
3837 -4001 4002 0
-3837 4001 4002 0
-4002 -4000 -4003 0
4002 4000 -4003 0
4002 -4000 4003 0
-4002 4000 4003 0
-4002 -4000 4004 0
4002 -4004 0
4000 -4004 0
-3837 -4001 4005 0
3837 -4005 0
4001 -4005 0
4004 4005 -4006 0
-4004 4006 0
-4005 4006 0
-218 -3841 4007 0
218 -4007 0
3841 -4007 0
-3840 -4007 -4008 0
3840 4007 -4008 0
3840 -4007 4008 0
-3840 4007 4008 0
-4008 -4006 -4009 0
4008 4006 -4009 0
4008 -4006 4009 0
-4008 4006 4009 0
-4008 -4006 4010 0
4008 -4010 0
4006 -4010 0
-3840 -4007 4011 0
3840 -4011 0
4007 -4011 0
4010 4011 -4012 0
-4010 4012 0
-4011 4012 0
-1 -4013 4014 0
1 -4014 0
4013 -4014 0
-3847 -4014 -4015 0
3847 4014 -4015 0
3847 -4014 4015 0
-3847 4014 4015 0
-3847 -4014 4016 0
3847 -4016 0
4014 -4016 0
-4 -4013 4017 0
4 -4017 0
4013 -4017 0
-3853 -4017 -4018 0
3853 4017 -4018 0
3853 -4017 4018 0
-3853 4017 4018 0
-4018 -4016 -4019 0
4018 4016 -4019 0
4018 -4016 4019 0
-4018 4016 4019 0
-4018 -4016 4020 0
4018 -4020 0
4016 -4020 0
-3853 -4017 4021 0
3853 -4021 0
4017 -4021 0
4020 4021 -4022 0
-4020 4022 0
-4021 4022 0
-10 -4013 4023 0
10 -4023 0
4013 -4023 0
-3859 -4023 -4024 0
3859 4023 -4024 0
3859 -4023 4024 0
-3859 4023 4024 0
-4024 -4022 -4025 0
4024 4022 -4025 0
4024 -4022 4025 0
-4024 4022 4025 0
-4024 -4022 4026 0
4024 -4026 0
4022 -4026 0
-3859 -4023 4027 0
3859 -4027 0
4023 -4027 0
4026 4027 -4028 0
-4026 4028 0
-4027 4028 0
-18 -4013 4029 0
18 -4029 0
4013 -4029 0
-3865 -4029 -4030 0
3865 4029 -4030 0
3865 -4029 4030 0
-3865 4029 4030 0
-4030 -4028 -4031 0
4030 4028 -4031 0
4030 -4028 4031 0
-4030 4028 4031 0
-4030 -4028 4032 0
4030 -4032 0
4028 -4032 0
-3865 -4029 4033 0
3865 -4033 0
4029 -4033 0
4032 4033 -4034 0
-4032 4034 0
-4033 4034 0
-26 -4013 4035 0
26 -4035 0
4013 -4035 0
-3871 -4035 -4036 0
3871 4035 -4036 0
3871 -4035 4036 0
-3871 4035 4036 0
-4036 -4034 -4037 0
4036 4034 -4037 0
4036 -4034 4037 0
-4036 4034 4037 0
-4036 -4034 4038 0
4036 -4038 0
4034 -4038 0
-3871 -4035 4039 0
3871 -4039 0
4035 -4039 0
4038 4039 -4040 0
-4038 4040 0
-4039 4040 0
-34 -4013 4041 0
34 -4041 0
4013 -4041 0
-3877 -4041 -4042 0
3877 4041 -4042 0
3877 -4041 4042 0
-3877 4041 4042 0
-4042 -4040 -4043 0
4042 4040 -4043 0
4042 -4040 4043 0
-4042 4040 4043 0
-4042 -4040 4044 0
4042 -4044 0
4040 -4044 0
-3877 -4041 4045 0
3877 -4045 0
4041 -4045 0
4044 4045 -4046 0
-4044 4046 0
-4045 4046 0
-42 -4013 4047 0
42 -4047 0
4013 -4047 0
-3883 -4047 -4048 0
3883 4047 -4048 0
3883 -4047 4048 0
-3883 4047 4048 0
-4048 -4046 -4049 0
4048 4046 -4049 0
4048 -4046 4049 0
-4048 4046 4049 0
-4048 -4046 4050 0
4048 -4050 0
4046 -4050 0
-3883 -4047 4051 0
3883 -4051 0
4047 -4051 0
4050 4051 -4052 0
-4050 4052 0
-4051 4052 0
-50 -4013 4053 0
50 -4053 0
4013 -4053 0
-3889 -4053 -4054 0
3889 4053 -4054 0
3889 -4053 4054 0
-3889 4053 4054 0
-4054 -4052 -4055 0
4054 4052 -4055 0
4054 -4052 4055 0
-4054 4052 4055 0
-4054 -4052 4056 0
4054 -4056 0
4052 -4056 0
-3889 -4053 4057 0
3889 -4057 0
4053 -4057 0
4056 4057 -4058 0
-4056 4058 0
-4057 4058 0
-58 -4013 4059 0
58 -4059 0
4013 -4059 0
-3895 -4059 -4060 0
3895 4059 -4060 0
3895 -4059 4060 0
-3895 4059 4060 0
-4060 -4058 -4061 0
4060 4058 -4061 0
4060 -4058 4061 0
-4060 4058 4061 0
-4060 -4058 4062 0
4060 -4062 0
4058 -4062 0
-3895 -4059 4063 0
3895 -4063 0
4059 -4063 0
4062 4063 -4064 0
-4062 4064 0
-4063 4064 0
-66 -4013 4065 0
66 -4065 0
4013 -4065 0
-3901 -4065 -4066 0
3901 4065 -4066 0
3901 -4065 4066 0
-3901 4065 4066 0
-4066 -4064 -4067 0
4066 4064 -4067 0
4066 -4064 4067 0
-4066 4064 4067 0
-4066 -4064 4068 0
4066 -4068 0
4064 -4068 0
-3901 -4065 4069 0
3901 -4069 0
4065 -4069 0
4068 4069 -4070 0
-4068 4070 0
-4069 4070 0
-74 -4013 4071 0
74 -4071 0
4013 -4071 0
-3907 -4071 -4072 0
3907 4071 -4072 0
3907 -4071 4072 0
-3907 4071 4072 0
-4072 -4070 -4073 0
4072 4070 -4073 0
4072 -4070 4073 0
-4072 4070 4073 0
-4072 -4070 4074 0
4072 -4074 0
4070 -4074 0
-3907 -4071 4075 0
3907 -4075 0
4071 -4075 0
4074 4075 -4076 0
-4074 4076 0
-4075 4076 0
-82 -4013 4077 0
82 -4077 0
4013 -4077 0
-3913 -4077 -4078 0
3913 4077 -4078 0
3913 -4077 4078 0
-3913 4077 4078 0
-4078 -4076 -4079 0
4078 4076 -4079 0
4078 -4076 4079 0
-4078 4076 4079 0
-4078 -4076 4080 0
4078 -4080 0
4076 -4080 0
-3913 -4077 4081 0
3913 -4081 0
4077 -4081 0
4080 4081 -4082 0
-4080 4082 0
-4081 4082 0
-90 -4013 4083 0
90 -4083 0
4013 -4083 0
-3919 -4083 -4084 0
3919 4083 -4084 0
3919 -4083 4084 0
-3919 4083 4084 0
-4084 -4082 -4085 0
4084 4082 -4085 0
4084 -4082 4085 0
-4084 4082 4085 0
-4084 -4082 4086 0
4084 -4086 0
4082 -4086 0
-3919 -4083 4087 0
3919 -4087 0
4083 -4087 0
4086 4087 -4088 0
-4086 4088 0
-4087 4088 0
-98 -4013 4089 0
98 -4089 0
4013 -4089 0
-3925 -4089 -4090 0
3925 4089 -4090 0
3925 -4089 4090 0
-3925 4089 4090 0
-4090 -4088 -4091 0
4090 4088 -4091 0
4090 -4088 4091 0
-4090 4088 4091 0
-4090 -4088 4092 0
4090 -4092 0
4088 -4092 0
-3925 -4089 4093 0
3925 -4093 0
4089 -4093 0
4092 4093 -4094 0
-4092 4094 0
-4093 4094 0
-106 -4013 4095 0
106 -4095 0
4013 -4095 0
-3931 -4095 -4096 0
3931 4095 -4096 0
3931 -4095 4096 0
-3931 4095 4096 0
-4096 -4094 -4097 0
4096 4094 -4097 0
4096 -4094 4097 0
-4096 4094 4097 0
-4096 -4094 4098 0
4096 -4098 0
4094 -4098 0
-3931 -4095 4099 0
3931 -4099 0
4095 -4099 0
4098 4099 -4100 0
-4098 4100 0
-4099 4100 0
-114 -4013 4101 0
114 -4101 0
4013 -4101 0
-3937 -4101 -4102 0
3937 4101 -4102 0
3937 -4101 4102 0
-3937 4101 4102 0
-4102 -4100 -4103 0
4102 4100 -4103 0
4102 -4100 4103 0
-4102 4100 4103 0
-4102 -4100 4104 0
4102 -4104 0
4100 -4104 0
-3937 -4101 4105 0
3937 -4105 0
4101 -4105 0
4104 4105 -4106 0
-4104 4106 0
-4105 4106 0
-122 -4013 4107 0
122 -4107 0
4013 -4107 0
-3943 -4107 -4108 0
3943 4107 -4108 0
3943 -4107 4108 0
-3943 4107 4108 0
-4108 -4106 -4109 0
4108 4106 -4109 0
4108 -4106 4109 0
-4108 4106 4109 0
-4108 -4106 4110 0
4108 -4110 0
4106 -4110 0
-3943 -4107 4111 0
3943 -4111 0
4107 -4111 0
4110 4111 -4112 0
-4110 4112 0
-4111 4112 0
-130 -4013 4113 0
130 -4113 0
4013 -4113 0
-3949 -4113 -4114 0
3949 4113 -4114 0
3949 -4113 4114 0
-3949 4113 4114 0
-4114 -4112 -4115 0
4114 4112 -4115 0
4114 -4112 4115 0
-4114 4112 4115 0
-4114 -4112 4116 0
4114 -4116 0
4112 -4116 0
-3949 -4113 4117 0
3949 -4117 0
4113 -4117 0
4116 4117 -4118 0
-4116 4118 0
-4117 4118 0
-138 -4013 4119 0
138 -4119 0
4013 -4119 0
-3955 -4119 -4120 0
3955 4119 -4120 0
3955 -4119 4120 0
-3955 4119 4120 0
-4120 -4118 -4121 0
4120 4118 -4121 0
4120 -4118 4121 0
-4120 4118 4121 0
-4120 -4118 4122 0
4120 -4122 0
4118 -4122 0
-3955 -4119 4123 0
3955 -4123 0
4119 -4123 0
4122 4123 -4124 0
-4122 4124 0
-4123 4124 0
-146 -4013 4125 0
146 -4125 0
4013 -4125 0
-3961 -4125 -4126 0
3961 4125 -4126 0
3961 -4125 4126 0
-3961 4125 4126 0
-4126 -4124 -4127 0
4126 4124 -4127 0
4126 -4124 4127 0
-4126 4124 4127 0
-4126 -4124 4128 0
4126 -4128 0
4124 -4128 0
-3961 -4125 4129 0
3961 -4129 0
4125 -4129 0
4128 4129 -4130 0
-4128 4130 0
-4129 4130 0
-154 -4013 4131 0
154 -4131 0
4013 -4131 0
-3967 -4131 -4132 0
3967 4131 -4132 0
3967 -4131 4132 0
-3967 4131 4132 0
-4132 -4130 -4133 0
4132 4130 -4133 0
4132 -4130 4133 0
-4132 4130 4133 0
-4132 -4130 4134 0
4132 -4134 0
4130 -4134 0
-3967 -4131 4135 0
3967 -4135 0
4131 -4135 0
4134 4135 -4136 0
-4134 4136 0
-4135 4136 0
-162 -4013 4137 0
162 -4137 0
4013 -4137 0
-3973 -4137 -4138 0
3973 4137 -4138 0
3973 -4137 4138 0
-3973 4137 4138 0
-4138 -4136 -4139 0
4138 4136 -4139 0
4138 -4136 4139 0
-4138 4136 4139 0
-4138 -4136 4140 0
4138 -4140 0
4136 -4140 0
-3973 -4137 4141 0
3973 -4141 0
4137 -4141 0
4140 4141 -4142 0
-4140 4142 0
-4141 4142 0
-170 -4013 4143 0
170 -4143 0
4013 -4143 0
-3979 -4143 -4144 0
3979 4143 -4144 0
3979 -4143 4144 0
-3979 4143 4144 0
-4144 -4142 -4145 0
4144 4142 -4145 0
4144 -4142 4145 0
-4144 4142 4145 0
-4144 -4142 4146 0
4144 -4146 0
4142 -4146 0
-3979 -4143 4147 0
3979 -4147 0
4143 -4147 0
4146 4147 -4148 0
-4146 4148 0
-4147 4148 0
-178 -4013 4149 0
178 -4149 0
4013 -4149 0
-3985 -4149 -4150 0
3985 4149 -4150 0
3985 -4149 4150 0
-3985 4149 4150 0
-4150 -4148 -4151 0
4150 4148 -4151 0
4150 -4148 4151 0
-4150 4148 4151 0
-4150 -4148 4152 0
4150 -4152 0
4148 -4152 0
-3985 -4149 4153 0
3985 -4153 0
4149 -4153 0
4152 4153 -4154 0
-4152 4154 0
-4153 4154 0
-186 -4013 4155 0
186 -4155 0
4013 -4155 0
-3991 -4155 -4156 0
3991 4155 -4156 0
3991 -4155 4156 0
-3991 4155 4156 0
-4156 -4154 -4157 0
4156 4154 -4157 0
4156 -4154 4157 0
-4156 4154 4157 0
-4156 -4154 4158 0
4156 -4158 0
4154 -4158 0
-3991 -4155 4159 0
3991 -4159 0
4155 -4159 0
4158 4159 -4160 0
-4158 4160 0
-4159 4160 0
-194 -4013 4161 0
194 -4161 0
4013 -4161 0
-3997 -4161 -4162 0
3997 4161 -4162 0
3997 -4161 4162 0
-3997 4161 4162 0
-4162 -4160 -4163 0
4162 4160 -4163 0
4162 -4160 4163 0
-4162 4160 4163 0
-4162 -4160 4164 0
4162 -4164 0
4160 -4164 0
-3997 -4161 4165 0
3997 -4165 0
4161 -4165 0
4164 4165 -4166 0
-4164 4166 0
-4165 4166 0
-202 -4013 4167 0
202 -4167 0
4013 -4167 0
-4003 -4167 -4168 0
4003 4167 -4168 0
4003 -4167 4168 0
-4003 4167 4168 0
-4168 -4166 -4169 0
4168 4166 -4169 0
4168 -4166 4169 0
-4168 4166 4169 0
-4168 -4166 4170 0
4168 -4170 0
4166 -4170 0
-4003 -4167 4171 0
4003 -4171 0
4167 -4171 0
4170 4171 -4172 0
-4170 4172 0
-4171 4172 0
-210 -4013 4173 0
210 -4173 0
4013 -4173 0
-4009 -4173 -4174 0
4009 4173 -4174 0
4009 -4173 4174 0
-4009 4173 4174 0
-4174 -4172 -4175 0
4174 4172 -4175 0
4174 -4172 4175 0
-4174 4172 4175 0
-4174 -4172 4176 0
4174 -4176 0
4172 -4176 0
-4009 -4173 4177 0
4009 -4177 0
4173 -4177 0
4176 4177 -4178 0
-4176 4178 0
-4177 4178 0
-218 -4013 4179 0
218 -4179 0
4013 -4179 0
-4012 -4179 -4180 0
4012 4179 -4180 0
4012 -4179 4180 0
-4012 4179 4180 0
-4180 -4178 -4181 0
4180 4178 -4181 0
4180 -4178 4181 0
-4180 4178 4181 0
-4180 -4178 4182 0
4180 -4182 0
4178 -4182 0
-4012 -4179 4183 0
4012 -4183 0
4179 -4183 0
4182 4183 -4184 0
-4182 4184 0
-4183 4184 0
-1 -4185 4186 0
1 -4186 0
4185 -4186 0
-4019 -4186 -4187 0
4019 4186 -4187 0
4019 -4186 4187 0
-4019 4186 4187 0
-4019 -4186 4188 0
4019 -4188 0
4186 -4188 0
-4 -4185 4189 0
4 -4189 0
4185 -4189 0
-4025 -4189 -4190 0
4025 4189 -4190 0
4025 -4189 4190 0
-4025 4189 4190 0
-4190 -4188 -4191 0
4190 4188 -4191 0
4190 -4188 4191 0
-4190 4188 4191 0
-4190 -4188 4192 0
4190 -4192 0
4188 -4192 0
-4025 -4189 4193 0
4025 -4193 0
4189 -4193 0
4192 4193 -4194 0
-4192 4194 0
-4193 4194 0
-10 -4185 4195 0
10 -4195 0
4185 -4195 0
-4031 -4195 -4196 0
4031 4195 -4196 0
4031 -4195 4196 0
-4031 4195 4196 0
-4196 -4194 -4197 0
4196 4194 -4197 0
4196 -4194 4197 0
-4196 4194 4197 0
-4196 -4194 4198 0
4196 -4198 0
4194 -4198 0
-4031 -4195 4199 0
4031 -4199 0
4195 -4199 0
4198 4199 -4200 0
-4198 4200 0
-4199 4200 0
-18 -4185 4201 0
18 -4201 0
4185 -4201 0
-4037 -4201 -4202 0
4037 4201 -4202 0
4037 -4201 4202 0
-4037 4201 4202 0
-4202 -4200 -4203 0
4202 4200 -4203 0
4202 -4200 4203 0
-4202 4200 4203 0
-4202 -4200 4204 0
4202 -4204 0
4200 -4204 0
-4037 -4201 4205 0
4037 -4205 0
4201 -4205 0
4204 4205 -4206 0
-4204 4206 0
-4205 4206 0
-26 -4185 4207 0
26 -4207 0
4185 -4207 0
-4043 -4207 -4208 0
4043 4207 -4208 0
4043 -4207 4208 0
-4043 4207 4208 0
-4208 -4206 -4209 0
4208 4206 -4209 0
4208 -4206 4209 0
-4208 4206 4209 0
-4208 -4206 4210 0
4208 -4210 0
4206 -4210 0
-4043 -4207 4211 0
4043 -4211 0
4207 -4211 0
4210 4211 -4212 0
-4210 4212 0
-4211 4212 0
-34 -4185 4213 0
34 -4213 0
4185 -4213 0
-4049 -4213 -4214 0
4049 4213 -4214 0
4049 -4213 4214 0
-4049 4213 4214 0
-4214 -4212 -4215 0
4214 4212 -4215 0
4214 -4212 4215 0
-4214 4212 4215 0
-4214 -4212 4216 0
4214 -4216 0
4212 -4216 0
-4049 -4213 4217 0
4049 -4217 0
4213 -4217 0
4216 4217 -4218 0
-4216 4218 0
-4217 4218 0
-42 -4185 4219 0
42 -4219 0
4185 -4219 0
-4055 -4219 -4220 0
4055 4219 -4220 0
4055 -4219 4220 0
-4055 4219 4220 0
-4220 -4218 -4221 0
4220 4218 -4221 0
4220 -4218 4221 0
-4220 4218 4221 0
-4220 -4218 4222 0
4220 -4222 0
4218 -4222 0
-4055 -4219 4223 0
4055 -4223 0
4219 -4223 0
4222 4223 -4224 0
-4222 4224 0
-4223 4224 0
-50 -4185 4225 0
50 -4225 0
4185 -4225 0
-4061 -4225 -4226 0
4061 4225 -4226 0
4061 -4225 4226 0
-4061 4225 4226 0
-4226 -4224 -4227 0
4226 4224 -4227 0
4226 -4224 4227 0
-4226 4224 4227 0
-4226 -4224 4228 0
4226 -4228 0
4224 -4228 0
-4061 -4225 4229 0
4061 -4229 0
4225 -4229 0
4228 4229 -4230 0
-4228 4230 0
-4229 4230 0
-58 -4185 4231 0
58 -4231 0
4185 -4231 0
-4067 -4231 -4232 0
4067 4231 -4232 0
4067 -4231 4232 0
-4067 4231 4232 0
-4232 -4230 -4233 0
4232 4230 -4233 0
4232 -4230 4233 0
-4232 4230 4233 0
-4232 -4230 4234 0
4232 -4234 0
4230 -4234 0
-4067 -4231 4235 0
4067 -4235 0
4231 -4235 0
4234 4235 -4236 0
-4234 4236 0
-4235 4236 0
-66 -4185 4237 0
66 -4237 0
4185 -4237 0
-4073 -4237 -4238 0
4073 4237 -4238 0
4073 -4237 4238 0
-4073 4237 4238 0
-4238 -4236 -4239 0
4238 4236 -4239 0
4238 -4236 4239 0
-4238 4236 4239 0
-4238 -4236 4240 0
4238 -4240 0
4236 -4240 0
-4073 -4237 4241 0
4073 -4241 0
4237 -4241 0
4240 4241 -4242 0
-4240 4242 0
-4241 4242 0
-74 -4185 4243 0
74 -4243 0
4185 -4243 0
-4079 -4243 -4244 0
4079 4243 -4244 0
4079 -4243 4244 0
-4079 4243 4244 0
-4244 -4242 -4245 0
4244 4242 -4245 0
4244 -4242 4245 0
-4244 4242 4245 0
-4244 -4242 4246 0
4244 -4246 0
4242 -4246 0
-4079 -4243 4247 0
4079 -4247 0
4243 -4247 0
4246 4247 -4248 0
-4246 4248 0
-4247 4248 0
-82 -4185 4249 0
82 -4249 0
4185 -4249 0
-4085 -4249 -4250 0
4085 4249 -4250 0
4085 -4249 4250 0
-4085 4249 4250 0
-4250 -4248 -4251 0
4250 4248 -4251 0
4250 -4248 4251 0
-4250 4248 4251 0
-4250 -4248 4252 0
4250 -4252 0
4248 -4252 0
-4085 -4249 4253 0
4085 -4253 0
4249 -4253 0
4252 4253 -4254 0
-4252 4254 0
-4253 4254 0
-90 -4185 4255 0
90 -4255 0
4185 -4255 0
-4091 -4255 -4256 0
4091 4255 -4256 0
4091 -4255 4256 0
-4091 4255 4256 0
-4256 -4254 -4257 0
4256 4254 -4257 0
4256 -4254 4257 0
-4256 4254 4257 0
-4256 -4254 4258 0
4256 -4258 0
4254 -4258 0
-4091 -4255 4259 0
4091 -4259 0
4255 -4259 0
4258 4259 -4260 0
-4258 4260 0
-4259 4260 0
-98 -4185 4261 0
98 -4261 0
4185 -4261 0
-4097 -4261 -4262 0
4097 4261 -4262 0
4097 -4261 4262 0
-4097 4261 4262 0
-4262 -4260 -4263 0
4262 4260 -4263 0
4262 -4260 4263 0
-4262 4260 4263 0
-4262 -4260 4264 0
4262 -4264 0
4260 -4264 0
-4097 -4261 4265 0
4097 -4265 0
4261 -4265 0
4264 4265 -4266 0
-4264 4266 0
-4265 4266 0
-106 -4185 4267 0
106 -4267 0
4185 -4267 0
-4103 -4267 -4268 0
4103 4267 -4268 0
4103 -4267 4268 0
-4103 4267 4268 0
-4268 -4266 -4269 0
4268 4266 -4269 0
4268 -4266 4269 0
-4268 4266 4269 0
-4268 -4266 4270 0
4268 -4270 0
4266 -4270 0
-4103 -4267 4271 0
4103 -4271 0
4267 -4271 0
4270 4271 -4272 0
-4270 4272 0
-4271 4272 0
-114 -4185 4273 0
114 -4273 0
4185 -4273 0
-4109 -4273 -4274 0
4109 4273 -4274 0
4109 -4273 4274 0
-4109 4273 4274 0
-4274 -4272 -4275 0
4274 4272 -4275 0
4274 -4272 4275 0
-4274 4272 4275 0
-4274 -4272 4276 0
4274 -4276 0
4272 -4276 0
-4109 -4273 4277 0
4109 -4277 0
4273 -4277 0
4276 4277 -4278 0
-4276 4278 0
-4277 4278 0
-122 -4185 4279 0
122 -4279 0
4185 -4279 0
-4115 -4279 -4280 0
4115 4279 -4280 0
4115 -4279 4280 0
-4115 4279 4280 0
-4280 -4278 -4281 0
4280 4278 -4281 0
4280 -4278 4281 0
-4280 4278 4281 0
-4280 -4278 4282 0
4280 -4282 0
4278 -4282 0
-4115 -4279 4283 0
4115 -4283 0
4279 -4283 0
4282 4283 -4284 0
-4282 4284 0
-4283 4284 0
-130 -4185 4285 0
130 -4285 0
4185 -4285 0
-4121 -4285 -4286 0
4121 4285 -4286 0
4121 -4285 4286 0
-4121 4285 4286 0
-4286 -4284 -4287 0
4286 4284 -4287 0
4286 -4284 4287 0
-4286 4284 4287 0
-4286 -4284 4288 0
4286 -4288 0
4284 -4288 0
-4121 -4285 4289 0
4121 -4289 0
4285 -4289 0
4288 4289 -4290 0
-4288 4290 0
-4289 4290 0
-138 -4185 4291 0
138 -4291 0
4185 -4291 0
-4127 -4291 -4292 0
4127 4291 -4292 0
4127 -4291 4292 0
-4127 4291 4292 0
-4292 -4290 -4293 0
4292 4290 -4293 0
4292 -4290 4293 0
-4292 4290 4293 0
-4292 -4290 4294 0
4292 -4294 0
4290 -4294 0
-4127 -4291 4295 0
4127 -4295 0
4291 -4295 0
4294 4295 -4296 0
-4294 4296 0
-4295 4296 0
-146 -4185 4297 0
146 -4297 0
4185 -4297 0
-4133 -4297 -4298 0
4133 4297 -4298 0
4133 -4297 4298 0
-4133 4297 4298 0
-4298 -4296 -4299 0
4298 4296 -4299 0
4298 -4296 4299 0
-4298 4296 4299 0
-4298 -4296 4300 0
4298 -4300 0
4296 -4300 0
-4133 -4297 4301 0
4133 -4301 0
4297 -4301 0
4300 4301 -4302 0
-4300 4302 0
-4301 4302 0
-154 -4185 4303 0
154 -4303 0
4185 -4303 0
-4139 -4303 -4304 0
4139 4303 -4304 0
4139 -4303 4304 0
-4139 4303 4304 0
-4304 -4302 -4305 0
4304 4302 -4305 0
4304 -4302 4305 0
-4304 4302 4305 0
-4304 -4302 4306 0
4304 -4306 0
4302 -4306 0
-4139 -4303 4307 0
4139 -4307 0
4303 -4307 0
4306 4307 -4308 0
-4306 4308 0
-4307 4308 0
-162 -4185 4309 0
162 -4309 0
4185 -4309 0
-4145 -4309 -4310 0
4145 4309 -4310 0
4145 -4309 4310 0
-4145 4309 4310 0
-4310 -4308 -4311 0
4310 4308 -4311 0
4310 -4308 4311 0
-4310 4308 4311 0
-4310 -4308 4312 0
4310 -4312 0
4308 -4312 0
-4145 -4309 4313 0
4145 -4313 0
4309 -4313 0
4312 4313 -4314 0
-4312 4314 0
-4313 4314 0
-170 -4185 4315 0
170 -4315 0
4185 -4315 0
-4151 -4315 -4316 0
4151 4315 -4316 0
4151 -4315 4316 0
-4151 4315 4316 0
-4316 -4314 -4317 0
4316 4314 -4317 0
4316 -4314 4317 0
-4316 4314 4317 0
-4316 -4314 4318 0
4316 -4318 0
4314 -4318 0
-4151 -4315 4319 0
4151 -4319 0
4315 -4319 0
4318 4319 -4320 0
-4318 4320 0
-4319 4320 0
-178 -4185 4321 0
178 -4321 0
4185 -4321 0
-4157 -4321 -4322 0
4157 4321 -4322 0
4157 -4321 4322 0
-4157 4321 4322 0
-4322 -4320 -4323 0
4322 4320 -4323 0
4322 -4320 4323 0
-4322 4320 4323 0
-4322 -4320 4324 0
4322 -4324 0
4320 -4324 0
-4157 -4321 4325 0
4157 -4325 0
4321 -4325 0
4324 4325 -4326 0
-4324 4326 0
-4325 4326 0
-186 -4185 4327 0
186 -4327 0
4185 -4327 0
-4163 -4327 -4328 0
4163 4327 -4328 0
4163 -4327 4328 0
-4163 4327 4328 0
-4328 -4326 -4329 0
4328 4326 -4329 0
4328 -4326 4329 0
-4328 4326 4329 0
-4328 -4326 4330 0
4328 -4330 0
4326 -4330 0
-4163 -4327 4331 0
4163 -4331 0
4327 -4331 0
4330 4331 -4332 0
-4330 4332 0
-4331 4332 0
-194 -4185 4333 0
194 -4333 0
4185 -4333 0
-4169 -4333 -4334 0
4169 4333 -4334 0
4169 -4333 4334 0
-4169 4333 4334 0
-4334 -4332 -4335 0
4334 4332 -4335 0
4334 -4332 4335 0
-4334 4332 4335 0
-4334 -4332 4336 0
4334 -4336 0
4332 -4336 0
-4169 -4333 4337 0
4169 -4337 0
4333 -4337 0
4336 4337 -4338 0
-4336 4338 0
-4337 4338 0
-202 -4185 4339 0
202 -4339 0
4185 -4339 0
-4175 -4339 -4340 0
4175 4339 -4340 0
4175 -4339 4340 0
-4175 4339 4340 0
-4340 -4338 -4341 0
4340 4338 -4341 0
4340 -4338 4341 0
-4340 4338 4341 0
-4340 -4338 4342 0
4340 -4342 0
4338 -4342 0
-4175 -4339 4343 0
4175 -4343 0
4339 -4343 0
4342 4343 -4344 0
-4342 4344 0
-4343 4344 0
-210 -4185 4345 0
210 -4345 0
4185 -4345 0
-4181 -4345 -4346 0
4181 4345 -4346 0
4181 -4345 4346 0
-4181 4345 4346 0
-4346 -4344 -4347 0
4346 4344 -4347 0
4346 -4344 4347 0
-4346 4344 4347 0
-4346 -4344 4348 0
4346 -4348 0
4344 -4348 0
-4181 -4345 4349 0
4181 -4349 0
4345 -4349 0
4348 4349 -4350 0
-4348 4350 0
-4349 4350 0
-218 -4185 4351 0
218 -4351 0
4185 -4351 0
-4184 -4351 -4352 0
4184 4351 -4352 0
4184 -4351 4352 0
-4184 4351 4352 0
-4352 -4350 -4353 0
4352 4350 -4353 0
4352 -4350 4353 0
-4352 4350 4353 0
-4352 -4350 4354 0
4352 -4354 0
4350 -4354 0
-4184 -4351 4355 0
4184 -4355 0
4351 -4355 0
4354 4355 -4356 0
-4354 4356 0
-4355 4356 0
-1 -4357 4358 0
1 -4358 0
4357 -4358 0
-4191 -4358 -4359 0
4191 4358 -4359 0
4191 -4358 4359 0
-4191 4358 4359 0
-4191 -4358 4360 0
4191 -4360 0
4358 -4360 0
-4 -4357 4361 0
4 -4361 0
4357 -4361 0
-4197 -4361 -4362 0
4197 4361 -4362 0
4197 -4361 4362 0
-4197 4361 4362 0
-4362 -4360 -4363 0
4362 4360 -4363 0
4362 -4360 4363 0
-4362 4360 4363 0
-4362 -4360 4364 0
4362 -4364 0
4360 -4364 0
-4197 -4361 4365 0
4197 -4365 0
4361 -4365 0
4364 4365 -4366 0
-4364 4366 0
-4365 4366 0
-10 -4357 4367 0
10 -4367 0
4357 -4367 0
-4203 -4367 -4368 0
4203 4367 -4368 0
4203 -4367 4368 0
-4203 4367 4368 0
-4368 -4366 -4369 0
4368 4366 -4369 0
4368 -4366 4369 0
-4368 4366 4369 0
-4368 -4366 4370 0
4368 -4370 0
4366 -4370 0
-4203 -4367 4371 0
4203 -4371 0
4367 -4371 0
4370 4371 -4372 0
-4370 4372 0
-4371 4372 0
-18 -4357 4373 0
18 -4373 0
4357 -4373 0
-4209 -4373 -4374 0
4209 4373 -4374 0
4209 -4373 4374 0
-4209 4373 4374 0
-4374 -4372 -4375 0
4374 4372 -4375 0
4374 -4372 4375 0
-4374 4372 4375 0
-4374 -4372 4376 0
4374 -4376 0
4372 -4376 0
-4209 -4373 4377 0
4209 -4377 0
4373 -4377 0
4376 4377 -4378 0
-4376 4378 0
-4377 4378 0
-26 -4357 4379 0
26 -4379 0
4357 -4379 0
-4215 -4379 -4380 0
4215 4379 -4380 0
4215 -4379 4380 0
-4215 4379 4380 0
-4380 -4378 -4381 0
4380 4378 -4381 0
4380 -4378 4381 0
-4380 4378 4381 0
-4380 -4378 4382 0
4380 -4382 0
4378 -4382 0
-4215 -4379 4383 0
4215 -4383 0
4379 -4383 0
4382 4383 -4384 0
-4382 4384 0
-4383 4384 0
-34 -4357 4385 0
34 -4385 0
4357 -4385 0
-4221 -4385 -4386 0
4221 4385 -4386 0
4221 -4385 4386 0
-4221 4385 4386 0
-4386 -4384 -4387 0
4386 4384 -4387 0
4386 -4384 4387 0
-4386 4384 4387 0
-4386 -4384 4388 0
4386 -4388 0
4384 -4388 0
-4221 -4385 4389 0
4221 -4389 0
4385 -4389 0
4388 4389 -4390 0
-4388 4390 0
-4389 4390 0
-42 -4357 4391 0
42 -4391 0
4357 -4391 0
-4227 -4391 -4392 0
4227 4391 -4392 0
4227 -4391 4392 0
-4227 4391 4392 0
-4392 -4390 -4393 0
4392 4390 -4393 0
4392 -4390 4393 0
-4392 4390 4393 0
-4392 -4390 4394 0
4392 -4394 0
4390 -4394 0
-4227 -4391 4395 0
4227 -4395 0
4391 -4395 0
4394 4395 -4396 0
-4394 4396 0
-4395 4396 0
-50 -4357 4397 0
50 -4397 0
4357 -4397 0
-4233 -4397 -4398 0
4233 4397 -4398 0
4233 -4397 4398 0
-4233 4397 4398 0
-4398 -4396 -4399 0
4398 4396 -4399 0
4398 -4396 4399 0
-4398 4396 4399 0
-4398 -4396 4400 0
4398 -4400 0
4396 -4400 0
-4233 -4397 4401 0
4233 -4401 0
4397 -4401 0
4400 4401 -4402 0
-4400 4402 0
-4401 4402 0
-58 -4357 4403 0
58 -4403 0
4357 -4403 0
-4239 -4403 -4404 0
4239 4403 -4404 0
4239 -4403 4404 0
-4239 4403 4404 0
-4404 -4402 -4405 0
4404 4402 -4405 0
4404 -4402 4405 0
-4404 4402 4405 0
-4404 -4402 4406 0
4404 -4406 0
4402 -4406 0
-4239 -4403 4407 0
4239 -4407 0
4403 -4407 0
4406 4407 -4408 0
-4406 4408 0
-4407 4408 0
-66 -4357 4409 0
66 -4409 0
4357 -4409 0
-4245 -4409 -4410 0
4245 4409 -4410 0
4245 -4409 4410 0
-4245 4409 4410 0
-4410 -4408 -4411 0
4410 4408 -4411 0
4410 -4408 4411 0
-4410 4408 4411 0
-4410 -4408 4412 0
4410 -4412 0
4408 -4412 0
-4245 -4409 4413 0
4245 -4413 0
4409 -4413 0
4412 4413 -4414 0
-4412 4414 0
-4413 4414 0
-74 -4357 4415 0
74 -4415 0
4357 -4415 0
-4251 -4415 -4416 0
4251 4415 -4416 0
4251 -4415 4416 0
-4251 4415 4416 0
-4416 -4414 -4417 0
4416 4414 -4417 0
4416 -4414 4417 0
-4416 4414 4417 0
-4416 -4414 4418 0
4416 -4418 0
4414 -4418 0
-4251 -4415 4419 0
4251 -4419 0
4415 -4419 0
4418 4419 -4420 0
-4418 4420 0
-4419 4420 0
-82 -4357 4421 0
82 -4421 0
4357 -4421 0
-4257 -4421 -4422 0
4257 4421 -4422 0
4257 -4421 4422 0
-4257 4421 4422 0
-4422 -4420 -4423 0
4422 4420 -4423 0
4422 -4420 4423 0
-4422 4420 4423 0
-4422 -4420 4424 0
4422 -4424 0
4420 -4424 0
-4257 -4421 4425 0
4257 -4425 0
4421 -4425 0
4424 4425 -4426 0
-4424 4426 0
-4425 4426 0
-90 -4357 4427 0
90 -4427 0
4357 -4427 0
-4263 -4427 -4428 0
4263 4427 -4428 0
4263 -4427 4428 0
-4263 4427 4428 0
-4428 -4426 -4429 0
4428 4426 -4429 0
4428 -4426 4429 0
-4428 4426 4429 0
-4428 -4426 4430 0
4428 -4430 0
4426 -4430 0
-4263 -4427 4431 0
4263 -4431 0
4427 -4431 0
4430 4431 -4432 0
-4430 4432 0
-4431 4432 0
-98 -4357 4433 0
98 -4433 0
4357 -4433 0
-4269 -4433 -4434 0
4269 4433 -4434 0
4269 -4433 4434 0
-4269 4433 4434 0
-4434 -4432 -4435 0
4434 4432 -4435 0
4434 -4432 4435 0
-4434 4432 4435 0
-4434 -4432 4436 0
4434 -4436 0
4432 -4436 0
-4269 -4433 4437 0
4269 -4437 0
4433 -4437 0
4436 4437 -4438 0
-4436 4438 0
-4437 4438 0
-106 -4357 4439 0
106 -4439 0
4357 -4439 0
-4275 -4439 -4440 0
4275 4439 -4440 0
4275 -4439 4440 0
-4275 4439 4440 0
-4440 -4438 -4441 0
4440 4438 -4441 0
4440 -4438 4441 0
-4440 4438 4441 0
-4440 -4438 4442 0
4440 -4442 0
4438 -4442 0
-4275 -4439 4443 0
4275 -4443 0
4439 -4443 0
4442 4443 -4444 0
-4442 4444 0
-4443 4444 0
-114 -4357 4445 0
114 -4445 0
4357 -4445 0
-4281 -4445 -4446 0
4281 4445 -4446 0
4281 -4445 4446 0
-4281 4445 4446 0
-4446 -4444 -4447 0
4446 4444 -4447 0
4446 -4444 4447 0
-4446 4444 4447 0
-4446 -4444 4448 0
4446 -4448 0
4444 -4448 0
-4281 -4445 4449 0
4281 -4449 0
4445 -4449 0
4448 4449 -4450 0
-4448 4450 0
-4449 4450 0
-122 -4357 4451 0
122 -4451 0
4357 -4451 0
-4287 -4451 -4452 0
4287 4451 -4452 0
4287 -4451 4452 0
-4287 4451 4452 0
-4452 -4450 -4453 0
4452 4450 -4453 0
4452 -4450 4453 0
-4452 4450 4453 0
-4452 -4450 4454 0
4452 -4454 0
4450 -4454 0
-4287 -4451 4455 0
4287 -4455 0
4451 -4455 0
4454 4455 -4456 0
-4454 4456 0
-4455 4456 0
-130 -4357 4457 0
130 -4457 0
4357 -4457 0
-4293 -4457 -4458 0
4293 4457 -4458 0
4293 -4457 4458 0
-4293 4457 4458 0
-4458 -4456 -4459 0
4458 4456 -4459 0
4458 -4456 4459 0
-4458 4456 4459 0
-4458 -4456 4460 0
4458 -4460 0
4456 -4460 0
-4293 -4457 4461 0
4293 -4461 0
4457 -4461 0
4460 4461 -4462 0
-4460 4462 0
-4461 4462 0
-138 -4357 4463 0
138 -4463 0
4357 -4463 0
-4299 -4463 -4464 0
4299 4463 -4464 0
4299 -4463 4464 0
-4299 4463 4464 0
-4464 -4462 -4465 0
4464 4462 -4465 0
4464 -4462 4465 0
-4464 4462 4465 0
-4464 -4462 4466 0
4464 -4466 0
4462 -4466 0
-4299 -4463 4467 0
4299 -4467 0
4463 -4467 0
4466 4467 -4468 0
-4466 4468 0
-4467 4468 0
-146 -4357 4469 0
146 -4469 0
4357 -4469 0
-4305 -4469 -4470 0
4305 4469 -4470 0
4305 -4469 4470 0
-4305 4469 4470 0
-4470 -4468 -4471 0
4470 4468 -4471 0
4470 -4468 4471 0
-4470 4468 4471 0
-4470 -4468 4472 0
4470 -4472 0
4468 -4472 0
-4305 -4469 4473 0
4305 -4473 0
4469 -4473 0
4472 4473 -4474 0
-4472 4474 0
-4473 4474 0
-154 -4357 4475 0
154 -4475 0
4357 -4475 0
-4311 -4475 -4476 0
4311 4475 -4476 0
4311 -4475 4476 0
-4311 4475 4476 0
-4476 -4474 -4477 0
4476 4474 -4477 0
4476 -4474 4477 0
-4476 4474 4477 0
-4476 -4474 4478 0
4476 -4478 0
4474 -4478 0
-4311 -4475 4479 0
4311 -4479 0
4475 -4479 0
4478 4479 -4480 0
-4478 4480 0
-4479 4480 0
-162 -4357 4481 0
162 -4481 0
4357 -4481 0
-4317 -4481 -4482 0
4317 4481 -4482 0
4317 -4481 4482 0
-4317 4481 4482 0
-4482 -4480 -4483 0
4482 4480 -4483 0
4482 -4480 4483 0
-4482 4480 4483 0
-4482 -4480 4484 0
4482 -4484 0
4480 -4484 0
-4317 -4481 4485 0
4317 -4485 0
4481 -4485 0
4484 4485 -4486 0
-4484 4486 0
-4485 4486 0
-170 -4357 4487 0
170 -4487 0
4357 -4487 0
-4323 -4487 -4488 0
4323 4487 -4488 0
4323 -4487 4488 0
-4323 4487 4488 0
-4488 -4486 -4489 0
4488 4486 -4489 0
4488 -4486 4489 0
-4488 4486 4489 0
-4488 -4486 4490 0
4488 -4490 0
4486 -4490 0
-4323 -4487 4491 0
4323 -4491 0
4487 -4491 0
4490 4491 -4492 0
-4490 4492 0
-4491 4492 0
-178 -4357 4493 0
178 -4493 0
4357 -4493 0
-4329 -4493 -4494 0
4329 4493 -4494 0
4329 -4493 4494 0
-4329 4493 4494 0
-4494 -4492 -4495 0
4494 4492 -4495 0
4494 -4492 4495 0
-4494 4492 4495 0
-4494 -4492 4496 0
4494 -4496 0
4492 -4496 0
-4329 -4493 4497 0
4329 -4497 0
4493 -4497 0
4496 4497 -4498 0
-4496 4498 0
-4497 4498 0
-186 -4357 4499 0
186 -4499 0
4357 -4499 0
-4335 -4499 -4500 0
4335 4499 -4500 0
4335 -4499 4500 0
-4335 4499 4500 0
-4500 -4498 -4501 0
4500 4498 -4501 0
4500 -4498 4501 0
-4500 4498 4501 0
-4500 -4498 4502 0
4500 -4502 0
4498 -4502 0
-4335 -4499 4503 0
4335 -4503 0
4499 -4503 0
4502 4503 -4504 0
-4502 4504 0
-4503 4504 0
-194 -4357 4505 0
194 -4505 0
4357 -4505 0
-4341 -4505 -4506 0
4341 4505 -4506 0
4341 -4505 4506 0
-4341 4505 4506 0
-4506 -4504 -4507 0
4506 4504 -4507 0
4506 -4504 4507 0
-4506 4504 4507 0
-4506 -4504 4508 0
4506 -4508 0
4504 -4508 0
-4341 -4505 4509 0
4341 -4509 0
4505 -4509 0
4508 4509 -4510 0
-4508 4510 0
-4509 4510 0
-202 -4357 4511 0
202 -4511 0
4357 -4511 0
-4347 -4511 -4512 0
4347 4511 -4512 0
4347 -4511 4512 0
-4347 4511 4512 0
-4512 -4510 -4513 0
4512 4510 -4513 0
4512 -4510 4513 0
-4512 4510 4513 0
-4512 -4510 4514 0
4512 -4514 0
4510 -4514 0
-4347 -4511 4515 0
4347 -4515 0
4511 -4515 0
4514 4515 -4516 0
-4514 4516 0
-4515 4516 0
-210 -4357 4517 0
210 -4517 0
4357 -4517 0
-4353 -4517 -4518 0
4353 4517 -4518 0
4353 -4517 4518 0
-4353 4517 4518 0
-4518 -4516 -4519 0
4518 4516 -4519 0
4518 -4516 4519 0
-4518 4516 4519 0
-4518 -4516 4520 0
4518 -4520 0
4516 -4520 0
-4353 -4517 4521 0
4353 -4521 0
4517 -4521 0
4520 4521 -4522 0
-4520 4522 0
-4521 4522 0
-218 -4357 4523 0
218 -4523 0
4357 -4523 0
-4356 -4523 -4524 0
4356 4523 -4524 0
4356 -4523 4524 0
-4356 4523 4524 0
-4524 -4522 -4525 0
4524 4522 -4525 0
4524 -4522 4525 0
-4524 4522 4525 0
-4524 -4522 4526 0
4524 -4526 0
4522 -4526 0
-4356 -4523 4527 0
4356 -4527 0
4523 -4527 0
4526 4527 -4528 0
-4526 4528 0
-4527 4528 0
-1 -4529 4530 0
1 -4530 0
4529 -4530 0
-4363 -4530 -4531 0
4363 4530 -4531 0
4363 -4530 4531 0
-4363 4530 4531 0
-4363 -4530 4532 0
4363 -4532 0
4530 -4532 0
-4 -4529 4533 0
4 -4533 0
4529 -4533 0
-4369 -4533 -4534 0
4369 4533 -4534 0
4369 -4533 4534 0
-4369 4533 4534 0
-4534 -4532 -4535 0
4534 4532 -4535 0
4534 -4532 4535 0
-4534 4532 4535 0
-4534 -4532 4536 0
4534 -4536 0
4532 -4536 0
-4369 -4533 4537 0
4369 -4537 0
4533 -4537 0
4536 4537 -4538 0
-4536 4538 0
-4537 4538 0
-10 -4529 4539 0
10 -4539 0
4529 -4539 0
-4375 -4539 -4540 0
4375 4539 -4540 0
4375 -4539 4540 0
-4375 4539 4540 0
-4540 -4538 -4541 0
4540 4538 -4541 0
4540 -4538 4541 0
-4540 4538 4541 0
-4540 -4538 4542 0
4540 -4542 0
4538 -4542 0
-4375 -4539 4543 0
4375 -4543 0
4539 -4543 0
4542 4543 -4544 0
-4542 4544 0
-4543 4544 0
-18 -4529 4545 0
18 -4545 0
4529 -4545 0
-4381 -4545 -4546 0
4381 4545 -4546 0
4381 -4545 4546 0
-4381 4545 4546 0
-4546 -4544 -4547 0
4546 4544 -4547 0
4546 -4544 4547 0
-4546 4544 4547 0
-4546 -4544 4548 0
4546 -4548 0
4544 -4548 0
-4381 -4545 4549 0
4381 -4549 0
4545 -4549 0
4548 4549 -4550 0
-4548 4550 0
-4549 4550 0
-26 -4529 4551 0
26 -4551 0
4529 -4551 0
-4387 -4551 -4552 0
4387 4551 -4552 0
4387 -4551 4552 0
-4387 4551 4552 0
-4552 -4550 -4553 0
4552 4550 -4553 0
4552 -4550 4553 0
-4552 4550 4553 0
-4552 -4550 4554 0
4552 -4554 0
4550 -4554 0
-4387 -4551 4555 0
4387 -4555 0
4551 -4555 0
4554 4555 -4556 0
-4554 4556 0
-4555 4556 0
-34 -4529 4557 0
34 -4557 0
4529 -4557 0
-4393 -4557 -4558 0
4393 4557 -4558 0
4393 -4557 4558 0
-4393 4557 4558 0
-4558 -4556 -4559 0
4558 4556 -4559 0
4558 -4556 4559 0
-4558 4556 4559 0
-4558 -4556 4560 0
4558 -4560 0
4556 -4560 0
-4393 -4557 4561 0
4393 -4561 0
4557 -4561 0
4560 4561 -4562 0
-4560 4562 0
-4561 4562 0
-42 -4529 4563 0
42 -4563 0
4529 -4563 0
-4399 -4563 -4564 0
4399 4563 -4564 0
4399 -4563 4564 0
-4399 4563 4564 0
-4564 -4562 -4565 0
4564 4562 -4565 0
4564 -4562 4565 0
-4564 4562 4565 0
-4564 -4562 4566 0
4564 -4566 0
4562 -4566 0
-4399 -4563 4567 0
4399 -4567 0
4563 -4567 0
4566 4567 -4568 0
-4566 4568 0
-4567 4568 0
-50 -4529 4569 0
50 -4569 0
4529 -4569 0
-4405 -4569 -4570 0
4405 4569 -4570 0
4405 -4569 4570 0
-4405 4569 4570 0
-4570 -4568 -4571 0
4570 4568 -4571 0
4570 -4568 4571 0
-4570 4568 4571 0
-4570 -4568 4572 0
4570 -4572 0
4568 -4572 0
-4405 -4569 4573 0
4405 -4573 0
4569 -4573 0
4572 4573 -4574 0
-4572 4574 0
-4573 4574 0
-58 -4529 4575 0
58 -4575 0
4529 -4575 0
-4411 -4575 -4576 0
4411 4575 -4576 0
4411 -4575 4576 0
-4411 4575 4576 0
-4576 -4574 -4577 0
4576 4574 -4577 0
4576 -4574 4577 0
-4576 4574 4577 0
-4576 -4574 4578 0
4576 -4578 0
4574 -4578 0
-4411 -4575 4579 0
4411 -4579 0
4575 -4579 0
4578 4579 -4580 0
-4578 4580 0
-4579 4580 0
-66 -4529 4581 0
66 -4581 0
4529 -4581 0
-4417 -4581 -4582 0
4417 4581 -4582 0
4417 -4581 4582 0
-4417 4581 4582 0
-4582 -4580 -4583 0
4582 4580 -4583 0
4582 -4580 4583 0
-4582 4580 4583 0
-4582 -4580 4584 0
4582 -4584 0
4580 -4584 0
-4417 -4581 4585 0
4417 -4585 0
4581 -4585 0
4584 4585 -4586 0
-4584 4586 0
-4585 4586 0
-74 -4529 4587 0
74 -4587 0
4529 -4587 0
-4423 -4587 -4588 0
4423 4587 -4588 0
4423 -4587 4588 0
-4423 4587 4588 0
-4588 -4586 -4589 0
4588 4586 -4589 0
4588 -4586 4589 0
-4588 4586 4589 0
-4588 -4586 4590 0
4588 -4590 0
4586 -4590 0
-4423 -4587 4591 0
4423 -4591 0
4587 -4591 0
4590 4591 -4592 0
-4590 4592 0
-4591 4592 0
-82 -4529 4593 0
82 -4593 0
4529 -4593 0
-4429 -4593 -4594 0
4429 4593 -4594 0
4429 -4593 4594 0
-4429 4593 4594 0
-4594 -4592 -4595 0
4594 4592 -4595 0
4594 -4592 4595 0
-4594 4592 4595 0
-4594 -4592 4596 0
4594 -4596 0
4592 -4596 0
-4429 -4593 4597 0
4429 -4597 0
4593 -4597 0
4596 4597 -4598 0
-4596 4598 0
-4597 4598 0
-90 -4529 4599 0
90 -4599 0
4529 -4599 0
-4435 -4599 -4600 0
4435 4599 -4600 0
4435 -4599 4600 0
-4435 4599 4600 0
-4600 -4598 -4601 0
4600 4598 -4601 0
4600 -4598 4601 0
-4600 4598 4601 0
-4600 -4598 4602 0
4600 -4602 0
4598 -4602 0
-4435 -4599 4603 0
4435 -4603 0
4599 -4603 0
4602 4603 -4604 0
-4602 4604 0
-4603 4604 0
-98 -4529 4605 0
98 -4605 0
4529 -4605 0
-4441 -4605 -4606 0
4441 4605 -4606 0
4441 -4605 4606 0
-4441 4605 4606 0
-4606 -4604 -4607 0
4606 4604 -4607 0
4606 -4604 4607 0
-4606 4604 4607 0
-4606 -4604 4608 0
4606 -4608 0
4604 -4608 0
-4441 -4605 4609 0
4441 -4609 0
4605 -4609 0
4608 4609 -4610 0
-4608 4610 0
-4609 4610 0
-106 -4529 4611 0
106 -4611 0
4529 -4611 0
-4447 -4611 -4612 0
4447 4611 -4612 0
4447 -4611 4612 0
-4447 4611 4612 0
-4612 -4610 -4613 0
4612 4610 -4613 0
4612 -4610 4613 0
-4612 4610 4613 0
-4612 -4610 4614 0
4612 -4614 0
4610 -4614 0
-4447 -4611 4615 0
4447 -4615 0
4611 -4615 0
4614 4615 -4616 0
-4614 4616 0
-4615 4616 0
-114 -4529 4617 0
114 -4617 0
4529 -4617 0
-4453 -4617 -4618 0
4453 4617 -4618 0
4453 -4617 4618 0
-4453 4617 4618 0
-4618 -4616 -4619 0
4618 4616 -4619 0
4618 -4616 4619 0
-4618 4616 4619 0
-4618 -4616 4620 0
4618 -4620 0
4616 -4620 0
-4453 -4617 4621 0
4453 -4621 0
4617 -4621 0
4620 4621 -4622 0
-4620 4622 0
-4621 4622 0
-122 -4529 4623 0
122 -4623 0
4529 -4623 0
-4459 -4623 -4624 0
4459 4623 -4624 0
4459 -4623 4624 0
-4459 4623 4624 0
-4624 -4622 -4625 0
4624 4622 -4625 0
4624 -4622 4625 0
-4624 4622 4625 0
-4624 -4622 4626 0
4624 -4626 0
4622 -4626 0
-4459 -4623 4627 0
4459 -4627 0
4623 -4627 0
4626 4627 -4628 0
-4626 4628 0
-4627 4628 0
-130 -4529 4629 0
130 -4629 0
4529 -4629 0
-4465 -4629 -4630 0
4465 4629 -4630 0
4465 -4629 4630 0
-4465 4629 4630 0
-4630 -4628 -4631 0
4630 4628 -4631 0
4630 -4628 4631 0
-4630 4628 4631 0
-4630 -4628 4632 0
4630 -4632 0
4628 -4632 0
-4465 -4629 4633 0
4465 -4633 0
4629 -4633 0
4632 4633 -4634 0
-4632 4634 0
-4633 4634 0
-138 -4529 4635 0
138 -4635 0
4529 -4635 0
-4471 -4635 -4636 0
4471 4635 -4636 0
4471 -4635 4636 0
-4471 4635 4636 0
-4636 -4634 -4637 0
4636 4634 -4637 0
4636 -4634 4637 0
-4636 4634 4637 0
-4636 -4634 4638 0
4636 -4638 0
4634 -4638 0
-4471 -4635 4639 0
4471 -4639 0
4635 -4639 0
4638 4639 -4640 0
-4638 4640 0
-4639 4640 0
-146 -4529 4641 0
146 -4641 0
4529 -4641 0
-4477 -4641 -4642 0
4477 4641 -4642 0
4477 -4641 4642 0
-4477 4641 4642 0
-4642 -4640 -4643 0
4642 4640 -4643 0
4642 -4640 4643 0
-4642 4640 4643 0
-4642 -4640 4644 0
4642 -4644 0
4640 -4644 0
-4477 -4641 4645 0
4477 -4645 0
4641 -4645 0
4644 4645 -4646 0
-4644 4646 0
-4645 4646 0
-154 -4529 4647 0
154 -4647 0
4529 -4647 0
-4483 -4647 -4648 0
4483 4647 -4648 0
4483 -4647 4648 0
-4483 4647 4648 0
-4648 -4646 -4649 0
4648 4646 -4649 0
4648 -4646 4649 0
-4648 4646 4649 0
-4648 -4646 4650 0
4648 -4650 0
4646 -4650 0
-4483 -4647 4651 0
4483 -4651 0
4647 -4651 0
4650 4651 -4652 0
-4650 4652 0
-4651 4652 0
-162 -4529 4653 0
162 -4653 0
4529 -4653 0
-4489 -4653 -4654 0
4489 4653 -4654 0
4489 -4653 4654 0
-4489 4653 4654 0
-4654 -4652 -4655 0
4654 4652 -4655 0
4654 -4652 4655 0
-4654 4652 4655 0
-4654 -4652 4656 0
4654 -4656 0
4652 -4656 0
-4489 -4653 4657 0
4489 -4657 0
4653 -4657 0
4656 4657 -4658 0
-4656 4658 0
-4657 4658 0
-170 -4529 4659 0
170 -4659 0
4529 -4659 0
-4495 -4659 -4660 0
4495 4659 -4660 0
4495 -4659 4660 0
-4495 4659 4660 0
-4660 -4658 -4661 0
4660 4658 -4661 0
4660 -4658 4661 0
-4660 4658 4661 0
-4660 -4658 4662 0
4660 -4662 0
4658 -4662 0
-4495 -4659 4663 0
4495 -4663 0
4659 -4663 0
4662 4663 -4664 0
-4662 4664 0
-4663 4664 0
-178 -4529 4665 0
178 -4665 0
4529 -4665 0
-4501 -4665 -4666 0
4501 4665 -4666 0
4501 -4665 4666 0
-4501 4665 4666 0
-4666 -4664 -4667 0
4666 4664 -4667 0
4666 -4664 4667 0
-4666 4664 4667 0
-4666 -4664 4668 0
4666 -4668 0
4664 -4668 0
-4501 -4665 4669 0
4501 -4669 0
4665 -4669 0
4668 4669 -4670 0
-4668 4670 0
-4669 4670 0
-186 -4529 4671 0
186 -4671 0
4529 -4671 0
-4507 -4671 -4672 0
4507 4671 -4672 0
4507 -4671 4672 0
-4507 4671 4672 0
-4672 -4670 -4673 0
4672 4670 -4673 0
4672 -4670 4673 0
-4672 4670 4673 0
-4672 -4670 4674 0
4672 -4674 0
4670 -4674 0
-4507 -4671 4675 0
4507 -4675 0
4671 -4675 0
4674 4675 -4676 0
-4674 4676 0
-4675 4676 0
-194 -4529 4677 0
194 -4677 0
4529 -4677 0
-4513 -4677 -4678 0
4513 4677 -4678 0
4513 -4677 4678 0
-4513 4677 4678 0
-4678 -4676 -4679 0
4678 4676 -4679 0
4678 -4676 4679 0
-4678 4676 4679 0
-4678 -4676 4680 0
4678 -4680 0
4676 -4680 0
-4513 -4677 4681 0
4513 -4681 0
4677 -4681 0
4680 4681 -4682 0
-4680 4682 0
-4681 4682 0
-202 -4529 4683 0
202 -4683 0
4529 -4683 0
-4519 -4683 -4684 0
4519 4683 -4684 0
4519 -4683 4684 0
-4519 4683 4684 0
-4684 -4682 -4685 0
4684 4682 -4685 0
4684 -4682 4685 0
-4684 4682 4685 0
-4684 -4682 4686 0
4684 -4686 0
4682 -4686 0
-4519 -4683 4687 0
4519 -4687 0
4683 -4687 0
4686 4687 -4688 0
-4686 4688 0
-4687 4688 0
-210 -4529 4689 0
210 -4689 0
4529 -4689 0
-4525 -4689 -4690 0
4525 4689 -4690 0
4525 -4689 4690 0
-4525 4689 4690 0
-4690 -4688 -4691 0
4690 4688 -4691 0
4690 -4688 4691 0
-4690 4688 4691 0
-4690 -4688 4692 0
4690 -4692 0
4688 -4692 0
-4525 -4689 4693 0
4525 -4693 0
4689 -4693 0
4692 4693 -4694 0
-4692 4694 0
-4693 4694 0
-218 -4529 4695 0
218 -4695 0
4529 -4695 0
-4528 -4695 -4696 0
4528 4695 -4696 0
4528 -4695 4696 0
-4528 4695 4696 0
-4696 -4694 -4697 0
4696 4694 -4697 0
4696 -4694 4697 0
-4696 4694 4697 0
-4696 -4694 4698 0
4696 -4698 0
4694 -4698 0
-4528 -4695 4699 0
4528 -4699 0
4695 -4699 0
4698 4699 -4700 0
-4698 4700 0
-4699 4700 0
-1 -4701 4702 0
1 -4702 0
4701 -4702 0
-4535 -4702 -4703 0
4535 4702 -4703 0
4535 -4702 4703 0
-4535 4702 4703 0
-4535 -4702 4704 0
4535 -4704 0
4702 -4704 0
-4 -4701 4705 0
4 -4705 0
4701 -4705 0
-4541 -4705 -4706 0
4541 4705 -4706 0
4541 -4705 4706 0
-4541 4705 4706 0
-4706 -4704 -4707 0
4706 4704 -4707 0
4706 -4704 4707 0
-4706 4704 4707 0
-4706 -4704 4708 0
4706 -4708 0
4704 -4708 0
-4541 -4705 4709 0
4541 -4709 0
4705 -4709 0
4708 4709 -4710 0
-4708 4710 0
-4709 4710 0
-10 -4701 4711 0
10 -4711 0
4701 -4711 0
-4547 -4711 -4712 0
4547 4711 -4712 0
4547 -4711 4712 0
-4547 4711 4712 0
-4712 -4710 -4713 0
4712 4710 -4713 0
4712 -4710 4713 0
-4712 4710 4713 0
-4712 -4710 4714 0
4712 -4714 0
4710 -4714 0
-4547 -4711 4715 0
4547 -4715 0
4711 -4715 0
4714 4715 -4716 0
-4714 4716 0
-4715 4716 0
-18 -4701 4717 0
18 -4717 0
4701 -4717 0
-4553 -4717 -4718 0
4553 4717 -4718 0
4553 -4717 4718 0
-4553 4717 4718 0
-4718 -4716 -4719 0
4718 4716 -4719 0
4718 -4716 4719 0
-4718 4716 4719 0
-4718 -4716 4720 0
4718 -4720 0
4716 -4720 0
-4553 -4717 4721 0
4553 -4721 0
4717 -4721 0
4720 4721 -4722 0
-4720 4722 0
-4721 4722 0
-26 -4701 4723 0
26 -4723 0
4701 -4723 0
-4559 -4723 -4724 0
4559 4723 -4724 0
4559 -4723 4724 0
-4559 4723 4724 0
-4724 -4722 -4725 0
4724 4722 -4725 0
4724 -4722 4725 0
-4724 4722 4725 0
-4724 -4722 4726 0
4724 -4726 0
4722 -4726 0
-4559 -4723 4727 0
4559 -4727 0
4723 -4727 0
4726 4727 -4728 0
-4726 4728 0
-4727 4728 0
-34 -4701 4729 0
34 -4729 0
4701 -4729 0
-4565 -4729 -4730 0
4565 4729 -4730 0
4565 -4729 4730 0
-4565 4729 4730 0
-4730 -4728 -4731 0
4730 4728 -4731 0
4730 -4728 4731 0
-4730 4728 4731 0
-4730 -4728 4732 0
4730 -4732 0
4728 -4732 0
-4565 -4729 4733 0
4565 -4733 0
4729 -4733 0
4732 4733 -4734 0
-4732 4734 0
-4733 4734 0
-42 -4701 4735 0
42 -4735 0
4701 -4735 0
-4571 -4735 -4736 0
4571 4735 -4736 0
4571 -4735 4736 0
-4571 4735 4736 0
-4736 -4734 -4737 0
4736 4734 -4737 0
4736 -4734 4737 0
-4736 4734 4737 0
-4736 -4734 4738 0
4736 -4738 0
4734 -4738 0
-4571 -4735 4739 0
4571 -4739 0
4735 -4739 0
4738 4739 -4740 0
-4738 4740 0
-4739 4740 0
-50 -4701 4741 0
50 -4741 0
4701 -4741 0
-4577 -4741 -4742 0
4577 4741 -4742 0
4577 -4741 4742 0
-4577 4741 4742 0
-4742 -4740 -4743 0
4742 4740 -4743 0
4742 -4740 4743 0
-4742 4740 4743 0
-4742 -4740 4744 0
4742 -4744 0
4740 -4744 0
-4577 -4741 4745 0
4577 -4745 0
4741 -4745 0
4744 4745 -4746 0
-4744 4746 0
-4745 4746 0
-58 -4701 4747 0
58 -4747 0
4701 -4747 0
-4583 -4747 -4748 0
4583 4747 -4748 0
4583 -4747 4748 0
-4583 4747 4748 0
-4748 -4746 -4749 0
4748 4746 -4749 0
4748 -4746 4749 0
-4748 4746 4749 0
-4748 -4746 4750 0
4748 -4750 0
4746 -4750 0
-4583 -4747 4751 0
4583 -4751 0
4747 -4751 0
4750 4751 -4752 0
-4750 4752 0
-4751 4752 0
-66 -4701 4753 0
66 -4753 0
4701 -4753 0
-4589 -4753 -4754 0
4589 4753 -4754 0
4589 -4753 4754 0
-4589 4753 4754 0
-4754 -4752 -4755 0
4754 4752 -4755 0
4754 -4752 4755 0
-4754 4752 4755 0
-4754 -4752 4756 0
4754 -4756 0
4752 -4756 0
-4589 -4753 4757 0
4589 -4757 0
4753 -4757 0
4756 4757 -4758 0
-4756 4758 0
-4757 4758 0
-74 -4701 4759 0
74 -4759 0
4701 -4759 0
-4595 -4759 -4760 0
4595 4759 -4760 0
4595 -4759 4760 0
-4595 4759 4760 0
-4760 -4758 -4761 0
4760 4758 -4761 0
4760 -4758 4761 0
-4760 4758 4761 0
-4760 -4758 4762 0
4760 -4762 0
4758 -4762 0
-4595 -4759 4763 0
4595 -4763 0
4759 -4763 0
4762 4763 -4764 0
-4762 4764 0
-4763 4764 0
-82 -4701 4765 0
82 -4765 0
4701 -4765 0
-4601 -4765 -4766 0
4601 4765 -4766 0
4601 -4765 4766 0
-4601 4765 4766 0
-4766 -4764 -4767 0
4766 4764 -4767 0
4766 -4764 4767 0
-4766 4764 4767 0
-4766 -4764 4768 0
4766 -4768 0
4764 -4768 0
-4601 -4765 4769 0
4601 -4769 0
4765 -4769 0
4768 4769 -4770 0
-4768 4770 0
-4769 4770 0
-90 -4701 4771 0
90 -4771 0
4701 -4771 0
-4607 -4771 -4772 0
4607 4771 -4772 0
4607 -4771 4772 0
-4607 4771 4772 0
-4772 -4770 -4773 0
4772 4770 -4773 0
4772 -4770 4773 0
-4772 4770 4773 0
-4772 -4770 4774 0
4772 -4774 0
4770 -4774 0
-4607 -4771 4775 0
4607 -4775 0
4771 -4775 0
4774 4775 -4776 0
-4774 4776 0
-4775 4776 0
-98 -4701 4777 0
98 -4777 0
4701 -4777 0
-4613 -4777 -4778 0
4613 4777 -4778 0
4613 -4777 4778 0
-4613 4777 4778 0
-4778 -4776 -4779 0
4778 4776 -4779 0
4778 -4776 4779 0
-4778 4776 4779 0
-4778 -4776 4780 0
4778 -4780 0
4776 -4780 0
-4613 -4777 4781 0
4613 -4781 0
4777 -4781 0
4780 4781 -4782 0
-4780 4782 0
-4781 4782 0
-106 -4701 4783 0
106 -4783 0
4701 -4783 0
-4619 -4783 -4784 0
4619 4783 -4784 0
4619 -4783 4784 0
-4619 4783 4784 0
-4784 -4782 -4785 0
4784 4782 -4785 0
4784 -4782 4785 0
-4784 4782 4785 0
-4784 -4782 4786 0
4784 -4786 0
4782 -4786 0
-4619 -4783 4787 0
4619 -4787 0
4783 -4787 0
4786 4787 -4788 0
-4786 4788 0
-4787 4788 0
-114 -4701 4789 0
114 -4789 0
4701 -4789 0
-4625 -4789 -4790 0
4625 4789 -4790 0
4625 -4789 4790 0
-4625 4789 4790 0
-4790 -4788 -4791 0
4790 4788 -4791 0
4790 -4788 4791 0
-4790 4788 4791 0
-4790 -4788 4792 0
4790 -4792 0
4788 -4792 0
-4625 -4789 4793 0
4625 -4793 0
4789 -4793 0
4792 4793 -4794 0
-4792 4794 0
-4793 4794 0
-122 -4701 4795 0
122 -4795 0
4701 -4795 0
-4631 -4795 -4796 0
4631 4795 -4796 0
4631 -4795 4796 0
-4631 4795 4796 0
-4796 -4794 -4797 0
4796 4794 -4797 0
4796 -4794 4797 0
-4796 4794 4797 0
-4796 -4794 4798 0
4796 -4798 0
4794 -4798 0
-4631 -4795 4799 0
4631 -4799 0
4795 -4799 0
4798 4799 -4800 0
-4798 4800 0
-4799 4800 0
-130 -4701 4801 0
130 -4801 0
4701 -4801 0
-4637 -4801 -4802 0
4637 4801 -4802 0
4637 -4801 4802 0
-4637 4801 4802 0
-4802 -4800 -4803 0
4802 4800 -4803 0
4802 -4800 4803 0
-4802 4800 4803 0
-4802 -4800 4804 0
4802 -4804 0
4800 -4804 0
-4637 -4801 4805 0
4637 -4805 0
4801 -4805 0
4804 4805 -4806 0
-4804 4806 0
-4805 4806 0
-138 -4701 4807 0
138 -4807 0
4701 -4807 0
-4643 -4807 -4808 0
4643 4807 -4808 0
4643 -4807 4808 0
-4643 4807 4808 0
-4808 -4806 -4809 0
4808 4806 -4809 0
4808 -4806 4809 0
-4808 4806 4809 0
-4808 -4806 4810 0
4808 -4810 0
4806 -4810 0
-4643 -4807 4811 0
4643 -4811 0
4807 -4811 0
4810 4811 -4812 0
-4810 4812 0
-4811 4812 0
-146 -4701 4813 0
146 -4813 0
4701 -4813 0
-4649 -4813 -4814 0
4649 4813 -4814 0
4649 -4813 4814 0
-4649 4813 4814 0
-4814 -4812 -4815 0
4814 4812 -4815 0
4814 -4812 4815 0
-4814 4812 4815 0
-4814 -4812 4816 0
4814 -4816 0
4812 -4816 0
-4649 -4813 4817 0
4649 -4817 0
4813 -4817 0
4816 4817 -4818 0
-4816 4818 0
-4817 4818 0
-154 -4701 4819 0
154 -4819 0
4701 -4819 0
-4655 -4819 -4820 0
4655 4819 -4820 0
4655 -4819 4820 0
-4655 4819 4820 0
-4820 -4818 -4821 0
4820 4818 -4821 0
4820 -4818 4821 0
-4820 4818 4821 0
-4820 -4818 4822 0
4820 -4822 0
4818 -4822 0
-4655 -4819 4823 0
4655 -4823 0
4819 -4823 0
4822 4823 -4824 0
-4822 4824 0
-4823 4824 0
-162 -4701 4825 0
162 -4825 0
4701 -4825 0
-4661 -4825 -4826 0
4661 4825 -4826 0
4661 -4825 4826 0
-4661 4825 4826 0
-4826 -4824 -4827 0
4826 4824 -4827 0
4826 -4824 4827 0
-4826 4824 4827 0
-4826 -4824 4828 0
4826 -4828 0
4824 -4828 0
-4661 -4825 4829 0
4661 -4829 0
4825 -4829 0
4828 4829 -4830 0
-4828 4830 0
-4829 4830 0
-170 -4701 4831 0
170 -4831 0
4701 -4831 0
-4667 -4831 -4832 0
4667 4831 -4832 0
4667 -4831 4832 0
-4667 4831 4832 0
-4832 -4830 -4833 0
4832 4830 -4833 0
4832 -4830 4833 0
-4832 4830 4833 0
-4832 -4830 4834 0
4832 -4834 0
4830 -4834 0
-4667 -4831 4835 0
4667 -4835 0
4831 -4835 0
4834 4835 -4836 0
-4834 4836 0
-4835 4836 0
-178 -4701 4837 0
178 -4837 0
4701 -4837 0
-4673 -4837 -4838 0
4673 4837 -4838 0
4673 -4837 4838 0
-4673 4837 4838 0
-4838 -4836 -4839 0
4838 4836 -4839 0
4838 -4836 4839 0
-4838 4836 4839 0
-4838 -4836 4840 0
4838 -4840 0
4836 -4840 0
-4673 -4837 4841 0
4673 -4841 0
4837 -4841 0
4840 4841 -4842 0
-4840 4842 0
-4841 4842 0
-186 -4701 4843 0
186 -4843 0
4701 -4843 0
-4679 -4843 -4844 0
4679 4843 -4844 0
4679 -4843 4844 0
-4679 4843 4844 0
-4844 -4842 -4845 0
4844 4842 -4845 0
4844 -4842 4845 0
-4844 4842 4845 0
-4844 -4842 4846 0
4844 -4846 0
4842 -4846 0
-4679 -4843 4847 0
4679 -4847 0
4843 -4847 0
4846 4847 -4848 0
-4846 4848 0
-4847 4848 0
-194 -4701 4849 0
194 -4849 0
4701 -4849 0
-4685 -4849 -4850 0
4685 4849 -4850 0
4685 -4849 4850 0
-4685 4849 4850 0
-4850 -4848 -4851 0
4850 4848 -4851 0
4850 -4848 4851 0
-4850 4848 4851 0
-4850 -4848 4852 0
4850 -4852 0
4848 -4852 0
-4685 -4849 4853 0
4685 -4853 0
4849 -4853 0
4852 4853 -4854 0
-4852 4854 0
-4853 4854 0
-202 -4701 4855 0
202 -4855 0
4701 -4855 0
-4691 -4855 -4856 0
4691 4855 -4856 0
4691 -4855 4856 0
-4691 4855 4856 0
-4856 -4854 -4857 0
4856 4854 -4857 0
4856 -4854 4857 0
-4856 4854 4857 0
-4856 -4854 4858 0
4856 -4858 0
4854 -4858 0
-4691 -4855 4859 0
4691 -4859 0
4855 -4859 0
4858 4859 -4860 0
-4858 4860 0
-4859 4860 0
-210 -4701 4861 0
210 -4861 0
4701 -4861 0
-4697 -4861 -4862 0
4697 4861 -4862 0
4697 -4861 4862 0
-4697 4861 4862 0
-4862 -4860 -4863 0
4862 4860 -4863 0
4862 -4860 4863 0
-4862 4860 4863 0
-4862 -4860 4864 0
4862 -4864 0
4860 -4864 0
-4697 -4861 4865 0
4697 -4865 0
4861 -4865 0
4864 4865 -4866 0
-4864 4866 0
-4865 4866 0
-218 -4701 4867 0
218 -4867 0
4701 -4867 0
-4700 -4867 -4868 0
4700 4867 -4868 0
4700 -4867 4868 0
-4700 4867 4868 0
-4868 -4866 -4869 0
4868 4866 -4869 0
4868 -4866 4869 0
-4868 4866 4869 0
-4868 -4866 4870 0
4868 -4870 0
4866 -4870 0
-4700 -4867 4871 0
4700 -4871 0
4867 -4871 0
4870 4871 -4872 0
-4870 4872 0
-4871 4872 0
3 0
-8 0
231 0
-403 0
575 0
-747 0
-919 0
-1091 0
-1263 0
-1435 0
-1607 0
-1779 0
-1951 0
-2123 0
-2295 0
-2467 0
-2639 0
-2811 0
-2983 0
-3155 0
-3327 0
-3499 0
-3671 0
-3843 0
-4015 0
-4187 0
-4359 0
-4531 0
-4703 0
4707 0
-4713 0
4719 0
-4725 0
-4731 0
-4737 0
-4743 0
-4749 0
-4755 0
-4761 0
-4767 0
-4773 0
-4779 0
-4785 0
-4791 0
-4797 0
-4803 0
-4809 0
-4815 0
-4821 0
-4827 0
-4833 0
-4839 0
-4845 0
-4851 0
-4857 0
-4863 0
4869 0
-4872 0
