p cnf 5952 19680
-1 -2 3 0
1 -3 0
2 -3 0
-4 -2 5 0
4 -5 0
2 -5 0
-1 -6 7 0
1 -7 0
6 -7 0
-5 -7 -8 0
5 7 -8 0
5 -7 8 0
-5 7 8 0
-5 -7 9 0
5 -9 0
7 -9 0
-10 -2 11 0
10 -11 0
2 -11 0
-4 -6 12 0
4 -12 0
6 -12 0
-11 -12 -13 0
11 12 -13 0
11 -12 13 0
-11 12 13 0
-13 -9 -14 0
13 9 -14 0
13 -9 14 0
-13 9 14 0
-13 -9 15 0
13 -15 0
9 -15 0
-11 -12 16 0
11 -16 0
12 -16 0
15 16 -17 0
-15 17 0
-16 17 0
-18 -2 19 0
18 -19 0
2 -19 0
-10 -6 20 0
10 -20 0
6 -20 0
-19 -20 -21 0
19 20 -21 0
19 -20 21 0
-19 20 21 0
-21 -17 -22 0
21 17 -22 0
21 -17 22 0
-21 17 22 0
-21 -17 23 0
21 -23 0
17 -23 0
-19 -20 24 0
19 -24 0
20 -24 0
23 24 -25 0
-23 25 0
-24 25 0
-26 -2 27 0
26 -27 0
2 -27 0
-18 -6 28 0
18 -28 0
6 -28 0
-27 -28 -29 0
27 28 -29 0
27 -28 29 0
-27 28 29 0
-29 -25 -30 0
29 25 -30 0
29 -25 30 0
-29 25 30 0
-29 -25 31 0
29 -31 0
25 -31 0
-27 -28 32 0
27 -32 0
28 -32 0
31 32 -33 0
-31 33 0
-32 33 0
-34 -2 35 0
34 -35 0
2 -35 0
-26 -6 36 0
26 -36 0
6 -36 0
-35 -36 -37 0
35 36 -37 0
35 -36 37 0
-35 36 37 0
-37 -33 -38 0
37 33 -38 0
37 -33 38 0
-37 33 38 0
-37 -33 39 0
37 -39 0
33 -39 0
-35 -36 40 0
35 -40 0
36 -40 0
39 40 -41 0
-39 41 0
-40 41 0
-42 -2 43 0
42 -43 0
2 -43 0
-34 -6 44 0
34 -44 0
6 -44 0
-43 -44 -45 0
43 44 -45 0
43 -44 45 0
-43 44 45 0
-45 -41 -46 0
45 41 -46 0
45 -41 46 0
-45 41 46 0
-45 -41 47 0
45 -47 0
41 -47 0
-43 -44 48 0
43 -48 0
44 -48 0
47 48 -49 0
-47 49 0
-48 49 0
-50 -2 51 0
50 -51 0
2 -51 0
-42 -6 52 0
42 -52 0
6 -52 0
-51 -52 -53 0
51 52 -53 0
51 -52 53 0
-51 52 53 0
-53 -49 -54 0
53 49 -54 0
53 -49 54 0
-53 49 54 0
-53 -49 55 0
53 -55 0
49 -55 0
-51 -52 56 0
51 -56 0
52 -56 0
55 56 -57 0
-55 57 0
-56 57 0
-58 -2 59 0
58 -59 0
2 -59 0
-50 -6 60 0
50 -60 0
6 -60 0
-59 -60 -61 0
59 60 -61 0
59 -60 61 0
-59 60 61 0
-61 -57 -62 0
61 57 -62 0
61 -57 62 0
-61 57 62 0
-61 -57 63 0
61 -63 0
57 -63 0
-59 -60 64 0
59 -64 0
60 -64 0
63 64 -65 0
-63 65 0
-64 65 0
-66 -2 67 0
66 -67 0
2 -67 0
-58 -6 68 0
58 -68 0
6 -68 0
-67 -68 -69 0
67 68 -69 0
67 -68 69 0
-67 68 69 0
-69 -65 -70 0
69 65 -70 0
69 -65 70 0
-69 65 70 0
-69 -65 71 0
69 -71 0
65 -71 0
-67 -68 72 0
67 -72 0
68 -72 0
71 72 -73 0
-71 73 0
-72 73 0
-74 -2 75 0
74 -75 0
2 -75 0
-66 -6 76 0
66 -76 0
6 -76 0
-75 -76 -77 0
75 76 -77 0
75 -76 77 0
-75 76 77 0
-77 -73 -78 0
77 73 -78 0
77 -73 78 0
-77 73 78 0
-77 -73 79 0
77 -79 0
73 -79 0
-75 -76 80 0
75 -80 0
76 -80 0
79 80 -81 0
-79 81 0
-80 81 0
-82 -2 83 0
82 -83 0
2 -83 0
-74 -6 84 0
74 -84 0
6 -84 0
-83 -84 -85 0
83 84 -85 0
83 -84 85 0
-83 84 85 0
-85 -81 -86 0
85 81 -86 0
85 -81 86 0
-85 81 86 0
-85 -81 87 0
85 -87 0
81 -87 0
-83 -84 88 0
83 -88 0
84 -88 0
87 88 -89 0
-87 89 0
-88 89 0
-90 -2 91 0
90 -91 0
2 -91 0
-82 -6 92 0
82 -92 0
6 -92 0
-91 -92 -93 0
91 92 -93 0
91 -92 93 0
-91 92 93 0
-93 -89 -94 0
93 89 -94 0
93 -89 94 0
-93 89 94 0
-93 -89 95 0
93 -95 0
89 -95 0
-91 -92 96 0
91 -96 0
92 -96 0
95 96 -97 0
-95 97 0
-96 97 0
-98 -2 99 0
98 -99 0
2 -99 0
-90 -6 100 0
90 -100 0
6 -100 0
-99 -100 -101 0
99 100 -101 0
99 -100 101 0
-99 100 101 0
-101 -97 -102 0
101 97 -102 0
101 -97 102 0
-101 97 102 0
-101 -97 103 0
101 -103 0
97 -103 0
-99 -100 104 0
99 -104 0
100 -104 0
103 104 -105 0
-103 105 0
-104 105 0
-106 -2 107 0
106 -107 0
2 -107 0
-98 -6 108 0
98 -108 0
6 -108 0
-107 -108 -109 0
107 108 -109 0
107 -108 109 0
-107 108 109 0
-109 -105 -110 0
109 105 -110 0
109 -105 110 0
-109 105 110 0
-109 -105 111 0
109 -111 0
105 -111 0
-107 -108 112 0
107 -112 0
108 -112 0
111 112 -113 0
-111 113 0
-112 113 0
-114 -2 115 0
114 -115 0
2 -115 0
-106 -6 116 0
106 -116 0
6 -116 0
-115 -116 -117 0
115 116 -117 0
115 -116 117 0
-115 116 117 0
-117 -113 -118 0
117 113 -118 0
117 -113 118 0
-117 113 118 0
-117 -113 119 0
117 -119 0
113 -119 0
-115 -116 120 0
115 -120 0
116 -120 0
119 120 -121 0
-119 121 0
-120 121 0
-122 -2 123 0
122 -123 0
2 -123 0
-114 -6 124 0
114 -124 0
6 -124 0
-123 -124 -125 0
123 124 -125 0
123 -124 125 0
-123 124 125 0
-125 -121 -126 0
125 121 -126 0
125 -121 126 0
-125 121 126 0
-125 -121 127 0
125 -127 0
121 -127 0
-123 -124 128 0
123 -128 0
124 -128 0
127 128 -129 0
-127 129 0
-128 129 0
-130 -2 131 0
130 -131 0
2 -131 0
-122 -6 132 0
122 -132 0
6 -132 0
-131 -132 -133 0
131 132 -133 0
131 -132 133 0
-131 132 133 0
-133 -129 -134 0
133 129 -134 0
133 -129 134 0
-133 129 134 0
-133 -129 135 0
133 -135 0
129 -135 0
-131 -132 136 0
131 -136 0
132 -136 0
135 136 -137 0
-135 137 0
-136 137 0
-138 -2 139 0
138 -139 0
2 -139 0
-130 -6 140 0
130 -140 0
6 -140 0
-139 -140 -141 0
139 140 -141 0
139 -140 141 0
-139 140 141 0
-141 -137 -142 0
141 137 -142 0
141 -137 142 0
-141 137 142 0
-141 -137 143 0
141 -143 0
137 -143 0
-139 -140 144 0
139 -144 0
140 -144 0
143 144 -145 0
-143 145 0
-144 145 0
-146 -2 147 0
146 -147 0
2 -147 0
-138 -6 148 0
138 -148 0
6 -148 0
-147 -148 -149 0
147 148 -149 0
147 -148 149 0
-147 148 149 0
-149 -145 -150 0
149 145 -150 0
149 -145 150 0
-149 145 150 0
-149 -145 151 0
149 -151 0
145 -151 0
-147 -148 152 0
147 -152 0
148 -152 0
151 152 -153 0
-151 153 0
-152 153 0
-154 -2 155 0
154 -155 0
2 -155 0
-146 -6 156 0
146 -156 0
6 -156 0
-155 -156 -157 0
155 156 -157 0
155 -156 157 0
-155 156 157 0
-157 -153 -158 0
157 153 -158 0
157 -153 158 0
-157 153 158 0
-157 -153 159 0
157 -159 0
153 -159 0
-155 -156 160 0
155 -160 0
156 -160 0
159 160 -161 0
-159 161 0
-160 161 0
-162 -2 163 0
162 -163 0
2 -163 0
-154 -6 164 0
154 -164 0
6 -164 0
-163 -164 -165 0
163 164 -165 0
163 -164 165 0
-163 164 165 0
-165 -161 -166 0
165 161 -166 0
165 -161 166 0
-165 161 166 0
-165 -161 167 0
165 -167 0
161 -167 0
-163 -164 168 0
163 -168 0
164 -168 0
167 168 -169 0
-167 169 0
-168 169 0
-170 -2 171 0
170 -171 0
2 -171 0
-162 -6 172 0
162 -172 0
6 -172 0
-171 -172 -173 0
171 172 -173 0
171 -172 173 0
-171 172 173 0
-173 -169 -174 0
173 169 -174 0
173 -169 174 0
-173 169 174 0
-173 -169 175 0
173 -175 0
169 -175 0
-171 -172 176 0
171 -176 0
172 -176 0
175 176 -177 0
-175 177 0
-176 177 0
-178 -2 179 0
178 -179 0
2 -179 0
-170 -6 180 0
170 -180 0
6 -180 0
-179 -180 -181 0
179 180 -181 0
179 -180 181 0
-179 180 181 0
-181 -177 -182 0
181 177 -182 0
181 -177 182 0
-181 177 182 0
-181 -177 183 0
181 -183 0
177 -183 0
-179 -180 184 0
179 -184 0
180 -184 0
183 184 -185 0
-183 185 0
-184 185 0
-186 -2 187 0
186 -187 0
2 -187 0
-178 -6 188 0
178 -188 0
6 -188 0
-187 -188 -189 0
187 188 -189 0
187 -188 189 0
-187 188 189 0
-189 -185 -190 0
189 185 -190 0
189 -185 190 0
-189 185 190 0
-189 -185 191 0
189 -191 0
185 -191 0
-187 -188 192 0
187 -192 0
188 -192 0
191 192 -193 0
-191 193 0
-192 193 0
-194 -2 195 0
194 -195 0
2 -195 0
-186 -6 196 0
186 -196 0
6 -196 0
-195 -196 -197 0
195 196 -197 0
195 -196 197 0
-195 196 197 0
-197 -193 -198 0
197 193 -198 0
197 -193 198 0
-197 193 198 0
-197 -193 199 0
197 -199 0
193 -199 0
-195 -196 200 0
195 -200 0
196 -200 0
199 200 -201 0
-199 201 0
-200 201 0
-202 -2 203 0
202 -203 0
2 -203 0
-194 -6 204 0
194 -204 0
6 -204 0
-203 -204 -205 0
203 204 -205 0
203 -204 205 0
-203 204 205 0
-205 -201 -206 0
205 201 -206 0
205 -201 206 0
-205 201 206 0
-205 -201 207 0
205 -207 0
201 -207 0
-203 -204 208 0
203 -208 0
204 -208 0
207 208 -209 0
-207 209 0
-208 209 0
-210 -2 211 0
210 -211 0
2 -211 0
-202 -6 212 0
202 -212 0
6 -212 0
-211 -212 -213 0
211 212 -213 0
211 -212 213 0
-211 212 213 0
-213 -209 -214 0
213 209 -214 0
213 -209 214 0
-213 209 214 0
-213 -209 215 0
213 -215 0
209 -215 0
-211 -212 216 0
211 -216 0
212 -216 0
215 216 -217 0
-215 217 0
-216 217 0
-218 -2 219 0
218 -219 0
2 -219 0
-210 -6 220 0
210 -220 0
6 -220 0
-219 -220 -221 0
219 220 -221 0
219 -220 221 0
-219 220 221 0
-221 -217 -222 0
221 217 -222 0
221 -217 222 0
-221 217 222 0
-221 -217 223 0
221 -223 0
217 -223 0
-219 -220 224 0
219 -224 0
220 -224 0
223 224 -225 0
-223 225 0
-224 225 0
-226 -2 227 0
226 -227 0
2 -227 0
-218 -6 228 0
218 -228 0
6 -228 0
-227 -228 -229 0
227 228 -229 0
227 -228 229 0
-227 228 229 0
-229 -225 -230 0
229 225 -230 0
229 -225 230 0
-229 225 230 0
-229 -225 231 0
229 -231 0
225 -231 0
-227 -228 232 0
227 -232 0
228 -232 0
231 232 -233 0
-231 233 0
-232 233 0
-234 -2 235 0
234 -235 0
2 -235 0
-226 -6 236 0
226 -236 0
6 -236 0
-235 -236 -237 0
235 236 -237 0
235 -236 237 0
-235 236 237 0
-237 -233 -238 0
237 233 -238 0
237 -233 238 0
-237 233 238 0
-237 -233 239 0
237 -239 0
233 -239 0
-235 -236 240 0
235 -240 0
236 -240 0
239 240 -241 0
-239 241 0
-240 241 0
-242 -2 243 0
242 -243 0
2 -243 0
-234 -6 244 0
234 -244 0
6 -244 0
-243 -244 -245 0
243 244 -245 0
243 -244 245 0
-243 244 245 0
-245 -241 -246 0
245 241 -246 0
245 -241 246 0
-245 241 246 0
-245 -241 247 0
245 -247 0
241 -247 0
-243 -244 248 0
243 -248 0
244 -248 0
247 248 -249 0
-247 249 0
-248 249 0
-242 -6 250 0
242 -250 0
6 -250 0
-249 -250 -251 0
249 250 -251 0
249 -250 251 0
-249 250 251 0
-249 -250 252 0
249 -252 0
250 -252 0
-1 -253 254 0
1 -254 0
253 -254 0
-14 -254 -255 0
14 254 -255 0
14 -254 255 0
-14 254 255 0
-14 -254 256 0
14 -256 0
254 -256 0
-4 -253 257 0
4 -257 0
253 -257 0
-22 -257 -258 0
22 257 -258 0
22 -257 258 0
-22 257 258 0
-258 -256 -259 0
258 256 -259 0
258 -256 259 0
-258 256 259 0
-258 -256 260 0
258 -260 0
256 -260 0
-22 -257 261 0
22 -261 0
257 -261 0
260 261 -262 0
-260 262 0
-261 262 0
-10 -253 263 0
10 -263 0
253 -263 0
-30 -263 -264 0
30 263 -264 0
30 -263 264 0
-30 263 264 0
-264 -262 -265 0
264 262 -265 0
264 -262 265 0
-264 262 265 0
-264 -262 266 0
264 -266 0
262 -266 0
-30 -263 267 0
30 -267 0
263 -267 0
266 267 -268 0
-266 268 0
-267 268 0
-18 -253 269 0
18 -269 0
253 -269 0
-38 -269 -270 0
38 269 -270 0
38 -269 270 0
-38 269 270 0
-270 -268 -271 0
270 268 -271 0
270 -268 271 0
-270 268 271 0
-270 -268 272 0
270 -272 0
268 -272 0
-38 -269 273 0
38 -273 0
269 -273 0
272 273 -274 0
-272 274 0
-273 274 0
-26 -253 275 0
26 -275 0
253 -275 0
-46 -275 -276 0
46 275 -276 0
46 -275 276 0
-46 275 276 0
-276 -274 -277 0
276 274 -277 0
276 -274 277 0
-276 274 277 0
-276 -274 278 0
276 -278 0
274 -278 0
-46 -275 279 0
46 -279 0
275 -279 0
278 279 -280 0
-278 280 0
-279 280 0
-34 -253 281 0
34 -281 0
253 -281 0
-54 -281 -282 0
54 281 -282 0
54 -281 282 0
-54 281 282 0
-282 -280 -283 0
282 280 -283 0
282 -280 283 0
-282 280 283 0
-282 -280 284 0
282 -284 0
280 -284 0
-54 -281 285 0
54 -285 0
281 -285 0
284 285 -286 0
-284 286 0
-285 286 0
-42 -253 287 0
42 -287 0
253 -287 0
-62 -287 -288 0
62 287 -288 0
62 -287 288 0
-62 287 288 0
-288 -286 -289 0
288 286 -289 0
288 -286 289 0
-288 286 289 0
-288 -286 290 0
288 -290 0
286 -290 0
-62 -287 291 0
62 -291 0
287 -291 0
290 291 -292 0
-290 292 0
-291 292 0
-50 -253 293 0
50 -293 0
253 -293 0
-70 -293 -294 0
70 293 -294 0
70 -293 294 0
-70 293 294 0
-294 -292 -295 0
294 292 -295 0
294 -292 295 0
-294 292 295 0
-294 -292 296 0
294 -296 0
292 -296 0
-70 -293 297 0
70 -297 0
293 -297 0
296 297 -298 0
-296 298 0
-297 298 0
-58 -253 299 0
58 -299 0
253 -299 0
-78 -299 -300 0
78 299 -300 0
78 -299 300 0
-78 299 300 0
-300 -298 -301 0
300 298 -301 0
300 -298 301 0
-300 298 301 0
-300 -298 302 0
300 -302 0
298 -302 0
-78 -299 303 0
78 -303 0
299 -303 0
302 303 -304 0
-302 304 0
-303 304 0
-66 -253 305 0
66 -305 0
253 -305 0
-86 -305 -306 0
86 305 -306 0
86 -305 306 0
-86 305 306 0
-306 -304 -307 0
306 304 -307 0
306 -304 307 0
-306 304 307 0
-306 -304 308 0
306 -308 0
304 -308 0
-86 -305 309 0
86 -309 0
305 -309 0
308 309 -310 0
-308 310 0
-309 310 0
-74 -253 311 0
74 -311 0
253 -311 0
-94 -311 -312 0
94 311 -312 0
94 -311 312 0
-94 311 312 0
-312 -310 -313 0
312 310 -313 0
312 -310 313 0
-312 310 313 0
-312 -310 314 0
312 -314 0
310 -314 0
-94 -311 315 0
94 -315 0
311 -315 0
314 315 -316 0
-314 316 0
-315 316 0
-82 -253 317 0
82 -317 0
253 -317 0
-102 -317 -318 0
102 317 -318 0
102 -317 318 0
-102 317 318 0
-318 -316 -319 0
318 316 -319 0
318 -316 319 0
-318 316 319 0
-318 -316 320 0
318 -320 0
316 -320 0
-102 -317 321 0
102 -321 0
317 -321 0
320 321 -322 0
-320 322 0
-321 322 0
-90 -253 323 0
90 -323 0
253 -323 0
-110 -323 -324 0
110 323 -324 0
110 -323 324 0
-110 323 324 0
-324 -322 -325 0
324 322 -325 0
324 -322 325 0
-324 322 325 0
-324 -322 326 0
324 -326 0
322 -326 0
-110 -323 327 0
110 -327 0
323 -327 0
326 327 -328 0
-326 328 0
-327 328 0
-98 -253 329 0
98 -329 0
253 -329 0
-118 -329 -330 0
118 329 -330 0
118 -329 330 0
-118 329 330 0
-330 -328 -331 0
330 328 -331 0
330 -328 331 0
-330 328 331 0
-330 -328 332 0
330 -332 0
328 -332 0
-118 -329 333 0
118 -333 0
329 -333 0
332 333 -334 0
-332 334 0
-333 334 0
-106 -253 335 0
106 -335 0
253 -335 0
-126 -335 -336 0
126 335 -336 0
126 -335 336 0
-126 335 336 0
-336 -334 -337 0
336 334 -337 0
336 -334 337 0
-336 334 337 0
-336 -334 338 0
336 -338 0
334 -338 0
-126 -335 339 0
126 -339 0
335 -339 0
338 339 -340 0
-338 340 0
-339 340 0
-114 -253 341 0
114 -341 0
253 -341 0
-134 -341 -342 0
134 341 -342 0
134 -341 342 0
-134 341 342 0
-342 -340 -343 0
342 340 -343 0
342 -340 343 0
-342 340 343 0
-342 -340 344 0
342 -344 0
340 -344 0
-134 -341 345 0
134 -345 0
341 -345 0
344 345 -346 0
-344 346 0
-345 346 0
-122 -253 347 0
122 -347 0
253 -347 0
-142 -347 -348 0
142 347 -348 0
142 -347 348 0
-142 347 348 0
-348 -346 -349 0
348 346 -349 0
348 -346 349 0
-348 346 349 0
-348 -346 350 0
348 -350 0
346 -350 0
-142 -347 351 0
142 -351 0
347 -351 0
350 351 -352 0
-350 352 0
-351 352 0
-130 -253 353 0
130 -353 0
253 -353 0
-150 -353 -354 0
150 353 -354 0
150 -353 354 0
-150 353 354 0
-354 -352 -355 0
354 352 -355 0
354 -352 355 0
-354 352 355 0
-354 -352 356 0
354 -356 0
352 -356 0
-150 -353 357 0
150 -357 0
353 -357 0
356 357 -358 0
-356 358 0
-357 358 0
-138 -253 359 0
138 -359 0
253 -359 0
-158 -359 -360 0
158 359 -360 0
158 -359 360 0
-158 359 360 0
-360 -358 -361 0
360 358 -361 0
360 -358 361 0
-360 358 361 0
-360 -358 362 0
360 -362 0
358 -362 0
-158 -359 363 0
158 -363 0
359 -363 0
362 363 -364 0
-362 364 0
-363 364 0
-146 -253 365 0
146 -365 0
253 -365 0
-166 -365 -366 0
166 365 -366 0
166 -365 366 0
-166 365 366 0
-366 -364 -367 0
366 364 -367 0
366 -364 367 0
-366 364 367 0
-366 -364 368 0
366 -368 0
364 -368 0
-166 -365 369 0
166 -369 0
365 -369 0
368 369 -370 0
-368 370 0
-369 370 0
-154 -253 371 0
154 -371 0
253 -371 0
-174 -371 -372 0
174 371 -372 0
174 -371 372 0
-174 371 372 0
-372 -370 -373 0
372 370 -373 0
372 -370 373 0
-372 370 373 0
-372 -370 374 0
372 -374 0
370 -374 0
-174 -371 375 0
174 -375 0
371 -375 0
374 375 -376 0
-374 376 0
-375 376 0
-162 -253 377 0
162 -377 0
253 -377 0
-182 -377 -378 0
182 377 -378 0
182 -377 378 0
-182 377 378 0
-378 -376 -379 0
378 376 -379 0
378 -376 379 0
-378 376 379 0
-378 -376 380 0
378 -380 0
376 -380 0
-182 -377 381 0
182 -381 0
377 -381 0
380 381 -382 0
-380 382 0
-381 382 0
-170 -253 383 0
170 -383 0
253 -383 0
-190 -383 -384 0
190 383 -384 0
190 -383 384 0
-190 383 384 0
-384 -382 -385 0
384 382 -385 0
384 -382 385 0
-384 382 385 0
-384 -382 386 0
384 -386 0
382 -386 0
-190 -383 387 0
190 -387 0
383 -387 0
386 387 -388 0
-386 388 0
-387 388 0
-178 -253 389 0
178 -389 0
253 -389 0
-198 -389 -390 0
198 389 -390 0
198 -389 390 0
-198 389 390 0
-390 -388 -391 0
390 388 -391 0
390 -388 391 0
-390 388 391 0
-390 -388 392 0
390 -392 0
388 -392 0
-198 -389 393 0
198 -393 0
389 -393 0
392 393 -394 0
-392 394 0
-393 394 0
-186 -253 395 0
186 -395 0
253 -395 0
-206 -395 -396 0
206 395 -396 0
206 -395 396 0
-206 395 396 0
-396 -394 -397 0
396 394 -397 0
396 -394 397 0
-396 394 397 0
-396 -394 398 0
396 -398 0
394 -398 0
-206 -395 399 0
206 -399 0
395 -399 0
398 399 -400 0
-398 400 0
-399 400 0
-194 -253 401 0
194 -401 0
253 -401 0
-214 -401 -402 0
214 401 -402 0
214 -401 402 0
-214 401 402 0
-402 -400 -403 0
402 400 -403 0
402 -400 403 0
-402 400 403 0
-402 -400 404 0
402 -404 0
400 -404 0
-214 -401 405 0
214 -405 0
401 -405 0
404 405 -406 0
-404 406 0
-405 406 0
-202 -253 407 0
202 -407 0
253 -407 0
-222 -407 -408 0
222 407 -408 0
222 -407 408 0
-222 407 408 0
-408 -406 -409 0
408 406 -409 0
408 -406 409 0
-408 406 409 0
-408 -406 410 0
408 -410 0
406 -410 0
-222 -407 411 0
222 -411 0
407 -411 0
410 411 -412 0
-410 412 0
-411 412 0
-210 -253 413 0
210 -413 0
253 -413 0
-230 -413 -414 0
230 413 -414 0
230 -413 414 0
-230 413 414 0
-414 -412 -415 0
414 412 -415 0
414 -412 415 0
-414 412 415 0
-414 -412 416 0
414 -416 0
412 -416 0
-230 -413 417 0
230 -417 0
413 -417 0
416 417 -418 0
-416 418 0
-417 418 0
-218 -253 419 0
218 -419 0
253 -419 0
-238 -419 -420 0
238 419 -420 0
238 -419 420 0
-238 419 420 0
-420 -418 -421 0
420 418 -421 0
420 -418 421 0
-420 418 421 0
-420 -418 422 0
420 -422 0
418 -422 0
-238 -419 423 0
238 -423 0
419 -423 0
422 423 -424 0
-422 424 0
-423 424 0
-226 -253 425 0
226 -425 0
253 -425 0
-246 -425 -426 0
246 425 -426 0
246 -425 426 0
-246 425 426 0
-426 -424 -427 0
426 424 -427 0
426 -424 427 0
-426 424 427 0
-426 -424 428 0
426 -428 0
424 -428 0
-246 -425 429 0
246 -429 0
425 -429 0
428 429 -430 0
-428 430 0
-429 430 0
-234 -253 431 0
234 -431 0
253 -431 0
-251 -431 -432 0
251 431 -432 0
251 -431 432 0
-251 431 432 0
-432 -430 -433 0
432 430 -433 0
432 -430 433 0
-432 430 433 0
-432 -430 434 0
432 -434 0
430 -434 0
-251 -431 435 0
251 -435 0
431 -435 0
434 435 -436 0
-434 436 0
-435 436 0
-242 -253 437 0
242 -437 0
253 -437 0
-252 -437 -438 0
252 437 -438 0
252 -437 438 0
-252 437 438 0
-438 -436 -439 0
438 436 -439 0
438 -436 439 0
-438 436 439 0
-438 -436 440 0
438 -440 0
436 -440 0
-252 -437 441 0
252 -441 0
437 -441 0
440 441 -442 0
-440 442 0
-441 442 0
-1 -443 444 0
1 -444 0
443 -444 0
-259 -444 -445 0
259 444 -445 0
259 -444 445 0
-259 444 445 0
-259 -444 446 0
259 -446 0
444 -446 0
-4 -443 447 0
4 -447 0
443 -447 0
-265 -447 -448 0
265 447 -448 0
265 -447 448 0
-265 447 448 0
-448 -446 -449 0
448 446 -449 0
448 -446 449 0
-448 446 449 0
-448 -446 450 0
448 -450 0
446 -450 0
-265 -447 451 0
265 -451 0
447 -451 0
450 451 -452 0
-450 452 0
-451 452 0
-10 -443 453 0
10 -453 0
443 -453 0
-271 -453 -454 0
271 453 -454 0
271 -453 454 0
-271 453 454 0
-454 -452 -455 0
454 452 -455 0
454 -452 455 0
-454 452 455 0
-454 -452 456 0
454 -456 0
452 -456 0
-271 -453 457 0
271 -457 0
453 -457 0
456 457 -458 0
-456 458 0
-457 458 0
-18 -443 459 0
18 -459 0
443 -459 0
-277 -459 -460 0
277 459 -460 0
277 -459 460 0
-277 459 460 0
-460 -458 -461 0
460 458 -461 0
460 -458 461 0
-460 458 461 0
-460 -458 462 0
460 -462 0
458 -462 0
-277 -459 463 0
277 -463 0
459 -463 0
462 463 -464 0
-462 464 0
-463 464 0
-26 -443 465 0
26 -465 0
443 -465 0
-283 -465 -466 0
283 465 -466 0
283 -465 466 0
-283 465 466 0
-466 -464 -467 0
466 464 -467 0
466 -464 467 0
-466 464 467 0
-466 -464 468 0
466 -468 0
464 -468 0
-283 -465 469 0
283 -469 0
465 -469 0
468 469 -470 0
-468 470 0
-469 470 0
-34 -443 471 0
34 -471 0
443 -471 0
-289 -471 -472 0
289 471 -472 0
289 -471 472 0
-289 471 472 0
-472 -470 -473 0
472 470 -473 0
472 -470 473 0
-472 470 473 0
-472 -470 474 0
472 -474 0
470 -474 0
-289 -471 475 0
289 -475 0
471 -475 0
474 475 -476 0
-474 476 0
-475 476 0
-42 -443 477 0
42 -477 0
443 -477 0
-295 -477 -478 0
295 477 -478 0
295 -477 478 0
-295 477 478 0
-478 -476 -479 0
478 476 -479 0
478 -476 479 0
-478 476 479 0
-478 -476 480 0
478 -480 0
476 -480 0
-295 -477 481 0
295 -481 0
477 -481 0
480 481 -482 0
-480 482 0
-481 482 0
-50 -443 483 0
50 -483 0
443 -483 0
-301 -483 -484 0
301 483 -484 0
301 -483 484 0
-301 483 484 0
-484 -482 -485 0
484 482 -485 0
484 -482 485 0
-484 482 485 0
-484 -482 486 0
484 -486 0
482 -486 0
-301 -483 487 0
301 -487 0
483 -487 0
486 487 -488 0
-486 488 0
-487 488 0
-58 -443 489 0
58 -489 0
443 -489 0
-307 -489 -490 0
307 489 -490 0
307 -489 490 0
-307 489 490 0
-490 -488 -491 0
490 488 -491 0
490 -488 491 0
-490 488 491 0
-490 -488 492 0
490 -492 0
488 -492 0
-307 -489 493 0
307 -493 0
489 -493 0
492 493 -494 0
-492 494 0
-493 494 0
-66 -443 495 0
66 -495 0
443 -495 0
-313 -495 -496 0
313 495 -496 0
313 -495 496 0
-313 495 496 0
-496 -494 -497 0
496 494 -497 0
496 -494 497 0
-496 494 497 0
-496 -494 498 0
496 -498 0
494 -498 0
-313 -495 499 0
313 -499 0
495 -499 0
498 499 -500 0
-498 500 0
-499 500 0
-74 -443 501 0
74 -501 0
443 -501 0
-319 -501 -502 0
319 501 -502 0
319 -501 502 0
-319 501 502 0
-502 -500 -503 0
502 500 -503 0
502 -500 503 0
-502 500 503 0
-502 -500 504 0
502 -504 0
500 -504 0
-319 -501 505 0
319 -505 0
501 -505 0
504 505 -506 0
-504 506 0
-505 506 0
-82 -443 507 0
82 -507 0
443 -507 0
-325 -507 -508 0
325 507 -508 0
325 -507 508 0
-325 507 508 0
-508 -506 -509 0
508 506 -509 0
508 -506 509 0
-508 506 509 0
-508 -506 510 0
508 -510 0
506 -510 0
-325 -507 511 0
325 -511 0
507 -511 0
510 511 -512 0
-510 512 0
-511 512 0
-90 -443 513 0
90 -513 0
443 -513 0
-331 -513 -514 0
331 513 -514 0
331 -513 514 0
-331 513 514 0
-514 -512 -515 0
514 512 -515 0
514 -512 515 0
-514 512 515 0
-514 -512 516 0
514 -516 0
512 -516 0
-331 -513 517 0
331 -517 0
513 -517 0
516 517 -518 0
-516 518 0
-517 518 0
-98 -443 519 0
98 -519 0
443 -519 0
-337 -519 -520 0
337 519 -520 0
337 -519 520 0
-337 519 520 0
-520 -518 -521 0
520 518 -521 0
520 -518 521 0
-520 518 521 0
-520 -518 522 0
520 -522 0
518 -522 0
-337 -519 523 0
337 -523 0
519 -523 0
522 523 -524 0
-522 524 0
-523 524 0
-106 -443 525 0
106 -525 0
443 -525 0
-343 -525 -526 0
343 525 -526 0
343 -525 526 0
-343 525 526 0
-526 -524 -527 0
526 524 -527 0
526 -524 527 0
-526 524 527 0
-526 -524 528 0
526 -528 0
524 -528 0
-343 -525 529 0
343 -529 0
525 -529 0
528 529 -530 0
-528 530 0
-529 530 0
-114 -443 531 0
114 -531 0
443 -531 0
-349 -531 -532 0
349 531 -532 0
349 -531 532 0
-349 531 532 0
-532 -530 -533 0
532 530 -533 0
532 -530 533 0
-532 530 533 0
-532 -530 534 0
532 -534 0
530 -534 0
-349 -531 535 0
349 -535 0
531 -535 0
534 535 -536 0
-534 536 0
-535 536 0
-122 -443 537 0
122 -537 0
443 -537 0
-355 -537 -538 0
355 537 -538 0
355 -537 538 0
-355 537 538 0
-538 -536 -539 0
538 536 -539 0
538 -536 539 0
-538 536 539 0
-538 -536 540 0
538 -540 0
536 -540 0
-355 -537 541 0
355 -541 0
537 -541 0
540 541 -542 0
-540 542 0
-541 542 0
-130 -443 543 0
130 -543 0
443 -543 0
-361 -543 -544 0
361 543 -544 0
361 -543 544 0
-361 543 544 0
-544 -542 -545 0
544 542 -545 0
544 -542 545 0
-544 542 545 0
-544 -542 546 0
544 -546 0
542 -546 0
-361 -543 547 0
361 -547 0
543 -547 0
546 547 -548 0
-546 548 0
-547 548 0
-138 -443 549 0
138 -549 0
443 -549 0
-367 -549 -550 0
367 549 -550 0
367 -549 550 0
-367 549 550 0
-550 -548 -551 0
550 548 -551 0
550 -548 551 0
-550 548 551 0
-550 -548 552 0
550 -552 0
548 -552 0
-367 -549 553 0
367 -553 0
549 -553 0
552 553 -554 0
-552 554 0
-553 554 0
-146 -443 555 0
146 -555 0
443 -555 0
-373 -555 -556 0
373 555 -556 0
373 -555 556 0
-373 555 556 0
-556 -554 -557 0
556 554 -557 0
556 -554 557 0
-556 554 557 0
-556 -554 558 0
556 -558 0
554 -558 0
-373 -555 559 0
373 -559 0
555 -559 0
558 559 -560 0
-558 560 0
-559 560 0
-154 -443 561 0
154 -561 0
443 -561 0
-379 -561 -562 0
379 561 -562 0
379 -561 562 0
-379 561 562 0
-562 -560 -563 0
562 560 -563 0
562 -560 563 0
-562 560 563 0
-562 -560 564 0
562 -564 0
560 -564 0
-379 -561 565 0
379 -565 0
561 -565 0
564 565 -566 0
-564 566 0
-565 566 0
-162 -443 567 0
162 -567 0
443 -567 0
-385 -567 -568 0
385 567 -568 0
385 -567 568 0
-385 567 568 0
-568 -566 -569 0
568 566 -569 0
568 -566 569 0
-568 566 569 0
-568 -566 570 0
568 -570 0
566 -570 0
-385 -567 571 0
385 -571 0
567 -571 0
570 571 -572 0
-570 572 0
-571 572 0
-170 -443 573 0
170 -573 0
443 -573 0
-391 -573 -574 0
391 573 -574 0
391 -573 574 0
-391 573 574 0
-574 -572 -575 0
574 572 -575 0
574 -572 575 0
-574 572 575 0
-574 -572 576 0
574 -576 0
572 -576 0
-391 -573 577 0
391 -577 0
573 -577 0
576 577 -578 0
-576 578 0
-577 578 0
-178 -443 579 0
178 -579 0
443 -579 0
-397 -579 -580 0
397 579 -580 0
397 -579 580 0
-397 579 580 0
-580 -578 -581 0
580 578 -581 0
580 -578 581 0
-580 578 581 0
-580 -578 582 0
580 -582 0
578 -582 0
-397 -579 583 0
397 -583 0
579 -583 0
582 583 -584 0
-582 584 0
-583 584 0
-186 -443 585 0
186 -585 0
443 -585 0
-403 -585 -586 0
403 585 -586 0
403 -585 586 0
-403 585 586 0
-586 -584 -587 0
586 584 -587 0
586 -584 587 0
-586 584 587 0
-586 -584 588 0
586 -588 0
584 -588 0
-403 -585 589 0
403 -589 0
585 -589 0
588 589 -590 0
-588 590 0
-589 590 0
-194 -443 591 0
194 -591 0
443 -591 0
-409 -591 -592 0
409 591 -592 0
409 -591 592 0
-409 591 592 0
-592 -590 -593 0
592 590 -593 0
592 -590 593 0
-592 590 593 0
-592 -590 594 0
592 -594 0
590 -594 0
-409 -591 595 0
409 -595 0
591 -595 0
594 595 -596 0
-594 596 0
-595 596 0
-202 -443 597 0
202 -597 0
443 -597 0
-415 -597 -598 0
415 597 -598 0
415 -597 598 0
-415 597 598 0
-598 -596 -599 0
598 596 -599 0
598 -596 599 0
-598 596 599 0
-598 -596 600 0
598 -600 0
596 -600 0
-415 -597 601 0
415 -601 0
597 -601 0
600 601 -602 0
-600 602 0
-601 602 0
-210 -443 603 0
210 -603 0
443 -603 0
-421 -603 -604 0
421 603 -604 0
421 -603 604 0
-421 603 604 0
-604 -602 -605 0
604 602 -605 0
604 -602 605 0
-604 602 605 0
-604 -602 606 0
604 -606 0
602 -606 0
-421 -603 607 0
421 -607 0
603 -607 0
606 607 -608 0
-606 608 0
-607 608 0
-218 -443 609 0
218 -609 0
443 -609 0
-427 -609 -610 0
427 609 -610 0
427 -609 610 0
-427 609 610 0
-610 -608 -611 0
610 608 -611 0
610 -608 611 0
-610 608 611 0
-610 -608 612 0
610 -612 0
608 -612 0
-427 -609 613 0
427 -613 0
609 -613 0
612 613 -614 0
-612 614 0
-613 614 0
-226 -443 615 0
226 -615 0
443 -615 0
-433 -615 -616 0
433 615 -616 0
433 -615 616 0
-433 615 616 0
-616 -614 -617 0
616 614 -617 0
616 -614 617 0
-616 614 617 0
-616 -614 618 0
616 -618 0
614 -618 0
-433 -615 619 0
433 -619 0
615 -619 0
618 619 -620 0
-618 620 0
-619 620 0
-234 -443 621 0
234 -621 0
443 -621 0
-439 -621 -622 0
439 621 -622 0
439 -621 622 0
-439 621 622 0
-622 -620 -623 0
622 620 -623 0
622 -620 623 0
-622 620 623 0
-622 -620 624 0
622 -624 0
620 -624 0
-439 -621 625 0
439 -625 0
621 -625 0
624 625 -626 0
-624 626 0
-625 626 0
-242 -443 627 0
242 -627 0
443 -627 0
-442 -627 -628 0
442 627 -628 0
442 -627 628 0
-442 627 628 0
-628 -626 -629 0
628 626 -629 0
628 -626 629 0
-628 626 629 0
-628 -626 630 0
628 -630 0
626 -630 0
-442 -627 631 0
442 -631 0
627 -631 0
630 631 -632 0
-630 632 0
-631 632 0
-1 -633 634 0
1 -634 0
633 -634 0
-449 -634 -635 0
449 634 -635 0
449 -634 635 0
-449 634 635 0
-449 -634 636 0
449 -636 0
634 -636 0
-4 -633 637 0
4 -637 0
633 -637 0
-455 -637 -638 0
455 637 -638 0
455 -637 638 0
-455 637 638 0
-638 -636 -639 0
638 636 -639 0
638 -636 639 0
-638 636 639 0
-638 -636 640 0
638 -640 0
636 -640 0
-455 -637 641 0
455 -641 0
637 -641 0
640 641 -642 0
-640 642 0
-641 642 0
-10 -633 643 0
10 -643 0
633 -643 0
-461 -643 -644 0
461 643 -644 0
461 -643 644 0
-461 643 644 0
-644 -642 -645 0
644 642 -645 0
644 -642 645 0
-644 642 645 0
-644 -642 646 0
644 -646 0
642 -646 0
-461 -643 647 0
461 -647 0
643 -647 0
646 647 -648 0
-646 648 0
-647 648 0
-18 -633 649 0
18 -649 0
633 -649 0
-467 -649 -650 0
467 649 -650 0
467 -649 650 0
-467 649 650 0
-650 -648 -651 0
650 648 -651 0
650 -648 651 0
-650 648 651 0
-650 -648 652 0
650 -652 0
648 -652 0
-467 -649 653 0
467 -653 0
649 -653 0
652 653 -654 0
-652 654 0
-653 654 0
-26 -633 655 0
26 -655 0
633 -655 0
-473 -655 -656 0
473 655 -656 0
473 -655 656 0
-473 655 656 0
-656 -654 -657 0
656 654 -657 0
656 -654 657 0
-656 654 657 0
-656 -654 658 0
656 -658 0
654 -658 0
-473 -655 659 0
473 -659 0
655 -659 0
658 659 -660 0
-658 660 0
-659 660 0
-34 -633 661 0
34 -661 0
633 -661 0
-479 -661 -662 0
479 661 -662 0
479 -661 662 0
-479 661 662 0
-662 -660 -663 0
662 660 -663 0
662 -660 663 0
-662 660 663 0
-662 -660 664 0
662 -664 0
660 -664 0
-479 -661 665 0
479 -665 0
661 -665 0
664 665 -666 0
-664 666 0
-665 666 0
-42 -633 667 0
42 -667 0
633 -667 0
-485 -667 -668 0
485 667 -668 0
485 -667 668 0
-485 667 668 0
-668 -666 -669 0
668 666 -669 0
668 -666 669 0
-668 666 669 0
-668 -666 670 0
668 -670 0
666 -670 0
-485 -667 671 0
485 -671 0
667 -671 0
670 671 -672 0
-670 672 0
-671 672 0
-50 -633 673 0
50 -673 0
633 -673 0
-491 -673 -674 0
491 673 -674 0
491 -673 674 0
-491 673 674 0
-674 -672 -675 0
674 672 -675 0
674 -672 675 0
-674 672 675 0
-674 -672 676 0
674 -676 0
672 -676 0
-491 -673 677 0
491 -677 0
673 -677 0
676 677 -678 0
-676 678 0
-677 678 0
-58 -633 679 0
58 -679 0
633 -679 0
-497 -679 -680 0
497 679 -680 0
497 -679 680 0
-497 679 680 0
-680 -678 -681 0
680 678 -681 0
680 -678 681 0
-680 678 681 0
-680 -678 682 0
680 -682 0
678 -682 0
-497 -679 683 0
497 -683 0
679 -683 0
682 683 -684 0
-682 684 0
-683 684 0
-66 -633 685 0
66 -685 0
633 -685 0
-503 -685 -686 0
503 685 -686 0
503 -685 686 0
-503 685 686 0
-686 -684 -687 0
686 684 -687 0
686 -684 687 0
-686 684 687 0
-686 -684 688 0
686 -688 0
684 -688 0
-503 -685 689 0
503 -689 0
685 -689 0
688 689 -690 0
-688 690 0
-689 690 0
-74 -633 691 0
74 -691 0
633 -691 0
-509 -691 -692 0
509 691 -692 0
509 -691 692 0
-509 691 692 0
-692 -690 -693 0
692 690 -693 0
692 -690 693 0
-692 690 693 0
-692 -690 694 0
692 -694 0
690 -694 0
-509 -691 695 0
509 -695 0
691 -695 0
694 695 -696 0
-694 696 0
-695 696 0
-82 -633 697 0
82 -697 0
633 -697 0
-515 -697 -698 0
515 697 -698 0
515 -697 698 0
-515 697 698 0
-698 -696 -699 0
698 696 -699 0
698 -696 699 0
-698 696 699 0
-698 -696 700 0
698 -700 0
696 -700 0
-515 -697 701 0
515 -701 0
697 -701 0
700 701 -702 0
-700 702 0
-701 702 0
-90 -633 703 0
90 -703 0
633 -703 0
-521 -703 -704 0
521 703 -704 0
521 -703 704 0
-521 703 704 0
-704 -702 -705 0
704 702 -705 0
704 -702 705 0
-704 702 705 0
-704 -702 706 0
704 -706 0
702 -706 0
-521 -703 707 0
521 -707 0
703 -707 0
706 707 -708 0
-706 708 0
-707 708 0
-98 -633 709 0
98 -709 0
633 -709 0
-527 -709 -710 0
527 709 -710 0
527 -709 710 0
-527 709 710 0
-710 -708 -711 0
710 708 -711 0
710 -708 711 0
-710 708 711 0
-710 -708 712 0
710 -712 0
708 -712 0
-527 -709 713 0
527 -713 0
709 -713 0
712 713 -714 0
-712 714 0
-713 714 0
-106 -633 715 0
106 -715 0
633 -715 0
-533 -715 -716 0
533 715 -716 0
533 -715 716 0
-533 715 716 0
-716 -714 -717 0
716 714 -717 0
716 -714 717 0
-716 714 717 0
-716 -714 718 0
716 -718 0
714 -718 0
-533 -715 719 0
533 -719 0
715 -719 0
718 719 -720 0
-718 720 0
-719 720 0
-114 -633 721 0
114 -721 0
633 -721 0
-539 -721 -722 0
539 721 -722 0
539 -721 722 0
-539 721 722 0
-722 -720 -723 0
722 720 -723 0
722 -720 723 0
-722 720 723 0
-722 -720 724 0
722 -724 0
720 -724 0
-539 -721 725 0
539 -725 0
721 -725 0
724 725 -726 0
-724 726 0
-725 726 0
-122 -633 727 0
122 -727 0
633 -727 0
-545 -727 -728 0
545 727 -728 0
545 -727 728 0
-545 727 728 0
-728 -726 -729 0
728 726 -729 0
728 -726 729 0
-728 726 729 0
-728 -726 730 0
728 -730 0
726 -730 0
-545 -727 731 0
545 -731 0
727 -731 0
730 731 -732 0
-730 732 0
-731 732 0
-130 -633 733 0
130 -733 0
633 -733 0
-551 -733 -734 0
551 733 -734 0
551 -733 734 0
-551 733 734 0
-734 -732 -735 0
734 732 -735 0
734 -732 735 0
-734 732 735 0
-734 -732 736 0
734 -736 0
732 -736 0
-551 -733 737 0
551 -737 0
733 -737 0
736 737 -738 0
-736 738 0
-737 738 0
-138 -633 739 0
138 -739 0
633 -739 0
-557 -739 -740 0
557 739 -740 0
557 -739 740 0
-557 739 740 0
-740 -738 -741 0
740 738 -741 0
740 -738 741 0
-740 738 741 0
-740 -738 742 0
740 -742 0
738 -742 0
-557 -739 743 0
557 -743 0
739 -743 0
742 743 -744 0
-742 744 0
-743 744 0
-146 -633 745 0
146 -745 0
633 -745 0
-563 -745 -746 0
563 745 -746 0
563 -745 746 0
-563 745 746 0
-746 -744 -747 0
746 744 -747 0
746 -744 747 0
-746 744 747 0
-746 -744 748 0
746 -748 0
744 -748 0
-563 -745 749 0
563 -749 0
745 -749 0
748 749 -750 0
-748 750 0
-749 750 0
-154 -633 751 0
154 -751 0
633 -751 0
-569 -751 -752 0
569 751 -752 0
569 -751 752 0
-569 751 752 0
-752 -750 -753 0
752 750 -753 0
752 -750 753 0
-752 750 753 0
-752 -750 754 0
752 -754 0
750 -754 0
-569 -751 755 0
569 -755 0
751 -755 0
754 755 -756 0
-754 756 0
-755 756 0
-162 -633 757 0
162 -757 0
633 -757 0
-575 -757 -758 0
575 757 -758 0
575 -757 758 0
-575 757 758 0
-758 -756 -759 0
758 756 -759 0
758 -756 759 0
-758 756 759 0
-758 -756 760 0
758 -760 0
756 -760 0
-575 -757 761 0
575 -761 0
757 -761 0
760 761 -762 0
-760 762 0
-761 762 0
-170 -633 763 0
170 -763 0
633 -763 0
-581 -763 -764 0
581 763 -764 0
581 -763 764 0
-581 763 764 0
-764 -762 -765 0
764 762 -765 0
764 -762 765 0
-764 762 765 0
-764 -762 766 0
764 -766 0
762 -766 0
-581 -763 767 0
581 -767 0
763 -767 0
766 767 -768 0
-766 768 0
-767 768 0
-178 -633 769 0
178 -769 0
633 -769 0
-587 -769 -770 0
587 769 -770 0
587 -769 770 0
-587 769 770 0
-770 -768 -771 0
770 768 -771 0
770 -768 771 0
-770 768 771 0
-770 -768 772 0
770 -772 0
768 -772 0
-587 -769 773 0
587 -773 0
769 -773 0
772 773 -774 0
-772 774 0
-773 774 0
-186 -633 775 0
186 -775 0
633 -775 0
-593 -775 -776 0
593 775 -776 0
593 -775 776 0
-593 775 776 0
-776 -774 -777 0
776 774 -777 0
776 -774 777 0
-776 774 777 0
-776 -774 778 0
776 -778 0
774 -778 0
-593 -775 779 0
593 -779 0
775 -779 0
778 779 -780 0
-778 780 0
-779 780 0
-194 -633 781 0
194 -781 0
633 -781 0
-599 -781 -782 0
599 781 -782 0
599 -781 782 0
-599 781 782 0
-782 -780 -783 0
782 780 -783 0
782 -780 783 0
-782 780 783 0
-782 -780 784 0
782 -784 0
780 -784 0
-599 -781 785 0
599 -785 0
781 -785 0
784 785 -786 0
-784 786 0
-785 786 0
-202 -633 787 0
202 -787 0
633 -787 0
-605 -787 -788 0
605 787 -788 0
605 -787 788 0
-605 787 788 0
-788 -786 -789 0
788 786 -789 0
788 -786 789 0
-788 786 789 0
-788 -786 790 0
788 -790 0
786 -790 0
-605 -787 791 0
605 -791 0
787 -791 0
790 791 -792 0
-790 792 0
-791 792 0
-210 -633 793 0
210 -793 0
633 -793 0
-611 -793 -794 0
611 793 -794 0
611 -793 794 0
-611 793 794 0
-794 -792 -795 0
794 792 -795 0
794 -792 795 0
-794 792 795 0
-794 -792 796 0
794 -796 0
792 -796 0
-611 -793 797 0
611 -797 0
793 -797 0
796 797 -798 0
-796 798 0
-797 798 0
-218 -633 799 0
218 -799 0
633 -799 0
-617 -799 -800 0
617 799 -800 0
617 -799 800 0
-617 799 800 0
-800 -798 -801 0
800 798 -801 0
800 -798 801 0
-800 798 801 0
-800 -798 802 0
800 -802 0
798 -802 0
-617 -799 803 0
617 -803 0
799 -803 0
802 803 -804 0
-802 804 0
-803 804 0
-226 -633 805 0
226 -805 0
633 -805 0
-623 -805 -806 0
623 805 -806 0
623 -805 806 0
-623 805 806 0
-806 -804 -807 0
806 804 -807 0
806 -804 807 0
-806 804 807 0
-806 -804 808 0
806 -808 0
804 -808 0
-623 -805 809 0
623 -809 0
805 -809 0
808 809 -810 0
-808 810 0
-809 810 0
-234 -633 811 0
234 -811 0
633 -811 0
-629 -811 -812 0
629 811 -812 0
629 -811 812 0
-629 811 812 0
-812 -810 -813 0
812 810 -813 0
812 -810 813 0
-812 810 813 0
-812 -810 814 0
812 -814 0
810 -814 0
-629 -811 815 0
629 -815 0
811 -815 0
814 815 -816 0
-814 816 0
-815 816 0
-242 -633 817 0
242 -817 0
633 -817 0
-632 -817 -818 0
632 817 -818 0
632 -817 818 0
-632 817 818 0
-818 -816 -819 0
818 816 -819 0
818 -816 819 0
-818 816 819 0
-818 -816 820 0
818 -820 0
816 -820 0
-632 -817 821 0
632 -821 0
817 -821 0
820 821 -822 0
-820 822 0
-821 822 0
-1 -823 824 0
1 -824 0
823 -824 0
-639 -824 -825 0
639 824 -825 0
639 -824 825 0
-639 824 825 0
-639 -824 826 0
639 -826 0
824 -826 0
-4 -823 827 0
4 -827 0
823 -827 0
-645 -827 -828 0
645 827 -828 0
645 -827 828 0
-645 827 828 0
-828 -826 -829 0
828 826 -829 0
828 -826 829 0
-828 826 829 0
-828 -826 830 0
828 -830 0
826 -830 0
-645 -827 831 0
645 -831 0
827 -831 0
830 831 -832 0
-830 832 0
-831 832 0
-10 -823 833 0
10 -833 0
823 -833 0
-651 -833 -834 0
651 833 -834 0
651 -833 834 0
-651 833 834 0
-834 -832 -835 0
834 832 -835 0
834 -832 835 0
-834 832 835 0
-834 -832 836 0
834 -836 0
832 -836 0
-651 -833 837 0
651 -837 0
833 -837 0
836 837 -838 0
-836 838 0
-837 838 0
-18 -823 839 0
18 -839 0
823 -839 0
-657 -839 -840 0
657 839 -840 0
657 -839 840 0
-657 839 840 0
-840 -838 -841 0
840 838 -841 0
840 -838 841 0
-840 838 841 0
-840 -838 842 0
840 -842 0
838 -842 0
-657 -839 843 0
657 -843 0
839 -843 0
842 843 -844 0
-842 844 0
-843 844 0
-26 -823 845 0
26 -845 0
823 -845 0
-663 -845 -846 0
663 845 -846 0
663 -845 846 0
-663 845 846 0
-846 -844 -847 0
846 844 -847 0
846 -844 847 0
-846 844 847 0
-846 -844 848 0
846 -848 0
844 -848 0
-663 -845 849 0
663 -849 0
845 -849 0
848 849 -850 0
-848 850 0
-849 850 0
-34 -823 851 0
34 -851 0
823 -851 0
-669 -851 -852 0
669 851 -852 0
669 -851 852 0
-669 851 852 0
-852 -850 -853 0
852 850 -853 0
852 -850 853 0
-852 850 853 0
-852 -850 854 0
852 -854 0
850 -854 0
-669 -851 855 0
669 -855 0
851 -855 0
854 855 -856 0
-854 856 0
-855 856 0
-42 -823 857 0
42 -857 0
823 -857 0
-675 -857 -858 0
675 857 -858 0
675 -857 858 0
-675 857 858 0
-858 -856 -859 0
858 856 -859 0
858 -856 859 0
-858 856 859 0
-858 -856 860 0
858 -860 0
856 -860 0
-675 -857 861 0
675 -861 0
857 -861 0
860 861 -862 0
-860 862 0
-861 862 0
-50 -823 863 0
50 -863 0
823 -863 0
-681 -863 -864 0
681 863 -864 0
681 -863 864 0
-681 863 864 0
-864 -862 -865 0
864 862 -865 0
864 -862 865 0
-864 862 865 0
-864 -862 866 0
864 -866 0
862 -866 0
-681 -863 867 0
681 -867 0
863 -867 0
866 867 -868 0
-866 868 0
-867 868 0
-58 -823 869 0
58 -869 0
823 -869 0
-687 -869 -870 0
687 869 -870 0
687 -869 870 0
-687 869 870 0
-870 -868 -871 0
870 868 -871 0
870 -868 871 0
-870 868 871 0
-870 -868 872 0
870 -872 0
868 -872 0
-687 -869 873 0
687 -873 0
869 -873 0
872 873 -874 0
-872 874 0
-873 874 0
-66 -823 875 0
66 -875 0
823 -875 0
-693 -875 -876 0
693 875 -876 0
693 -875 876 0
-693 875 876 0
-876 -874 -877 0
876 874 -877 0
876 -874 877 0
-876 874 877 0
-876 -874 878 0
876 -878 0
874 -878 0
-693 -875 879 0
693 -879 0
875 -879 0
878 879 -880 0
-878 880 0
-879 880 0
-74 -823 881 0
74 -881 0
823 -881 0
-699 -881 -882 0
699 881 -882 0
699 -881 882 0
-699 881 882 0
-882 -880 -883 0
882 880 -883 0
882 -880 883 0
-882 880 883 0
-882 -880 884 0
882 -884 0
880 -884 0
-699 -881 885 0
699 -885 0
881 -885 0
884 885 -886 0
-884 886 0
-885 886 0
-82 -823 887 0
82 -887 0
823 -887 0
-705 -887 -888 0
705 887 -888 0
705 -887 888 0
-705 887 888 0
-888 -886 -889 0
888 886 -889 0
888 -886 889 0
-888 886 889 0
-888 -886 890 0
888 -890 0
886 -890 0
-705 -887 891 0
705 -891 0
887 -891 0
890 891 -892 0
-890 892 0
-891 892 0
-90 -823 893 0
90 -893 0
823 -893 0
-711 -893 -894 0
711 893 -894 0
711 -893 894 0
-711 893 894 0
-894 -892 -895 0
894 892 -895 0
894 -892 895 0
-894 892 895 0
-894 -892 896 0
894 -896 0
892 -896 0
-711 -893 897 0
711 -897 0
893 -897 0
896 897 -898 0
-896 898 0
-897 898 0
-98 -823 899 0
98 -899 0
823 -899 0
-717 -899 -900 0
717 899 -900 0
717 -899 900 0
-717 899 900 0
-900 -898 -901 0
900 898 -901 0
900 -898 901 0
-900 898 901 0
-900 -898 902 0
900 -902 0
898 -902 0
-717 -899 903 0
717 -903 0
899 -903 0
902 903 -904 0
-902 904 0
-903 904 0
-106 -823 905 0
106 -905 0
823 -905 0
-723 -905 -906 0
723 905 -906 0
723 -905 906 0
-723 905 906 0
-906 -904 -907 0
906 904 -907 0
906 -904 907 0
-906 904 907 0
-906 -904 908 0
906 -908 0
904 -908 0
-723 -905 909 0
723 -909 0
905 -909 0
908 909 -910 0
-908 910 0
-909 910 0
-114 -823 911 0
114 -911 0
823 -911 0
-729 -911 -912 0
729 911 -912 0
729 -911 912 0
-729 911 912 0
-912 -910 -913 0
912 910 -913 0
912 -910 913 0
-912 910 913 0
-912 -910 914 0
912 -914 0
910 -914 0
-729 -911 915 0
729 -915 0
911 -915 0
914 915 -916 0
-914 916 0
-915 916 0
-122 -823 917 0
122 -917 0
823 -917 0
-735 -917 -918 0
735 917 -918 0
735 -917 918 0
-735 917 918 0
-918 -916 -919 0
918 916 -919 0
918 -916 919 0
-918 916 919 0
-918 -916 920 0
918 -920 0
916 -920 0
-735 -917 921 0
735 -921 0
917 -921 0
920 921 -922 0
-920 922 0
-921 922 0
-130 -823 923 0
130 -923 0
823 -923 0
-741 -923 -924 0
741 923 -924 0
741 -923 924 0
-741 923 924 0
-924 -922 -925 0
924 922 -925 0
924 -922 925 0
-924 922 925 0
-924 -922 926 0
924 -926 0
922 -926 0
-741 -923 927 0
741 -927 0
923 -927 0
926 927 -928 0
-926 928 0
-927 928 0
-138 -823 929 0
138 -929 0
823 -929 0
-747 -929 -930 0
747 929 -930 0
747 -929 930 0
-747 929 930 0
-930 -928 -931 0
930 928 -931 0
930 -928 931 0
-930 928 931 0
-930 -928 932 0
930 -932 0
928 -932 0
-747 -929 933 0
747 -933 0
929 -933 0
932 933 -934 0
-932 934 0
-933 934 0
-146 -823 935 0
146 -935 0
823 -935 0
-753 -935 -936 0
753 935 -936 0
753 -935 936 0
-753 935 936 0
-936 -934 -937 0
936 934 -937 0
936 -934 937 0
-936 934 937 0
-936 -934 938 0
936 -938 0
934 -938 0
-753 -935 939 0
753 -939 0
935 -939 0
938 939 -940 0
-938 940 0
-939 940 0
-154 -823 941 0
154 -941 0
823 -941 0
-759 -941 -942 0
759 941 -942 0
759 -941 942 0
-759 941 942 0
-942 -940 -943 0
942 940 -943 0
942 -940 943 0
-942 940 943 0
-942 -940 944 0
942 -944 0
940 -944 0
-759 -941 945 0
759 -945 0
941 -945 0
944 945 -946 0
-944 946 0
-945 946 0
-162 -823 947 0
162 -947 0
823 -947 0
-765 -947 -948 0
765 947 -948 0
765 -947 948 0
-765 947 948 0
-948 -946 -949 0
948 946 -949 0
948 -946 949 0
-948 946 949 0
-948 -946 950 0
948 -950 0
946 -950 0
-765 -947 951 0
765 -951 0
947 -951 0
950 951 -952 0
-950 952 0
-951 952 0
-170 -823 953 0
170 -953 0
823 -953 0
-771 -953 -954 0
771 953 -954 0
771 -953 954 0
-771 953 954 0
-954 -952 -955 0
954 952 -955 0
954 -952 955 0
-954 952 955 0
-954 -952 956 0
954 -956 0
952 -956 0
-771 -953 957 0
771 -957 0
953 -957 0
956 957 -958 0
-956 958 0
-957 958 0
-178 -823 959 0
178 -959 0
823 -959 0
-777 -959 -960 0
777 959 -960 0
777 -959 960 0
-777 959 960 0
-960 -958 -961 0
960 958 -961 0
960 -958 961 0
-960 958 961 0
-960 -958 962 0
960 -962 0
958 -962 0
-777 -959 963 0
777 -963 0
959 -963 0
962 963 -964 0
-962 964 0
-963 964 0
-186 -823 965 0
186 -965 0
823 -965 0
-783 -965 -966 0
783 965 -966 0
783 -965 966 0
-783 965 966 0
-966 -964 -967 0
966 964 -967 0
966 -964 967 0
-966 964 967 0
-966 -964 968 0
966 -968 0
964 -968 0
-783 -965 969 0
783 -969 0
965 -969 0
968 969 -970 0
-968 970 0
-969 970 0
-194 -823 971 0
194 -971 0
823 -971 0
-789 -971 -972 0
789 971 -972 0
789 -971 972 0
-789 971 972 0
-972 -970 -973 0
972 970 -973 0
972 -970 973 0
-972 970 973 0
-972 -970 974 0
972 -974 0
970 -974 0
-789 -971 975 0
789 -975 0
971 -975 0
974 975 -976 0
-974 976 0
-975 976 0
-202 -823 977 0
202 -977 0
823 -977 0
-795 -977 -978 0
795 977 -978 0
795 -977 978 0
-795 977 978 0
-978 -976 -979 0
978 976 -979 0
978 -976 979 0
-978 976 979 0
-978 -976 980 0
978 -980 0
976 -980 0
-795 -977 981 0
795 -981 0
977 -981 0
980 981 -982 0
-980 982 0
-981 982 0
-210 -823 983 0
210 -983 0
823 -983 0
-801 -983 -984 0
801 983 -984 0
801 -983 984 0
-801 983 984 0
-984 -982 -985 0
984 982 -985 0
984 -982 985 0
-984 982 985 0
-984 -982 986 0
984 -986 0
982 -986 0
-801 -983 987 0
801 -987 0
983 -987 0
986 987 -988 0
-986 988 0
-987 988 0
-218 -823 989 0
218 -989 0
823 -989 0
-807 -989 -990 0
807 989 -990 0
807 -989 990 0
-807 989 990 0
-990 -988 -991 0
990 988 -991 0
990 -988 991 0
-990 988 991 0
-990 -988 992 0
990 -992 0
988 -992 0
-807 -989 993 0
807 -993 0
989 -993 0
992 993 -994 0
-992 994 0
-993 994 0
-226 -823 995 0
226 -995 0
823 -995 0
-813 -995 -996 0
813 995 -996 0
813 -995 996 0
-813 995 996 0
-996 -994 -997 0
996 994 -997 0
996 -994 997 0
-996 994 997 0
-996 -994 998 0
996 -998 0
994 -998 0
-813 -995 999 0
813 -999 0
995 -999 0
998 999 -1000 0
-998 1000 0
-999 1000 0
-234 -823 1001 0
234 -1001 0
823 -1001 0
-819 -1001 -1002 0
819 1001 -1002 0
819 -1001 1002 0
-819 1001 1002 0
-1002 -1000 -1003 0
1002 1000 -1003 0
1002 -1000 1003 0
-1002 1000 1003 0
-1002 -1000 1004 0
1002 -1004 0
1000 -1004 0
-819 -1001 1005 0
819 -1005 0
1001 -1005 0
1004 1005 -1006 0
-1004 1006 0
-1005 1006 0
-242 -823 1007 0
242 -1007 0
823 -1007 0
-822 -1007 -1008 0
822 1007 -1008 0
822 -1007 1008 0
-822 1007 1008 0
-1008 -1006 -1009 0
1008 1006 -1009 0
1008 -1006 1009 0
-1008 1006 1009 0
-1008 -1006 1010 0
1008 -1010 0
1006 -1010 0
-822 -1007 1011 0
822 -1011 0
1007 -1011 0
1010 1011 -1012 0
-1010 1012 0
-1011 1012 0
-1 -1013 1014 0
1 -1014 0
1013 -1014 0
-829 -1014 -1015 0
829 1014 -1015 0
829 -1014 1015 0
-829 1014 1015 0
-829 -1014 1016 0
829 -1016 0
1014 -1016 0
-4 -1013 1017 0
4 -1017 0
1013 -1017 0
-835 -1017 -1018 0
835 1017 -1018 0
835 -1017 1018 0
-835 1017 1018 0
-1018 -1016 -1019 0
1018 1016 -1019 0
1018 -1016 1019 0
-1018 1016 1019 0
-1018 -1016 1020 0
1018 -1020 0
1016 -1020 0
-835 -1017 1021 0
835 -1021 0
1017 -1021 0
1020 1021 -1022 0
-1020 1022 0
-1021 1022 0
-10 -1013 1023 0
10 -1023 0
1013 -1023 0
-841 -1023 -1024 0
841 1023 -1024 0
841 -1023 1024 0
-841 1023 1024 0
-1024 -1022 -1025 0
1024 1022 -1025 0
1024 -1022 1025 0
-1024 1022 1025 0
-1024 -1022 1026 0
1024 -1026 0
1022 -1026 0
-841 -1023 1027 0
841 -1027 0
1023 -1027 0
1026 1027 -1028 0
-1026 1028 0
-1027 1028 0
-18 -1013 1029 0
18 -1029 0
1013 -1029 0
-847 -1029 -1030 0
847 1029 -1030 0
847 -1029 1030 0
-847 1029 1030 0
-1030 -1028 -1031 0
1030 1028 -1031 0
1030 -1028 1031 0
-1030 1028 1031 0
-1030 -1028 1032 0
1030 -1032 0
1028 -1032 0
-847 -1029 1033 0
847 -1033 0
1029 -1033 0
1032 1033 -1034 0
-1032 1034 0
-1033 1034 0
-26 -1013 1035 0
26 -1035 0
1013 -1035 0
-853 -1035 -1036 0
853 1035 -1036 0
853 -1035 1036 0
-853 1035 1036 0
-1036 -1034 -1037 0
1036 1034 -1037 0
1036 -1034 1037 0
-1036 1034 1037 0
-1036 -1034 1038 0
1036 -1038 0
1034 -1038 0
-853 -1035 1039 0
853 -1039 0
1035 -1039 0
1038 1039 -1040 0
-1038 1040 0
-1039 1040 0
-34 -1013 1041 0
34 -1041 0
1013 -1041 0
-859 -1041 -1042 0
859 1041 -1042 0
859 -1041 1042 0
-859 1041 1042 0
-1042 -1040 -1043 0
1042 1040 -1043 0
1042 -1040 1043 0
-1042 1040 1043 0
-1042 -1040 1044 0
1042 -1044 0
1040 -1044 0
-859 -1041 1045 0
859 -1045 0
1041 -1045 0
1044 1045 -1046 0
-1044 1046 0
-1045 1046 0
-42 -1013 1047 0
42 -1047 0
1013 -1047 0
-865 -1047 -1048 0
865 1047 -1048 0
865 -1047 1048 0
-865 1047 1048 0
-1048 -1046 -1049 0
1048 1046 -1049 0
1048 -1046 1049 0
-1048 1046 1049 0
-1048 -1046 1050 0
1048 -1050 0
1046 -1050 0
-865 -1047 1051 0
865 -1051 0
1047 -1051 0
1050 1051 -1052 0
-1050 1052 0
-1051 1052 0
-50 -1013 1053 0
50 -1053 0
1013 -1053 0
-871 -1053 -1054 0
871 1053 -1054 0
871 -1053 1054 0
-871 1053 1054 0
-1054 -1052 -1055 0
1054 1052 -1055 0
1054 -1052 1055 0
-1054 1052 1055 0
-1054 -1052 1056 0
1054 -1056 0
1052 -1056 0
-871 -1053 1057 0
871 -1057 0
1053 -1057 0
1056 1057 -1058 0
-1056 1058 0
-1057 1058 0
-58 -1013 1059 0
58 -1059 0
1013 -1059 0
-877 -1059 -1060 0
877 1059 -1060 0
877 -1059 1060 0
-877 1059 1060 0
-1060 -1058 -1061 0
1060 1058 -1061 0
1060 -1058 1061 0
-1060 1058 1061 0
-1060 -1058 1062 0
1060 -1062 0
1058 -1062 0
-877 -1059 1063 0
877 -1063 0
1059 -1063 0
1062 1063 -1064 0
-1062 1064 0
-1063 1064 0
-66 -1013 1065 0
66 -1065 0
1013 -1065 0
-883 -1065 -1066 0
883 1065 -1066 0
883 -1065 1066 0
-883 1065 1066 0
-1066 -1064 -1067 0
1066 1064 -1067 0
1066 -1064 1067 0
-1066 1064 1067 0
-1066 -1064 1068 0
1066 -1068 0
1064 -1068 0
-883 -1065 1069 0
883 -1069 0
1065 -1069 0
1068 1069 -1070 0
-1068 1070 0
-1069 1070 0
-74 -1013 1071 0
74 -1071 0
1013 -1071 0
-889 -1071 -1072 0
889 1071 -1072 0
889 -1071 1072 0
-889 1071 1072 0
-1072 -1070 -1073 0
1072 1070 -1073 0
1072 -1070 1073 0
-1072 1070 1073 0
-1072 -1070 1074 0
1072 -1074 0
1070 -1074 0
-889 -1071 1075 0
889 -1075 0
1071 -1075 0
1074 1075 -1076 0
-1074 1076 0
-1075 1076 0
-82 -1013 1077 0
82 -1077 0
1013 -1077 0
-895 -1077 -1078 0
895 1077 -1078 0
895 -1077 1078 0
-895 1077 1078 0
-1078 -1076 -1079 0
1078 1076 -1079 0
1078 -1076 1079 0
-1078 1076 1079 0
-1078 -1076 1080 0
1078 -1080 0
1076 -1080 0
-895 -1077 1081 0
895 -1081 0
1077 -1081 0
1080 1081 -1082 0
-1080 1082 0
-1081 1082 0
-90 -1013 1083 0
90 -1083 0
1013 -1083 0
-901 -1083 -1084 0
901 1083 -1084 0
901 -1083 1084 0
-901 1083 1084 0
-1084 -1082 -1085 0
1084 1082 -1085 0
1084 -1082 1085 0
-1084 1082 1085 0
-1084 -1082 1086 0
1084 -1086 0
1082 -1086 0
-901 -1083 1087 0
901 -1087 0
1083 -1087 0
1086 1087 -1088 0
-1086 1088 0
-1087 1088 0
-98 -1013 1089 0
98 -1089 0
1013 -1089 0
-907 -1089 -1090 0
907 1089 -1090 0
907 -1089 1090 0
-907 1089 1090 0
-1090 -1088 -1091 0
1090 1088 -1091 0
1090 -1088 1091 0
-1090 1088 1091 0
-1090 -1088 1092 0
1090 -1092 0
1088 -1092 0
-907 -1089 1093 0
907 -1093 0
1089 -1093 0
1092 1093 -1094 0
-1092 1094 0
-1093 1094 0
-106 -1013 1095 0
106 -1095 0
1013 -1095 0
-913 -1095 -1096 0
913 1095 -1096 0
913 -1095 1096 0
-913 1095 1096 0
-1096 -1094 -1097 0
1096 1094 -1097 0
1096 -1094 1097 0
-1096 1094 1097 0
-1096 -1094 1098 0
1096 -1098 0
1094 -1098 0
-913 -1095 1099 0
913 -1099 0
1095 -1099 0
1098 1099 -1100 0
-1098 1100 0
-1099 1100 0
-114 -1013 1101 0
114 -1101 0
1013 -1101 0
-919 -1101 -1102 0
919 1101 -1102 0
919 -1101 1102 0
-919 1101 1102 0
-1102 -1100 -1103 0
1102 1100 -1103 0
1102 -1100 1103 0
-1102 1100 1103 0
-1102 -1100 1104 0
1102 -1104 0
1100 -1104 0
-919 -1101 1105 0
919 -1105 0
1101 -1105 0
1104 1105 -1106 0
-1104 1106 0
-1105 1106 0
-122 -1013 1107 0
122 -1107 0
1013 -1107 0
-925 -1107 -1108 0
925 1107 -1108 0
925 -1107 1108 0
-925 1107 1108 0
-1108 -1106 -1109 0
1108 1106 -1109 0
1108 -1106 1109 0
-1108 1106 1109 0
-1108 -1106 1110 0
1108 -1110 0
1106 -1110 0
-925 -1107 1111 0
925 -1111 0
1107 -1111 0
1110 1111 -1112 0
-1110 1112 0
-1111 1112 0
-130 -1013 1113 0
130 -1113 0
1013 -1113 0
-931 -1113 -1114 0
931 1113 -1114 0
931 -1113 1114 0
-931 1113 1114 0
-1114 -1112 -1115 0
1114 1112 -1115 0
1114 -1112 1115 0
-1114 1112 1115 0
-1114 -1112 1116 0
1114 -1116 0
1112 -1116 0
-931 -1113 1117 0
931 -1117 0
1113 -1117 0
1116 1117 -1118 0
-1116 1118 0
-1117 1118 0
-138 -1013 1119 0
138 -1119 0
1013 -1119 0
-937 -1119 -1120 0
937 1119 -1120 0
937 -1119 1120 0
-937 1119 1120 0
-1120 -1118 -1121 0
1120 1118 -1121 0
1120 -1118 1121 0
-1120 1118 1121 0
-1120 -1118 1122 0
1120 -1122 0
1118 -1122 0
-937 -1119 1123 0
937 -1123 0
1119 -1123 0
1122 1123 -1124 0
-1122 1124 0
-1123 1124 0
-146 -1013 1125 0
146 -1125 0
1013 -1125 0
-943 -1125 -1126 0
943 1125 -1126 0
943 -1125 1126 0
-943 1125 1126 0
-1126 -1124 -1127 0
1126 1124 -1127 0
1126 -1124 1127 0
-1126 1124 1127 0
-1126 -1124 1128 0
1126 -1128 0
1124 -1128 0
-943 -1125 1129 0
943 -1129 0
1125 -1129 0
1128 1129 -1130 0
-1128 1130 0
-1129 1130 0
-154 -1013 1131 0
154 -1131 0
1013 -1131 0
-949 -1131 -1132 0
949 1131 -1132 0
949 -1131 1132 0
-949 1131 1132 0
-1132 -1130 -1133 0
1132 1130 -1133 0
1132 -1130 1133 0
-1132 1130 1133 0
-1132 -1130 1134 0
1132 -1134 0
1130 -1134 0
-949 -1131 1135 0
949 -1135 0
1131 -1135 0
1134 1135 -1136 0
-1134 1136 0
-1135 1136 0
-162 -1013 1137 0
162 -1137 0
1013 -1137 0
-955 -1137 -1138 0
955 1137 -1138 0
955 -1137 1138 0
-955 1137 1138 0
-1138 -1136 -1139 0
1138 1136 -1139 0
1138 -1136 1139 0
-1138 1136 1139 0
-1138 -1136 1140 0
1138 -1140 0
1136 -1140 0
-955 -1137 1141 0
955 -1141 0
1137 -1141 0
1140 1141 -1142 0
-1140 1142 0
-1141 1142 0
-170 -1013 1143 0
170 -1143 0
1013 -1143 0
-961 -1143 -1144 0
961 1143 -1144 0
961 -1143 1144 0
-961 1143 1144 0
-1144 -1142 -1145 0
1144 1142 -1145 0
1144 -1142 1145 0
-1144 1142 1145 0
-1144 -1142 1146 0
1144 -1146 0
1142 -1146 0
-961 -1143 1147 0
961 -1147 0
1143 -1147 0
1146 1147 -1148 0
-1146 1148 0
-1147 1148 0
-178 -1013 1149 0
178 -1149 0
1013 -1149 0
-967 -1149 -1150 0
967 1149 -1150 0
967 -1149 1150 0
-967 1149 1150 0
-1150 -1148 -1151 0
1150 1148 -1151 0
1150 -1148 1151 0
-1150 1148 1151 0
-1150 -1148 1152 0
1150 -1152 0
1148 -1152 0
-967 -1149 1153 0
967 -1153 0
1149 -1153 0
1152 1153 -1154 0
-1152 1154 0
-1153 1154 0
-186 -1013 1155 0
186 -1155 0
1013 -1155 0
-973 -1155 -1156 0
973 1155 -1156 0
973 -1155 1156 0
-973 1155 1156 0
-1156 -1154 -1157 0
1156 1154 -1157 0
1156 -1154 1157 0
-1156 1154 1157 0
-1156 -1154 1158 0
1156 -1158 0
1154 -1158 0
-973 -1155 1159 0
973 -1159 0
1155 -1159 0
1158 1159 -1160 0
-1158 1160 0
-1159 1160 0
-194 -1013 1161 0
194 -1161 0
1013 -1161 0
-979 -1161 -1162 0
979 1161 -1162 0
979 -1161 1162 0
-979 1161 1162 0
-1162 -1160 -1163 0
1162 1160 -1163 0
1162 -1160 1163 0
-1162 1160 1163 0
-1162 -1160 1164 0
1162 -1164 0
1160 -1164 0
-979 -1161 1165 0
979 -1165 0
1161 -1165 0
1164 1165 -1166 0
-1164 1166 0
-1165 1166 0
-202 -1013 1167 0
202 -1167 0
1013 -1167 0
-985 -1167 -1168 0
985 1167 -1168 0
985 -1167 1168 0
-985 1167 1168 0
-1168 -1166 -1169 0
1168 1166 -1169 0
1168 -1166 1169 0
-1168 1166 1169 0
-1168 -1166 1170 0
1168 -1170 0
1166 -1170 0
-985 -1167 1171 0
985 -1171 0
1167 -1171 0
1170 1171 -1172 0
-1170 1172 0
-1171 1172 0
-210 -1013 1173 0
210 -1173 0
1013 -1173 0
-991 -1173 -1174 0
991 1173 -1174 0
991 -1173 1174 0
-991 1173 1174 0
-1174 -1172 -1175 0
1174 1172 -1175 0
1174 -1172 1175 0
-1174 1172 1175 0
-1174 -1172 1176 0
1174 -1176 0
1172 -1176 0
-991 -1173 1177 0
991 -1177 0
1173 -1177 0
1176 1177 -1178 0
-1176 1178 0
-1177 1178 0
-218 -1013 1179 0
218 -1179 0
1013 -1179 0
-997 -1179 -1180 0
997 1179 -1180 0
997 -1179 1180 0
-997 1179 1180 0
-1180 -1178 -1181 0
1180 1178 -1181 0
1180 -1178 1181 0
-1180 1178 1181 0
-1180 -1178 1182 0
1180 -1182 0
1178 -1182 0
-997 -1179 1183 0
997 -1183 0
1179 -1183 0
1182 1183 -1184 0
-1182 1184 0
-1183 1184 0
-226 -1013 1185 0
226 -1185 0
1013 -1185 0
-1003 -1185 -1186 0
1003 1185 -1186 0
1003 -1185 1186 0
-1003 1185 1186 0
-1186 -1184 -1187 0
1186 1184 -1187 0
1186 -1184 1187 0
-1186 1184 1187 0
-1186 -1184 1188 0
1186 -1188 0
1184 -1188 0
-1003 -1185 1189 0
1003 -1189 0
1185 -1189 0
1188 1189 -1190 0
-1188 1190 0
-1189 1190 0
-234 -1013 1191 0
234 -1191 0
1013 -1191 0
-1009 -1191 -1192 0
1009 1191 -1192 0
1009 -1191 1192 0
-1009 1191 1192 0
-1192 -1190 -1193 0
1192 1190 -1193 0
1192 -1190 1193 0
-1192 1190 1193 0
-1192 -1190 1194 0
1192 -1194 0
1190 -1194 0
-1009 -1191 1195 0
1009 -1195 0
1191 -1195 0
1194 1195 -1196 0
-1194 1196 0
-1195 1196 0
-242 -1013 1197 0
242 -1197 0
1013 -1197 0
-1012 -1197 -1198 0
1012 1197 -1198 0
1012 -1197 1198 0
-1012 1197 1198 0
-1198 -1196 -1199 0
1198 1196 -1199 0
1198 -1196 1199 0
-1198 1196 1199 0
-1198 -1196 1200 0
1198 -1200 0
1196 -1200 0
-1012 -1197 1201 0
1012 -1201 0
1197 -1201 0
1200 1201 -1202 0
-1200 1202 0
-1201 1202 0
-1 -1203 1204 0
1 -1204 0
1203 -1204 0
-1019 -1204 -1205 0
1019 1204 -1205 0
1019 -1204 1205 0
-1019 1204 1205 0
-1019 -1204 1206 0
1019 -1206 0
1204 -1206 0
-4 -1203 1207 0
4 -1207 0
1203 -1207 0
-1025 -1207 -1208 0
1025 1207 -1208 0
1025 -1207 1208 0
-1025 1207 1208 0
-1208 -1206 -1209 0
1208 1206 -1209 0
1208 -1206 1209 0
-1208 1206 1209 0
-1208 -1206 1210 0
1208 -1210 0
1206 -1210 0
-1025 -1207 1211 0
1025 -1211 0
1207 -1211 0
1210 1211 -1212 0
-1210 1212 0
-1211 1212 0
-10 -1203 1213 0
10 -1213 0
1203 -1213 0
-1031 -1213 -1214 0
1031 1213 -1214 0
1031 -1213 1214 0
-1031 1213 1214 0
-1214 -1212 -1215 0
1214 1212 -1215 0
1214 -1212 1215 0
-1214 1212 1215 0
-1214 -1212 1216 0
1214 -1216 0
1212 -1216 0
-1031 -1213 1217 0
1031 -1217 0
1213 -1217 0
1216 1217 -1218 0
-1216 1218 0
-1217 1218 0
-18 -1203 1219 0
18 -1219 0
1203 -1219 0
-1037 -1219 -1220 0
1037 1219 -1220 0
1037 -1219 1220 0
-1037 1219 1220 0
-1220 -1218 -1221 0
1220 1218 -1221 0
1220 -1218 1221 0
-1220 1218 1221 0
-1220 -1218 1222 0
1220 -1222 0
1218 -1222 0
-1037 -1219 1223 0
1037 -1223 0
1219 -1223 0
1222 1223 -1224 0
-1222 1224 0
-1223 1224 0
-26 -1203 1225 0
26 -1225 0
1203 -1225 0
-1043 -1225 -1226 0
1043 1225 -1226 0
1043 -1225 1226 0
-1043 1225 1226 0
-1226 -1224 -1227 0
1226 1224 -1227 0
1226 -1224 1227 0
-1226 1224 1227 0
-1226 -1224 1228 0
1226 -1228 0
1224 -1228 0
-1043 -1225 1229 0
1043 -1229 0
1225 -1229 0
1228 1229 -1230 0
-1228 1230 0
-1229 1230 0
-34 -1203 1231 0
34 -1231 0
1203 -1231 0
-1049 -1231 -1232 0
1049 1231 -1232 0
1049 -1231 1232 0
-1049 1231 1232 0
-1232 -1230 -1233 0
1232 1230 -1233 0
1232 -1230 1233 0
-1232 1230 1233 0
-1232 -1230 1234 0
1232 -1234 0
1230 -1234 0
-1049 -1231 1235 0
1049 -1235 0
1231 -1235 0
1234 1235 -1236 0
-1234 1236 0
-1235 1236 0
-42 -1203 1237 0
42 -1237 0
1203 -1237 0
-1055 -1237 -1238 0
1055 1237 -1238 0
1055 -1237 1238 0
-1055 1237 1238 0
-1238 -1236 -1239 0
1238 1236 -1239 0
1238 -1236 1239 0
-1238 1236 1239 0
-1238 -1236 1240 0
1238 -1240 0
1236 -1240 0
-1055 -1237 1241 0
1055 -1241 0
1237 -1241 0
1240 1241 -1242 0
-1240 1242 0
-1241 1242 0
-50 -1203 1243 0
50 -1243 0
1203 -1243 0
-1061 -1243 -1244 0
1061 1243 -1244 0
1061 -1243 1244 0
-1061 1243 1244 0
-1244 -1242 -1245 0
1244 1242 -1245 0
1244 -1242 1245 0
-1244 1242 1245 0
-1244 -1242 1246 0
1244 -1246 0
1242 -1246 0
-1061 -1243 1247 0
1061 -1247 0
1243 -1247 0
1246 1247 -1248 0
-1246 1248 0
-1247 1248 0
-58 -1203 1249 0
58 -1249 0
1203 -1249 0
-1067 -1249 -1250 0
1067 1249 -1250 0
1067 -1249 1250 0
-1067 1249 1250 0
-1250 -1248 -1251 0
1250 1248 -1251 0
1250 -1248 1251 0
-1250 1248 1251 0
-1250 -1248 1252 0
1250 -1252 0
1248 -1252 0
-1067 -1249 1253 0
1067 -1253 0
1249 -1253 0
1252 1253 -1254 0
-1252 1254 0
-1253 1254 0
-66 -1203 1255 0
66 -1255 0
1203 -1255 0
-1073 -1255 -1256 0
1073 1255 -1256 0
1073 -1255 1256 0
-1073 1255 1256 0
-1256 -1254 -1257 0
1256 1254 -1257 0
1256 -1254 1257 0
-1256 1254 1257 0
-1256 -1254 1258 0
1256 -1258 0
1254 -1258 0
-1073 -1255 1259 0
1073 -1259 0
1255 -1259 0
1258 1259 -1260 0
-1258 1260 0
-1259 1260 0
-74 -1203 1261 0
74 -1261 0
1203 -1261 0
-1079 -1261 -1262 0
1079 1261 -1262 0
1079 -1261 1262 0
-1079 1261 1262 0
-1262 -1260 -1263 0
1262 1260 -1263 0
1262 -1260 1263 0
-1262 1260 1263 0
-1262 -1260 1264 0
1262 -1264 0
1260 -1264 0
-1079 -1261 1265 0
1079 -1265 0
1261 -1265 0
1264 1265 -1266 0
-1264 1266 0
-1265 1266 0
-82 -1203 1267 0
82 -1267 0
1203 -1267 0
-1085 -1267 -1268 0
1085 1267 -1268 0
1085 -1267 1268 0
-1085 1267 1268 0
-1268 -1266 -1269 0
1268 1266 -1269 0
1268 -1266 1269 0
-1268 1266 1269 0
-1268 -1266 1270 0
1268 -1270 0
1266 -1270 0
-1085 -1267 1271 0
1085 -1271 0
1267 -1271 0
1270 1271 -1272 0
-1270 1272 0
-1271 1272 0
-90 -1203 1273 0
90 -1273 0
1203 -1273 0
-1091 -1273 -1274 0
1091 1273 -1274 0
1091 -1273 1274 0
-1091 1273 1274 0
-1274 -1272 -1275 0
1274 1272 -1275 0
1274 -1272 1275 0
-1274 1272 1275 0
-1274 -1272 1276 0
1274 -1276 0
1272 -1276 0
-1091 -1273 1277 0
1091 -1277 0
1273 -1277 0
1276 1277 -1278 0
-1276 1278 0
-1277 1278 0
-98 -1203 1279 0
98 -1279 0
1203 -1279 0
-1097 -1279 -1280 0
1097 1279 -1280 0
1097 -1279 1280 0
-1097 1279 1280 0
-1280 -1278 -1281 0
1280 1278 -1281 0
1280 -1278 1281 0
-1280 1278 1281 0
-1280 -1278 1282 0
1280 -1282 0
1278 -1282 0
-1097 -1279 1283 0
1097 -1283 0
1279 -1283 0
1282 1283 -1284 0
-1282 1284 0
-1283 1284 0
-106 -1203 1285 0
106 -1285 0
1203 -1285 0
-1103 -1285 -1286 0
1103 1285 -1286 0
1103 -1285 1286 0
-1103 1285 1286 0
-1286 -1284 -1287 0
1286 1284 -1287 0
1286 -1284 1287 0
-1286 1284 1287 0
-1286 -1284 1288 0
1286 -1288 0
1284 -1288 0
-1103 -1285 1289 0
1103 -1289 0
1285 -1289 0
1288 1289 -1290 0
-1288 1290 0
-1289 1290 0
-114 -1203 1291 0
114 -1291 0
1203 -1291 0
-1109 -1291 -1292 0
1109 1291 -1292 0
1109 -1291 1292 0
-1109 1291 1292 0
-1292 -1290 -1293 0
1292 1290 -1293 0
1292 -1290 1293 0
-1292 1290 1293 0
-1292 -1290 1294 0
1292 -1294 0
1290 -1294 0
-1109 -1291 1295 0
1109 -1295 0
1291 -1295 0
1294 1295 -1296 0
-1294 1296 0
-1295 1296 0
-122 -1203 1297 0
122 -1297 0
1203 -1297 0
-1115 -1297 -1298 0
1115 1297 -1298 0
1115 -1297 1298 0
-1115 1297 1298 0
-1298 -1296 -1299 0
1298 1296 -1299 0
1298 -1296 1299 0
-1298 1296 1299 0
-1298 -1296 1300 0
1298 -1300 0
1296 -1300 0
-1115 -1297 1301 0
1115 -1301 0
1297 -1301 0
1300 1301 -1302 0
-1300 1302 0
-1301 1302 0
-130 -1203 1303 0
130 -1303 0
1203 -1303 0
-1121 -1303 -1304 0
1121 1303 -1304 0
1121 -1303 1304 0
-1121 1303 1304 0
-1304 -1302 -1305 0
1304 1302 -1305 0
1304 -1302 1305 0
-1304 1302 1305 0
-1304 -1302 1306 0
1304 -1306 0
1302 -1306 0
-1121 -1303 1307 0
1121 -1307 0
1303 -1307 0
1306 1307 -1308 0
-1306 1308 0
-1307 1308 0
-138 -1203 1309 0
138 -1309 0
1203 -1309 0
-1127 -1309 -1310 0
1127 1309 -1310 0
1127 -1309 1310 0
-1127 1309 1310 0
-1310 -1308 -1311 0
1310 1308 -1311 0
1310 -1308 1311 0
-1310 1308 1311 0
-1310 -1308 1312 0
1310 -1312 0
1308 -1312 0
-1127 -1309 1313 0
1127 -1313 0
1309 -1313 0
1312 1313 -1314 0
-1312 1314 0
-1313 1314 0
-146 -1203 1315 0
146 -1315 0
1203 -1315 0
-1133 -1315 -1316 0
1133 1315 -1316 0
1133 -1315 1316 0
-1133 1315 1316 0
-1316 -1314 -1317 0
1316 1314 -1317 0
1316 -1314 1317 0
-1316 1314 1317 0
-1316 -1314 1318 0
1316 -1318 0
1314 -1318 0
-1133 -1315 1319 0
1133 -1319 0
1315 -1319 0
1318 1319 -1320 0
-1318 1320 0
-1319 1320 0
-154 -1203 1321 0
154 -1321 0
1203 -1321 0
-1139 -1321 -1322 0
1139 1321 -1322 0
1139 -1321 1322 0
-1139 1321 1322 0
-1322 -1320 -1323 0
1322 1320 -1323 0
1322 -1320 1323 0
-1322 1320 1323 0
-1322 -1320 1324 0
1322 -1324 0
1320 -1324 0
-1139 -1321 1325 0
1139 -1325 0
1321 -1325 0
1324 1325 -1326 0
-1324 1326 0
-1325 1326 0
-162 -1203 1327 0
162 -1327 0
1203 -1327 0
-1145 -1327 -1328 0
1145 1327 -1328 0
1145 -1327 1328 0
-1145 1327 1328 0
-1328 -1326 -1329 0
1328 1326 -1329 0
1328 -1326 1329 0
-1328 1326 1329 0
-1328 -1326 1330 0
1328 -1330 0
1326 -1330 0
-1145 -1327 1331 0
1145 -1331 0
1327 -1331 0
1330 1331 -1332 0
-1330 1332 0
-1331 1332 0
-170 -1203 1333 0
170 -1333 0
1203 -1333 0
-1151 -1333 -1334 0
1151 1333 -1334 0
1151 -1333 1334 0
-1151 1333 1334 0
-1334 -1332 -1335 0
1334 1332 -1335 0
1334 -1332 1335 0
-1334 1332 1335 0
-1334 -1332 1336 0
1334 -1336 0
1332 -1336 0
-1151 -1333 1337 0
1151 -1337 0
1333 -1337 0
1336 1337 -1338 0
-1336 1338 0
-1337 1338 0
-178 -1203 1339 0
178 -1339 0
1203 -1339 0
-1157 -1339 -1340 0
1157 1339 -1340 0
1157 -1339 1340 0
-1157 1339 1340 0
-1340 -1338 -1341 0
1340 1338 -1341 0
1340 -1338 1341 0
-1340 1338 1341 0
-1340 -1338 1342 0
1340 -1342 0
1338 -1342 0
-1157 -1339 1343 0
1157 -1343 0
1339 -1343 0
1342 1343 -1344 0
-1342 1344 0
-1343 1344 0
-186 -1203 1345 0
186 -1345 0
1203 -1345 0
-1163 -1345 -1346 0
1163 1345 -1346 0
1163 -1345 1346 0
-1163 1345 1346 0
-1346 -1344 -1347 0
1346 1344 -1347 0
1346 -1344 1347 0
-1346 1344 1347 0
-1346 -1344 1348 0
1346 -1348 0
1344 -1348 0
-1163 -1345 1349 0
1163 -1349 0
1345 -1349 0
1348 1349 -1350 0
-1348 1350 0
-1349 1350 0
-194 -1203 1351 0
194 -1351 0
1203 -1351 0
-1169 -1351 -1352 0
1169 1351 -1352 0
1169 -1351 1352 0
-1169 1351 1352 0
-1352 -1350 -1353 0
1352 1350 -1353 0
1352 -1350 1353 0
-1352 1350 1353 0
-1352 -1350 1354 0
1352 -1354 0
1350 -1354 0
-1169 -1351 1355 0
1169 -1355 0
1351 -1355 0
1354 1355 -1356 0
-1354 1356 0
-1355 1356 0
-202 -1203 1357 0
202 -1357 0
1203 -1357 0
-1175 -1357 -1358 0
1175 1357 -1358 0
1175 -1357 1358 0
-1175 1357 1358 0
-1358 -1356 -1359 0
1358 1356 -1359 0
1358 -1356 1359 0
-1358 1356 1359 0
-1358 -1356 1360 0
1358 -1360 0
1356 -1360 0
-1175 -1357 1361 0
1175 -1361 0
1357 -1361 0
1360 1361 -1362 0
-1360 1362 0
-1361 1362 0
-210 -1203 1363 0
210 -1363 0
1203 -1363 0
-1181 -1363 -1364 0
1181 1363 -1364 0
1181 -1363 1364 0
-1181 1363 1364 0
-1364 -1362 -1365 0
1364 1362 -1365 0
1364 -1362 1365 0
-1364 1362 1365 0
-1364 -1362 1366 0
1364 -1366 0
1362 -1366 0
-1181 -1363 1367 0
1181 -1367 0
1363 -1367 0
1366 1367 -1368 0
-1366 1368 0
-1367 1368 0
-218 -1203 1369 0
218 -1369 0
1203 -1369 0
-1187 -1369 -1370 0
1187 1369 -1370 0
1187 -1369 1370 0
-1187 1369 1370 0
-1370 -1368 -1371 0
1370 1368 -1371 0
1370 -1368 1371 0
-1370 1368 1371 0
-1370 -1368 1372 0
1370 -1372 0
1368 -1372 0
-1187 -1369 1373 0
1187 -1373 0
1369 -1373 0
1372 1373 -1374 0
-1372 1374 0
-1373 1374 0
-226 -1203 1375 0
226 -1375 0
1203 -1375 0
-1193 -1375 -1376 0
1193 1375 -1376 0
1193 -1375 1376 0
-1193 1375 1376 0
-1376 -1374 -1377 0
1376 1374 -1377 0
1376 -1374 1377 0
-1376 1374 1377 0
-1376 -1374 1378 0
1376 -1378 0
1374 -1378 0
-1193 -1375 1379 0
1193 -1379 0
1375 -1379 0
1378 1379 -1380 0
-1378 1380 0
-1379 1380 0
-234 -1203 1381 0
234 -1381 0
1203 -1381 0
-1199 -1381 -1382 0
1199 1381 -1382 0
1199 -1381 1382 0
-1199 1381 1382 0
-1382 -1380 -1383 0
1382 1380 -1383 0
1382 -1380 1383 0
-1382 1380 1383 0
-1382 -1380 1384 0
1382 -1384 0
1380 -1384 0
-1199 -1381 1385 0
1199 -1385 0
1381 -1385 0
1384 1385 -1386 0
-1384 1386 0
-1385 1386 0
-242 -1203 1387 0
242 -1387 0
1203 -1387 0
-1202 -1387 -1388 0
1202 1387 -1388 0
1202 -1387 1388 0
-1202 1387 1388 0
-1388 -1386 -1389 0
1388 1386 -1389 0
1388 -1386 1389 0
-1388 1386 1389 0
-1388 -1386 1390 0
1388 -1390 0
1386 -1390 0
-1202 -1387 1391 0
1202 -1391 0
1387 -1391 0
1390 1391 -1392 0
-1390 1392 0
-1391 1392 0
-1 -1393 1394 0
1 -1394 0
1393 -1394 0
-1209 -1394 -1395 0
1209 1394 -1395 0
1209 -1394 1395 0
-1209 1394 1395 0
-1209 -1394 1396 0
1209 -1396 0
1394 -1396 0
-4 -1393 1397 0
4 -1397 0
1393 -1397 0
-1215 -1397 -1398 0
1215 1397 -1398 0
1215 -1397 1398 0
-1215 1397 1398 0
-1398 -1396 -1399 0
1398 1396 -1399 0
1398 -1396 1399 0
-1398 1396 1399 0
-1398 -1396 1400 0
1398 -1400 0
1396 -1400 0
-1215 -1397 1401 0
1215 -1401 0
1397 -1401 0
1400 1401 -1402 0
-1400 1402 0
-1401 1402 0
-10 -1393 1403 0
10 -1403 0
1393 -1403 0
-1221 -1403 -1404 0
1221 1403 -1404 0
1221 -1403 1404 0
-1221 1403 1404 0
-1404 -1402 -1405 0
1404 1402 -1405 0
1404 -1402 1405 0
-1404 1402 1405 0
-1404 -1402 1406 0
1404 -1406 0
1402 -1406 0
-1221 -1403 1407 0
1221 -1407 0
1403 -1407 0
1406 1407 -1408 0
-1406 1408 0
-1407 1408 0
-18 -1393 1409 0
18 -1409 0
1393 -1409 0
-1227 -1409 -1410 0
1227 1409 -1410 0
1227 -1409 1410 0
-1227 1409 1410 0
-1410 -1408 -1411 0
1410 1408 -1411 0
1410 -1408 1411 0
-1410 1408 1411 0
-1410 -1408 1412 0
1410 -1412 0
1408 -1412 0
-1227 -1409 1413 0
1227 -1413 0
1409 -1413 0
1412 1413 -1414 0
-1412 1414 0
-1413 1414 0
-26 -1393 1415 0
26 -1415 0
1393 -1415 0
-1233 -1415 -1416 0
1233 1415 -1416 0
1233 -1415 1416 0
-1233 1415 1416 0
-1416 -1414 -1417 0
1416 1414 -1417 0
1416 -1414 1417 0
-1416 1414 1417 0
-1416 -1414 1418 0
1416 -1418 0
1414 -1418 0
-1233 -1415 1419 0
1233 -1419 0
1415 -1419 0
1418 1419 -1420 0
-1418 1420 0
-1419 1420 0
-34 -1393 1421 0
34 -1421 0
1393 -1421 0
-1239 -1421 -1422 0
1239 1421 -1422 0
1239 -1421 1422 0
-1239 1421 1422 0
-1422 -1420 -1423 0
1422 1420 -1423 0
1422 -1420 1423 0
-1422 1420 1423 0
-1422 -1420 1424 0
1422 -1424 0
1420 -1424 0
-1239 -1421 1425 0
1239 -1425 0
1421 -1425 0
1424 1425 -1426 0
-1424 1426 0
-1425 1426 0
-42 -1393 1427 0
42 -1427 0
1393 -1427 0
-1245 -1427 -1428 0
1245 1427 -1428 0
1245 -1427 1428 0
-1245 1427 1428 0
-1428 -1426 -1429 0
1428 1426 -1429 0
1428 -1426 1429 0
-1428 1426 1429 0
-1428 -1426 1430 0
1428 -1430 0
1426 -1430 0
-1245 -1427 1431 0
1245 -1431 0
1427 -1431 0
1430 1431 -1432 0
-1430 1432 0
-1431 1432 0
-50 -1393 1433 0
50 -1433 0
1393 -1433 0
-1251 -1433 -1434 0
1251 1433 -1434 0
1251 -1433 1434 0
-1251 1433 1434 0
-1434 -1432 -1435 0
1434 1432 -1435 0
1434 -1432 1435 0
-1434 1432 1435 0
-1434 -1432 1436 0
1434 -1436 0
1432 -1436 0
-1251 -1433 1437 0
1251 -1437 0
1433 -1437 0
1436 1437 -1438 0
-1436 1438 0
-1437 1438 0
-58 -1393 1439 0
58 -1439 0
1393 -1439 0
-1257 -1439 -1440 0
1257 1439 -1440 0
1257 -1439 1440 0
-1257 1439 1440 0
-1440 -1438 -1441 0
1440 1438 -1441 0
1440 -1438 1441 0
-1440 1438 1441 0
-1440 -1438 1442 0
1440 -1442 0
1438 -1442 0
-1257 -1439 1443 0
1257 -1443 0
1439 -1443 0
1442 1443 -1444 0
-1442 1444 0
-1443 1444 0
-66 -1393 1445 0
66 -1445 0
1393 -1445 0
-1263 -1445 -1446 0
1263 1445 -1446 0
1263 -1445 1446 0
-1263 1445 1446 0
-1446 -1444 -1447 0
1446 1444 -1447 0
1446 -1444 1447 0
-1446 1444 1447 0
-1446 -1444 1448 0
1446 -1448 0
1444 -1448 0
-1263 -1445 1449 0
1263 -1449 0
1445 -1449 0
1448 1449 -1450 0
-1448 1450 0
-1449 1450 0
-74 -1393 1451 0
74 -1451 0
1393 -1451 0
-1269 -1451 -1452 0
1269 1451 -1452 0
1269 -1451 1452 0
-1269 1451 1452 0
-1452 -1450 -1453 0
1452 1450 -1453 0
1452 -1450 1453 0
-1452 1450 1453 0
-1452 -1450 1454 0
1452 -1454 0
1450 -1454 0
-1269 -1451 1455 0
1269 -1455 0
1451 -1455 0
1454 1455 -1456 0
-1454 1456 0
-1455 1456 0
-82 -1393 1457 0
82 -1457 0
1393 -1457 0
-1275 -1457 -1458 0
1275 1457 -1458 0
1275 -1457 1458 0
-1275 1457 1458 0
-1458 -1456 -1459 0
1458 1456 -1459 0
1458 -1456 1459 0
-1458 1456 1459 0
-1458 -1456 1460 0
1458 -1460 0
1456 -1460 0
-1275 -1457 1461 0
1275 -1461 0
1457 -1461 0
1460 1461 -1462 0
-1460 1462 0
-1461 1462 0
-90 -1393 1463 0
90 -1463 0
1393 -1463 0
-1281 -1463 -1464 0
1281 1463 -1464 0
1281 -1463 1464 0
-1281 1463 1464 0
-1464 -1462 -1465 0
1464 1462 -1465 0
1464 -1462 1465 0
-1464 1462 1465 0
-1464 -1462 1466 0
1464 -1466 0
1462 -1466 0
-1281 -1463 1467 0
1281 -1467 0
1463 -1467 0
1466 1467 -1468 0
-1466 1468 0
-1467 1468 0
-98 -1393 1469 0
98 -1469 0
1393 -1469 0
-1287 -1469 -1470 0
1287 1469 -1470 0
1287 -1469 1470 0
-1287 1469 1470 0
-1470 -1468 -1471 0
1470 1468 -1471 0
1470 -1468 1471 0
-1470 1468 1471 0
-1470 -1468 1472 0
1470 -1472 0
1468 -1472 0
-1287 -1469 1473 0
1287 -1473 0
1469 -1473 0
1472 1473 -1474 0
-1472 1474 0
-1473 1474 0
-106 -1393 1475 0
106 -1475 0
1393 -1475 0
-1293 -1475 -1476 0
1293 1475 -1476 0
1293 -1475 1476 0
-1293 1475 1476 0
-1476 -1474 -1477 0
1476 1474 -1477 0
1476 -1474 1477 0
-1476 1474 1477 0
-1476 -1474 1478 0
1476 -1478 0
1474 -1478 0
-1293 -1475 1479 0
1293 -1479 0
1475 -1479 0
1478 1479 -1480 0
-1478 1480 0
-1479 1480 0
-114 -1393 1481 0
114 -1481 0
1393 -1481 0
-1299 -1481 -1482 0
1299 1481 -1482 0
1299 -1481 1482 0
-1299 1481 1482 0
-1482 -1480 -1483 0
1482 1480 -1483 0
1482 -1480 1483 0
-1482 1480 1483 0
-1482 -1480 1484 0
1482 -1484 0
1480 -1484 0
-1299 -1481 1485 0
1299 -1485 0
1481 -1485 0
1484 1485 -1486 0
-1484 1486 0
-1485 1486 0
-122 -1393 1487 0
122 -1487 0
1393 -1487 0
-1305 -1487 -1488 0
1305 1487 -1488 0
1305 -1487 1488 0
-1305 1487 1488 0
-1488 -1486 -1489 0
1488 1486 -1489 0
1488 -1486 1489 0
-1488 1486 1489 0
-1488 -1486 1490 0
1488 -1490 0
1486 -1490 0
-1305 -1487 1491 0
1305 -1491 0
1487 -1491 0
1490 1491 -1492 0
-1490 1492 0
-1491 1492 0
-130 -1393 1493 0
130 -1493 0
1393 -1493 0
-1311 -1493 -1494 0
1311 1493 -1494 0
1311 -1493 1494 0
-1311 1493 1494 0
-1494 -1492 -1495 0
1494 1492 -1495 0
1494 -1492 1495 0
-1494 1492 1495 0
-1494 -1492 1496 0
1494 -1496 0
1492 -1496 0
-1311 -1493 1497 0
1311 -1497 0
1493 -1497 0
1496 1497 -1498 0
-1496 1498 0
-1497 1498 0
-138 -1393 1499 0
138 -1499 0
1393 -1499 0
-1317 -1499 -1500 0
1317 1499 -1500 0
1317 -1499 1500 0
-1317 1499 1500 0
-1500 -1498 -1501 0
1500 1498 -1501 0
1500 -1498 1501 0
-1500 1498 1501 0
-1500 -1498 1502 0
1500 -1502 0
1498 -1502 0
-1317 -1499 1503 0
1317 -1503 0
1499 -1503 0
1502 1503 -1504 0
-1502 1504 0
-1503 1504 0
-146 -1393 1505 0
146 -1505 0
1393 -1505 0
-1323 -1505 -1506 0
1323 1505 -1506 0
1323 -1505 1506 0
-1323 1505 1506 0
-1506 -1504 -1507 0
1506 1504 -1507 0
1506 -1504 1507 0
-1506 1504 1507 0
-1506 -1504 1508 0
1506 -1508 0
1504 -1508 0
-1323 -1505 1509 0
1323 -1509 0
1505 -1509 0
1508 1509 -1510 0
-1508 1510 0
-1509 1510 0
-154 -1393 1511 0
154 -1511 0
1393 -1511 0
-1329 -1511 -1512 0
1329 1511 -1512 0
1329 -1511 1512 0
-1329 1511 1512 0
-1512 -1510 -1513 0
1512 1510 -1513 0
1512 -1510 1513 0
-1512 1510 1513 0
-1512 -1510 1514 0
1512 -1514 0
1510 -1514 0
-1329 -1511 1515 0
1329 -1515 0
1511 -1515 0
1514 1515 -1516 0
-1514 1516 0
-1515 1516 0
-162 -1393 1517 0
162 -1517 0
1393 -1517 0
-1335 -1517 -1518 0
1335 1517 -1518 0
1335 -1517 1518 0
-1335 1517 1518 0
-1518 -1516 -1519 0
1518 1516 -1519 0
1518 -1516 1519 0
-1518 1516 1519 0
-1518 -1516 1520 0
1518 -1520 0
1516 -1520 0
-1335 -1517 1521 0
1335 -1521 0
1517 -1521 0
1520 1521 -1522 0
-1520 1522 0
-1521 1522 0
-170 -1393 1523 0
170 -1523 0
1393 -1523 0
-1341 -1523 -1524 0
1341 1523 -1524 0
1341 -1523 1524 0
-1341 1523 1524 0
-1524 -1522 -1525 0
1524 1522 -1525 0
1524 -1522 1525 0
-1524 1522 1525 0
-1524 -1522 1526 0
1524 -1526 0
1522 -1526 0
-1341 -1523 1527 0
1341 -1527 0
1523 -1527 0
1526 1527 -1528 0
-1526 1528 0
-1527 1528 0
-178 -1393 1529 0
178 -1529 0
1393 -1529 0
-1347 -1529 -1530 0
1347 1529 -1530 0
1347 -1529 1530 0
-1347 1529 1530 0
-1530 -1528 -1531 0
1530 1528 -1531 0
1530 -1528 1531 0
-1530 1528 1531 0
-1530 -1528 1532 0
1530 -1532 0
1528 -1532 0
-1347 -1529 1533 0
1347 -1533 0
1529 -1533 0
1532 1533 -1534 0
-1532 1534 0
-1533 1534 0
-186 -1393 1535 0
186 -1535 0
1393 -1535 0
-1353 -1535 -1536 0
1353 1535 -1536 0
1353 -1535 1536 0
-1353 1535 1536 0
-1536 -1534 -1537 0
1536 1534 -1537 0
1536 -1534 1537 0
-1536 1534 1537 0
-1536 -1534 1538 0
1536 -1538 0
1534 -1538 0
-1353 -1535 1539 0
1353 -1539 0
1535 -1539 0
1538 1539 -1540 0
-1538 1540 0
-1539 1540 0
-194 -1393 1541 0
194 -1541 0
1393 -1541 0
-1359 -1541 -1542 0
1359 1541 -1542 0
1359 -1541 1542 0
-1359 1541 1542 0
-1542 -1540 -1543 0
1542 1540 -1543 0
1542 -1540 1543 0
-1542 1540 1543 0
-1542 -1540 1544 0
1542 -1544 0
1540 -1544 0
-1359 -1541 1545 0
1359 -1545 0
1541 -1545 0
1544 1545 -1546 0
-1544 1546 0
-1545 1546 0
-202 -1393 1547 0
202 -1547 0
1393 -1547 0
-1365 -1547 -1548 0
1365 1547 -1548 0
1365 -1547 1548 0
-1365 1547 1548 0
-1548 -1546 -1549 0
1548 1546 -1549 0
1548 -1546 1549 0
-1548 1546 1549 0
-1548 -1546 1550 0
1548 -1550 0
1546 -1550 0
-1365 -1547 1551 0
1365 -1551 0
1547 -1551 0
1550 1551 -1552 0
-1550 1552 0
-1551 1552 0
-210 -1393 1553 0
210 -1553 0
1393 -1553 0
-1371 -1553 -1554 0
1371 1553 -1554 0
1371 -1553 1554 0
-1371 1553 1554 0
-1554 -1552 -1555 0
1554 1552 -1555 0
1554 -1552 1555 0
-1554 1552 1555 0
-1554 -1552 1556 0
1554 -1556 0
1552 -1556 0
-1371 -1553 1557 0
1371 -1557 0
1553 -1557 0
1556 1557 -1558 0
-1556 1558 0
-1557 1558 0
-218 -1393 1559 0
218 -1559 0
1393 -1559 0
-1377 -1559 -1560 0
1377 1559 -1560 0
1377 -1559 1560 0
-1377 1559 1560 0
-1560 -1558 -1561 0
1560 1558 -1561 0
1560 -1558 1561 0
-1560 1558 1561 0
-1560 -1558 1562 0
1560 -1562 0
1558 -1562 0
-1377 -1559 1563 0
1377 -1563 0
1559 -1563 0
1562 1563 -1564 0
-1562 1564 0
-1563 1564 0
-226 -1393 1565 0
226 -1565 0
1393 -1565 0
-1383 -1565 -1566 0
1383 1565 -1566 0
1383 -1565 1566 0
-1383 1565 1566 0
-1566 -1564 -1567 0
1566 1564 -1567 0
1566 -1564 1567 0
-1566 1564 1567 0
-1566 -1564 1568 0
1566 -1568 0
1564 -1568 0
-1383 -1565 1569 0
1383 -1569 0
1565 -1569 0
1568 1569 -1570 0
-1568 1570 0
-1569 1570 0
-234 -1393 1571 0
234 -1571 0
1393 -1571 0
-1389 -1571 -1572 0
1389 1571 -1572 0
1389 -1571 1572 0
-1389 1571 1572 0
-1572 -1570 -1573 0
1572 1570 -1573 0
1572 -1570 1573 0
-1572 1570 1573 0
-1572 -1570 1574 0
1572 -1574 0
1570 -1574 0
-1389 -1571 1575 0
1389 -1575 0
1571 -1575 0
1574 1575 -1576 0
-1574 1576 0
-1575 1576 0
-242 -1393 1577 0
242 -1577 0
1393 -1577 0
-1392 -1577 -1578 0
1392 1577 -1578 0
1392 -1577 1578 0
-1392 1577 1578 0
-1578 -1576 -1579 0
1578 1576 -1579 0
1578 -1576 1579 0
-1578 1576 1579 0
-1578 -1576 1580 0
1578 -1580 0
1576 -1580 0
-1392 -1577 1581 0
1392 -1581 0
1577 -1581 0
1580 1581 -1582 0
-1580 1582 0
-1581 1582 0
-1 -1583 1584 0
1 -1584 0
1583 -1584 0
-1399 -1584 -1585 0
1399 1584 -1585 0
1399 -1584 1585 0
-1399 1584 1585 0
-1399 -1584 1586 0
1399 -1586 0
1584 -1586 0
-4 -1583 1587 0
4 -1587 0
1583 -1587 0
-1405 -1587 -1588 0
1405 1587 -1588 0
1405 -1587 1588 0
-1405 1587 1588 0
-1588 -1586 -1589 0
1588 1586 -1589 0
1588 -1586 1589 0
-1588 1586 1589 0
-1588 -1586 1590 0
1588 -1590 0
1586 -1590 0
-1405 -1587 1591 0
1405 -1591 0
1587 -1591 0
1590 1591 -1592 0
-1590 1592 0
-1591 1592 0
-10 -1583 1593 0
10 -1593 0
1583 -1593 0
-1411 -1593 -1594 0
1411 1593 -1594 0
1411 -1593 1594 0
-1411 1593 1594 0
-1594 -1592 -1595 0
1594 1592 -1595 0
1594 -1592 1595 0
-1594 1592 1595 0
-1594 -1592 1596 0
1594 -1596 0
1592 -1596 0
-1411 -1593 1597 0
1411 -1597 0
1593 -1597 0
1596 1597 -1598 0
-1596 1598 0
-1597 1598 0
-18 -1583 1599 0
18 -1599 0
1583 -1599 0
-1417 -1599 -1600 0
1417 1599 -1600 0
1417 -1599 1600 0
-1417 1599 1600 0
-1600 -1598 -1601 0
1600 1598 -1601 0
1600 -1598 1601 0
-1600 1598 1601 0
-1600 -1598 1602 0
1600 -1602 0
1598 -1602 0
-1417 -1599 1603 0
1417 -1603 0
1599 -1603 0
1602 1603 -1604 0
-1602 1604 0
-1603 1604 0
-26 -1583 1605 0
26 -1605 0
1583 -1605 0
-1423 -1605 -1606 0
1423 1605 -1606 0
1423 -1605 1606 0
-1423 1605 1606 0
-1606 -1604 -1607 0
1606 1604 -1607 0
1606 -1604 1607 0
-1606 1604 1607 0
-1606 -1604 1608 0
1606 -1608 0
1604 -1608 0
-1423 -1605 1609 0
1423 -1609 0
1605 -1609 0
1608 1609 -1610 0
-1608 1610 0
-1609 1610 0
-34 -1583 1611 0
34 -1611 0
1583 -1611 0
-1429 -1611 -1612 0
1429 1611 -1612 0
1429 -1611 1612 0
-1429 1611 1612 0
-1612 -1610 -1613 0
1612 1610 -1613 0
1612 -1610 1613 0
-1612 1610 1613 0
-1612 -1610 1614 0
1612 -1614 0
1610 -1614 0
-1429 -1611 1615 0
1429 -1615 0
1611 -1615 0
1614 1615 -1616 0
-1614 1616 0
-1615 1616 0
-42 -1583 1617 0
42 -1617 0
1583 -1617 0
-1435 -1617 -1618 0
1435 1617 -1618 0
1435 -1617 1618 0
-1435 1617 1618 0
-1618 -1616 -1619 0
1618 1616 -1619 0
1618 -1616 1619 0
-1618 1616 1619 0
-1618 -1616 1620 0
1618 -1620 0
1616 -1620 0
-1435 -1617 1621 0
1435 -1621 0
1617 -1621 0
1620 1621 -1622 0
-1620 1622 0
-1621 1622 0
-50 -1583 1623 0
50 -1623 0
1583 -1623 0
-1441 -1623 -1624 0
1441 1623 -1624 0
1441 -1623 1624 0
-1441 1623 1624 0
-1624 -1622 -1625 0
1624 1622 -1625 0
1624 -1622 1625 0
-1624 1622 1625 0
-1624 -1622 1626 0
1624 -1626 0
1622 -1626 0
-1441 -1623 1627 0
1441 -1627 0
1623 -1627 0
1626 1627 -1628 0
-1626 1628 0
-1627 1628 0
-58 -1583 1629 0
58 -1629 0
1583 -1629 0
-1447 -1629 -1630 0
1447 1629 -1630 0
1447 -1629 1630 0
-1447 1629 1630 0
-1630 -1628 -1631 0
1630 1628 -1631 0
1630 -1628 1631 0
-1630 1628 1631 0
-1630 -1628 1632 0
1630 -1632 0
1628 -1632 0
-1447 -1629 1633 0
1447 -1633 0
1629 -1633 0
1632 1633 -1634 0
-1632 1634 0
-1633 1634 0
-66 -1583 1635 0
66 -1635 0
1583 -1635 0
-1453 -1635 -1636 0
1453 1635 -1636 0
1453 -1635 1636 0
-1453 1635 1636 0
-1636 -1634 -1637 0
1636 1634 -1637 0
1636 -1634 1637 0
-1636 1634 1637 0
-1636 -1634 1638 0
1636 -1638 0
1634 -1638 0
-1453 -1635 1639 0
1453 -1639 0
1635 -1639 0
1638 1639 -1640 0
-1638 1640 0
-1639 1640 0
-74 -1583 1641 0
74 -1641 0
1583 -1641 0
-1459 -1641 -1642 0
1459 1641 -1642 0
1459 -1641 1642 0
-1459 1641 1642 0
-1642 -1640 -1643 0
1642 1640 -1643 0
1642 -1640 1643 0
-1642 1640 1643 0
-1642 -1640 1644 0
1642 -1644 0
1640 -1644 0
-1459 -1641 1645 0
1459 -1645 0
1641 -1645 0
1644 1645 -1646 0
-1644 1646 0
-1645 1646 0
-82 -1583 1647 0
82 -1647 0
1583 -1647 0
-1465 -1647 -1648 0
1465 1647 -1648 0
1465 -1647 1648 0
-1465 1647 1648 0
-1648 -1646 -1649 0
1648 1646 -1649 0
1648 -1646 1649 0
-1648 1646 1649 0
-1648 -1646 1650 0
1648 -1650 0
1646 -1650 0
-1465 -1647 1651 0
1465 -1651 0
1647 -1651 0
1650 1651 -1652 0
-1650 1652 0
-1651 1652 0
-90 -1583 1653 0
90 -1653 0
1583 -1653 0
-1471 -1653 -1654 0
1471 1653 -1654 0
1471 -1653 1654 0
-1471 1653 1654 0
-1654 -1652 -1655 0
1654 1652 -1655 0
1654 -1652 1655 0
-1654 1652 1655 0
-1654 -1652 1656 0
1654 -1656 0
1652 -1656 0
-1471 -1653 1657 0
1471 -1657 0
1653 -1657 0
1656 1657 -1658 0
-1656 1658 0
-1657 1658 0
-98 -1583 1659 0
98 -1659 0
1583 -1659 0
-1477 -1659 -1660 0
1477 1659 -1660 0
1477 -1659 1660 0
-1477 1659 1660 0
-1660 -1658 -1661 0
1660 1658 -1661 0
1660 -1658 1661 0
-1660 1658 1661 0
-1660 -1658 1662 0
1660 -1662 0
1658 -1662 0
-1477 -1659 1663 0
1477 -1663 0
1659 -1663 0
1662 1663 -1664 0
-1662 1664 0
-1663 1664 0
-106 -1583 1665 0
106 -1665 0
1583 -1665 0
-1483 -1665 -1666 0
1483 1665 -1666 0
1483 -1665 1666 0
-1483 1665 1666 0
-1666 -1664 -1667 0
1666 1664 -1667 0
1666 -1664 1667 0
-1666 1664 1667 0
-1666 -1664 1668 0
1666 -1668 0
1664 -1668 0
-1483 -1665 1669 0
1483 -1669 0
1665 -1669 0
1668 1669 -1670 0
-1668 1670 0
-1669 1670 0
-114 -1583 1671 0
114 -1671 0
1583 -1671 0
-1489 -1671 -1672 0
1489 1671 -1672 0
1489 -1671 1672 0
-1489 1671 1672 0
-1672 -1670 -1673 0
1672 1670 -1673 0
1672 -1670 1673 0
-1672 1670 1673 0
-1672 -1670 1674 0
1672 -1674 0
1670 -1674 0
-1489 -1671 1675 0
1489 -1675 0
1671 -1675 0
1674 1675 -1676 0
-1674 1676 0
-1675 1676 0
-122 -1583 1677 0
122 -1677 0
1583 -1677 0
-1495 -1677 -1678 0
1495 1677 -1678 0
1495 -1677 1678 0
-1495 1677 1678 0
-1678 -1676 -1679 0
1678 1676 -1679 0
1678 -1676 1679 0
-1678 1676 1679 0
-1678 -1676 1680 0
1678 -1680 0
1676 -1680 0
-1495 -1677 1681 0
1495 -1681 0
1677 -1681 0
1680 1681 -1682 0
-1680 1682 0
-1681 1682 0
-130 -1583 1683 0
130 -1683 0
1583 -1683 0
-1501 -1683 -1684 0
1501 1683 -1684 0
1501 -1683 1684 0
-1501 1683 1684 0
-1684 -1682 -1685 0
1684 1682 -1685 0
1684 -1682 1685 0
-1684 1682 1685 0
-1684 -1682 1686 0
1684 -1686 0
1682 -1686 0
-1501 -1683 1687 0
1501 -1687 0
1683 -1687 0
1686 1687 -1688 0
-1686 1688 0
-1687 1688 0
-138 -1583 1689 0
138 -1689 0
1583 -1689 0
-1507 -1689 -1690 0
1507 1689 -1690 0
1507 -1689 1690 0
-1507 1689 1690 0
-1690 -1688 -1691 0
1690 1688 -1691 0
1690 -1688 1691 0
-1690 1688 1691 0
-1690 -1688 1692 0
1690 -1692 0
1688 -1692 0
-1507 -1689 1693 0
1507 -1693 0
1689 -1693 0
1692 1693 -1694 0
-1692 1694 0
-1693 1694 0
-146 -1583 1695 0
146 -1695 0
1583 -1695 0
-1513 -1695 -1696 0
1513 1695 -1696 0
1513 -1695 1696 0
-1513 1695 1696 0
-1696 -1694 -1697 0
1696 1694 -1697 0
1696 -1694 1697 0
-1696 1694 1697 0
-1696 -1694 1698 0
1696 -1698 0
1694 -1698 0
-1513 -1695 1699 0
1513 -1699 0
1695 -1699 0
1698 1699 -1700 0
-1698 1700 0
-1699 1700 0
-154 -1583 1701 0
154 -1701 0
1583 -1701 0
-1519 -1701 -1702 0
1519 1701 -1702 0
1519 -1701 1702 0
-1519 1701 1702 0
-1702 -1700 -1703 0
1702 1700 -1703 0
1702 -1700 1703 0
-1702 1700 1703 0
-1702 -1700 1704 0
1702 -1704 0
1700 -1704 0
-1519 -1701 1705 0
1519 -1705 0
1701 -1705 0
1704 1705 -1706 0
-1704 1706 0
-1705 1706 0
-162 -1583 1707 0
162 -1707 0
1583 -1707 0
-1525 -1707 -1708 0
1525 1707 -1708 0
1525 -1707 1708 0
-1525 1707 1708 0
-1708 -1706 -1709 0
1708 1706 -1709 0
1708 -1706 1709 0
-1708 1706 1709 0
-1708 -1706 1710 0
1708 -1710 0
1706 -1710 0
-1525 -1707 1711 0
1525 -1711 0
1707 -1711 0
1710 1711 -1712 0
-1710 1712 0
-1711 1712 0
-170 -1583 1713 0
170 -1713 0
1583 -1713 0
-1531 -1713 -1714 0
1531 1713 -1714 0
1531 -1713 1714 0
-1531 1713 1714 0
-1714 -1712 -1715 0
1714 1712 -1715 0
1714 -1712 1715 0
-1714 1712 1715 0
-1714 -1712 1716 0
1714 -1716 0
1712 -1716 0
-1531 -1713 1717 0
1531 -1717 0
1713 -1717 0
1716 1717 -1718 0
-1716 1718 0
-1717 1718 0
-178 -1583 1719 0
178 -1719 0
1583 -1719 0
-1537 -1719 -1720 0
1537 1719 -1720 0
1537 -1719 1720 0
-1537 1719 1720 0
-1720 -1718 -1721 0
1720 1718 -1721 0
1720 -1718 1721 0
-1720 1718 1721 0
-1720 -1718 1722 0
1720 -1722 0
1718 -1722 0
-1537 -1719 1723 0
1537 -1723 0
1719 -1723 0
1722 1723 -1724 0
-1722 1724 0
-1723 1724 0
-186 -1583 1725 0
186 -1725 0
1583 -1725 0
-1543 -1725 -1726 0
1543 1725 -1726 0
1543 -1725 1726 0
-1543 1725 1726 0
-1726 -1724 -1727 0
1726 1724 -1727 0
1726 -1724 1727 0
-1726 1724 1727 0
-1726 -1724 1728 0
1726 -1728 0
1724 -1728 0
-1543 -1725 1729 0
1543 -1729 0
1725 -1729 0
1728 1729 -1730 0
-1728 1730 0
-1729 1730 0
-194 -1583 1731 0
194 -1731 0
1583 -1731 0
-1549 -1731 -1732 0
1549 1731 -1732 0
1549 -1731 1732 0
-1549 1731 1732 0
-1732 -1730 -1733 0
1732 1730 -1733 0
1732 -1730 1733 0
-1732 1730 1733 0
-1732 -1730 1734 0
1732 -1734 0
1730 -1734 0
-1549 -1731 1735 0
1549 -1735 0
1731 -1735 0
1734 1735 -1736 0
-1734 1736 0
-1735 1736 0
-202 -1583 1737 0
202 -1737 0
1583 -1737 0
-1555 -1737 -1738 0
1555 1737 -1738 0
1555 -1737 1738 0
-1555 1737 1738 0
-1738 -1736 -1739 0
1738 1736 -1739 0
1738 -1736 1739 0
-1738 1736 1739 0
-1738 -1736 1740 0
1738 -1740 0
1736 -1740 0
-1555 -1737 1741 0
1555 -1741 0
1737 -1741 0
1740 1741 -1742 0
-1740 1742 0
-1741 1742 0
-210 -1583 1743 0
210 -1743 0
1583 -1743 0
-1561 -1743 -1744 0
1561 1743 -1744 0
1561 -1743 1744 0
-1561 1743 1744 0
-1744 -1742 -1745 0
1744 1742 -1745 0
1744 -1742 1745 0
-1744 1742 1745 0
-1744 -1742 1746 0
1744 -1746 0
1742 -1746 0
-1561 -1743 1747 0
1561 -1747 0
1743 -1747 0
1746 1747 -1748 0
-1746 1748 0
-1747 1748 0
-218 -1583 1749 0
218 -1749 0
1583 -1749 0
-1567 -1749 -1750 0
1567 1749 -1750 0
1567 -1749 1750 0
-1567 1749 1750 0
-1750 -1748 -1751 0
1750 1748 -1751 0
1750 -1748 1751 0
-1750 1748 1751 0
-1750 -1748 1752 0
1750 -1752 0
1748 -1752 0
-1567 -1749 1753 0
1567 -1753 0
1749 -1753 0
1752 1753 -1754 0
-1752 1754 0
-1753 1754 0
-226 -1583 1755 0
226 -1755 0
1583 -1755 0
-1573 -1755 -1756 0
1573 1755 -1756 0
1573 -1755 1756 0
-1573 1755 1756 0
-1756 -1754 -1757 0
1756 1754 -1757 0
1756 -1754 1757 0
-1756 1754 1757 0
-1756 -1754 1758 0
1756 -1758 0
1754 -1758 0
-1573 -1755 1759 0
1573 -1759 0
1755 -1759 0
1758 1759 -1760 0
-1758 1760 0
-1759 1760 0
-234 -1583 1761 0
234 -1761 0
1583 -1761 0
-1579 -1761 -1762 0
1579 1761 -1762 0
1579 -1761 1762 0
-1579 1761 1762 0
-1762 -1760 -1763 0
1762 1760 -1763 0
1762 -1760 1763 0
-1762 1760 1763 0
-1762 -1760 1764 0
1762 -1764 0
1760 -1764 0
-1579 -1761 1765 0
1579 -1765 0
1761 -1765 0
1764 1765 -1766 0
-1764 1766 0
-1765 1766 0
-242 -1583 1767 0
242 -1767 0
1583 -1767 0
-1582 -1767 -1768 0
1582 1767 -1768 0
1582 -1767 1768 0
-1582 1767 1768 0
-1768 -1766 -1769 0
1768 1766 -1769 0
1768 -1766 1769 0
-1768 1766 1769 0
-1768 -1766 1770 0
1768 -1770 0
1766 -1770 0
-1582 -1767 1771 0
1582 -1771 0
1767 -1771 0
1770 1771 -1772 0
-1770 1772 0
-1771 1772 0
-1 -1773 1774 0
1 -1774 0
1773 -1774 0
-1589 -1774 -1775 0
1589 1774 -1775 0
1589 -1774 1775 0
-1589 1774 1775 0
-1589 -1774 1776 0
1589 -1776 0
1774 -1776 0
-4 -1773 1777 0
4 -1777 0
1773 -1777 0
-1595 -1777 -1778 0
1595 1777 -1778 0
1595 -1777 1778 0
-1595 1777 1778 0
-1778 -1776 -1779 0
1778 1776 -1779 0
1778 -1776 1779 0
-1778 1776 1779 0
-1778 -1776 1780 0
1778 -1780 0
1776 -1780 0
-1595 -1777 1781 0
1595 -1781 0
1777 -1781 0
1780 1781 -1782 0
-1780 1782 0
-1781 1782 0
-10 -1773 1783 0
10 -1783 0
1773 -1783 0
-1601 -1783 -1784 0
1601 1783 -1784 0
1601 -1783 1784 0
-1601 1783 1784 0
-1784 -1782 -1785 0
1784 1782 -1785 0
1784 -1782 1785 0
-1784 1782 1785 0
-1784 -1782 1786 0
1784 -1786 0
1782 -1786 0
-1601 -1783 1787 0
1601 -1787 0
1783 -1787 0
1786 1787 -1788 0
-1786 1788 0
-1787 1788 0
-18 -1773 1789 0
18 -1789 0
1773 -1789 0
-1607 -1789 -1790 0
1607 1789 -1790 0
1607 -1789 1790 0
-1607 1789 1790 0
-1790 -1788 -1791 0
1790 1788 -1791 0
1790 -1788 1791 0
-1790 1788 1791 0
-1790 -1788 1792 0
1790 -1792 0
1788 -1792 0
-1607 -1789 1793 0
1607 -1793 0
1789 -1793 0
1792 1793 -1794 0
-1792 1794 0
-1793 1794 0
-26 -1773 1795 0
26 -1795 0
1773 -1795 0
-1613 -1795 -1796 0
1613 1795 -1796 0
1613 -1795 1796 0
-1613 1795 1796 0
-1796 -1794 -1797 0
1796 1794 -1797 0
1796 -1794 1797 0
-1796 1794 1797 0
-1796 -1794 1798 0
1796 -1798 0
1794 -1798 0
-1613 -1795 1799 0
1613 -1799 0
1795 -1799 0
1798 1799 -1800 0
-1798 1800 0
-1799 1800 0
-34 -1773 1801 0
34 -1801 0
1773 -1801 0
-1619 -1801 -1802 0
1619 1801 -1802 0
1619 -1801 1802 0
-1619 1801 1802 0
-1802 -1800 -1803 0
1802 1800 -1803 0
1802 -1800 1803 0
-1802 1800 1803 0
-1802 -1800 1804 0
1802 -1804 0
1800 -1804 0
-1619 -1801 1805 0
1619 -1805 0
1801 -1805 0
1804 1805 -1806 0
-1804 1806 0
-1805 1806 0
-42 -1773 1807 0
42 -1807 0
1773 -1807 0
-1625 -1807 -1808 0
1625 1807 -1808 0
1625 -1807 1808 0
-1625 1807 1808 0
-1808 -1806 -1809 0
1808 1806 -1809 0
1808 -1806 1809 0
-1808 1806 1809 0
-1808 -1806 1810 0
1808 -1810 0
1806 -1810 0
-1625 -1807 1811 0
1625 -1811 0
1807 -1811 0
1810 1811 -1812 0
-1810 1812 0
-1811 1812 0
-50 -1773 1813 0
50 -1813 0
1773 -1813 0
-1631 -1813 -1814 0
1631 1813 -1814 0
1631 -1813 1814 0
-1631 1813 1814 0
-1814 -1812 -1815 0
1814 1812 -1815 0
1814 -1812 1815 0
-1814 1812 1815 0
-1814 -1812 1816 0
1814 -1816 0
1812 -1816 0
-1631 -1813 1817 0
1631 -1817 0
1813 -1817 0
1816 1817 -1818 0
-1816 1818 0
-1817 1818 0
-58 -1773 1819 0
58 -1819 0
1773 -1819 0
-1637 -1819 -1820 0
1637 1819 -1820 0
1637 -1819 1820 0
-1637 1819 1820 0
-1820 -1818 -1821 0
1820 1818 -1821 0
1820 -1818 1821 0
-1820 1818 1821 0
-1820 -1818 1822 0
1820 -1822 0
1818 -1822 0
-1637 -1819 1823 0
1637 -1823 0
1819 -1823 0
1822 1823 -1824 0
-1822 1824 0
-1823 1824 0
-66 -1773 1825 0
66 -1825 0
1773 -1825 0
-1643 -1825 -1826 0
1643 1825 -1826 0
1643 -1825 1826 0
-1643 1825 1826 0
-1826 -1824 -1827 0
1826 1824 -1827 0
1826 -1824 1827 0
-1826 1824 1827 0
-1826 -1824 1828 0
1826 -1828 0
1824 -1828 0
-1643 -1825 1829 0
1643 -1829 0
1825 -1829 0
1828 1829 -1830 0
-1828 1830 0
-1829 1830 0
-74 -1773 1831 0
74 -1831 0
1773 -1831 0
-1649 -1831 -1832 0
1649 1831 -1832 0
1649 -1831 1832 0
-1649 1831 1832 0
-1832 -1830 -1833 0
1832 1830 -1833 0
1832 -1830 1833 0
-1832 1830 1833 0
-1832 -1830 1834 0
1832 -1834 0
1830 -1834 0
-1649 -1831 1835 0
1649 -1835 0
1831 -1835 0
1834 1835 -1836 0
-1834 1836 0
-1835 1836 0
-82 -1773 1837 0
82 -1837 0
1773 -1837 0
-1655 -1837 -1838 0
1655 1837 -1838 0
1655 -1837 1838 0
-1655 1837 1838 0
-1838 -1836 -1839 0
1838 1836 -1839 0
1838 -1836 1839 0
-1838 1836 1839 0
-1838 -1836 1840 0
1838 -1840 0
1836 -1840 0
-1655 -1837 1841 0
1655 -1841 0
1837 -1841 0
1840 1841 -1842 0
-1840 1842 0
-1841 1842 0
-90 -1773 1843 0
90 -1843 0
1773 -1843 0
-1661 -1843 -1844 0
1661 1843 -1844 0
1661 -1843 1844 0
-1661 1843 1844 0
-1844 -1842 -1845 0
1844 1842 -1845 0
1844 -1842 1845 0
-1844 1842 1845 0
-1844 -1842 1846 0
1844 -1846 0
1842 -1846 0
-1661 -1843 1847 0
1661 -1847 0
1843 -1847 0
1846 1847 -1848 0
-1846 1848 0
-1847 1848 0
-98 -1773 1849 0
98 -1849 0
1773 -1849 0
-1667 -1849 -1850 0
1667 1849 -1850 0
1667 -1849 1850 0
-1667 1849 1850 0
-1850 -1848 -1851 0
1850 1848 -1851 0
1850 -1848 1851 0
-1850 1848 1851 0
-1850 -1848 1852 0
1850 -1852 0
1848 -1852 0
-1667 -1849 1853 0
1667 -1853 0
1849 -1853 0
1852 1853 -1854 0
-1852 1854 0
-1853 1854 0
-106 -1773 1855 0
106 -1855 0
1773 -1855 0
-1673 -1855 -1856 0
1673 1855 -1856 0
1673 -1855 1856 0
-1673 1855 1856 0
-1856 -1854 -1857 0
1856 1854 -1857 0
1856 -1854 1857 0
-1856 1854 1857 0
-1856 -1854 1858 0
1856 -1858 0
1854 -1858 0
-1673 -1855 1859 0
1673 -1859 0
1855 -1859 0
1858 1859 -1860 0
-1858 1860 0
-1859 1860 0
-114 -1773 1861 0
114 -1861 0
1773 -1861 0
-1679 -1861 -1862 0
1679 1861 -1862 0
1679 -1861 1862 0
-1679 1861 1862 0
-1862 -1860 -1863 0
1862 1860 -1863 0
1862 -1860 1863 0
-1862 1860 1863 0
-1862 -1860 1864 0
1862 -1864 0
1860 -1864 0
-1679 -1861 1865 0
1679 -1865 0
1861 -1865 0
1864 1865 -1866 0
-1864 1866 0
-1865 1866 0
-122 -1773 1867 0
122 -1867 0
1773 -1867 0
-1685 -1867 -1868 0
1685 1867 -1868 0
1685 -1867 1868 0
-1685 1867 1868 0
-1868 -1866 -1869 0
1868 1866 -1869 0
1868 -1866 1869 0
-1868 1866 1869 0
-1868 -1866 1870 0
1868 -1870 0
1866 -1870 0
-1685 -1867 1871 0
1685 -1871 0
1867 -1871 0
1870 1871 -1872 0
-1870 1872 0
-1871 1872 0
-130 -1773 1873 0
130 -1873 0
1773 -1873 0
-1691 -1873 -1874 0
1691 1873 -1874 0
1691 -1873 1874 0
-1691 1873 1874 0
-1874 -1872 -1875 0
1874 1872 -1875 0
1874 -1872 1875 0
-1874 1872 1875 0
-1874 -1872 1876 0
1874 -1876 0
1872 -1876 0
-1691 -1873 1877 0
1691 -1877 0
1873 -1877 0
1876 1877 -1878 0
-1876 1878 0
-1877 1878 0
-138 -1773 1879 0
138 -1879 0
1773 -1879 0
-1697 -1879 -1880 0
1697 1879 -1880 0
1697 -1879 1880 0
-1697 1879 1880 0
-1880 -1878 -1881 0
1880 1878 -1881 0
1880 -1878 1881 0
-1880 1878 1881 0
-1880 -1878 1882 0
1880 -1882 0
1878 -1882 0
-1697 -1879 1883 0
1697 -1883 0
1879 -1883 0
1882 1883 -1884 0
-1882 1884 0
-1883 1884 0
-146 -1773 1885 0
146 -1885 0
1773 -1885 0
-1703 -1885 -1886 0
1703 1885 -1886 0
1703 -1885 1886 0
-1703 1885 1886 0
-1886 -1884 -1887 0
1886 1884 -1887 0
1886 -1884 1887 0
-1886 1884 1887 0
-1886 -1884 1888 0
1886 -1888 0
1884 -1888 0
-1703 -1885 1889 0
1703 -1889 0
1885 -1889 0
1888 1889 -1890 0
-1888 1890 0
-1889 1890 0
-154 -1773 1891 0
154 -1891 0
1773 -1891 0
-1709 -1891 -1892 0
1709 1891 -1892 0
1709 -1891 1892 0
-1709 1891 1892 0
-1892 -1890 -1893 0
1892 1890 -1893 0
1892 -1890 1893 0
-1892 1890 1893 0
-1892 -1890 1894 0
1892 -1894 0
1890 -1894 0
-1709 -1891 1895 0
1709 -1895 0
1891 -1895 0
1894 1895 -1896 0
-1894 1896 0
-1895 1896 0
-162 -1773 1897 0
162 -1897 0
1773 -1897 0
-1715 -1897 -1898 0
1715 1897 -1898 0
1715 -1897 1898 0
-1715 1897 1898 0
-1898 -1896 -1899 0
1898 1896 -1899 0
1898 -1896 1899 0
-1898 1896 1899 0
-1898 -1896 1900 0
1898 -1900 0
1896 -1900 0
-1715 -1897 1901 0
1715 -1901 0
1897 -1901 0
1900 1901 -1902 0
-1900 1902 0
-1901 1902 0
-170 -1773 1903 0
170 -1903 0
1773 -1903 0
-1721 -1903 -1904 0
1721 1903 -1904 0
1721 -1903 1904 0
-1721 1903 1904 0
-1904 -1902 -1905 0
1904 1902 -1905 0
1904 -1902 1905 0
-1904 1902 1905 0
-1904 -1902 1906 0
1904 -1906 0
1902 -1906 0
-1721 -1903 1907 0
1721 -1907 0
1903 -1907 0
1906 1907 -1908 0
-1906 1908 0
-1907 1908 0
-178 -1773 1909 0
178 -1909 0
1773 -1909 0
-1727 -1909 -1910 0
1727 1909 -1910 0
1727 -1909 1910 0
-1727 1909 1910 0
-1910 -1908 -1911 0
1910 1908 -1911 0
1910 -1908 1911 0
-1910 1908 1911 0
-1910 -1908 1912 0
1910 -1912 0
1908 -1912 0
-1727 -1909 1913 0
1727 -1913 0
1909 -1913 0
1912 1913 -1914 0
-1912 1914 0
-1913 1914 0
-186 -1773 1915 0
186 -1915 0
1773 -1915 0
-1733 -1915 -1916 0
1733 1915 -1916 0
1733 -1915 1916 0
-1733 1915 1916 0
-1916 -1914 -1917 0
1916 1914 -1917 0
1916 -1914 1917 0
-1916 1914 1917 0
-1916 -1914 1918 0
1916 -1918 0
1914 -1918 0
-1733 -1915 1919 0
1733 -1919 0
1915 -1919 0
1918 1919 -1920 0
-1918 1920 0
-1919 1920 0
-194 -1773 1921 0
194 -1921 0
1773 -1921 0
-1739 -1921 -1922 0
1739 1921 -1922 0
1739 -1921 1922 0
-1739 1921 1922 0
-1922 -1920 -1923 0
1922 1920 -1923 0
1922 -1920 1923 0
-1922 1920 1923 0
-1922 -1920 1924 0
1922 -1924 0
1920 -1924 0
-1739 -1921 1925 0
1739 -1925 0
1921 -1925 0
1924 1925 -1926 0
-1924 1926 0
-1925 1926 0
-202 -1773 1927 0
202 -1927 0
1773 -1927 0
-1745 -1927 -1928 0
1745 1927 -1928 0
1745 -1927 1928 0
-1745 1927 1928 0
-1928 -1926 -1929 0
1928 1926 -1929 0
1928 -1926 1929 0
-1928 1926 1929 0
-1928 -1926 1930 0
1928 -1930 0
1926 -1930 0
-1745 -1927 1931 0
1745 -1931 0
1927 -1931 0
1930 1931 -1932 0
-1930 1932 0
-1931 1932 0
-210 -1773 1933 0
210 -1933 0
1773 -1933 0
-1751 -1933 -1934 0
1751 1933 -1934 0
1751 -1933 1934 0
-1751 1933 1934 0
-1934 -1932 -1935 0
1934 1932 -1935 0
1934 -1932 1935 0
-1934 1932 1935 0
-1934 -1932 1936 0
1934 -1936 0
1932 -1936 0
-1751 -1933 1937 0
1751 -1937 0
1933 -1937 0
1936 1937 -1938 0
-1936 1938 0
-1937 1938 0
-218 -1773 1939 0
218 -1939 0
1773 -1939 0
-1757 -1939 -1940 0
1757 1939 -1940 0
1757 -1939 1940 0
-1757 1939 1940 0
-1940 -1938 -1941 0
1940 1938 -1941 0
1940 -1938 1941 0
-1940 1938 1941 0
-1940 -1938 1942 0
1940 -1942 0
1938 -1942 0
-1757 -1939 1943 0
1757 -1943 0
1939 -1943 0
1942 1943 -1944 0
-1942 1944 0
-1943 1944 0
-226 -1773 1945 0
226 -1945 0
1773 -1945 0
-1763 -1945 -1946 0
1763 1945 -1946 0
1763 -1945 1946 0
-1763 1945 1946 0
-1946 -1944 -1947 0
1946 1944 -1947 0
1946 -1944 1947 0
-1946 1944 1947 0
-1946 -1944 1948 0
1946 -1948 0
1944 -1948 0
-1763 -1945 1949 0
1763 -1949 0
1945 -1949 0
1948 1949 -1950 0
-1948 1950 0
-1949 1950 0
-234 -1773 1951 0
234 -1951 0
1773 -1951 0
-1769 -1951 -1952 0
1769 1951 -1952 0
1769 -1951 1952 0
-1769 1951 1952 0
-1952 -1950 -1953 0
1952 1950 -1953 0
1952 -1950 1953 0
-1952 1950 1953 0
-1952 -1950 1954 0
1952 -1954 0
1950 -1954 0
-1769 -1951 1955 0
1769 -1955 0
1951 -1955 0
1954 1955 -1956 0
-1954 1956 0
-1955 1956 0
-242 -1773 1957 0
242 -1957 0
1773 -1957 0
-1772 -1957 -1958 0
1772 1957 -1958 0
1772 -1957 1958 0
-1772 1957 1958 0
-1958 -1956 -1959 0
1958 1956 -1959 0
1958 -1956 1959 0
-1958 1956 1959 0
-1958 -1956 1960 0
1958 -1960 0
1956 -1960 0
-1772 -1957 1961 0
1772 -1961 0
1957 -1961 0
1960 1961 -1962 0
-1960 1962 0
-1961 1962 0
-1 -1963 1964 0
1 -1964 0
1963 -1964 0
-1779 -1964 -1965 0
1779 1964 -1965 0
1779 -1964 1965 0
-1779 1964 1965 0
-1779 -1964 1966 0
1779 -1966 0
1964 -1966 0
-4 -1963 1967 0
4 -1967 0
1963 -1967 0
-1785 -1967 -1968 0
1785 1967 -1968 0
1785 -1967 1968 0
-1785 1967 1968 0
-1968 -1966 -1969 0
1968 1966 -1969 0
1968 -1966 1969 0
-1968 1966 1969 0
-1968 -1966 1970 0
1968 -1970 0
1966 -1970 0
-1785 -1967 1971 0
1785 -1971 0
1967 -1971 0
1970 1971 -1972 0
-1970 1972 0
-1971 1972 0
-10 -1963 1973 0
10 -1973 0
1963 -1973 0
-1791 -1973 -1974 0
1791 1973 -1974 0
1791 -1973 1974 0
-1791 1973 1974 0
-1974 -1972 -1975 0
1974 1972 -1975 0
1974 -1972 1975 0
-1974 1972 1975 0
-1974 -1972 1976 0
1974 -1976 0
1972 -1976 0
-1791 -1973 1977 0
1791 -1977 0
1973 -1977 0
1976 1977 -1978 0
-1976 1978 0
-1977 1978 0
-18 -1963 1979 0
18 -1979 0
1963 -1979 0
-1797 -1979 -1980 0
1797 1979 -1980 0
1797 -1979 1980 0
-1797 1979 1980 0
-1980 -1978 -1981 0
1980 1978 -1981 0
1980 -1978 1981 0
-1980 1978 1981 0
-1980 -1978 1982 0
1980 -1982 0
1978 -1982 0
-1797 -1979 1983 0
1797 -1983 0
1979 -1983 0
1982 1983 -1984 0
-1982 1984 0
-1983 1984 0
-26 -1963 1985 0
26 -1985 0
1963 -1985 0
-1803 -1985 -1986 0
1803 1985 -1986 0
1803 -1985 1986 0
-1803 1985 1986 0
-1986 -1984 -1987 0
1986 1984 -1987 0
1986 -1984 1987 0
-1986 1984 1987 0
-1986 -1984 1988 0
1986 -1988 0
1984 -1988 0
-1803 -1985 1989 0
1803 -1989 0
1985 -1989 0
1988 1989 -1990 0
-1988 1990 0
-1989 1990 0
-34 -1963 1991 0
34 -1991 0
1963 -1991 0
-1809 -1991 -1992 0
1809 1991 -1992 0
1809 -1991 1992 0
-1809 1991 1992 0
-1992 -1990 -1993 0
1992 1990 -1993 0
1992 -1990 1993 0
-1992 1990 1993 0
-1992 -1990 1994 0
1992 -1994 0
1990 -1994 0
-1809 -1991 1995 0
1809 -1995 0
1991 -1995 0
1994 1995 -1996 0
-1994 1996 0
-1995 1996 0
-42 -1963 1997 0
42 -1997 0
1963 -1997 0
-1815 -1997 -1998 0
1815 1997 -1998 0
1815 -1997 1998 0
-1815 1997 1998 0
-1998 -1996 -1999 0
1998 1996 -1999 0
1998 -1996 1999 0
-1998 1996 1999 0
-1998 -1996 2000 0
1998 -2000 0
1996 -2000 0
-1815 -1997 2001 0
1815 -2001 0
1997 -2001 0
2000 2001 -2002 0
-2000 2002 0
-2001 2002 0
-50 -1963 2003 0
50 -2003 0
1963 -2003 0
-1821 -2003 -2004 0
1821 2003 -2004 0
1821 -2003 2004 0
-1821 2003 2004 0
-2004 -2002 -2005 0
2004 2002 -2005 0
2004 -2002 2005 0
-2004 2002 2005 0
-2004 -2002 2006 0
2004 -2006 0
2002 -2006 0
-1821 -2003 2007 0
1821 -2007 0
2003 -2007 0
2006 2007 -2008 0
-2006 2008 0
-2007 2008 0
-58 -1963 2009 0
58 -2009 0
1963 -2009 0
-1827 -2009 -2010 0
1827 2009 -2010 0
1827 -2009 2010 0
-1827 2009 2010 0
-2010 -2008 -2011 0
2010 2008 -2011 0
2010 -2008 2011 0
-2010 2008 2011 0
-2010 -2008 2012 0
2010 -2012 0
2008 -2012 0
-1827 -2009 2013 0
1827 -2013 0
2009 -2013 0
2012 2013 -2014 0
-2012 2014 0
-2013 2014 0
-66 -1963 2015 0
66 -2015 0
1963 -2015 0
-1833 -2015 -2016 0
1833 2015 -2016 0
1833 -2015 2016 0
-1833 2015 2016 0
-2016 -2014 -2017 0
2016 2014 -2017 0
2016 -2014 2017 0
-2016 2014 2017 0
-2016 -2014 2018 0
2016 -2018 0
2014 -2018 0
-1833 -2015 2019 0
1833 -2019 0
2015 -2019 0
2018 2019 -2020 0
-2018 2020 0
-2019 2020 0
-74 -1963 2021 0
74 -2021 0
1963 -2021 0
-1839 -2021 -2022 0
1839 2021 -2022 0
1839 -2021 2022 0
-1839 2021 2022 0
-2022 -2020 -2023 0
2022 2020 -2023 0
2022 -2020 2023 0
-2022 2020 2023 0
-2022 -2020 2024 0
2022 -2024 0
2020 -2024 0
-1839 -2021 2025 0
1839 -2025 0
2021 -2025 0
2024 2025 -2026 0
-2024 2026 0
-2025 2026 0
-82 -1963 2027 0
82 -2027 0
1963 -2027 0
-1845 -2027 -2028 0
1845 2027 -2028 0
1845 -2027 2028 0
-1845 2027 2028 0
-2028 -2026 -2029 0
2028 2026 -2029 0
2028 -2026 2029 0
-2028 2026 2029 0
-2028 -2026 2030 0
2028 -2030 0
2026 -2030 0
-1845 -2027 2031 0
1845 -2031 0
2027 -2031 0
2030 2031 -2032 0
-2030 2032 0
-2031 2032 0
-90 -1963 2033 0
90 -2033 0
1963 -2033 0
-1851 -2033 -2034 0
1851 2033 -2034 0
1851 -2033 2034 0
-1851 2033 2034 0
-2034 -2032 -2035 0
2034 2032 -2035 0
2034 -2032 2035 0
-2034 2032 2035 0
-2034 -2032 2036 0
2034 -2036 0
2032 -2036 0
-1851 -2033 2037 0
1851 -2037 0
2033 -2037 0
2036 2037 -2038 0
-2036 2038 0
-2037 2038 0
-98 -1963 2039 0
98 -2039 0
1963 -2039 0
-1857 -2039 -2040 0
1857 2039 -2040 0
1857 -2039 2040 0
-1857 2039 2040 0
-2040 -2038 -2041 0
2040 2038 -2041 0
2040 -2038 2041 0
-2040 2038 2041 0
-2040 -2038 2042 0
2040 -2042 0
2038 -2042 0
-1857 -2039 2043 0
1857 -2043 0
2039 -2043 0
2042 2043 -2044 0
-2042 2044 0
-2043 2044 0
-106 -1963 2045 0
106 -2045 0
1963 -2045 0
-1863 -2045 -2046 0
1863 2045 -2046 0
1863 -2045 2046 0
-1863 2045 2046 0
-2046 -2044 -2047 0
2046 2044 -2047 0
2046 -2044 2047 0
-2046 2044 2047 0
-2046 -2044 2048 0
2046 -2048 0
2044 -2048 0
-1863 -2045 2049 0
1863 -2049 0
2045 -2049 0
2048 2049 -2050 0
-2048 2050 0
-2049 2050 0
-114 -1963 2051 0
114 -2051 0
1963 -2051 0
-1869 -2051 -2052 0
1869 2051 -2052 0
1869 -2051 2052 0
-1869 2051 2052 0
-2052 -2050 -2053 0
2052 2050 -2053 0
2052 -2050 2053 0
-2052 2050 2053 0
-2052 -2050 2054 0
2052 -2054 0
2050 -2054 0
-1869 -2051 2055 0
1869 -2055 0
2051 -2055 0
2054 2055 -2056 0
-2054 2056 0
-2055 2056 0
-122 -1963 2057 0
122 -2057 0
1963 -2057 0
-1875 -2057 -2058 0
1875 2057 -2058 0
1875 -2057 2058 0
-1875 2057 2058 0
-2058 -2056 -2059 0
2058 2056 -2059 0
2058 -2056 2059 0
-2058 2056 2059 0
-2058 -2056 2060 0
2058 -2060 0
2056 -2060 0
-1875 -2057 2061 0
1875 -2061 0
2057 -2061 0
2060 2061 -2062 0
-2060 2062 0
-2061 2062 0
-130 -1963 2063 0
130 -2063 0
1963 -2063 0
-1881 -2063 -2064 0
1881 2063 -2064 0
1881 -2063 2064 0
-1881 2063 2064 0
-2064 -2062 -2065 0
2064 2062 -2065 0
2064 -2062 2065 0
-2064 2062 2065 0
-2064 -2062 2066 0
2064 -2066 0
2062 -2066 0
-1881 -2063 2067 0
1881 -2067 0
2063 -2067 0
2066 2067 -2068 0
-2066 2068 0
-2067 2068 0
-138 -1963 2069 0
138 -2069 0
1963 -2069 0
-1887 -2069 -2070 0
1887 2069 -2070 0
1887 -2069 2070 0
-1887 2069 2070 0
-2070 -2068 -2071 0
2070 2068 -2071 0
2070 -2068 2071 0
-2070 2068 2071 0
-2070 -2068 2072 0
2070 -2072 0
2068 -2072 0
-1887 -2069 2073 0
1887 -2073 0
2069 -2073 0
2072 2073 -2074 0
-2072 2074 0
-2073 2074 0
-146 -1963 2075 0
146 -2075 0
1963 -2075 0
-1893 -2075 -2076 0
1893 2075 -2076 0
1893 -2075 2076 0
-1893 2075 2076 0
-2076 -2074 -2077 0
2076 2074 -2077 0
2076 -2074 2077 0
-2076 2074 2077 0
-2076 -2074 2078 0
2076 -2078 0
2074 -2078 0
-1893 -2075 2079 0
1893 -2079 0
2075 -2079 0
2078 2079 -2080 0
-2078 2080 0
-2079 2080 0
-154 -1963 2081 0
154 -2081 0
1963 -2081 0
-1899 -2081 -2082 0
1899 2081 -2082 0
1899 -2081 2082 0
-1899 2081 2082 0
-2082 -2080 -2083 0
2082 2080 -2083 0
2082 -2080 2083 0
-2082 2080 2083 0
-2082 -2080 2084 0
2082 -2084 0
2080 -2084 0
-1899 -2081 2085 0
1899 -2085 0
2081 -2085 0
2084 2085 -2086 0
-2084 2086 0
-2085 2086 0
-162 -1963 2087 0
162 -2087 0
1963 -2087 0
-1905 -2087 -2088 0
1905 2087 -2088 0
1905 -2087 2088 0
-1905 2087 2088 0
-2088 -2086 -2089 0
2088 2086 -2089 0
2088 -2086 2089 0
-2088 2086 2089 0
-2088 -2086 2090 0
2088 -2090 0
2086 -2090 0
-1905 -2087 2091 0
1905 -2091 0
2087 -2091 0
2090 2091 -2092 0
-2090 2092 0
-2091 2092 0
-170 -1963 2093 0
170 -2093 0
1963 -2093 0
-1911 -2093 -2094 0
1911 2093 -2094 0
1911 -2093 2094 0
-1911 2093 2094 0
-2094 -2092 -2095 0
2094 2092 -2095 0
2094 -2092 2095 0
-2094 2092 2095 0
-2094 -2092 2096 0
2094 -2096 0
2092 -2096 0
-1911 -2093 2097 0
1911 -2097 0
2093 -2097 0
2096 2097 -2098 0
-2096 2098 0
-2097 2098 0
-178 -1963 2099 0
178 -2099 0
1963 -2099 0
-1917 -2099 -2100 0
1917 2099 -2100 0
1917 -2099 2100 0
-1917 2099 2100 0
-2100 -2098 -2101 0
2100 2098 -2101 0
2100 -2098 2101 0
-2100 2098 2101 0
-2100 -2098 2102 0
2100 -2102 0
2098 -2102 0
-1917 -2099 2103 0
1917 -2103 0
2099 -2103 0
2102 2103 -2104 0
-2102 2104 0
-2103 2104 0
-186 -1963 2105 0
186 -2105 0
1963 -2105 0
-1923 -2105 -2106 0
1923 2105 -2106 0
1923 -2105 2106 0
-1923 2105 2106 0
-2106 -2104 -2107 0
2106 2104 -2107 0
2106 -2104 2107 0
-2106 2104 2107 0
-2106 -2104 2108 0
2106 -2108 0
2104 -2108 0
-1923 -2105 2109 0
1923 -2109 0
2105 -2109 0
2108 2109 -2110 0
-2108 2110 0
-2109 2110 0
-194 -1963 2111 0
194 -2111 0
1963 -2111 0
-1929 -2111 -2112 0
1929 2111 -2112 0
1929 -2111 2112 0
-1929 2111 2112 0
-2112 -2110 -2113 0
2112 2110 -2113 0
2112 -2110 2113 0
-2112 2110 2113 0
-2112 -2110 2114 0
2112 -2114 0
2110 -2114 0
-1929 -2111 2115 0
1929 -2115 0
2111 -2115 0
2114 2115 -2116 0
-2114 2116 0
-2115 2116 0
-202 -1963 2117 0
202 -2117 0
1963 -2117 0
-1935 -2117 -2118 0
1935 2117 -2118 0
1935 -2117 2118 0
-1935 2117 2118 0
-2118 -2116 -2119 0
2118 2116 -2119 0
2118 -2116 2119 0
-2118 2116 2119 0
-2118 -2116 2120 0
2118 -2120 0
2116 -2120 0
-1935 -2117 2121 0
1935 -2121 0
2117 -2121 0
2120 2121 -2122 0
-2120 2122 0
-2121 2122 0
-210 -1963 2123 0
210 -2123 0
1963 -2123 0
-1941 -2123 -2124 0
1941 2123 -2124 0
1941 -2123 2124 0
-1941 2123 2124 0
-2124 -2122 -2125 0
2124 2122 -2125 0
2124 -2122 2125 0
-2124 2122 2125 0
-2124 -2122 2126 0
2124 -2126 0
2122 -2126 0
-1941 -2123 2127 0
1941 -2127 0
2123 -2127 0
2126 2127 -2128 0
-2126 2128 0
-2127 2128 0
-218 -1963 2129 0
218 -2129 0
1963 -2129 0
-1947 -2129 -2130 0
1947 2129 -2130 0
1947 -2129 2130 0
-1947 2129 2130 0
-2130 -2128 -2131 0
2130 2128 -2131 0
2130 -2128 2131 0
-2130 2128 2131 0
-2130 -2128 2132 0
2130 -2132 0
2128 -2132 0
-1947 -2129 2133 0
1947 -2133 0
2129 -2133 0
2132 2133 -2134 0
-2132 2134 0
-2133 2134 0
-226 -1963 2135 0
226 -2135 0
1963 -2135 0
-1953 -2135 -2136 0
1953 2135 -2136 0
1953 -2135 2136 0
-1953 2135 2136 0
-2136 -2134 -2137 0
2136 2134 -2137 0
2136 -2134 2137 0
-2136 2134 2137 0
-2136 -2134 2138 0
2136 -2138 0
2134 -2138 0
-1953 -2135 2139 0
1953 -2139 0
2135 -2139 0
2138 2139 -2140 0
-2138 2140 0
-2139 2140 0
-234 -1963 2141 0
234 -2141 0
1963 -2141 0
-1959 -2141 -2142 0
1959 2141 -2142 0
1959 -2141 2142 0
-1959 2141 2142 0
-2142 -2140 -2143 0
2142 2140 -2143 0
2142 -2140 2143 0
-2142 2140 2143 0
-2142 -2140 2144 0
2142 -2144 0
2140 -2144 0
-1959 -2141 2145 0
1959 -2145 0
2141 -2145 0
2144 2145 -2146 0
-2144 2146 0
-2145 2146 0
-242 -1963 2147 0
242 -2147 0
1963 -2147 0
-1962 -2147 -2148 0
1962 2147 -2148 0
1962 -2147 2148 0
-1962 2147 2148 0
-2148 -2146 -2149 0
2148 2146 -2149 0
2148 -2146 2149 0
-2148 2146 2149 0
-2148 -2146 2150 0
2148 -2150 0
2146 -2150 0
-1962 -2147 2151 0
1962 -2151 0
2147 -2151 0
2150 2151 -2152 0
-2150 2152 0
-2151 2152 0
-1 -2153 2154 0
1 -2154 0
2153 -2154 0
-1969 -2154 -2155 0
1969 2154 -2155 0
1969 -2154 2155 0
-1969 2154 2155 0
-1969 -2154 2156 0
1969 -2156 0
2154 -2156 0
-4 -2153 2157 0
4 -2157 0
2153 -2157 0
-1975 -2157 -2158 0
1975 2157 -2158 0
1975 -2157 2158 0
-1975 2157 2158 0
-2158 -2156 -2159 0
2158 2156 -2159 0
2158 -2156 2159 0
-2158 2156 2159 0
-2158 -2156 2160 0
2158 -2160 0
2156 -2160 0
-1975 -2157 2161 0
1975 -2161 0
2157 -2161 0
2160 2161 -2162 0
-2160 2162 0
-2161 2162 0
-10 -2153 2163 0
10 -2163 0
2153 -2163 0
-1981 -2163 -2164 0
1981 2163 -2164 0
1981 -2163 2164 0
-1981 2163 2164 0
-2164 -2162 -2165 0
2164 2162 -2165 0
2164 -2162 2165 0
-2164 2162 2165 0
-2164 -2162 2166 0
2164 -2166 0
2162 -2166 0
-1981 -2163 2167 0
1981 -2167 0
2163 -2167 0
2166 2167 -2168 0
-2166 2168 0
-2167 2168 0
-18 -2153 2169 0
18 -2169 0
2153 -2169 0
-1987 -2169 -2170 0
1987 2169 -2170 0
1987 -2169 2170 0
-1987 2169 2170 0
-2170 -2168 -2171 0
2170 2168 -2171 0
2170 -2168 2171 0
-2170 2168 2171 0
-2170 -2168 2172 0
2170 -2172 0
2168 -2172 0
-1987 -2169 2173 0
1987 -2173 0
2169 -2173 0
2172 2173 -2174 0
-2172 2174 0
-2173 2174 0
-26 -2153 2175 0
26 -2175 0
2153 -2175 0
-1993 -2175 -2176 0
1993 2175 -2176 0
1993 -2175 2176 0
-1993 2175 2176 0
-2176 -2174 -2177 0
2176 2174 -2177 0
2176 -2174 2177 0
-2176 2174 2177 0
-2176 -2174 2178 0
2176 -2178 0
2174 -2178 0
-1993 -2175 2179 0
1993 -2179 0
2175 -2179 0
2178 2179 -2180 0
-2178 2180 0
-2179 2180 0
-34 -2153 2181 0
34 -2181 0
2153 -2181 0
-1999 -2181 -2182 0
1999 2181 -2182 0
1999 -2181 2182 0
-1999 2181 2182 0
-2182 -2180 -2183 0
2182 2180 -2183 0
2182 -2180 2183 0
-2182 2180 2183 0
-2182 -2180 2184 0
2182 -2184 0
2180 -2184 0
-1999 -2181 2185 0
1999 -2185 0
2181 -2185 0
2184 2185 -2186 0
-2184 2186 0
-2185 2186 0
-42 -2153 2187 0
42 -2187 0
2153 -2187 0
-2005 -2187 -2188 0
2005 2187 -2188 0
2005 -2187 2188 0
-2005 2187 2188 0
-2188 -2186 -2189 0
2188 2186 -2189 0
2188 -2186 2189 0
-2188 2186 2189 0
-2188 -2186 2190 0
2188 -2190 0
2186 -2190 0
-2005 -2187 2191 0
2005 -2191 0
2187 -2191 0
2190 2191 -2192 0
-2190 2192 0
-2191 2192 0
-50 -2153 2193 0
50 -2193 0
2153 -2193 0
-2011 -2193 -2194 0
2011 2193 -2194 0
2011 -2193 2194 0
-2011 2193 2194 0
-2194 -2192 -2195 0
2194 2192 -2195 0
2194 -2192 2195 0
-2194 2192 2195 0
-2194 -2192 2196 0
2194 -2196 0
2192 -2196 0
-2011 -2193 2197 0
2011 -2197 0
2193 -2197 0
2196 2197 -2198 0
-2196 2198 0
-2197 2198 0
-58 -2153 2199 0
58 -2199 0
2153 -2199 0
-2017 -2199 -2200 0
2017 2199 -2200 0
2017 -2199 2200 0
-2017 2199 2200 0
-2200 -2198 -2201 0
2200 2198 -2201 0
2200 -2198 2201 0
-2200 2198 2201 0
-2200 -2198 2202 0
2200 -2202 0
2198 -2202 0
-2017 -2199 2203 0
2017 -2203 0
2199 -2203 0
2202 2203 -2204 0
-2202 2204 0
-2203 2204 0
-66 -2153 2205 0
66 -2205 0
2153 -2205 0
-2023 -2205 -2206 0
2023 2205 -2206 0
2023 -2205 2206 0
-2023 2205 2206 0
-2206 -2204 -2207 0
2206 2204 -2207 0
2206 -2204 2207 0
-2206 2204 2207 0
-2206 -2204 2208 0
2206 -2208 0
2204 -2208 0
-2023 -2205 2209 0
2023 -2209 0
2205 -2209 0
2208 2209 -2210 0
-2208 2210 0
-2209 2210 0
-74 -2153 2211 0
74 -2211 0
2153 -2211 0
-2029 -2211 -2212 0
2029 2211 -2212 0
2029 -2211 2212 0
-2029 2211 2212 0
-2212 -2210 -2213 0
2212 2210 -2213 0
2212 -2210 2213 0
-2212 2210 2213 0
-2212 -2210 2214 0
2212 -2214 0
2210 -2214 0
-2029 -2211 2215 0
2029 -2215 0
2211 -2215 0
2214 2215 -2216 0
-2214 2216 0
-2215 2216 0
-82 -2153 2217 0
82 -2217 0
2153 -2217 0
-2035 -2217 -2218 0
2035 2217 -2218 0
2035 -2217 2218 0
-2035 2217 2218 0
-2218 -2216 -2219 0
2218 2216 -2219 0
2218 -2216 2219 0
-2218 2216 2219 0
-2218 -2216 2220 0
2218 -2220 0
2216 -2220 0
-2035 -2217 2221 0
2035 -2221 0
2217 -2221 0
2220 2221 -2222 0
-2220 2222 0
-2221 2222 0
-90 -2153 2223 0
90 -2223 0
2153 -2223 0
-2041 -2223 -2224 0
2041 2223 -2224 0
2041 -2223 2224 0
-2041 2223 2224 0
-2224 -2222 -2225 0
2224 2222 -2225 0
2224 -2222 2225 0
-2224 2222 2225 0
-2224 -2222 2226 0
2224 -2226 0
2222 -2226 0
-2041 -2223 2227 0
2041 -2227 0
2223 -2227 0
2226 2227 -2228 0
-2226 2228 0
-2227 2228 0
-98 -2153 2229 0
98 -2229 0
2153 -2229 0
-2047 -2229 -2230 0
2047 2229 -2230 0
2047 -2229 2230 0
-2047 2229 2230 0
-2230 -2228 -2231 0
2230 2228 -2231 0
2230 -2228 2231 0
-2230 2228 2231 0
-2230 -2228 2232 0
2230 -2232 0
2228 -2232 0
-2047 -2229 2233 0
2047 -2233 0
2229 -2233 0
2232 2233 -2234 0
-2232 2234 0
-2233 2234 0
-106 -2153 2235 0
106 -2235 0
2153 -2235 0
-2053 -2235 -2236 0
2053 2235 -2236 0
2053 -2235 2236 0
-2053 2235 2236 0
-2236 -2234 -2237 0
2236 2234 -2237 0
2236 -2234 2237 0
-2236 2234 2237 0
-2236 -2234 2238 0
2236 -2238 0
2234 -2238 0
-2053 -2235 2239 0
2053 -2239 0
2235 -2239 0
2238 2239 -2240 0
-2238 2240 0
-2239 2240 0
-114 -2153 2241 0
114 -2241 0
2153 -2241 0
-2059 -2241 -2242 0
2059 2241 -2242 0
2059 -2241 2242 0
-2059 2241 2242 0
-2242 -2240 -2243 0
2242 2240 -2243 0
2242 -2240 2243 0
-2242 2240 2243 0
-2242 -2240 2244 0
2242 -2244 0
2240 -2244 0
-2059 -2241 2245 0
2059 -2245 0
2241 -2245 0
2244 2245 -2246 0
-2244 2246 0
-2245 2246 0
-122 -2153 2247 0
122 -2247 0
2153 -2247 0
-2065 -2247 -2248 0
2065 2247 -2248 0
2065 -2247 2248 0
-2065 2247 2248 0
-2248 -2246 -2249 0
2248 2246 -2249 0
2248 -2246 2249 0
-2248 2246 2249 0
-2248 -2246 2250 0
2248 -2250 0
2246 -2250 0
-2065 -2247 2251 0
2065 -2251 0
2247 -2251 0
2250 2251 -2252 0
-2250 2252 0
-2251 2252 0
-130 -2153 2253 0
130 -2253 0
2153 -2253 0
-2071 -2253 -2254 0
2071 2253 -2254 0
2071 -2253 2254 0
-2071 2253 2254 0
-2254 -2252 -2255 0
2254 2252 -2255 0
2254 -2252 2255 0
-2254 2252 2255 0
-2254 -2252 2256 0
2254 -2256 0
2252 -2256 0
-2071 -2253 2257 0
2071 -2257 0
2253 -2257 0
2256 2257 -2258 0
-2256 2258 0
-2257 2258 0
-138 -2153 2259 0
138 -2259 0
2153 -2259 0
-2077 -2259 -2260 0
2077 2259 -2260 0
2077 -2259 2260 0
-2077 2259 2260 0
-2260 -2258 -2261 0
2260 2258 -2261 0
2260 -2258 2261 0
-2260 2258 2261 0
-2260 -2258 2262 0
2260 -2262 0
2258 -2262 0
-2077 -2259 2263 0
2077 -2263 0
2259 -2263 0
2262 2263 -2264 0
-2262 2264 0
-2263 2264 0
-146 -2153 2265 0
146 -2265 0
2153 -2265 0
-2083 -2265 -2266 0
2083 2265 -2266 0
2083 -2265 2266 0
-2083 2265 2266 0
-2266 -2264 -2267 0
2266 2264 -2267 0
2266 -2264 2267 0
-2266 2264 2267 0
-2266 -2264 2268 0
2266 -2268 0
2264 -2268 0
-2083 -2265 2269 0
2083 -2269 0
2265 -2269 0
2268 2269 -2270 0
-2268 2270 0
-2269 2270 0
-154 -2153 2271 0
154 -2271 0
2153 -2271 0
-2089 -2271 -2272 0
2089 2271 -2272 0
2089 -2271 2272 0
-2089 2271 2272 0
-2272 -2270 -2273 0
2272 2270 -2273 0
2272 -2270 2273 0
-2272 2270 2273 0
-2272 -2270 2274 0
2272 -2274 0
2270 -2274 0
-2089 -2271 2275 0
2089 -2275 0
2271 -2275 0
2274 2275 -2276 0
-2274 2276 0
-2275 2276 0
-162 -2153 2277 0
162 -2277 0
2153 -2277 0
-2095 -2277 -2278 0
2095 2277 -2278 0
2095 -2277 2278 0
-2095 2277 2278 0
-2278 -2276 -2279 0
2278 2276 -2279 0
2278 -2276 2279 0
-2278 2276 2279 0
-2278 -2276 2280 0
2278 -2280 0
2276 -2280 0
-2095 -2277 2281 0
2095 -2281 0
2277 -2281 0
2280 2281 -2282 0
-2280 2282 0
-2281 2282 0
-170 -2153 2283 0
170 -2283 0
2153 -2283 0
-2101 -2283 -2284 0
2101 2283 -2284 0
2101 -2283 2284 0
-2101 2283 2284 0
-2284 -2282 -2285 0
2284 2282 -2285 0
2284 -2282 2285 0
-2284 2282 2285 0
-2284 -2282 2286 0
2284 -2286 0
2282 -2286 0
-2101 -2283 2287 0
2101 -2287 0
2283 -2287 0
2286 2287 -2288 0
-2286 2288 0
-2287 2288 0
-178 -2153 2289 0
178 -2289 0
2153 -2289 0
-2107 -2289 -2290 0
2107 2289 -2290 0
2107 -2289 2290 0
-2107 2289 2290 0
-2290 -2288 -2291 0
2290 2288 -2291 0
2290 -2288 2291 0
-2290 2288 2291 0
-2290 -2288 2292 0
2290 -2292 0
2288 -2292 0
-2107 -2289 2293 0
2107 -2293 0
2289 -2293 0
2292 2293 -2294 0
-2292 2294 0
-2293 2294 0
-186 -2153 2295 0
186 -2295 0
2153 -2295 0
-2113 -2295 -2296 0
2113 2295 -2296 0
2113 -2295 2296 0
-2113 2295 2296 0
-2296 -2294 -2297 0
2296 2294 -2297 0
2296 -2294 2297 0
-2296 2294 2297 0
-2296 -2294 2298 0
2296 -2298 0
2294 -2298 0
-2113 -2295 2299 0
2113 -2299 0
2295 -2299 0
2298 2299 -2300 0
-2298 2300 0
-2299 2300 0
-194 -2153 2301 0
194 -2301 0
2153 -2301 0
-2119 -2301 -2302 0
2119 2301 -2302 0
2119 -2301 2302 0
-2119 2301 2302 0
-2302 -2300 -2303 0
2302 2300 -2303 0
2302 -2300 2303 0
-2302 2300 2303 0
-2302 -2300 2304 0
2302 -2304 0
2300 -2304 0
-2119 -2301 2305 0
2119 -2305 0
2301 -2305 0
2304 2305 -2306 0
-2304 2306 0
-2305 2306 0
-202 -2153 2307 0
202 -2307 0
2153 -2307 0
-2125 -2307 -2308 0
2125 2307 -2308 0
2125 -2307 2308 0
-2125 2307 2308 0
-2308 -2306 -2309 0
2308 2306 -2309 0
2308 -2306 2309 0
-2308 2306 2309 0
-2308 -2306 2310 0
2308 -2310 0
2306 -2310 0
-2125 -2307 2311 0
2125 -2311 0
2307 -2311 0
2310 2311 -2312 0
-2310 2312 0
-2311 2312 0
-210 -2153 2313 0
210 -2313 0
2153 -2313 0
-2131 -2313 -2314 0
2131 2313 -2314 0
2131 -2313 2314 0
-2131 2313 2314 0
-2314 -2312 -2315 0
2314 2312 -2315 0
2314 -2312 2315 0
-2314 2312 2315 0
-2314 -2312 2316 0
2314 -2316 0
2312 -2316 0
-2131 -2313 2317 0
2131 -2317 0
2313 -2317 0
2316 2317 -2318 0
-2316 2318 0
-2317 2318 0
-218 -2153 2319 0
218 -2319 0
2153 -2319 0
-2137 -2319 -2320 0
2137 2319 -2320 0
2137 -2319 2320 0
-2137 2319 2320 0
-2320 -2318 -2321 0
2320 2318 -2321 0
2320 -2318 2321 0
-2320 2318 2321 0
-2320 -2318 2322 0
2320 -2322 0
2318 -2322 0
-2137 -2319 2323 0
2137 -2323 0
2319 -2323 0
2322 2323 -2324 0
-2322 2324 0
-2323 2324 0
-226 -2153 2325 0
226 -2325 0
2153 -2325 0
-2143 -2325 -2326 0
2143 2325 -2326 0
2143 -2325 2326 0
-2143 2325 2326 0
-2326 -2324 -2327 0
2326 2324 -2327 0
2326 -2324 2327 0
-2326 2324 2327 0
-2326 -2324 2328 0
2326 -2328 0
2324 -2328 0
-2143 -2325 2329 0
2143 -2329 0
2325 -2329 0
2328 2329 -2330 0
-2328 2330 0
-2329 2330 0
-234 -2153 2331 0
234 -2331 0
2153 -2331 0
-2149 -2331 -2332 0
2149 2331 -2332 0
2149 -2331 2332 0
-2149 2331 2332 0
-2332 -2330 -2333 0
2332 2330 -2333 0
2332 -2330 2333 0
-2332 2330 2333 0
-2332 -2330 2334 0
2332 -2334 0
2330 -2334 0
-2149 -2331 2335 0
2149 -2335 0
2331 -2335 0
2334 2335 -2336 0
-2334 2336 0
-2335 2336 0
-242 -2153 2337 0
242 -2337 0
2153 -2337 0
-2152 -2337 -2338 0
2152 2337 -2338 0
2152 -2337 2338 0
-2152 2337 2338 0
-2338 -2336 -2339 0
2338 2336 -2339 0
2338 -2336 2339 0
-2338 2336 2339 0
-2338 -2336 2340 0
2338 -2340 0
2336 -2340 0
-2152 -2337 2341 0
2152 -2341 0
2337 -2341 0
2340 2341 -2342 0
-2340 2342 0
-2341 2342 0
-1 -2343 2344 0
1 -2344 0
2343 -2344 0
-2159 -2344 -2345 0
2159 2344 -2345 0
2159 -2344 2345 0
-2159 2344 2345 0
-2159 -2344 2346 0
2159 -2346 0
2344 -2346 0
-4 -2343 2347 0
4 -2347 0
2343 -2347 0
-2165 -2347 -2348 0
2165 2347 -2348 0
2165 -2347 2348 0
-2165 2347 2348 0
-2348 -2346 -2349 0
2348 2346 -2349 0
2348 -2346 2349 0
-2348 2346 2349 0
-2348 -2346 2350 0
2348 -2350 0
2346 -2350 0
-2165 -2347 2351 0
2165 -2351 0
2347 -2351 0
2350 2351 -2352 0
-2350 2352 0
-2351 2352 0
-10 -2343 2353 0
10 -2353 0
2343 -2353 0
-2171 -2353 -2354 0
2171 2353 -2354 0
2171 -2353 2354 0
-2171 2353 2354 0
-2354 -2352 -2355 0
2354 2352 -2355 0
2354 -2352 2355 0
-2354 2352 2355 0
-2354 -2352 2356 0
2354 -2356 0
2352 -2356 0
-2171 -2353 2357 0
2171 -2357 0
2353 -2357 0
2356 2357 -2358 0
-2356 2358 0
-2357 2358 0
-18 -2343 2359 0
18 -2359 0
2343 -2359 0
-2177 -2359 -2360 0
2177 2359 -2360 0
2177 -2359 2360 0
-2177 2359 2360 0
-2360 -2358 -2361 0
2360 2358 -2361 0
2360 -2358 2361 0
-2360 2358 2361 0
-2360 -2358 2362 0
2360 -2362 0
2358 -2362 0
-2177 -2359 2363 0
2177 -2363 0
2359 -2363 0
2362 2363 -2364 0
-2362 2364 0
-2363 2364 0
-26 -2343 2365 0
26 -2365 0
2343 -2365 0
-2183 -2365 -2366 0
2183 2365 -2366 0
2183 -2365 2366 0
-2183 2365 2366 0
-2366 -2364 -2367 0
2366 2364 -2367 0
2366 -2364 2367 0
-2366 2364 2367 0
-2366 -2364 2368 0
2366 -2368 0
2364 -2368 0
-2183 -2365 2369 0
2183 -2369 0
2365 -2369 0
2368 2369 -2370 0
-2368 2370 0
-2369 2370 0
-34 -2343 2371 0
34 -2371 0
2343 -2371 0
-2189 -2371 -2372 0
2189 2371 -2372 0
2189 -2371 2372 0
-2189 2371 2372 0
-2372 -2370 -2373 0
2372 2370 -2373 0
2372 -2370 2373 0
-2372 2370 2373 0
-2372 -2370 2374 0
2372 -2374 0
2370 -2374 0
-2189 -2371 2375 0
2189 -2375 0
2371 -2375 0
2374 2375 -2376 0
-2374 2376 0
-2375 2376 0
-42 -2343 2377 0
42 -2377 0
2343 -2377 0
-2195 -2377 -2378 0
2195 2377 -2378 0
2195 -2377 2378 0
-2195 2377 2378 0
-2378 -2376 -2379 0
2378 2376 -2379 0
2378 -2376 2379 0
-2378 2376 2379 0
-2378 -2376 2380 0
2378 -2380 0
2376 -2380 0
-2195 -2377 2381 0
2195 -2381 0
2377 -2381 0
2380 2381 -2382 0
-2380 2382 0
-2381 2382 0
-50 -2343 2383 0
50 -2383 0
2343 -2383 0
-2201 -2383 -2384 0
2201 2383 -2384 0
2201 -2383 2384 0
-2201 2383 2384 0
-2384 -2382 -2385 0
2384 2382 -2385 0
2384 -2382 2385 0
-2384 2382 2385 0
-2384 -2382 2386 0
2384 -2386 0
2382 -2386 0
-2201 -2383 2387 0
2201 -2387 0
2383 -2387 0
2386 2387 -2388 0
-2386 2388 0
-2387 2388 0
-58 -2343 2389 0
58 -2389 0
2343 -2389 0
-2207 -2389 -2390 0
2207 2389 -2390 0
2207 -2389 2390 0
-2207 2389 2390 0
-2390 -2388 -2391 0
2390 2388 -2391 0
2390 -2388 2391 0
-2390 2388 2391 0
-2390 -2388 2392 0
2390 -2392 0
2388 -2392 0
-2207 -2389 2393 0
2207 -2393 0
2389 -2393 0
2392 2393 -2394 0
-2392 2394 0
-2393 2394 0
-66 -2343 2395 0
66 -2395 0
2343 -2395 0
-2213 -2395 -2396 0
2213 2395 -2396 0
2213 -2395 2396 0
-2213 2395 2396 0
-2396 -2394 -2397 0
2396 2394 -2397 0
2396 -2394 2397 0
-2396 2394 2397 0
-2396 -2394 2398 0
2396 -2398 0
2394 -2398 0
-2213 -2395 2399 0
2213 -2399 0
2395 -2399 0
2398 2399 -2400 0
-2398 2400 0
-2399 2400 0
-74 -2343 2401 0
74 -2401 0
2343 -2401 0
-2219 -2401 -2402 0
2219 2401 -2402 0
2219 -2401 2402 0
-2219 2401 2402 0
-2402 -2400 -2403 0
2402 2400 -2403 0
2402 -2400 2403 0
-2402 2400 2403 0
-2402 -2400 2404 0
2402 -2404 0
2400 -2404 0
-2219 -2401 2405 0
2219 -2405 0
2401 -2405 0
2404 2405 -2406 0
-2404 2406 0
-2405 2406 0
-82 -2343 2407 0
82 -2407 0
2343 -2407 0
-2225 -2407 -2408 0
2225 2407 -2408 0
2225 -2407 2408 0
-2225 2407 2408 0
-2408 -2406 -2409 0
2408 2406 -2409 0
2408 -2406 2409 0
-2408 2406 2409 0
-2408 -2406 2410 0
2408 -2410 0
2406 -2410 0
-2225 -2407 2411 0
2225 -2411 0
2407 -2411 0
2410 2411 -2412 0
-2410 2412 0
-2411 2412 0
-90 -2343 2413 0
90 -2413 0
2343 -2413 0
-2231 -2413 -2414 0
2231 2413 -2414 0
2231 -2413 2414 0
-2231 2413 2414 0
-2414 -2412 -2415 0
2414 2412 -2415 0
2414 -2412 2415 0
-2414 2412 2415 0
-2414 -2412 2416 0
2414 -2416 0
2412 -2416 0
-2231 -2413 2417 0
2231 -2417 0
2413 -2417 0
2416 2417 -2418 0
-2416 2418 0
-2417 2418 0
-98 -2343 2419 0
98 -2419 0
2343 -2419 0
-2237 -2419 -2420 0
2237 2419 -2420 0
2237 -2419 2420 0
-2237 2419 2420 0
-2420 -2418 -2421 0
2420 2418 -2421 0
2420 -2418 2421 0
-2420 2418 2421 0
-2420 -2418 2422 0
2420 -2422 0
2418 -2422 0
-2237 -2419 2423 0
2237 -2423 0
2419 -2423 0
2422 2423 -2424 0
-2422 2424 0
-2423 2424 0
-106 -2343 2425 0
106 -2425 0
2343 -2425 0
-2243 -2425 -2426 0
2243 2425 -2426 0
2243 -2425 2426 0
-2243 2425 2426 0
-2426 -2424 -2427 0
2426 2424 -2427 0
2426 -2424 2427 0
-2426 2424 2427 0
-2426 -2424 2428 0
2426 -2428 0
2424 -2428 0
-2243 -2425 2429 0
2243 -2429 0
2425 -2429 0
2428 2429 -2430 0
-2428 2430 0
-2429 2430 0
-114 -2343 2431 0
114 -2431 0
2343 -2431 0
-2249 -2431 -2432 0
2249 2431 -2432 0
2249 -2431 2432 0
-2249 2431 2432 0
-2432 -2430 -2433 0
2432 2430 -2433 0
2432 -2430 2433 0
-2432 2430 2433 0
-2432 -2430 2434 0
2432 -2434 0
2430 -2434 0
-2249 -2431 2435 0
2249 -2435 0
2431 -2435 0
2434 2435 -2436 0
-2434 2436 0
-2435 2436 0
-122 -2343 2437 0
122 -2437 0
2343 -2437 0
-2255 -2437 -2438 0
2255 2437 -2438 0
2255 -2437 2438 0
-2255 2437 2438 0
-2438 -2436 -2439 0
2438 2436 -2439 0
2438 -2436 2439 0
-2438 2436 2439 0
-2438 -2436 2440 0
2438 -2440 0
2436 -2440 0
-2255 -2437 2441 0
2255 -2441 0
2437 -2441 0
2440 2441 -2442 0
-2440 2442 0
-2441 2442 0
-130 -2343 2443 0
130 -2443 0
2343 -2443 0
-2261 -2443 -2444 0
2261 2443 -2444 0
2261 -2443 2444 0
-2261 2443 2444 0
-2444 -2442 -2445 0
2444 2442 -2445 0
2444 -2442 2445 0
-2444 2442 2445 0
-2444 -2442 2446 0
2444 -2446 0
2442 -2446 0
-2261 -2443 2447 0
2261 -2447 0
2443 -2447 0
2446 2447 -2448 0
-2446 2448 0
-2447 2448 0
-138 -2343 2449 0
138 -2449 0
2343 -2449 0
-2267 -2449 -2450 0
2267 2449 -2450 0
2267 -2449 2450 0
-2267 2449 2450 0
-2450 -2448 -2451 0
2450 2448 -2451 0
2450 -2448 2451 0
-2450 2448 2451 0
-2450 -2448 2452 0
2450 -2452 0
2448 -2452 0
-2267 -2449 2453 0
2267 -2453 0
2449 -2453 0
2452 2453 -2454 0
-2452 2454 0
-2453 2454 0
-146 -2343 2455 0
146 -2455 0
2343 -2455 0
-2273 -2455 -2456 0
2273 2455 -2456 0
2273 -2455 2456 0
-2273 2455 2456 0
-2456 -2454 -2457 0
2456 2454 -2457 0
2456 -2454 2457 0
-2456 2454 2457 0
-2456 -2454 2458 0
2456 -2458 0
2454 -2458 0
-2273 -2455 2459 0
2273 -2459 0
2455 -2459 0
2458 2459 -2460 0
-2458 2460 0
-2459 2460 0
-154 -2343 2461 0
154 -2461 0
2343 -2461 0
-2279 -2461 -2462 0
2279 2461 -2462 0
2279 -2461 2462 0
-2279 2461 2462 0
-2462 -2460 -2463 0
2462 2460 -2463 0
2462 -2460 2463 0
-2462 2460 2463 0
-2462 -2460 2464 0
2462 -2464 0
2460 -2464 0
-2279 -2461 2465 0
2279 -2465 0
2461 -2465 0
2464 2465 -2466 0
-2464 2466 0
-2465 2466 0
-162 -2343 2467 0
162 -2467 0
2343 -2467 0
-2285 -2467 -2468 0
2285 2467 -2468 0
2285 -2467 2468 0
-2285 2467 2468 0
-2468 -2466 -2469 0
2468 2466 -2469 0
2468 -2466 2469 0
-2468 2466 2469 0
-2468 -2466 2470 0
2468 -2470 0
2466 -2470 0
-2285 -2467 2471 0
2285 -2471 0
2467 -2471 0
2470 2471 -2472 0
-2470 2472 0
-2471 2472 0
-170 -2343 2473 0
170 -2473 0
2343 -2473 0
-2291 -2473 -2474 0
2291 2473 -2474 0
2291 -2473 2474 0
-2291 2473 2474 0
-2474 -2472 -2475 0
2474 2472 -2475 0
2474 -2472 2475 0
-2474 2472 2475 0
-2474 -2472 2476 0
2474 -2476 0
2472 -2476 0
-2291 -2473 2477 0
2291 -2477 0
2473 -2477 0
2476 2477 -2478 0
-2476 2478 0
-2477 2478 0
-178 -2343 2479 0
178 -2479 0
2343 -2479 0
-2297 -2479 -2480 0
2297 2479 -2480 0
2297 -2479 2480 0
-2297 2479 2480 0
-2480 -2478 -2481 0
2480 2478 -2481 0
2480 -2478 2481 0
-2480 2478 2481 0
-2480 -2478 2482 0
2480 -2482 0
2478 -2482 0
-2297 -2479 2483 0
2297 -2483 0
2479 -2483 0
2482 2483 -2484 0
-2482 2484 0
-2483 2484 0
-186 -2343 2485 0
186 -2485 0
2343 -2485 0
-2303 -2485 -2486 0
2303 2485 -2486 0
2303 -2485 2486 0
-2303 2485 2486 0
-2486 -2484 -2487 0
2486 2484 -2487 0
2486 -2484 2487 0
-2486 2484 2487 0
-2486 -2484 2488 0
2486 -2488 0
2484 -2488 0
-2303 -2485 2489 0
2303 -2489 0
2485 -2489 0
2488 2489 -2490 0
-2488 2490 0
-2489 2490 0
-194 -2343 2491 0
194 -2491 0
2343 -2491 0
-2309 -2491 -2492 0
2309 2491 -2492 0
2309 -2491 2492 0
-2309 2491 2492 0
-2492 -2490 -2493 0
2492 2490 -2493 0
2492 -2490 2493 0
-2492 2490 2493 0
-2492 -2490 2494 0
2492 -2494 0
2490 -2494 0
-2309 -2491 2495 0
2309 -2495 0
2491 -2495 0
2494 2495 -2496 0
-2494 2496 0
-2495 2496 0
-202 -2343 2497 0
202 -2497 0
2343 -2497 0
-2315 -2497 -2498 0
2315 2497 -2498 0
2315 -2497 2498 0
-2315 2497 2498 0
-2498 -2496 -2499 0
2498 2496 -2499 0
2498 -2496 2499 0
-2498 2496 2499 0
-2498 -2496 2500 0
2498 -2500 0
2496 -2500 0
-2315 -2497 2501 0
2315 -2501 0
2497 -2501 0
2500 2501 -2502 0
-2500 2502 0
-2501 2502 0
-210 -2343 2503 0
210 -2503 0
2343 -2503 0
-2321 -2503 -2504 0
2321 2503 -2504 0
2321 -2503 2504 0
-2321 2503 2504 0
-2504 -2502 -2505 0
2504 2502 -2505 0
2504 -2502 2505 0
-2504 2502 2505 0
-2504 -2502 2506 0
2504 -2506 0
2502 -2506 0
-2321 -2503 2507 0
2321 -2507 0
2503 -2507 0
2506 2507 -2508 0
-2506 2508 0
-2507 2508 0
-218 -2343 2509 0
218 -2509 0
2343 -2509 0
-2327 -2509 -2510 0
2327 2509 -2510 0
2327 -2509 2510 0
-2327 2509 2510 0
-2510 -2508 -2511 0
2510 2508 -2511 0
2510 -2508 2511 0
-2510 2508 2511 0
-2510 -2508 2512 0
2510 -2512 0
2508 -2512 0
-2327 -2509 2513 0
2327 -2513 0
2509 -2513 0
2512 2513 -2514 0
-2512 2514 0
-2513 2514 0
-226 -2343 2515 0
226 -2515 0
2343 -2515 0
-2333 -2515 -2516 0
2333 2515 -2516 0
2333 -2515 2516 0
-2333 2515 2516 0
-2516 -2514 -2517 0
2516 2514 -2517 0
2516 -2514 2517 0
-2516 2514 2517 0
-2516 -2514 2518 0
2516 -2518 0
2514 -2518 0
-2333 -2515 2519 0
2333 -2519 0
2515 -2519 0
2518 2519 -2520 0
-2518 2520 0
-2519 2520 0
-234 -2343 2521 0
234 -2521 0
2343 -2521 0
-2339 -2521 -2522 0
2339 2521 -2522 0
2339 -2521 2522 0
-2339 2521 2522 0
-2522 -2520 -2523 0
2522 2520 -2523 0
2522 -2520 2523 0
-2522 2520 2523 0
-2522 -2520 2524 0
2522 -2524 0
2520 -2524 0
-2339 -2521 2525 0
2339 -2525 0
2521 -2525 0
2524 2525 -2526 0
-2524 2526 0
-2525 2526 0
-242 -2343 2527 0
242 -2527 0
2343 -2527 0
-2342 -2527 -2528 0
2342 2527 -2528 0
2342 -2527 2528 0
-2342 2527 2528 0
-2528 -2526 -2529 0
2528 2526 -2529 0
2528 -2526 2529 0
-2528 2526 2529 0
-2528 -2526 2530 0
2528 -2530 0
2526 -2530 0
-2342 -2527 2531 0
2342 -2531 0
2527 -2531 0
2530 2531 -2532 0
-2530 2532 0
-2531 2532 0
-1 -2533 2534 0
1 -2534 0
2533 -2534 0
-2349 -2534 -2535 0
2349 2534 -2535 0
2349 -2534 2535 0
-2349 2534 2535 0
-2349 -2534 2536 0
2349 -2536 0
2534 -2536 0
-4 -2533 2537 0
4 -2537 0
2533 -2537 0
-2355 -2537 -2538 0
2355 2537 -2538 0
2355 -2537 2538 0
-2355 2537 2538 0
-2538 -2536 -2539 0
2538 2536 -2539 0
2538 -2536 2539 0
-2538 2536 2539 0
-2538 -2536 2540 0
2538 -2540 0
2536 -2540 0
-2355 -2537 2541 0
2355 -2541 0
2537 -2541 0
2540 2541 -2542 0
-2540 2542 0
-2541 2542 0
-10 -2533 2543 0
10 -2543 0
2533 -2543 0
-2361 -2543 -2544 0
2361 2543 -2544 0
2361 -2543 2544 0
-2361 2543 2544 0
-2544 -2542 -2545 0
2544 2542 -2545 0
2544 -2542 2545 0
-2544 2542 2545 0
-2544 -2542 2546 0
2544 -2546 0
2542 -2546 0
-2361 -2543 2547 0
2361 -2547 0
2543 -2547 0
2546 2547 -2548 0
-2546 2548 0
-2547 2548 0
-18 -2533 2549 0
18 -2549 0
2533 -2549 0
-2367 -2549 -2550 0
2367 2549 -2550 0
2367 -2549 2550 0
-2367 2549 2550 0
-2550 -2548 -2551 0
2550 2548 -2551 0
2550 -2548 2551 0
-2550 2548 2551 0
-2550 -2548 2552 0
2550 -2552 0
2548 -2552 0
-2367 -2549 2553 0
2367 -2553 0
2549 -2553 0
2552 2553 -2554 0
-2552 2554 0
-2553 2554 0
-26 -2533 2555 0
26 -2555 0
2533 -2555 0
-2373 -2555 -2556 0
2373 2555 -2556 0
2373 -2555 2556 0
-2373 2555 2556 0
-2556 -2554 -2557 0
2556 2554 -2557 0
2556 -2554 2557 0
-2556 2554 2557 0
-2556 -2554 2558 0
2556 -2558 0
2554 -2558 0
-2373 -2555 2559 0
2373 -2559 0
2555 -2559 0
2558 2559 -2560 0
-2558 2560 0
-2559 2560 0
-34 -2533 2561 0
34 -2561 0
2533 -2561 0
-2379 -2561 -2562 0
2379 2561 -2562 0
2379 -2561 2562 0
-2379 2561 2562 0
-2562 -2560 -2563 0
2562 2560 -2563 0
2562 -2560 2563 0
-2562 2560 2563 0
-2562 -2560 2564 0
2562 -2564 0
2560 -2564 0
-2379 -2561 2565 0
2379 -2565 0
2561 -2565 0
2564 2565 -2566 0
-2564 2566 0
-2565 2566 0
-42 -2533 2567 0
42 -2567 0
2533 -2567 0
-2385 -2567 -2568 0
2385 2567 -2568 0
2385 -2567 2568 0
-2385 2567 2568 0
-2568 -2566 -2569 0
2568 2566 -2569 0
2568 -2566 2569 0
-2568 2566 2569 0
-2568 -2566 2570 0
2568 -2570 0
2566 -2570 0
-2385 -2567 2571 0
2385 -2571 0
2567 -2571 0
2570 2571 -2572 0
-2570 2572 0
-2571 2572 0
-50 -2533 2573 0
50 -2573 0
2533 -2573 0
-2391 -2573 -2574 0
2391 2573 -2574 0
2391 -2573 2574 0
-2391 2573 2574 0
-2574 -2572 -2575 0
2574 2572 -2575 0
2574 -2572 2575 0
-2574 2572 2575 0
-2574 -2572 2576 0
2574 -2576 0
2572 -2576 0
-2391 -2573 2577 0
2391 -2577 0
2573 -2577 0
2576 2577 -2578 0
-2576 2578 0
-2577 2578 0
-58 -2533 2579 0
58 -2579 0
2533 -2579 0
-2397 -2579 -2580 0
2397 2579 -2580 0
2397 -2579 2580 0
-2397 2579 2580 0
-2580 -2578 -2581 0
2580 2578 -2581 0
2580 -2578 2581 0
-2580 2578 2581 0
-2580 -2578 2582 0
2580 -2582 0
2578 -2582 0
-2397 -2579 2583 0
2397 -2583 0
2579 -2583 0
2582 2583 -2584 0
-2582 2584 0
-2583 2584 0
-66 -2533 2585 0
66 -2585 0
2533 -2585 0
-2403 -2585 -2586 0
2403 2585 -2586 0
2403 -2585 2586 0
-2403 2585 2586 0
-2586 -2584 -2587 0
2586 2584 -2587 0
2586 -2584 2587 0
-2586 2584 2587 0
-2586 -2584 2588 0
2586 -2588 0
2584 -2588 0
-2403 -2585 2589 0
2403 -2589 0
2585 -2589 0
2588 2589 -2590 0
-2588 2590 0
-2589 2590 0
-74 -2533 2591 0
74 -2591 0
2533 -2591 0
-2409 -2591 -2592 0
2409 2591 -2592 0
2409 -2591 2592 0
-2409 2591 2592 0
-2592 -2590 -2593 0
2592 2590 -2593 0
2592 -2590 2593 0
-2592 2590 2593 0
-2592 -2590 2594 0
2592 -2594 0
2590 -2594 0
-2409 -2591 2595 0
2409 -2595 0
2591 -2595 0
2594 2595 -2596 0
-2594 2596 0
-2595 2596 0
-82 -2533 2597 0
82 -2597 0
2533 -2597 0
-2415 -2597 -2598 0
2415 2597 -2598 0
2415 -2597 2598 0
-2415 2597 2598 0
-2598 -2596 -2599 0
2598 2596 -2599 0
2598 -2596 2599 0
-2598 2596 2599 0
-2598 -2596 2600 0
2598 -2600 0
2596 -2600 0
-2415 -2597 2601 0
2415 -2601 0
2597 -2601 0
2600 2601 -2602 0
-2600 2602 0
-2601 2602 0
-90 -2533 2603 0
90 -2603 0
2533 -2603 0
-2421 -2603 -2604 0
2421 2603 -2604 0
2421 -2603 2604 0
-2421 2603 2604 0
-2604 -2602 -2605 0
2604 2602 -2605 0
2604 -2602 2605 0
-2604 2602 2605 0
-2604 -2602 2606 0
2604 -2606 0
2602 -2606 0
-2421 -2603 2607 0
2421 -2607 0
2603 -2607 0
2606 2607 -2608 0
-2606 2608 0
-2607 2608 0
-98 -2533 2609 0
98 -2609 0
2533 -2609 0
-2427 -2609 -2610 0
2427 2609 -2610 0
2427 -2609 2610 0
-2427 2609 2610 0
-2610 -2608 -2611 0
2610 2608 -2611 0
2610 -2608 2611 0
-2610 2608 2611 0
-2610 -2608 2612 0
2610 -2612 0
2608 -2612 0
-2427 -2609 2613 0
2427 -2613 0
2609 -2613 0
2612 2613 -2614 0
-2612 2614 0
-2613 2614 0
-106 -2533 2615 0
106 -2615 0
2533 -2615 0
-2433 -2615 -2616 0
2433 2615 -2616 0
2433 -2615 2616 0
-2433 2615 2616 0
-2616 -2614 -2617 0
2616 2614 -2617 0
2616 -2614 2617 0
-2616 2614 2617 0
-2616 -2614 2618 0
2616 -2618 0
2614 -2618 0
-2433 -2615 2619 0
2433 -2619 0
2615 -2619 0
2618 2619 -2620 0
-2618 2620 0
-2619 2620 0
-114 -2533 2621 0
114 -2621 0
2533 -2621 0
-2439 -2621 -2622 0
2439 2621 -2622 0
2439 -2621 2622 0
-2439 2621 2622 0
-2622 -2620 -2623 0
2622 2620 -2623 0
2622 -2620 2623 0
-2622 2620 2623 0
-2622 -2620 2624 0
2622 -2624 0
2620 -2624 0
-2439 -2621 2625 0
2439 -2625 0
2621 -2625 0
2624 2625 -2626 0
-2624 2626 0
-2625 2626 0
-122 -2533 2627 0
122 -2627 0
2533 -2627 0
-2445 -2627 -2628 0
2445 2627 -2628 0
2445 -2627 2628 0
-2445 2627 2628 0
-2628 -2626 -2629 0
2628 2626 -2629 0
2628 -2626 2629 0
-2628 2626 2629 0
-2628 -2626 2630 0
2628 -2630 0
2626 -2630 0
-2445 -2627 2631 0
2445 -2631 0
2627 -2631 0
2630 2631 -2632 0
-2630 2632 0
-2631 2632 0
-130 -2533 2633 0
130 -2633 0
2533 -2633 0
-2451 -2633 -2634 0
2451 2633 -2634 0
2451 -2633 2634 0
-2451 2633 2634 0
-2634 -2632 -2635 0
2634 2632 -2635 0
2634 -2632 2635 0
-2634 2632 2635 0
-2634 -2632 2636 0
2634 -2636 0
2632 -2636 0
-2451 -2633 2637 0
2451 -2637 0
2633 -2637 0
2636 2637 -2638 0
-2636 2638 0
-2637 2638 0
-138 -2533 2639 0
138 -2639 0
2533 -2639 0
-2457 -2639 -2640 0
2457 2639 -2640 0
2457 -2639 2640 0
-2457 2639 2640 0
-2640 -2638 -2641 0
2640 2638 -2641 0
2640 -2638 2641 0
-2640 2638 2641 0
-2640 -2638 2642 0
2640 -2642 0
2638 -2642 0
-2457 -2639 2643 0
2457 -2643 0
2639 -2643 0
2642 2643 -2644 0
-2642 2644 0
-2643 2644 0
-146 -2533 2645 0
146 -2645 0
2533 -2645 0
-2463 -2645 -2646 0
2463 2645 -2646 0
2463 -2645 2646 0
-2463 2645 2646 0
-2646 -2644 -2647 0
2646 2644 -2647 0
2646 -2644 2647 0
-2646 2644 2647 0
-2646 -2644 2648 0
2646 -2648 0
2644 -2648 0
-2463 -2645 2649 0
2463 -2649 0
2645 -2649 0
2648 2649 -2650 0
-2648 2650 0
-2649 2650 0
-154 -2533 2651 0
154 -2651 0
2533 -2651 0
-2469 -2651 -2652 0
2469 2651 -2652 0
2469 -2651 2652 0
-2469 2651 2652 0
-2652 -2650 -2653 0
2652 2650 -2653 0
2652 -2650 2653 0
-2652 2650 2653 0
-2652 -2650 2654 0
2652 -2654 0
2650 -2654 0
-2469 -2651 2655 0
2469 -2655 0
2651 -2655 0
2654 2655 -2656 0
-2654 2656 0
-2655 2656 0
-162 -2533 2657 0
162 -2657 0
2533 -2657 0
-2475 -2657 -2658 0
2475 2657 -2658 0
2475 -2657 2658 0
-2475 2657 2658 0
-2658 -2656 -2659 0
2658 2656 -2659 0
2658 -2656 2659 0
-2658 2656 2659 0
-2658 -2656 2660 0
2658 -2660 0
2656 -2660 0
-2475 -2657 2661 0
2475 -2661 0
2657 -2661 0
2660 2661 -2662 0
-2660 2662 0
-2661 2662 0
-170 -2533 2663 0
170 -2663 0
2533 -2663 0
-2481 -2663 -2664 0
2481 2663 -2664 0
2481 -2663 2664 0
-2481 2663 2664 0
-2664 -2662 -2665 0
2664 2662 -2665 0
2664 -2662 2665 0
-2664 2662 2665 0
-2664 -2662 2666 0
2664 -2666 0
2662 -2666 0
-2481 -2663 2667 0
2481 -2667 0
2663 -2667 0
2666 2667 -2668 0
-2666 2668 0
-2667 2668 0
-178 -2533 2669 0
178 -2669 0
2533 -2669 0
-2487 -2669 -2670 0
2487 2669 -2670 0
2487 -2669 2670 0
-2487 2669 2670 0
-2670 -2668 -2671 0
2670 2668 -2671 0
2670 -2668 2671 0
-2670 2668 2671 0
-2670 -2668 2672 0
2670 -2672 0
2668 -2672 0
-2487 -2669 2673 0
2487 -2673 0
2669 -2673 0
2672 2673 -2674 0
-2672 2674 0
-2673 2674 0
-186 -2533 2675 0
186 -2675 0
2533 -2675 0
-2493 -2675 -2676 0
2493 2675 -2676 0
2493 -2675 2676 0
-2493 2675 2676 0
-2676 -2674 -2677 0
2676 2674 -2677 0
2676 -2674 2677 0
-2676 2674 2677 0
-2676 -2674 2678 0
2676 -2678 0
2674 -2678 0
-2493 -2675 2679 0
2493 -2679 0
2675 -2679 0
2678 2679 -2680 0
-2678 2680 0
-2679 2680 0
-194 -2533 2681 0
194 -2681 0
2533 -2681 0
-2499 -2681 -2682 0
2499 2681 -2682 0
2499 -2681 2682 0
-2499 2681 2682 0
-2682 -2680 -2683 0
2682 2680 -2683 0
2682 -2680 2683 0
-2682 2680 2683 0
-2682 -2680 2684 0
2682 -2684 0
2680 -2684 0
-2499 -2681 2685 0
2499 -2685 0
2681 -2685 0
2684 2685 -2686 0
-2684 2686 0
-2685 2686 0
-202 -2533 2687 0
202 -2687 0
2533 -2687 0
-2505 -2687 -2688 0
2505 2687 -2688 0
2505 -2687 2688 0
-2505 2687 2688 0
-2688 -2686 -2689 0
2688 2686 -2689 0
2688 -2686 2689 0
-2688 2686 2689 0
-2688 -2686 2690 0
2688 -2690 0
2686 -2690 0
-2505 -2687 2691 0
2505 -2691 0
2687 -2691 0
2690 2691 -2692 0
-2690 2692 0
-2691 2692 0
-210 -2533 2693 0
210 -2693 0
2533 -2693 0
-2511 -2693 -2694 0
2511 2693 -2694 0
2511 -2693 2694 0
-2511 2693 2694 0
-2694 -2692 -2695 0
2694 2692 -2695 0
2694 -2692 2695 0
-2694 2692 2695 0
-2694 -2692 2696 0
2694 -2696 0
2692 -2696 0
-2511 -2693 2697 0
2511 -2697 0
2693 -2697 0
2696 2697 -2698 0
-2696 2698 0
-2697 2698 0
-218 -2533 2699 0
218 -2699 0
2533 -2699 0
-2517 -2699 -2700 0
2517 2699 -2700 0
2517 -2699 2700 0
-2517 2699 2700 0
-2700 -2698 -2701 0
2700 2698 -2701 0
2700 -2698 2701 0
-2700 2698 2701 0
-2700 -2698 2702 0
2700 -2702 0
2698 -2702 0
-2517 -2699 2703 0
2517 -2703 0
2699 -2703 0
2702 2703 -2704 0
-2702 2704 0
-2703 2704 0
-226 -2533 2705 0
226 -2705 0
2533 -2705 0
-2523 -2705 -2706 0
2523 2705 -2706 0
2523 -2705 2706 0
-2523 2705 2706 0
-2706 -2704 -2707 0
2706 2704 -2707 0
2706 -2704 2707 0
-2706 2704 2707 0
-2706 -2704 2708 0
2706 -2708 0
2704 -2708 0
-2523 -2705 2709 0
2523 -2709 0
2705 -2709 0
2708 2709 -2710 0
-2708 2710 0
-2709 2710 0
-234 -2533 2711 0
234 -2711 0
2533 -2711 0
-2529 -2711 -2712 0
2529 2711 -2712 0
2529 -2711 2712 0
-2529 2711 2712 0
-2712 -2710 -2713 0
2712 2710 -2713 0
2712 -2710 2713 0
-2712 2710 2713 0
-2712 -2710 2714 0
2712 -2714 0
2710 -2714 0
-2529 -2711 2715 0
2529 -2715 0
2711 -2715 0
2714 2715 -2716 0
-2714 2716 0
-2715 2716 0
-242 -2533 2717 0
242 -2717 0
2533 -2717 0
-2532 -2717 -2718 0
2532 2717 -2718 0
2532 -2717 2718 0
-2532 2717 2718 0
-2718 -2716 -2719 0
2718 2716 -2719 0
2718 -2716 2719 0
-2718 2716 2719 0
-2718 -2716 2720 0
2718 -2720 0
2716 -2720 0
-2532 -2717 2721 0
2532 -2721 0
2717 -2721 0
2720 2721 -2722 0
-2720 2722 0
-2721 2722 0
-1 -2723 2724 0
1 -2724 0
2723 -2724 0
-2539 -2724 -2725 0
2539 2724 -2725 0
2539 -2724 2725 0
-2539 2724 2725 0
-2539 -2724 2726 0
2539 -2726 0
2724 -2726 0
-4 -2723 2727 0
4 -2727 0
2723 -2727 0
-2545 -2727 -2728 0
2545 2727 -2728 0
2545 -2727 2728 0
-2545 2727 2728 0
-2728 -2726 -2729 0
2728 2726 -2729 0
2728 -2726 2729 0
-2728 2726 2729 0
-2728 -2726 2730 0
2728 -2730 0
2726 -2730 0
-2545 -2727 2731 0
2545 -2731 0
2727 -2731 0
2730 2731 -2732 0
-2730 2732 0
-2731 2732 0
-10 -2723 2733 0
10 -2733 0
2723 -2733 0
-2551 -2733 -2734 0
2551 2733 -2734 0
2551 -2733 2734 0
-2551 2733 2734 0
-2734 -2732 -2735 0
2734 2732 -2735 0
2734 -2732 2735 0
-2734 2732 2735 0
-2734 -2732 2736 0
2734 -2736 0
2732 -2736 0
-2551 -2733 2737 0
2551 -2737 0
2733 -2737 0
2736 2737 -2738 0
-2736 2738 0
-2737 2738 0
-18 -2723 2739 0
18 -2739 0
2723 -2739 0
-2557 -2739 -2740 0
2557 2739 -2740 0
2557 -2739 2740 0
-2557 2739 2740 0
-2740 -2738 -2741 0
2740 2738 -2741 0
2740 -2738 2741 0
-2740 2738 2741 0
-2740 -2738 2742 0
2740 -2742 0
2738 -2742 0
-2557 -2739 2743 0
2557 -2743 0
2739 -2743 0
2742 2743 -2744 0
-2742 2744 0
-2743 2744 0
-26 -2723 2745 0
26 -2745 0
2723 -2745 0
-2563 -2745 -2746 0
2563 2745 -2746 0
2563 -2745 2746 0
-2563 2745 2746 0
-2746 -2744 -2747 0
2746 2744 -2747 0
2746 -2744 2747 0
-2746 2744 2747 0
-2746 -2744 2748 0
2746 -2748 0
2744 -2748 0
-2563 -2745 2749 0
2563 -2749 0
2745 -2749 0
2748 2749 -2750 0
-2748 2750 0
-2749 2750 0
-34 -2723 2751 0
34 -2751 0
2723 -2751 0
-2569 -2751 -2752 0
2569 2751 -2752 0
2569 -2751 2752 0
-2569 2751 2752 0
-2752 -2750 -2753 0
2752 2750 -2753 0
2752 -2750 2753 0
-2752 2750 2753 0
-2752 -2750 2754 0
2752 -2754 0
2750 -2754 0
-2569 -2751 2755 0
2569 -2755 0
2751 -2755 0
2754 2755 -2756 0
-2754 2756 0
-2755 2756 0
-42 -2723 2757 0
42 -2757 0
2723 -2757 0
-2575 -2757 -2758 0
2575 2757 -2758 0
2575 -2757 2758 0
-2575 2757 2758 0
-2758 -2756 -2759 0
2758 2756 -2759 0
2758 -2756 2759 0
-2758 2756 2759 0
-2758 -2756 2760 0
2758 -2760 0
2756 -2760 0
-2575 -2757 2761 0
2575 -2761 0
2757 -2761 0
2760 2761 -2762 0
-2760 2762 0
-2761 2762 0
-50 -2723 2763 0
50 -2763 0
2723 -2763 0
-2581 -2763 -2764 0
2581 2763 -2764 0
2581 -2763 2764 0
-2581 2763 2764 0
-2764 -2762 -2765 0
2764 2762 -2765 0
2764 -2762 2765 0
-2764 2762 2765 0
-2764 -2762 2766 0
2764 -2766 0
2762 -2766 0
-2581 -2763 2767 0
2581 -2767 0
2763 -2767 0
2766 2767 -2768 0
-2766 2768 0
-2767 2768 0
-58 -2723 2769 0
58 -2769 0
2723 -2769 0
-2587 -2769 -2770 0
2587 2769 -2770 0
2587 -2769 2770 0
-2587 2769 2770 0
-2770 -2768 -2771 0
2770 2768 -2771 0
2770 -2768 2771 0
-2770 2768 2771 0
-2770 -2768 2772 0
2770 -2772 0
2768 -2772 0
-2587 -2769 2773 0
2587 -2773 0
2769 -2773 0
2772 2773 -2774 0
-2772 2774 0
-2773 2774 0
-66 -2723 2775 0
66 -2775 0
2723 -2775 0
-2593 -2775 -2776 0
2593 2775 -2776 0
2593 -2775 2776 0
-2593 2775 2776 0
-2776 -2774 -2777 0
2776 2774 -2777 0
2776 -2774 2777 0
-2776 2774 2777 0
-2776 -2774 2778 0
2776 -2778 0
2774 -2778 0
-2593 -2775 2779 0
2593 -2779 0
2775 -2779 0
2778 2779 -2780 0
-2778 2780 0
-2779 2780 0
-74 -2723 2781 0
74 -2781 0
2723 -2781 0
-2599 -2781 -2782 0
2599 2781 -2782 0
2599 -2781 2782 0
-2599 2781 2782 0
-2782 -2780 -2783 0
2782 2780 -2783 0
2782 -2780 2783 0
-2782 2780 2783 0
-2782 -2780 2784 0
2782 -2784 0
2780 -2784 0
-2599 -2781 2785 0
2599 -2785 0
2781 -2785 0
2784 2785 -2786 0
-2784 2786 0
-2785 2786 0
-82 -2723 2787 0
82 -2787 0
2723 -2787 0
-2605 -2787 -2788 0
2605 2787 -2788 0
2605 -2787 2788 0
-2605 2787 2788 0
-2788 -2786 -2789 0
2788 2786 -2789 0
2788 -2786 2789 0
-2788 2786 2789 0
-2788 -2786 2790 0
2788 -2790 0
2786 -2790 0
-2605 -2787 2791 0
2605 -2791 0
2787 -2791 0
2790 2791 -2792 0
-2790 2792 0
-2791 2792 0
-90 -2723 2793 0
90 -2793 0
2723 -2793 0
-2611 -2793 -2794 0
2611 2793 -2794 0
2611 -2793 2794 0
-2611 2793 2794 0
-2794 -2792 -2795 0
2794 2792 -2795 0
2794 -2792 2795 0
-2794 2792 2795 0
-2794 -2792 2796 0
2794 -2796 0
2792 -2796 0
-2611 -2793 2797 0
2611 -2797 0
2793 -2797 0
2796 2797 -2798 0
-2796 2798 0
-2797 2798 0
-98 -2723 2799 0
98 -2799 0
2723 -2799 0
-2617 -2799 -2800 0
2617 2799 -2800 0
2617 -2799 2800 0
-2617 2799 2800 0
-2800 -2798 -2801 0
2800 2798 -2801 0
2800 -2798 2801 0
-2800 2798 2801 0
-2800 -2798 2802 0
2800 -2802 0
2798 -2802 0
-2617 -2799 2803 0
2617 -2803 0
2799 -2803 0
2802 2803 -2804 0
-2802 2804 0
-2803 2804 0
-106 -2723 2805 0
106 -2805 0
2723 -2805 0
-2623 -2805 -2806 0
2623 2805 -2806 0
2623 -2805 2806 0
-2623 2805 2806 0
-2806 -2804 -2807 0
2806 2804 -2807 0
2806 -2804 2807 0
-2806 2804 2807 0
-2806 -2804 2808 0
2806 -2808 0
2804 -2808 0
-2623 -2805 2809 0
2623 -2809 0
2805 -2809 0
2808 2809 -2810 0
-2808 2810 0
-2809 2810 0
-114 -2723 2811 0
114 -2811 0
2723 -2811 0
-2629 -2811 -2812 0
2629 2811 -2812 0
2629 -2811 2812 0
-2629 2811 2812 0
-2812 -2810 -2813 0
2812 2810 -2813 0
2812 -2810 2813 0
-2812 2810 2813 0
-2812 -2810 2814 0
2812 -2814 0
2810 -2814 0
-2629 -2811 2815 0
2629 -2815 0
2811 -2815 0
2814 2815 -2816 0
-2814 2816 0
-2815 2816 0
-122 -2723 2817 0
122 -2817 0
2723 -2817 0
-2635 -2817 -2818 0
2635 2817 -2818 0
2635 -2817 2818 0
-2635 2817 2818 0
-2818 -2816 -2819 0
2818 2816 -2819 0
2818 -2816 2819 0
-2818 2816 2819 0
-2818 -2816 2820 0
2818 -2820 0
2816 -2820 0
-2635 -2817 2821 0
2635 -2821 0
2817 -2821 0
2820 2821 -2822 0
-2820 2822 0
-2821 2822 0
-130 -2723 2823 0
130 -2823 0
2723 -2823 0
-2641 -2823 -2824 0
2641 2823 -2824 0
2641 -2823 2824 0
-2641 2823 2824 0
-2824 -2822 -2825 0
2824 2822 -2825 0
2824 -2822 2825 0
-2824 2822 2825 0
-2824 -2822 2826 0
2824 -2826 0
2822 -2826 0
-2641 -2823 2827 0
2641 -2827 0
2823 -2827 0
2826 2827 -2828 0
-2826 2828 0
-2827 2828 0
-138 -2723 2829 0
138 -2829 0
2723 -2829 0
-2647 -2829 -2830 0
2647 2829 -2830 0
2647 -2829 2830 0
-2647 2829 2830 0
-2830 -2828 -2831 0
2830 2828 -2831 0
2830 -2828 2831 0
-2830 2828 2831 0
-2830 -2828 2832 0
2830 -2832 0
2828 -2832 0
-2647 -2829 2833 0
2647 -2833 0
2829 -2833 0
2832 2833 -2834 0
-2832 2834 0
-2833 2834 0
-146 -2723 2835 0
146 -2835 0
2723 -2835 0
-2653 -2835 -2836 0
2653 2835 -2836 0
2653 -2835 2836 0
-2653 2835 2836 0
-2836 -2834 -2837 0
2836 2834 -2837 0
2836 -2834 2837 0
-2836 2834 2837 0
-2836 -2834 2838 0
2836 -2838 0
2834 -2838 0
-2653 -2835 2839 0
2653 -2839 0
2835 -2839 0
2838 2839 -2840 0
-2838 2840 0
-2839 2840 0
-154 -2723 2841 0
154 -2841 0
2723 -2841 0
-2659 -2841 -2842 0
2659 2841 -2842 0
2659 -2841 2842 0
-2659 2841 2842 0
-2842 -2840 -2843 0
2842 2840 -2843 0
2842 -2840 2843 0
-2842 2840 2843 0
-2842 -2840 2844 0
2842 -2844 0
2840 -2844 0
-2659 -2841 2845 0
2659 -2845 0
2841 -2845 0
2844 2845 -2846 0
-2844 2846 0
-2845 2846 0
-162 -2723 2847 0
162 -2847 0
2723 -2847 0
-2665 -2847 -2848 0
2665 2847 -2848 0
2665 -2847 2848 0
-2665 2847 2848 0
-2848 -2846 -2849 0
2848 2846 -2849 0
2848 -2846 2849 0
-2848 2846 2849 0
-2848 -2846 2850 0
2848 -2850 0
2846 -2850 0
-2665 -2847 2851 0
2665 -2851 0
2847 -2851 0
2850 2851 -2852 0
-2850 2852 0
-2851 2852 0
-170 -2723 2853 0
170 -2853 0
2723 -2853 0
-2671 -2853 -2854 0
2671 2853 -2854 0
2671 -2853 2854 0
-2671 2853 2854 0
-2854 -2852 -2855 0
2854 2852 -2855 0
2854 -2852 2855 0
-2854 2852 2855 0
-2854 -2852 2856 0
2854 -2856 0
2852 -2856 0
-2671 -2853 2857 0
2671 -2857 0
2853 -2857 0
2856 2857 -2858 0
-2856 2858 0
-2857 2858 0
-178 -2723 2859 0
178 -2859 0
2723 -2859 0
-2677 -2859 -2860 0
2677 2859 -2860 0
2677 -2859 2860 0
-2677 2859 2860 0
-2860 -2858 -2861 0
2860 2858 -2861 0
2860 -2858 2861 0
-2860 2858 2861 0
-2860 -2858 2862 0
2860 -2862 0
2858 -2862 0
-2677 -2859 2863 0
2677 -2863 0
2859 -2863 0
2862 2863 -2864 0
-2862 2864 0
-2863 2864 0
-186 -2723 2865 0
186 -2865 0
2723 -2865 0
-2683 -2865 -2866 0
2683 2865 -2866 0
2683 -2865 2866 0
-2683 2865 2866 0
-2866 -2864 -2867 0
2866 2864 -2867 0
2866 -2864 2867 0
-2866 2864 2867 0
-2866 -2864 2868 0
2866 -2868 0
2864 -2868 0
-2683 -2865 2869 0
2683 -2869 0
2865 -2869 0
2868 2869 -2870 0
-2868 2870 0
-2869 2870 0
-194 -2723 2871 0
194 -2871 0
2723 -2871 0
-2689 -2871 -2872 0
2689 2871 -2872 0
2689 -2871 2872 0
-2689 2871 2872 0
-2872 -2870 -2873 0
2872 2870 -2873 0
2872 -2870 2873 0
-2872 2870 2873 0
-2872 -2870 2874 0
2872 -2874 0
2870 -2874 0
-2689 -2871 2875 0
2689 -2875 0
2871 -2875 0
2874 2875 -2876 0
-2874 2876 0
-2875 2876 0
-202 -2723 2877 0
202 -2877 0
2723 -2877 0
-2695 -2877 -2878 0
2695 2877 -2878 0
2695 -2877 2878 0
-2695 2877 2878 0
-2878 -2876 -2879 0
2878 2876 -2879 0
2878 -2876 2879 0
-2878 2876 2879 0
-2878 -2876 2880 0
2878 -2880 0
2876 -2880 0
-2695 -2877 2881 0
2695 -2881 0
2877 -2881 0
2880 2881 -2882 0
-2880 2882 0
-2881 2882 0
-210 -2723 2883 0
210 -2883 0
2723 -2883 0
-2701 -2883 -2884 0
2701 2883 -2884 0
2701 -2883 2884 0
-2701 2883 2884 0
-2884 -2882 -2885 0
2884 2882 -2885 0
2884 -2882 2885 0
-2884 2882 2885 0
-2884 -2882 2886 0
2884 -2886 0
2882 -2886 0
-2701 -2883 2887 0
2701 -2887 0
2883 -2887 0
2886 2887 -2888 0
-2886 2888 0
-2887 2888 0
-218 -2723 2889 0
218 -2889 0
2723 -2889 0
-2707 -2889 -2890 0
2707 2889 -2890 0
2707 -2889 2890 0
-2707 2889 2890 0
-2890 -2888 -2891 0
2890 2888 -2891 0
2890 -2888 2891 0
-2890 2888 2891 0
-2890 -2888 2892 0
2890 -2892 0
2888 -2892 0
-2707 -2889 2893 0
2707 -2893 0
2889 -2893 0
2892 2893 -2894 0
-2892 2894 0
-2893 2894 0
-226 -2723 2895 0
226 -2895 0
2723 -2895 0
-2713 -2895 -2896 0
2713 2895 -2896 0
2713 -2895 2896 0
-2713 2895 2896 0
-2896 -2894 -2897 0
2896 2894 -2897 0
2896 -2894 2897 0
-2896 2894 2897 0
-2896 -2894 2898 0
2896 -2898 0
2894 -2898 0
-2713 -2895 2899 0
2713 -2899 0
2895 -2899 0
2898 2899 -2900 0
-2898 2900 0
-2899 2900 0
-234 -2723 2901 0
234 -2901 0
2723 -2901 0
-2719 -2901 -2902 0
2719 2901 -2902 0
2719 -2901 2902 0
-2719 2901 2902 0
-2902 -2900 -2903 0
2902 2900 -2903 0
2902 -2900 2903 0
-2902 2900 2903 0
-2902 -2900 2904 0
2902 -2904 0
2900 -2904 0
-2719 -2901 2905 0
2719 -2905 0
2901 -2905 0
2904 2905 -2906 0
-2904 2906 0
-2905 2906 0
-242 -2723 2907 0
242 -2907 0
2723 -2907 0
-2722 -2907 -2908 0
2722 2907 -2908 0
2722 -2907 2908 0
-2722 2907 2908 0
-2908 -2906 -2909 0
2908 2906 -2909 0
2908 -2906 2909 0
-2908 2906 2909 0
-2908 -2906 2910 0
2908 -2910 0
2906 -2910 0
-2722 -2907 2911 0
2722 -2911 0
2907 -2911 0
2910 2911 -2912 0
-2910 2912 0
-2911 2912 0
-1 -2913 2914 0
1 -2914 0
2913 -2914 0
-2729 -2914 -2915 0
2729 2914 -2915 0
2729 -2914 2915 0
-2729 2914 2915 0
-2729 -2914 2916 0
2729 -2916 0
2914 -2916 0
-4 -2913 2917 0
4 -2917 0
2913 -2917 0
-2735 -2917 -2918 0
2735 2917 -2918 0
2735 -2917 2918 0
-2735 2917 2918 0
-2918 -2916 -2919 0
2918 2916 -2919 0
2918 -2916 2919 0
-2918 2916 2919 0
-2918 -2916 2920 0
2918 -2920 0
2916 -2920 0
-2735 -2917 2921 0
2735 -2921 0
2917 -2921 0
2920 2921 -2922 0
-2920 2922 0
-2921 2922 0
-10 -2913 2923 0
10 -2923 0
2913 -2923 0
-2741 -2923 -2924 0
2741 2923 -2924 0
2741 -2923 2924 0
-2741 2923 2924 0
-2924 -2922 -2925 0
2924 2922 -2925 0
2924 -2922 2925 0
-2924 2922 2925 0
-2924 -2922 2926 0
2924 -2926 0
2922 -2926 0
-2741 -2923 2927 0
2741 -2927 0
2923 -2927 0
2926 2927 -2928 0
-2926 2928 0
-2927 2928 0
-18 -2913 2929 0
18 -2929 0
2913 -2929 0
-2747 -2929 -2930 0
2747 2929 -2930 0
2747 -2929 2930 0
-2747 2929 2930 0
-2930 -2928 -2931 0
2930 2928 -2931 0
2930 -2928 2931 0
-2930 2928 2931 0
-2930 -2928 2932 0
2930 -2932 0
2928 -2932 0
-2747 -2929 2933 0
2747 -2933 0
2929 -2933 0
2932 2933 -2934 0
-2932 2934 0
-2933 2934 0
-26 -2913 2935 0
26 -2935 0
2913 -2935 0
-2753 -2935 -2936 0
2753 2935 -2936 0
2753 -2935 2936 0
-2753 2935 2936 0
-2936 -2934 -2937 0
2936 2934 -2937 0
2936 -2934 2937 0
-2936 2934 2937 0
-2936 -2934 2938 0
2936 -2938 0
2934 -2938 0
-2753 -2935 2939 0
2753 -2939 0
2935 -2939 0
2938 2939 -2940 0
-2938 2940 0
-2939 2940 0
-34 -2913 2941 0
34 -2941 0
2913 -2941 0
-2759 -2941 -2942 0
2759 2941 -2942 0
2759 -2941 2942 0
-2759 2941 2942 0
-2942 -2940 -2943 0
2942 2940 -2943 0
2942 -2940 2943 0
-2942 2940 2943 0
-2942 -2940 2944 0
2942 -2944 0
2940 -2944 0
-2759 -2941 2945 0
2759 -2945 0
2941 -2945 0
2944 2945 -2946 0
-2944 2946 0
-2945 2946 0
-42 -2913 2947 0
42 -2947 0
2913 -2947 0
-2765 -2947 -2948 0
2765 2947 -2948 0
2765 -2947 2948 0
-2765 2947 2948 0
-2948 -2946 -2949 0
2948 2946 -2949 0
2948 -2946 2949 0
-2948 2946 2949 0
-2948 -2946 2950 0
2948 -2950 0
2946 -2950 0
-2765 -2947 2951 0
2765 -2951 0
2947 -2951 0
2950 2951 -2952 0
-2950 2952 0
-2951 2952 0
-50 -2913 2953 0
50 -2953 0
2913 -2953 0
-2771 -2953 -2954 0
2771 2953 -2954 0
2771 -2953 2954 0
-2771 2953 2954 0
-2954 -2952 -2955 0
2954 2952 -2955 0
2954 -2952 2955 0
-2954 2952 2955 0
-2954 -2952 2956 0
2954 -2956 0
2952 -2956 0
-2771 -2953 2957 0
2771 -2957 0
2953 -2957 0
2956 2957 -2958 0
-2956 2958 0
-2957 2958 0
-58 -2913 2959 0
58 -2959 0
2913 -2959 0
-2777 -2959 -2960 0
2777 2959 -2960 0
2777 -2959 2960 0
-2777 2959 2960 0
-2960 -2958 -2961 0
2960 2958 -2961 0
2960 -2958 2961 0
-2960 2958 2961 0
-2960 -2958 2962 0
2960 -2962 0
2958 -2962 0
-2777 -2959 2963 0
2777 -2963 0
2959 -2963 0
2962 2963 -2964 0
-2962 2964 0
-2963 2964 0
-66 -2913 2965 0
66 -2965 0
2913 -2965 0
-2783 -2965 -2966 0
2783 2965 -2966 0
2783 -2965 2966 0
-2783 2965 2966 0
-2966 -2964 -2967 0
2966 2964 -2967 0
2966 -2964 2967 0
-2966 2964 2967 0
-2966 -2964 2968 0
2966 -2968 0
2964 -2968 0
-2783 -2965 2969 0
2783 -2969 0
2965 -2969 0
2968 2969 -2970 0
-2968 2970 0
-2969 2970 0
-74 -2913 2971 0
74 -2971 0
2913 -2971 0
-2789 -2971 -2972 0
2789 2971 -2972 0
2789 -2971 2972 0
-2789 2971 2972 0
-2972 -2970 -2973 0
2972 2970 -2973 0
2972 -2970 2973 0
-2972 2970 2973 0
-2972 -2970 2974 0
2972 -2974 0
2970 -2974 0
-2789 -2971 2975 0
2789 -2975 0
2971 -2975 0
2974 2975 -2976 0
-2974 2976 0
-2975 2976 0
-82 -2913 2977 0
82 -2977 0
2913 -2977 0
-2795 -2977 -2978 0
2795 2977 -2978 0
2795 -2977 2978 0
-2795 2977 2978 0
-2978 -2976 -2979 0
2978 2976 -2979 0
2978 -2976 2979 0
-2978 2976 2979 0
-2978 -2976 2980 0
2978 -2980 0
2976 -2980 0
-2795 -2977 2981 0
2795 -2981 0
2977 -2981 0
2980 2981 -2982 0
-2980 2982 0
-2981 2982 0
-90 -2913 2983 0
90 -2983 0
2913 -2983 0
-2801 -2983 -2984 0
2801 2983 -2984 0
2801 -2983 2984 0
-2801 2983 2984 0
-2984 -2982 -2985 0
2984 2982 -2985 0
2984 -2982 2985 0
-2984 2982 2985 0
-2984 -2982 2986 0
2984 -2986 0
2982 -2986 0
-2801 -2983 2987 0
2801 -2987 0
2983 -2987 0
2986 2987 -2988 0
-2986 2988 0
-2987 2988 0
-98 -2913 2989 0
98 -2989 0
2913 -2989 0
-2807 -2989 -2990 0
2807 2989 -2990 0
2807 -2989 2990 0
-2807 2989 2990 0
-2990 -2988 -2991 0
2990 2988 -2991 0
2990 -2988 2991 0
-2990 2988 2991 0
-2990 -2988 2992 0
2990 -2992 0
2988 -2992 0
-2807 -2989 2993 0
2807 -2993 0
2989 -2993 0
2992 2993 -2994 0
-2992 2994 0
-2993 2994 0
-106 -2913 2995 0
106 -2995 0
2913 -2995 0
-2813 -2995 -2996 0
2813 2995 -2996 0
2813 -2995 2996 0
-2813 2995 2996 0
-2996 -2994 -2997 0
2996 2994 -2997 0
2996 -2994 2997 0
-2996 2994 2997 0
-2996 -2994 2998 0
2996 -2998 0
2994 -2998 0
-2813 -2995 2999 0
2813 -2999 0
2995 -2999 0
2998 2999 -3000 0
-2998 3000 0
-2999 3000 0
-114 -2913 3001 0
114 -3001 0
2913 -3001 0
-2819 -3001 -3002 0
2819 3001 -3002 0
2819 -3001 3002 0
-2819 3001 3002 0
-3002 -3000 -3003 0
3002 3000 -3003 0
3002 -3000 3003 0
-3002 3000 3003 0
-3002 -3000 3004 0
3002 -3004 0
3000 -3004 0
-2819 -3001 3005 0
2819 -3005 0
3001 -3005 0
3004 3005 -3006 0
-3004 3006 0
-3005 3006 0
-122 -2913 3007 0
122 -3007 0
2913 -3007 0
-2825 -3007 -3008 0
2825 3007 -3008 0
2825 -3007 3008 0
-2825 3007 3008 0
-3008 -3006 -3009 0
3008 3006 -3009 0
3008 -3006 3009 0
-3008 3006 3009 0
-3008 -3006 3010 0
3008 -3010 0
3006 -3010 0
-2825 -3007 3011 0
2825 -3011 0
3007 -3011 0
3010 3011 -3012 0
-3010 3012 0
-3011 3012 0
-130 -2913 3013 0
130 -3013 0
2913 -3013 0
-2831 -3013 -3014 0
2831 3013 -3014 0
2831 -3013 3014 0
-2831 3013 3014 0
-3014 -3012 -3015 0
3014 3012 -3015 0
3014 -3012 3015 0
-3014 3012 3015 0
-3014 -3012 3016 0
3014 -3016 0
3012 -3016 0
-2831 -3013 3017 0
2831 -3017 0
3013 -3017 0
3016 3017 -3018 0
-3016 3018 0
-3017 3018 0
-138 -2913 3019 0
138 -3019 0
2913 -3019 0
-2837 -3019 -3020 0
2837 3019 -3020 0
2837 -3019 3020 0
-2837 3019 3020 0
-3020 -3018 -3021 0
3020 3018 -3021 0
3020 -3018 3021 0
-3020 3018 3021 0
-3020 -3018 3022 0
3020 -3022 0
3018 -3022 0
-2837 -3019 3023 0
2837 -3023 0
3019 -3023 0
3022 3023 -3024 0
-3022 3024 0
-3023 3024 0
-146 -2913 3025 0
146 -3025 0
2913 -3025 0
-2843 -3025 -3026 0
2843 3025 -3026 0
2843 -3025 3026 0
-2843 3025 3026 0
-3026 -3024 -3027 0
3026 3024 -3027 0
3026 -3024 3027 0
-3026 3024 3027 0
-3026 -3024 3028 0
3026 -3028 0
3024 -3028 0
-2843 -3025 3029 0
2843 -3029 0
3025 -3029 0
3028 3029 -3030 0
-3028 3030 0
-3029 3030 0
-154 -2913 3031 0
154 -3031 0
2913 -3031 0
-2849 -3031 -3032 0
2849 3031 -3032 0
2849 -3031 3032 0
-2849 3031 3032 0
-3032 -3030 -3033 0
3032 3030 -3033 0
3032 -3030 3033 0
-3032 3030 3033 0
-3032 -3030 3034 0
3032 -3034 0
3030 -3034 0
-2849 -3031 3035 0
2849 -3035 0
3031 -3035 0
3034 3035 -3036 0
-3034 3036 0
-3035 3036 0
-162 -2913 3037 0
162 -3037 0
2913 -3037 0
-2855 -3037 -3038 0
2855 3037 -3038 0
2855 -3037 3038 0
-2855 3037 3038 0
-3038 -3036 -3039 0
3038 3036 -3039 0
3038 -3036 3039 0
-3038 3036 3039 0
-3038 -3036 3040 0
3038 -3040 0
3036 -3040 0
-2855 -3037 3041 0
2855 -3041 0
3037 -3041 0
3040 3041 -3042 0
-3040 3042 0
-3041 3042 0
-170 -2913 3043 0
170 -3043 0
2913 -3043 0
-2861 -3043 -3044 0
2861 3043 -3044 0
2861 -3043 3044 0
-2861 3043 3044 0
-3044 -3042 -3045 0
3044 3042 -3045 0
3044 -3042 3045 0
-3044 3042 3045 0
-3044 -3042 3046 0
3044 -3046 0
3042 -3046 0
-2861 -3043 3047 0
2861 -3047 0
3043 -3047 0
3046 3047 -3048 0
-3046 3048 0
-3047 3048 0
-178 -2913 3049 0
178 -3049 0
2913 -3049 0
-2867 -3049 -3050 0
2867 3049 -3050 0
2867 -3049 3050 0
-2867 3049 3050 0
-3050 -3048 -3051 0
3050 3048 -3051 0
3050 -3048 3051 0
-3050 3048 3051 0
-3050 -3048 3052 0
3050 -3052 0
3048 -3052 0
-2867 -3049 3053 0
2867 -3053 0
3049 -3053 0
3052 3053 -3054 0
-3052 3054 0
-3053 3054 0
-186 -2913 3055 0
186 -3055 0
2913 -3055 0
-2873 -3055 -3056 0
2873 3055 -3056 0
2873 -3055 3056 0
-2873 3055 3056 0
-3056 -3054 -3057 0
3056 3054 -3057 0
3056 -3054 3057 0
-3056 3054 3057 0
-3056 -3054 3058 0
3056 -3058 0
3054 -3058 0
-2873 -3055 3059 0
2873 -3059 0
3055 -3059 0
3058 3059 -3060 0
-3058 3060 0
-3059 3060 0
-194 -2913 3061 0
194 -3061 0
2913 -3061 0
-2879 -3061 -3062 0
2879 3061 -3062 0
2879 -3061 3062 0
-2879 3061 3062 0
-3062 -3060 -3063 0
3062 3060 -3063 0
3062 -3060 3063 0
-3062 3060 3063 0
-3062 -3060 3064 0
3062 -3064 0
3060 -3064 0
-2879 -3061 3065 0
2879 -3065 0
3061 -3065 0
3064 3065 -3066 0
-3064 3066 0
-3065 3066 0
-202 -2913 3067 0
202 -3067 0
2913 -3067 0
-2885 -3067 -3068 0
2885 3067 -3068 0
2885 -3067 3068 0
-2885 3067 3068 0
-3068 -3066 -3069 0
3068 3066 -3069 0
3068 -3066 3069 0
-3068 3066 3069 0
-3068 -3066 3070 0
3068 -3070 0
3066 -3070 0
-2885 -3067 3071 0
2885 -3071 0
3067 -3071 0
3070 3071 -3072 0
-3070 3072 0
-3071 3072 0
-210 -2913 3073 0
210 -3073 0
2913 -3073 0
-2891 -3073 -3074 0
2891 3073 -3074 0
2891 -3073 3074 0
-2891 3073 3074 0
-3074 -3072 -3075 0
3074 3072 -3075 0
3074 -3072 3075 0
-3074 3072 3075 0
-3074 -3072 3076 0
3074 -3076 0
3072 -3076 0
-2891 -3073 3077 0
2891 -3077 0
3073 -3077 0
3076 3077 -3078 0
-3076 3078 0
-3077 3078 0
-218 -2913 3079 0
218 -3079 0
2913 -3079 0
-2897 -3079 -3080 0
2897 3079 -3080 0
2897 -3079 3080 0
-2897 3079 3080 0
-3080 -3078 -3081 0
3080 3078 -3081 0
3080 -3078 3081 0
-3080 3078 3081 0
-3080 -3078 3082 0
3080 -3082 0
3078 -3082 0
-2897 -3079 3083 0
2897 -3083 0
3079 -3083 0
3082 3083 -3084 0
-3082 3084 0
-3083 3084 0
-226 -2913 3085 0
226 -3085 0
2913 -3085 0
-2903 -3085 -3086 0
2903 3085 -3086 0
2903 -3085 3086 0
-2903 3085 3086 0
-3086 -3084 -3087 0
3086 3084 -3087 0
3086 -3084 3087 0
-3086 3084 3087 0
-3086 -3084 3088 0
3086 -3088 0
3084 -3088 0
-2903 -3085 3089 0
2903 -3089 0
3085 -3089 0
3088 3089 -3090 0
-3088 3090 0
-3089 3090 0
-234 -2913 3091 0
234 -3091 0
2913 -3091 0
-2909 -3091 -3092 0
2909 3091 -3092 0
2909 -3091 3092 0
-2909 3091 3092 0
-3092 -3090 -3093 0
3092 3090 -3093 0
3092 -3090 3093 0
-3092 3090 3093 0
-3092 -3090 3094 0
3092 -3094 0
3090 -3094 0
-2909 -3091 3095 0
2909 -3095 0
3091 -3095 0
3094 3095 -3096 0
-3094 3096 0
-3095 3096 0
-242 -2913 3097 0
242 -3097 0
2913 -3097 0
-2912 -3097 -3098 0
2912 3097 -3098 0
2912 -3097 3098 0
-2912 3097 3098 0
-3098 -3096 -3099 0
3098 3096 -3099 0
3098 -3096 3099 0
-3098 3096 3099 0
-3098 -3096 3100 0
3098 -3100 0
3096 -3100 0
-2912 -3097 3101 0
2912 -3101 0
3097 -3101 0
3100 3101 -3102 0
-3100 3102 0
-3101 3102 0
-1 -3103 3104 0
1 -3104 0
3103 -3104 0
-2919 -3104 -3105 0
2919 3104 -3105 0
2919 -3104 3105 0
-2919 3104 3105 0
-2919 -3104 3106 0
2919 -3106 0
3104 -3106 0
-4 -3103 3107 0
4 -3107 0
3103 -3107 0
-2925 -3107 -3108 0
2925 3107 -3108 0
2925 -3107 3108 0
-2925 3107 3108 0
-3108 -3106 -3109 0
3108 3106 -3109 0
3108 -3106 3109 0
-3108 3106 3109 0
-3108 -3106 3110 0
3108 -3110 0
3106 -3110 0
-2925 -3107 3111 0
2925 -3111 0
3107 -3111 0
3110 3111 -3112 0
-3110 3112 0
-3111 3112 0
-10 -3103 3113 0
10 -3113 0
3103 -3113 0
-2931 -3113 -3114 0
2931 3113 -3114 0
2931 -3113 3114 0
-2931 3113 3114 0
-3114 -3112 -3115 0
3114 3112 -3115 0
3114 -3112 3115 0
-3114 3112 3115 0
-3114 -3112 3116 0
3114 -3116 0
3112 -3116 0
-2931 -3113 3117 0
2931 -3117 0
3113 -3117 0
3116 3117 -3118 0
-3116 3118 0
-3117 3118 0
-18 -3103 3119 0
18 -3119 0
3103 -3119 0
-2937 -3119 -3120 0
2937 3119 -3120 0
2937 -3119 3120 0
-2937 3119 3120 0
-3120 -3118 -3121 0
3120 3118 -3121 0
3120 -3118 3121 0
-3120 3118 3121 0
-3120 -3118 3122 0
3120 -3122 0
3118 -3122 0
-2937 -3119 3123 0
2937 -3123 0
3119 -3123 0
3122 3123 -3124 0
-3122 3124 0
-3123 3124 0
-26 -3103 3125 0
26 -3125 0
3103 -3125 0
-2943 -3125 -3126 0
2943 3125 -3126 0
2943 -3125 3126 0
-2943 3125 3126 0
-3126 -3124 -3127 0
3126 3124 -3127 0
3126 -3124 3127 0
-3126 3124 3127 0
-3126 -3124 3128 0
3126 -3128 0
3124 -3128 0
-2943 -3125 3129 0
2943 -3129 0
3125 -3129 0
3128 3129 -3130 0
-3128 3130 0
-3129 3130 0
-34 -3103 3131 0
34 -3131 0
3103 -3131 0
-2949 -3131 -3132 0
2949 3131 -3132 0
2949 -3131 3132 0
-2949 3131 3132 0
-3132 -3130 -3133 0
3132 3130 -3133 0
3132 -3130 3133 0
-3132 3130 3133 0
-3132 -3130 3134 0
3132 -3134 0
3130 -3134 0
-2949 -3131 3135 0
2949 -3135 0
3131 -3135 0
3134 3135 -3136 0
-3134 3136 0
-3135 3136 0
-42 -3103 3137 0
42 -3137 0
3103 -3137 0
-2955 -3137 -3138 0
2955 3137 -3138 0
2955 -3137 3138 0
-2955 3137 3138 0
-3138 -3136 -3139 0
3138 3136 -3139 0
3138 -3136 3139 0
-3138 3136 3139 0
-3138 -3136 3140 0
3138 -3140 0
3136 -3140 0
-2955 -3137 3141 0
2955 -3141 0
3137 -3141 0
3140 3141 -3142 0
-3140 3142 0
-3141 3142 0
-50 -3103 3143 0
50 -3143 0
3103 -3143 0
-2961 -3143 -3144 0
2961 3143 -3144 0
2961 -3143 3144 0
-2961 3143 3144 0
-3144 -3142 -3145 0
3144 3142 -3145 0
3144 -3142 3145 0
-3144 3142 3145 0
-3144 -3142 3146 0
3144 -3146 0
3142 -3146 0
-2961 -3143 3147 0
2961 -3147 0
3143 -3147 0
3146 3147 -3148 0
-3146 3148 0
-3147 3148 0
-58 -3103 3149 0
58 -3149 0
3103 -3149 0
-2967 -3149 -3150 0
2967 3149 -3150 0
2967 -3149 3150 0
-2967 3149 3150 0
-3150 -3148 -3151 0
3150 3148 -3151 0
3150 -3148 3151 0
-3150 3148 3151 0
-3150 -3148 3152 0
3150 -3152 0
3148 -3152 0
-2967 -3149 3153 0
2967 -3153 0
3149 -3153 0
3152 3153 -3154 0
-3152 3154 0
-3153 3154 0
-66 -3103 3155 0
66 -3155 0
3103 -3155 0
-2973 -3155 -3156 0
2973 3155 -3156 0
2973 -3155 3156 0
-2973 3155 3156 0
-3156 -3154 -3157 0
3156 3154 -3157 0
3156 -3154 3157 0
-3156 3154 3157 0
-3156 -3154 3158 0
3156 -3158 0
3154 -3158 0
-2973 -3155 3159 0
2973 -3159 0
3155 -3159 0
3158 3159 -3160 0
-3158 3160 0
-3159 3160 0
-74 -3103 3161 0
74 -3161 0
3103 -3161 0
-2979 -3161 -3162 0
2979 3161 -3162 0
2979 -3161 3162 0
-2979 3161 3162 0
-3162 -3160 -3163 0
3162 3160 -3163 0
3162 -3160 3163 0
-3162 3160 3163 0
-3162 -3160 3164 0
3162 -3164 0
3160 -3164 0
-2979 -3161 3165 0
2979 -3165 0
3161 -3165 0
3164 3165 -3166 0
-3164 3166 0
-3165 3166 0
-82 -3103 3167 0
82 -3167 0
3103 -3167 0
-2985 -3167 -3168 0
2985 3167 -3168 0
2985 -3167 3168 0
-2985 3167 3168 0
-3168 -3166 -3169 0
3168 3166 -3169 0
3168 -3166 3169 0
-3168 3166 3169 0
-3168 -3166 3170 0
3168 -3170 0
3166 -3170 0
-2985 -3167 3171 0
2985 -3171 0
3167 -3171 0
3170 3171 -3172 0
-3170 3172 0
-3171 3172 0
-90 -3103 3173 0
90 -3173 0
3103 -3173 0
-2991 -3173 -3174 0
2991 3173 -3174 0
2991 -3173 3174 0
-2991 3173 3174 0
-3174 -3172 -3175 0
3174 3172 -3175 0
3174 -3172 3175 0
-3174 3172 3175 0
-3174 -3172 3176 0
3174 -3176 0
3172 -3176 0
-2991 -3173 3177 0
2991 -3177 0
3173 -3177 0
3176 3177 -3178 0
-3176 3178 0
-3177 3178 0
-98 -3103 3179 0
98 -3179 0
3103 -3179 0
-2997 -3179 -3180 0
2997 3179 -3180 0
2997 -3179 3180 0
-2997 3179 3180 0
-3180 -3178 -3181 0
3180 3178 -3181 0
3180 -3178 3181 0
-3180 3178 3181 0
-3180 -3178 3182 0
3180 -3182 0
3178 -3182 0
-2997 -3179 3183 0
2997 -3183 0
3179 -3183 0
3182 3183 -3184 0
-3182 3184 0
-3183 3184 0
-106 -3103 3185 0
106 -3185 0
3103 -3185 0
-3003 -3185 -3186 0
3003 3185 -3186 0
3003 -3185 3186 0
-3003 3185 3186 0
-3186 -3184 -3187 0
3186 3184 -3187 0
3186 -3184 3187 0
-3186 3184 3187 0
-3186 -3184 3188 0
3186 -3188 0
3184 -3188 0
-3003 -3185 3189 0
3003 -3189 0
3185 -3189 0
3188 3189 -3190 0
-3188 3190 0
-3189 3190 0
-114 -3103 3191 0
114 -3191 0
3103 -3191 0
-3009 -3191 -3192 0
3009 3191 -3192 0
3009 -3191 3192 0
-3009 3191 3192 0
-3192 -3190 -3193 0
3192 3190 -3193 0
3192 -3190 3193 0
-3192 3190 3193 0
-3192 -3190 3194 0
3192 -3194 0
3190 -3194 0
-3009 -3191 3195 0
3009 -3195 0
3191 -3195 0
3194 3195 -3196 0
-3194 3196 0
-3195 3196 0
-122 -3103 3197 0
122 -3197 0
3103 -3197 0
-3015 -3197 -3198 0
3015 3197 -3198 0
3015 -3197 3198 0
-3015 3197 3198 0
-3198 -3196 -3199 0
3198 3196 -3199 0
3198 -3196 3199 0
-3198 3196 3199 0
-3198 -3196 3200 0
3198 -3200 0
3196 -3200 0
-3015 -3197 3201 0
3015 -3201 0
3197 -3201 0
3200 3201 -3202 0
-3200 3202 0
-3201 3202 0
-130 -3103 3203 0
130 -3203 0
3103 -3203 0
-3021 -3203 -3204 0
3021 3203 -3204 0
3021 -3203 3204 0
-3021 3203 3204 0
-3204 -3202 -3205 0
3204 3202 -3205 0
3204 -3202 3205 0
-3204 3202 3205 0
-3204 -3202 3206 0
3204 -3206 0
3202 -3206 0
-3021 -3203 3207 0
3021 -3207 0
3203 -3207 0
3206 3207 -3208 0
-3206 3208 0
-3207 3208 0
-138 -3103 3209 0
138 -3209 0
3103 -3209 0
-3027 -3209 -3210 0
3027 3209 -3210 0
3027 -3209 3210 0
-3027 3209 3210 0
-3210 -3208 -3211 0
3210 3208 -3211 0
3210 -3208 3211 0
-3210 3208 3211 0
-3210 -3208 3212 0
3210 -3212 0
3208 -3212 0
-3027 -3209 3213 0
3027 -3213 0
3209 -3213 0
3212 3213 -3214 0
-3212 3214 0
-3213 3214 0
-146 -3103 3215 0
146 -3215 0
3103 -3215 0
-3033 -3215 -3216 0
3033 3215 -3216 0
3033 -3215 3216 0
-3033 3215 3216 0
-3216 -3214 -3217 0
3216 3214 -3217 0
3216 -3214 3217 0
-3216 3214 3217 0
-3216 -3214 3218 0
3216 -3218 0
3214 -3218 0
-3033 -3215 3219 0
3033 -3219 0
3215 -3219 0
3218 3219 -3220 0
-3218 3220 0
-3219 3220 0
-154 -3103 3221 0
154 -3221 0
3103 -3221 0
-3039 -3221 -3222 0
3039 3221 -3222 0
3039 -3221 3222 0
-3039 3221 3222 0
-3222 -3220 -3223 0
3222 3220 -3223 0
3222 -3220 3223 0
-3222 3220 3223 0
-3222 -3220 3224 0
3222 -3224 0
3220 -3224 0
-3039 -3221 3225 0
3039 -3225 0
3221 -3225 0
3224 3225 -3226 0
-3224 3226 0
-3225 3226 0
-162 -3103 3227 0
162 -3227 0
3103 -3227 0
-3045 -3227 -3228 0
3045 3227 -3228 0
3045 -3227 3228 0
-3045 3227 3228 0
-3228 -3226 -3229 0
3228 3226 -3229 0
3228 -3226 3229 0
-3228 3226 3229 0
-3228 -3226 3230 0
3228 -3230 0
3226 -3230 0
-3045 -3227 3231 0
3045 -3231 0
3227 -3231 0
3230 3231 -3232 0
-3230 3232 0
-3231 3232 0
-170 -3103 3233 0
170 -3233 0
3103 -3233 0
-3051 -3233 -3234 0
3051 3233 -3234 0
3051 -3233 3234 0
-3051 3233 3234 0
-3234 -3232 -3235 0
3234 3232 -3235 0
3234 -3232 3235 0
-3234 3232 3235 0
-3234 -3232 3236 0
3234 -3236 0
3232 -3236 0
-3051 -3233 3237 0
3051 -3237 0
3233 -3237 0
3236 3237 -3238 0
-3236 3238 0
-3237 3238 0
-178 -3103 3239 0
178 -3239 0
3103 -3239 0
-3057 -3239 -3240 0
3057 3239 -3240 0
3057 -3239 3240 0
-3057 3239 3240 0
-3240 -3238 -3241 0
3240 3238 -3241 0
3240 -3238 3241 0
-3240 3238 3241 0
-3240 -3238 3242 0
3240 -3242 0
3238 -3242 0
-3057 -3239 3243 0
3057 -3243 0
3239 -3243 0
3242 3243 -3244 0
-3242 3244 0
-3243 3244 0
-186 -3103 3245 0
186 -3245 0
3103 -3245 0
-3063 -3245 -3246 0
3063 3245 -3246 0
3063 -3245 3246 0
-3063 3245 3246 0
-3246 -3244 -3247 0
3246 3244 -3247 0
3246 -3244 3247 0
-3246 3244 3247 0
-3246 -3244 3248 0
3246 -3248 0
3244 -3248 0
-3063 -3245 3249 0
3063 -3249 0
3245 -3249 0
3248 3249 -3250 0
-3248 3250 0
-3249 3250 0
-194 -3103 3251 0
194 -3251 0
3103 -3251 0
-3069 -3251 -3252 0
3069 3251 -3252 0
3069 -3251 3252 0
-3069 3251 3252 0
-3252 -3250 -3253 0
3252 3250 -3253 0
3252 -3250 3253 0
-3252 3250 3253 0
-3252 -3250 3254 0
3252 -3254 0
3250 -3254 0
-3069 -3251 3255 0
3069 -3255 0
3251 -3255 0
3254 3255 -3256 0
-3254 3256 0
-3255 3256 0
-202 -3103 3257 0
202 -3257 0
3103 -3257 0
-3075 -3257 -3258 0
3075 3257 -3258 0
3075 -3257 3258 0
-3075 3257 3258 0
-3258 -3256 -3259 0
3258 3256 -3259 0
3258 -3256 3259 0
-3258 3256 3259 0
-3258 -3256 3260 0
3258 -3260 0
3256 -3260 0
-3075 -3257 3261 0
3075 -3261 0
3257 -3261 0
3260 3261 -3262 0
-3260 3262 0
-3261 3262 0
-210 -3103 3263 0
210 -3263 0
3103 -3263 0
-3081 -3263 -3264 0
3081 3263 -3264 0
3081 -3263 3264 0
-3081 3263 3264 0
-3264 -3262 -3265 0
3264 3262 -3265 0
3264 -3262 3265 0
-3264 3262 3265 0
-3264 -3262 3266 0
3264 -3266 0
3262 -3266 0
-3081 -3263 3267 0
3081 -3267 0
3263 -3267 0
3266 3267 -3268 0
-3266 3268 0
-3267 3268 0
-218 -3103 3269 0
218 -3269 0
3103 -3269 0
-3087 -3269 -3270 0
3087 3269 -3270 0
3087 -3269 3270 0
-3087 3269 3270 0
-3270 -3268 -3271 0
3270 3268 -3271 0
3270 -3268 3271 0
-3270 3268 3271 0
-3270 -3268 3272 0
3270 -3272 0
3268 -3272 0
-3087 -3269 3273 0
3087 -3273 0
3269 -3273 0
3272 3273 -3274 0
-3272 3274 0
-3273 3274 0
-226 -3103 3275 0
226 -3275 0
3103 -3275 0
-3093 -3275 -3276 0
3093 3275 -3276 0
3093 -3275 3276 0
-3093 3275 3276 0
-3276 -3274 -3277 0
3276 3274 -3277 0
3276 -3274 3277 0
-3276 3274 3277 0
-3276 -3274 3278 0
3276 -3278 0
3274 -3278 0
-3093 -3275 3279 0
3093 -3279 0
3275 -3279 0
3278 3279 -3280 0
-3278 3280 0
-3279 3280 0
-234 -3103 3281 0
234 -3281 0
3103 -3281 0
-3099 -3281 -3282 0
3099 3281 -3282 0
3099 -3281 3282 0
-3099 3281 3282 0
-3282 -3280 -3283 0
3282 3280 -3283 0
3282 -3280 3283 0
-3282 3280 3283 0
-3282 -3280 3284 0
3282 -3284 0
3280 -3284 0
-3099 -3281 3285 0
3099 -3285 0
3281 -3285 0
3284 3285 -3286 0
-3284 3286 0
-3285 3286 0
-242 -3103 3287 0
242 -3287 0
3103 -3287 0
-3102 -3287 -3288 0
3102 3287 -3288 0
3102 -3287 3288 0
-3102 3287 3288 0
-3288 -3286 -3289 0
3288 3286 -3289 0
3288 -3286 3289 0
-3288 3286 3289 0
-3288 -3286 3290 0
3288 -3290 0
3286 -3290 0
-3102 -3287 3291 0
3102 -3291 0
3287 -3291 0
3290 3291 -3292 0
-3290 3292 0
-3291 3292 0
-1 -3293 3294 0
1 -3294 0
3293 -3294 0
-3109 -3294 -3295 0
3109 3294 -3295 0
3109 -3294 3295 0
-3109 3294 3295 0
-3109 -3294 3296 0
3109 -3296 0
3294 -3296 0
-4 -3293 3297 0
4 -3297 0
3293 -3297 0
-3115 -3297 -3298 0
3115 3297 -3298 0
3115 -3297 3298 0
-3115 3297 3298 0
-3298 -3296 -3299 0
3298 3296 -3299 0
3298 -3296 3299 0
-3298 3296 3299 0
-3298 -3296 3300 0
3298 -3300 0
3296 -3300 0
-3115 -3297 3301 0
3115 -3301 0
3297 -3301 0
3300 3301 -3302 0
-3300 3302 0
-3301 3302 0
-10 -3293 3303 0
10 -3303 0
3293 -3303 0
-3121 -3303 -3304 0
3121 3303 -3304 0
3121 -3303 3304 0
-3121 3303 3304 0
-3304 -3302 -3305 0
3304 3302 -3305 0
3304 -3302 3305 0
-3304 3302 3305 0
-3304 -3302 3306 0
3304 -3306 0
3302 -3306 0
-3121 -3303 3307 0
3121 -3307 0
3303 -3307 0
3306 3307 -3308 0
-3306 3308 0
-3307 3308 0
-18 -3293 3309 0
18 -3309 0
3293 -3309 0
-3127 -3309 -3310 0
3127 3309 -3310 0
3127 -3309 3310 0
-3127 3309 3310 0
-3310 -3308 -3311 0
3310 3308 -3311 0
3310 -3308 3311 0
-3310 3308 3311 0
-3310 -3308 3312 0
3310 -3312 0
3308 -3312 0
-3127 -3309 3313 0
3127 -3313 0
3309 -3313 0
3312 3313 -3314 0
-3312 3314 0
-3313 3314 0
-26 -3293 3315 0
26 -3315 0
3293 -3315 0
-3133 -3315 -3316 0
3133 3315 -3316 0
3133 -3315 3316 0
-3133 3315 3316 0
-3316 -3314 -3317 0
3316 3314 -3317 0
3316 -3314 3317 0
-3316 3314 3317 0
-3316 -3314 3318 0
3316 -3318 0
3314 -3318 0
-3133 -3315 3319 0
3133 -3319 0
3315 -3319 0
3318 3319 -3320 0
-3318 3320 0
-3319 3320 0
-34 -3293 3321 0
34 -3321 0
3293 -3321 0
-3139 -3321 -3322 0
3139 3321 -3322 0
3139 -3321 3322 0
-3139 3321 3322 0
-3322 -3320 -3323 0
3322 3320 -3323 0
3322 -3320 3323 0
-3322 3320 3323 0
-3322 -3320 3324 0
3322 -3324 0
3320 -3324 0
-3139 -3321 3325 0
3139 -3325 0
3321 -3325 0
3324 3325 -3326 0
-3324 3326 0
-3325 3326 0
-42 -3293 3327 0
42 -3327 0
3293 -3327 0
-3145 -3327 -3328 0
3145 3327 -3328 0
3145 -3327 3328 0
-3145 3327 3328 0
-3328 -3326 -3329 0
3328 3326 -3329 0
3328 -3326 3329 0
-3328 3326 3329 0
-3328 -3326 3330 0
3328 -3330 0
3326 -3330 0
-3145 -3327 3331 0
3145 -3331 0
3327 -3331 0
3330 3331 -3332 0
-3330 3332 0
-3331 3332 0
-50 -3293 3333 0
50 -3333 0
3293 -3333 0
-3151 -3333 -3334 0
3151 3333 -3334 0
3151 -3333 3334 0
-3151 3333 3334 0
-3334 -3332 -3335 0
3334 3332 -3335 0
3334 -3332 3335 0
-3334 3332 3335 0
-3334 -3332 3336 0
3334 -3336 0
3332 -3336 0
-3151 -3333 3337 0
3151 -3337 0
3333 -3337 0
3336 3337 -3338 0
-3336 3338 0
-3337 3338 0
-58 -3293 3339 0
58 -3339 0
3293 -3339 0
-3157 -3339 -3340 0
3157 3339 -3340 0
3157 -3339 3340 0
-3157 3339 3340 0
-3340 -3338 -3341 0
3340 3338 -3341 0
3340 -3338 3341 0
-3340 3338 3341 0
-3340 -3338 3342 0
3340 -3342 0
3338 -3342 0
-3157 -3339 3343 0
3157 -3343 0
3339 -3343 0
3342 3343 -3344 0
-3342 3344 0
-3343 3344 0
-66 -3293 3345 0
66 -3345 0
3293 -3345 0
-3163 -3345 -3346 0
3163 3345 -3346 0
3163 -3345 3346 0
-3163 3345 3346 0
-3346 -3344 -3347 0
3346 3344 -3347 0
3346 -3344 3347 0
-3346 3344 3347 0
-3346 -3344 3348 0
3346 -3348 0
3344 -3348 0
-3163 -3345 3349 0
3163 -3349 0
3345 -3349 0
3348 3349 -3350 0
-3348 3350 0
-3349 3350 0
-74 -3293 3351 0
74 -3351 0
3293 -3351 0
-3169 -3351 -3352 0
3169 3351 -3352 0
3169 -3351 3352 0
-3169 3351 3352 0
-3352 -3350 -3353 0
3352 3350 -3353 0
3352 -3350 3353 0
-3352 3350 3353 0
-3352 -3350 3354 0
3352 -3354 0
3350 -3354 0
-3169 -3351 3355 0
3169 -3355 0
3351 -3355 0
3354 3355 -3356 0
-3354 3356 0
-3355 3356 0
-82 -3293 3357 0
82 -3357 0
3293 -3357 0
-3175 -3357 -3358 0
3175 3357 -3358 0
3175 -3357 3358 0
-3175 3357 3358 0
-3358 -3356 -3359 0
3358 3356 -3359 0
3358 -3356 3359 0
-3358 3356 3359 0
-3358 -3356 3360 0
3358 -3360 0
3356 -3360 0
-3175 -3357 3361 0
3175 -3361 0
3357 -3361 0
3360 3361 -3362 0
-3360 3362 0
-3361 3362 0
-90 -3293 3363 0
90 -3363 0
3293 -3363 0
-3181 -3363 -3364 0
3181 3363 -3364 0
3181 -3363 3364 0
-3181 3363 3364 0
-3364 -3362 -3365 0
3364 3362 -3365 0
3364 -3362 3365 0
-3364 3362 3365 0
-3364 -3362 3366 0
3364 -3366 0
3362 -3366 0
-3181 -3363 3367 0
3181 -3367 0
3363 -3367 0
3366 3367 -3368 0
-3366 3368 0
-3367 3368 0
-98 -3293 3369 0
98 -3369 0
3293 -3369 0
-3187 -3369 -3370 0
3187 3369 -3370 0
3187 -3369 3370 0
-3187 3369 3370 0
-3370 -3368 -3371 0
3370 3368 -3371 0
3370 -3368 3371 0
-3370 3368 3371 0
-3370 -3368 3372 0
3370 -3372 0
3368 -3372 0
-3187 -3369 3373 0
3187 -3373 0
3369 -3373 0
3372 3373 -3374 0
-3372 3374 0
-3373 3374 0
-106 -3293 3375 0
106 -3375 0
3293 -3375 0
-3193 -3375 -3376 0
3193 3375 -3376 0
3193 -3375 3376 0
-3193 3375 3376 0
-3376 -3374 -3377 0
3376 3374 -3377 0
3376 -3374 3377 0
-3376 3374 3377 0
-3376 -3374 3378 0
3376 -3378 0
3374 -3378 0
-3193 -3375 3379 0
3193 -3379 0
3375 -3379 0
3378 3379 -3380 0
-3378 3380 0
-3379 3380 0
-114 -3293 3381 0
114 -3381 0
3293 -3381 0
-3199 -3381 -3382 0
3199 3381 -3382 0
3199 -3381 3382 0
-3199 3381 3382 0
-3382 -3380 -3383 0
3382 3380 -3383 0
3382 -3380 3383 0
-3382 3380 3383 0
-3382 -3380 3384 0
3382 -3384 0
3380 -3384 0
-3199 -3381 3385 0
3199 -3385 0
3381 -3385 0
3384 3385 -3386 0
-3384 3386 0
-3385 3386 0
-122 -3293 3387 0
122 -3387 0
3293 -3387 0
-3205 -3387 -3388 0
3205 3387 -3388 0
3205 -3387 3388 0
-3205 3387 3388 0
-3388 -3386 -3389 0
3388 3386 -3389 0
3388 -3386 3389 0
-3388 3386 3389 0
-3388 -3386 3390 0
3388 -3390 0
3386 -3390 0
-3205 -3387 3391 0
3205 -3391 0
3387 -3391 0
3390 3391 -3392 0
-3390 3392 0
-3391 3392 0
-130 -3293 3393 0
130 -3393 0
3293 -3393 0
-3211 -3393 -3394 0
3211 3393 -3394 0
3211 -3393 3394 0
-3211 3393 3394 0
-3394 -3392 -3395 0
3394 3392 -3395 0
3394 -3392 3395 0
-3394 3392 3395 0
-3394 -3392 3396 0
3394 -3396 0
3392 -3396 0
-3211 -3393 3397 0
3211 -3397 0
3393 -3397 0
3396 3397 -3398 0
-3396 3398 0
-3397 3398 0
-138 -3293 3399 0
138 -3399 0
3293 -3399 0
-3217 -3399 -3400 0
3217 3399 -3400 0
3217 -3399 3400 0
-3217 3399 3400 0
-3400 -3398 -3401 0
3400 3398 -3401 0
3400 -3398 3401 0
-3400 3398 3401 0
-3400 -3398 3402 0
3400 -3402 0
3398 -3402 0
-3217 -3399 3403 0
3217 -3403 0
3399 -3403 0
3402 3403 -3404 0
-3402 3404 0
-3403 3404 0
-146 -3293 3405 0
146 -3405 0
3293 -3405 0
-3223 -3405 -3406 0
3223 3405 -3406 0
3223 -3405 3406 0
-3223 3405 3406 0
-3406 -3404 -3407 0
3406 3404 -3407 0
3406 -3404 3407 0
-3406 3404 3407 0
-3406 -3404 3408 0
3406 -3408 0
3404 -3408 0
-3223 -3405 3409 0
3223 -3409 0
3405 -3409 0
3408 3409 -3410 0
-3408 3410 0
-3409 3410 0
-154 -3293 3411 0
154 -3411 0
3293 -3411 0
-3229 -3411 -3412 0
3229 3411 -3412 0
3229 -3411 3412 0
-3229 3411 3412 0
-3412 -3410 -3413 0
3412 3410 -3413 0
3412 -3410 3413 0
-3412 3410 3413 0
-3412 -3410 3414 0
3412 -3414 0
3410 -3414 0
-3229 -3411 3415 0
3229 -3415 0
3411 -3415 0
3414 3415 -3416 0
-3414 3416 0
-3415 3416 0
-162 -3293 3417 0
162 -3417 0
3293 -3417 0
-3235 -3417 -3418 0
3235 3417 -3418 0
3235 -3417 3418 0
-3235 3417 3418 0
-3418 -3416 -3419 0
3418 3416 -3419 0
3418 -3416 3419 0
-3418 3416 3419 0
-3418 -3416 3420 0
3418 -3420 0
3416 -3420 0
-3235 -3417 3421 0
3235 -3421 0
3417 -3421 0
3420 3421 -3422 0
-3420 3422 0
-3421 3422 0
-170 -3293 3423 0
170 -3423 0
3293 -3423 0
-3241 -3423 -3424 0
3241 3423 -3424 0
3241 -3423 3424 0
-3241 3423 3424 0
-3424 -3422 -3425 0
3424 3422 -3425 0
3424 -3422 3425 0
-3424 3422 3425 0
-3424 -3422 3426 0
3424 -3426 0
3422 -3426 0
-3241 -3423 3427 0
3241 -3427 0
3423 -3427 0
3426 3427 -3428 0
-3426 3428 0
-3427 3428 0
-178 -3293 3429 0
178 -3429 0
3293 -3429 0
-3247 -3429 -3430 0
3247 3429 -3430 0
3247 -3429 3430 0
-3247 3429 3430 0
-3430 -3428 -3431 0
3430 3428 -3431 0
3430 -3428 3431 0
-3430 3428 3431 0
-3430 -3428 3432 0
3430 -3432 0
3428 -3432 0
-3247 -3429 3433 0
3247 -3433 0
3429 -3433 0
3432 3433 -3434 0
-3432 3434 0
-3433 3434 0
-186 -3293 3435 0
186 -3435 0
3293 -3435 0
-3253 -3435 -3436 0
3253 3435 -3436 0
3253 -3435 3436 0
-3253 3435 3436 0
-3436 -3434 -3437 0
3436 3434 -3437 0
3436 -3434 3437 0
-3436 3434 3437 0
-3436 -3434 3438 0
3436 -3438 0
3434 -3438 0
-3253 -3435 3439 0
3253 -3439 0
3435 -3439 0
3438 3439 -3440 0
-3438 3440 0
-3439 3440 0
-194 -3293 3441 0
194 -3441 0
3293 -3441 0
-3259 -3441 -3442 0
3259 3441 -3442 0
3259 -3441 3442 0
-3259 3441 3442 0
-3442 -3440 -3443 0
3442 3440 -3443 0
3442 -3440 3443 0
-3442 3440 3443 0
-3442 -3440 3444 0
3442 -3444 0
3440 -3444 0
-3259 -3441 3445 0
3259 -3445 0
3441 -3445 0
3444 3445 -3446 0
-3444 3446 0
-3445 3446 0
-202 -3293 3447 0
202 -3447 0
3293 -3447 0
-3265 -3447 -3448 0
3265 3447 -3448 0
3265 -3447 3448 0
-3265 3447 3448 0
-3448 -3446 -3449 0
3448 3446 -3449 0
3448 -3446 3449 0
-3448 3446 3449 0
-3448 -3446 3450 0
3448 -3450 0
3446 -3450 0
-3265 -3447 3451 0
3265 -3451 0
3447 -3451 0
3450 3451 -3452 0
-3450 3452 0
-3451 3452 0
-210 -3293 3453 0
210 -3453 0
3293 -3453 0
-3271 -3453 -3454 0
3271 3453 -3454 0
3271 -3453 3454 0
-3271 3453 3454 0
-3454 -3452 -3455 0
3454 3452 -3455 0
3454 -3452 3455 0
-3454 3452 3455 0
-3454 -3452 3456 0
3454 -3456 0
3452 -3456 0
-3271 -3453 3457 0
3271 -3457 0
3453 -3457 0
3456 3457 -3458 0
-3456 3458 0
-3457 3458 0
-218 -3293 3459 0
218 -3459 0
3293 -3459 0
-3277 -3459 -3460 0
3277 3459 -3460 0
3277 -3459 3460 0
-3277 3459 3460 0
-3460 -3458 -3461 0
3460 3458 -3461 0
3460 -3458 3461 0
-3460 3458 3461 0
-3460 -3458 3462 0
3460 -3462 0
3458 -3462 0
-3277 -3459 3463 0
3277 -3463 0
3459 -3463 0
3462 3463 -3464 0
-3462 3464 0
-3463 3464 0
-226 -3293 3465 0
226 -3465 0
3293 -3465 0
-3283 -3465 -3466 0
3283 3465 -3466 0
3283 -3465 3466 0
-3283 3465 3466 0
-3466 -3464 -3467 0
3466 3464 -3467 0
3466 -3464 3467 0
-3466 3464 3467 0
-3466 -3464 3468 0
3466 -3468 0
3464 -3468 0
-3283 -3465 3469 0
3283 -3469 0
3465 -3469 0
3468 3469 -3470 0
-3468 3470 0
-3469 3470 0
-234 -3293 3471 0
234 -3471 0
3293 -3471 0
-3289 -3471 -3472 0
3289 3471 -3472 0
3289 -3471 3472 0
-3289 3471 3472 0
-3472 -3470 -3473 0
3472 3470 -3473 0
3472 -3470 3473 0
-3472 3470 3473 0
-3472 -3470 3474 0
3472 -3474 0
3470 -3474 0
-3289 -3471 3475 0
3289 -3475 0
3471 -3475 0
3474 3475 -3476 0
-3474 3476 0
-3475 3476 0
-242 -3293 3477 0
242 -3477 0
3293 -3477 0
-3292 -3477 -3478 0
3292 3477 -3478 0
3292 -3477 3478 0
-3292 3477 3478 0
-3478 -3476 -3479 0
3478 3476 -3479 0
3478 -3476 3479 0
-3478 3476 3479 0
-3478 -3476 3480 0
3478 -3480 0
3476 -3480 0
-3292 -3477 3481 0
3292 -3481 0
3477 -3481 0
3480 3481 -3482 0
-3480 3482 0
-3481 3482 0
-1 -3483 3484 0
1 -3484 0
3483 -3484 0
-3299 -3484 -3485 0
3299 3484 -3485 0
3299 -3484 3485 0
-3299 3484 3485 0
-3299 -3484 3486 0
3299 -3486 0
3484 -3486 0
-4 -3483 3487 0
4 -3487 0
3483 -3487 0
-3305 -3487 -3488 0
3305 3487 -3488 0
3305 -3487 3488 0
-3305 3487 3488 0
-3488 -3486 -3489 0
3488 3486 -3489 0
3488 -3486 3489 0
-3488 3486 3489 0
-3488 -3486 3490 0
3488 -3490 0
3486 -3490 0
-3305 -3487 3491 0
3305 -3491 0
3487 -3491 0
3490 3491 -3492 0
-3490 3492 0
-3491 3492 0
-10 -3483 3493 0
10 -3493 0
3483 -3493 0
-3311 -3493 -3494 0
3311 3493 -3494 0
3311 -3493 3494 0
-3311 3493 3494 0
-3494 -3492 -3495 0
3494 3492 -3495 0
3494 -3492 3495 0
-3494 3492 3495 0
-3494 -3492 3496 0
3494 -3496 0
3492 -3496 0
-3311 -3493 3497 0
3311 -3497 0
3493 -3497 0
3496 3497 -3498 0
-3496 3498 0
-3497 3498 0
-18 -3483 3499 0
18 -3499 0
3483 -3499 0
-3317 -3499 -3500 0
3317 3499 -3500 0
3317 -3499 3500 0
-3317 3499 3500 0
-3500 -3498 -3501 0
3500 3498 -3501 0
3500 -3498 3501 0
-3500 3498 3501 0
-3500 -3498 3502 0
3500 -3502 0
3498 -3502 0
-3317 -3499 3503 0
3317 -3503 0
3499 -3503 0
3502 3503 -3504 0
-3502 3504 0
-3503 3504 0
-26 -3483 3505 0
26 -3505 0
3483 -3505 0
-3323 -3505 -3506 0
3323 3505 -3506 0
3323 -3505 3506 0
-3323 3505 3506 0
-3506 -3504 -3507 0
3506 3504 -3507 0
3506 -3504 3507 0
-3506 3504 3507 0
-3506 -3504 3508 0
3506 -3508 0
3504 -3508 0
-3323 -3505 3509 0
3323 -3509 0
3505 -3509 0
3508 3509 -3510 0
-3508 3510 0
-3509 3510 0
-34 -3483 3511 0
34 -3511 0
3483 -3511 0
-3329 -3511 -3512 0
3329 3511 -3512 0
3329 -3511 3512 0
-3329 3511 3512 0
-3512 -3510 -3513 0
3512 3510 -3513 0
3512 -3510 3513 0
-3512 3510 3513 0
-3512 -3510 3514 0
3512 -3514 0
3510 -3514 0
-3329 -3511 3515 0
3329 -3515 0
3511 -3515 0
3514 3515 -3516 0
-3514 3516 0
-3515 3516 0
-42 -3483 3517 0
42 -3517 0
3483 -3517 0
-3335 -3517 -3518 0
3335 3517 -3518 0
3335 -3517 3518 0
-3335 3517 3518 0
-3518 -3516 -3519 0
3518 3516 -3519 0
3518 -3516 3519 0
-3518 3516 3519 0
-3518 -3516 3520 0
3518 -3520 0
3516 -3520 0
-3335 -3517 3521 0
3335 -3521 0
3517 -3521 0
3520 3521 -3522 0
-3520 3522 0
-3521 3522 0
-50 -3483 3523 0
50 -3523 0
3483 -3523 0
-3341 -3523 -3524 0
3341 3523 -3524 0
3341 -3523 3524 0
-3341 3523 3524 0
-3524 -3522 -3525 0
3524 3522 -3525 0
3524 -3522 3525 0
-3524 3522 3525 0
-3524 -3522 3526 0
3524 -3526 0
3522 -3526 0
-3341 -3523 3527 0
3341 -3527 0
3523 -3527 0
3526 3527 -3528 0
-3526 3528 0
-3527 3528 0
-58 -3483 3529 0
58 -3529 0
3483 -3529 0
-3347 -3529 -3530 0
3347 3529 -3530 0
3347 -3529 3530 0
-3347 3529 3530 0
-3530 -3528 -3531 0
3530 3528 -3531 0
3530 -3528 3531 0
-3530 3528 3531 0
-3530 -3528 3532 0
3530 -3532 0
3528 -3532 0
-3347 -3529 3533 0
3347 -3533 0
3529 -3533 0
3532 3533 -3534 0
-3532 3534 0
-3533 3534 0
-66 -3483 3535 0
66 -3535 0
3483 -3535 0
-3353 -3535 -3536 0
3353 3535 -3536 0
3353 -3535 3536 0
-3353 3535 3536 0
-3536 -3534 -3537 0
3536 3534 -3537 0
3536 -3534 3537 0
-3536 3534 3537 0
-3536 -3534 3538 0
3536 -3538 0
3534 -3538 0
-3353 -3535 3539 0
3353 -3539 0
3535 -3539 0
3538 3539 -3540 0
-3538 3540 0
-3539 3540 0
-74 -3483 3541 0
74 -3541 0
3483 -3541 0
-3359 -3541 -3542 0
3359 3541 -3542 0
3359 -3541 3542 0
-3359 3541 3542 0
-3542 -3540 -3543 0
3542 3540 -3543 0
3542 -3540 3543 0
-3542 3540 3543 0
-3542 -3540 3544 0
3542 -3544 0
3540 -3544 0
-3359 -3541 3545 0
3359 -3545 0
3541 -3545 0
3544 3545 -3546 0
-3544 3546 0
-3545 3546 0
-82 -3483 3547 0
82 -3547 0
3483 -3547 0
-3365 -3547 -3548 0
3365 3547 -3548 0
3365 -3547 3548 0
-3365 3547 3548 0
-3548 -3546 -3549 0
3548 3546 -3549 0
3548 -3546 3549 0
-3548 3546 3549 0
-3548 -3546 3550 0
3548 -3550 0
3546 -3550 0
-3365 -3547 3551 0
3365 -3551 0
3547 -3551 0
3550 3551 -3552 0
-3550 3552 0
-3551 3552 0
-90 -3483 3553 0
90 -3553 0
3483 -3553 0
-3371 -3553 -3554 0
3371 3553 -3554 0
3371 -3553 3554 0
-3371 3553 3554 0
-3554 -3552 -3555 0
3554 3552 -3555 0
3554 -3552 3555 0
-3554 3552 3555 0
-3554 -3552 3556 0
3554 -3556 0
3552 -3556 0
-3371 -3553 3557 0
3371 -3557 0
3553 -3557 0
3556 3557 -3558 0
-3556 3558 0
-3557 3558 0
-98 -3483 3559 0
98 -3559 0
3483 -3559 0
-3377 -3559 -3560 0
3377 3559 -3560 0
3377 -3559 3560 0
-3377 3559 3560 0
-3560 -3558 -3561 0
3560 3558 -3561 0
3560 -3558 3561 0
-3560 3558 3561 0
-3560 -3558 3562 0
3560 -3562 0
3558 -3562 0
-3377 -3559 3563 0
3377 -3563 0
3559 -3563 0
3562 3563 -3564 0
-3562 3564 0
-3563 3564 0
-106 -3483 3565 0
106 -3565 0
3483 -3565 0
-3383 -3565 -3566 0
3383 3565 -3566 0
3383 -3565 3566 0
-3383 3565 3566 0
-3566 -3564 -3567 0
3566 3564 -3567 0
3566 -3564 3567 0
-3566 3564 3567 0
-3566 -3564 3568 0
3566 -3568 0
3564 -3568 0
-3383 -3565 3569 0
3383 -3569 0
3565 -3569 0
3568 3569 -3570 0
-3568 3570 0
-3569 3570 0
-114 -3483 3571 0
114 -3571 0
3483 -3571 0
-3389 -3571 -3572 0
3389 3571 -3572 0
3389 -3571 3572 0
-3389 3571 3572 0
-3572 -3570 -3573 0
3572 3570 -3573 0
3572 -3570 3573 0
-3572 3570 3573 0
-3572 -3570 3574 0
3572 -3574 0
3570 -3574 0
-3389 -3571 3575 0
3389 -3575 0
3571 -3575 0
3574 3575 -3576 0
-3574 3576 0
-3575 3576 0
-122 -3483 3577 0
122 -3577 0
3483 -3577 0
-3395 -3577 -3578 0
3395 3577 -3578 0
3395 -3577 3578 0
-3395 3577 3578 0
-3578 -3576 -3579 0
3578 3576 -3579 0
3578 -3576 3579 0
-3578 3576 3579 0
-3578 -3576 3580 0
3578 -3580 0
3576 -3580 0
-3395 -3577 3581 0
3395 -3581 0
3577 -3581 0
3580 3581 -3582 0
-3580 3582 0
-3581 3582 0
-130 -3483 3583 0
130 -3583 0
3483 -3583 0
-3401 -3583 -3584 0
3401 3583 -3584 0
3401 -3583 3584 0
-3401 3583 3584 0
-3584 -3582 -3585 0
3584 3582 -3585 0
3584 -3582 3585 0
-3584 3582 3585 0
-3584 -3582 3586 0
3584 -3586 0
3582 -3586 0
-3401 -3583 3587 0
3401 -3587 0
3583 -3587 0
3586 3587 -3588 0
-3586 3588 0
-3587 3588 0
-138 -3483 3589 0
138 -3589 0
3483 -3589 0
-3407 -3589 -3590 0
3407 3589 -3590 0
3407 -3589 3590 0
-3407 3589 3590 0
-3590 -3588 -3591 0
3590 3588 -3591 0
3590 -3588 3591 0
-3590 3588 3591 0
-3590 -3588 3592 0
3590 -3592 0
3588 -3592 0
-3407 -3589 3593 0
3407 -3593 0
3589 -3593 0
3592 3593 -3594 0
-3592 3594 0
-3593 3594 0
-146 -3483 3595 0
146 -3595 0
3483 -3595 0
-3413 -3595 -3596 0
3413 3595 -3596 0
3413 -3595 3596 0
-3413 3595 3596 0
-3596 -3594 -3597 0
3596 3594 -3597 0
3596 -3594 3597 0
-3596 3594 3597 0
-3596 -3594 3598 0
3596 -3598 0
3594 -3598 0
-3413 -3595 3599 0
3413 -3599 0
3595 -3599 0
3598 3599 -3600 0
-3598 3600 0
-3599 3600 0
-154 -3483 3601 0
154 -3601 0
3483 -3601 0
-3419 -3601 -3602 0
3419 3601 -3602 0
3419 -3601 3602 0
-3419 3601 3602 0
-3602 -3600 -3603 0
3602 3600 -3603 0
3602 -3600 3603 0
-3602 3600 3603 0
-3602 -3600 3604 0
3602 -3604 0
3600 -3604 0
-3419 -3601 3605 0
3419 -3605 0
3601 -3605 0
3604 3605 -3606 0
-3604 3606 0
-3605 3606 0
-162 -3483 3607 0
162 -3607 0
3483 -3607 0
-3425 -3607 -3608 0
3425 3607 -3608 0
3425 -3607 3608 0
-3425 3607 3608 0
-3608 -3606 -3609 0
3608 3606 -3609 0
3608 -3606 3609 0
-3608 3606 3609 0
-3608 -3606 3610 0
3608 -3610 0
3606 -3610 0
-3425 -3607 3611 0
3425 -3611 0
3607 -3611 0
3610 3611 -3612 0
-3610 3612 0
-3611 3612 0
-170 -3483 3613 0
170 -3613 0
3483 -3613 0
-3431 -3613 -3614 0
3431 3613 -3614 0
3431 -3613 3614 0
-3431 3613 3614 0
-3614 -3612 -3615 0
3614 3612 -3615 0
3614 -3612 3615 0
-3614 3612 3615 0
-3614 -3612 3616 0
3614 -3616 0
3612 -3616 0
-3431 -3613 3617 0
3431 -3617 0
3613 -3617 0
3616 3617 -3618 0
-3616 3618 0
-3617 3618 0
-178 -3483 3619 0
178 -3619 0
3483 -3619 0
-3437 -3619 -3620 0
3437 3619 -3620 0
3437 -3619 3620 0
-3437 3619 3620 0
-3620 -3618 -3621 0
3620 3618 -3621 0
3620 -3618 3621 0
-3620 3618 3621 0
-3620 -3618 3622 0
3620 -3622 0
3618 -3622 0
-3437 -3619 3623 0
3437 -3623 0
3619 -3623 0
3622 3623 -3624 0
-3622 3624 0
-3623 3624 0
-186 -3483 3625 0
186 -3625 0
3483 -3625 0
-3443 -3625 -3626 0
3443 3625 -3626 0
3443 -3625 3626 0
-3443 3625 3626 0
-3626 -3624 -3627 0
3626 3624 -3627 0
3626 -3624 3627 0
-3626 3624 3627 0
-3626 -3624 3628 0
3626 -3628 0
3624 -3628 0
-3443 -3625 3629 0
3443 -3629 0
3625 -3629 0
3628 3629 -3630 0
-3628 3630 0
-3629 3630 0
-194 -3483 3631 0
194 -3631 0
3483 -3631 0
-3449 -3631 -3632 0
3449 3631 -3632 0
3449 -3631 3632 0
-3449 3631 3632 0
-3632 -3630 -3633 0
3632 3630 -3633 0
3632 -3630 3633 0
-3632 3630 3633 0
-3632 -3630 3634 0
3632 -3634 0
3630 -3634 0
-3449 -3631 3635 0
3449 -3635 0
3631 -3635 0
3634 3635 -3636 0
-3634 3636 0
-3635 3636 0
-202 -3483 3637 0
202 -3637 0
3483 -3637 0
-3455 -3637 -3638 0
3455 3637 -3638 0
3455 -3637 3638 0
-3455 3637 3638 0
-3638 -3636 -3639 0
3638 3636 -3639 0
3638 -3636 3639 0
-3638 3636 3639 0
-3638 -3636 3640 0
3638 -3640 0
3636 -3640 0
-3455 -3637 3641 0
3455 -3641 0
3637 -3641 0
3640 3641 -3642 0
-3640 3642 0
-3641 3642 0
-210 -3483 3643 0
210 -3643 0
3483 -3643 0
-3461 -3643 -3644 0
3461 3643 -3644 0
3461 -3643 3644 0
-3461 3643 3644 0
-3644 -3642 -3645 0
3644 3642 -3645 0
3644 -3642 3645 0
-3644 3642 3645 0
-3644 -3642 3646 0
3644 -3646 0
3642 -3646 0
-3461 -3643 3647 0
3461 -3647 0
3643 -3647 0
3646 3647 -3648 0
-3646 3648 0
-3647 3648 0
-218 -3483 3649 0
218 -3649 0
3483 -3649 0
-3467 -3649 -3650 0
3467 3649 -3650 0
3467 -3649 3650 0
-3467 3649 3650 0
-3650 -3648 -3651 0
3650 3648 -3651 0
3650 -3648 3651 0
-3650 3648 3651 0
-3650 -3648 3652 0
3650 -3652 0
3648 -3652 0
-3467 -3649 3653 0
3467 -3653 0
3649 -3653 0
3652 3653 -3654 0
-3652 3654 0
-3653 3654 0
-226 -3483 3655 0
226 -3655 0
3483 -3655 0
-3473 -3655 -3656 0
3473 3655 -3656 0
3473 -3655 3656 0
-3473 3655 3656 0
-3656 -3654 -3657 0
3656 3654 -3657 0
3656 -3654 3657 0
-3656 3654 3657 0
-3656 -3654 3658 0
3656 -3658 0
3654 -3658 0
-3473 -3655 3659 0
3473 -3659 0
3655 -3659 0
3658 3659 -3660 0
-3658 3660 0
-3659 3660 0
-234 -3483 3661 0
234 -3661 0
3483 -3661 0
-3479 -3661 -3662 0
3479 3661 -3662 0
3479 -3661 3662 0
-3479 3661 3662 0
-3662 -3660 -3663 0
3662 3660 -3663 0
3662 -3660 3663 0
-3662 3660 3663 0
-3662 -3660 3664 0
3662 -3664 0
3660 -3664 0
-3479 -3661 3665 0
3479 -3665 0
3661 -3665 0
3664 3665 -3666 0
-3664 3666 0
-3665 3666 0
-242 -3483 3667 0
242 -3667 0
3483 -3667 0
-3482 -3667 -3668 0
3482 3667 -3668 0
3482 -3667 3668 0
-3482 3667 3668 0
-3668 -3666 -3669 0
3668 3666 -3669 0
3668 -3666 3669 0
-3668 3666 3669 0
-3668 -3666 3670 0
3668 -3670 0
3666 -3670 0
-3482 -3667 3671 0
3482 -3671 0
3667 -3671 0
3670 3671 -3672 0
-3670 3672 0
-3671 3672 0
-1 -3673 3674 0
1 -3674 0
3673 -3674 0
-3489 -3674 -3675 0
3489 3674 -3675 0
3489 -3674 3675 0
-3489 3674 3675 0
-3489 -3674 3676 0
3489 -3676 0
3674 -3676 0
-4 -3673 3677 0
4 -3677 0
3673 -3677 0
-3495 -3677 -3678 0
3495 3677 -3678 0
3495 -3677 3678 0
-3495 3677 3678 0
-3678 -3676 -3679 0
3678 3676 -3679 0
3678 -3676 3679 0
-3678 3676 3679 0
-3678 -3676 3680 0
3678 -3680 0
3676 -3680 0
-3495 -3677 3681 0
3495 -3681 0
3677 -3681 0
3680 3681 -3682 0
-3680 3682 0
-3681 3682 0
-10 -3673 3683 0
10 -3683 0
3673 -3683 0
-3501 -3683 -3684 0
3501 3683 -3684 0
3501 -3683 3684 0
-3501 3683 3684 0
-3684 -3682 -3685 0
3684 3682 -3685 0
3684 -3682 3685 0
-3684 3682 3685 0
-3684 -3682 3686 0
3684 -3686 0
3682 -3686 0
-3501 -3683 3687 0
3501 -3687 0
3683 -3687 0
3686 3687 -3688 0
-3686 3688 0
-3687 3688 0
-18 -3673 3689 0
18 -3689 0
3673 -3689 0
-3507 -3689 -3690 0
3507 3689 -3690 0
3507 -3689 3690 0
-3507 3689 3690 0
-3690 -3688 -3691 0
3690 3688 -3691 0
3690 -3688 3691 0
-3690 3688 3691 0
-3690 -3688 3692 0
3690 -3692 0
3688 -3692 0
-3507 -3689 3693 0
3507 -3693 0
3689 -3693 0
3692 3693 -3694 0
-3692 3694 0
-3693 3694 0
-26 -3673 3695 0
26 -3695 0
3673 -3695 0
-3513 -3695 -3696 0
3513 3695 -3696 0
3513 -3695 3696 0
-3513 3695 3696 0
-3696 -3694 -3697 0
3696 3694 -3697 0
3696 -3694 3697 0
-3696 3694 3697 0
-3696 -3694 3698 0
3696 -3698 0
3694 -3698 0
-3513 -3695 3699 0
3513 -3699 0
3695 -3699 0
3698 3699 -3700 0
-3698 3700 0
-3699 3700 0
-34 -3673 3701 0
34 -3701 0
3673 -3701 0
-3519 -3701 -3702 0
3519 3701 -3702 0
3519 -3701 3702 0
-3519 3701 3702 0
-3702 -3700 -3703 0
3702 3700 -3703 0
3702 -3700 3703 0
-3702 3700 3703 0
-3702 -3700 3704 0
3702 -3704 0
3700 -3704 0
-3519 -3701 3705 0
3519 -3705 0
3701 -3705 0
3704 3705 -3706 0
-3704 3706 0
-3705 3706 0
-42 -3673 3707 0
42 -3707 0
3673 -3707 0
-3525 -3707 -3708 0
3525 3707 -3708 0
3525 -3707 3708 0
-3525 3707 3708 0
-3708 -3706 -3709 0
3708 3706 -3709 0
3708 -3706 3709 0
-3708 3706 3709 0
-3708 -3706 3710 0
3708 -3710 0
3706 -3710 0
-3525 -3707 3711 0
3525 -3711 0
3707 -3711 0
3710 3711 -3712 0
-3710 3712 0
-3711 3712 0
-50 -3673 3713 0
50 -3713 0
3673 -3713 0
-3531 -3713 -3714 0
3531 3713 -3714 0
3531 -3713 3714 0
-3531 3713 3714 0
-3714 -3712 -3715 0
3714 3712 -3715 0
3714 -3712 3715 0
-3714 3712 3715 0
-3714 -3712 3716 0
3714 -3716 0
3712 -3716 0
-3531 -3713 3717 0
3531 -3717 0
3713 -3717 0
3716 3717 -3718 0
-3716 3718 0
-3717 3718 0
-58 -3673 3719 0
58 -3719 0
3673 -3719 0
-3537 -3719 -3720 0
3537 3719 -3720 0
3537 -3719 3720 0
-3537 3719 3720 0
-3720 -3718 -3721 0
3720 3718 -3721 0
3720 -3718 3721 0
-3720 3718 3721 0
-3720 -3718 3722 0
3720 -3722 0
3718 -3722 0
-3537 -3719 3723 0
3537 -3723 0
3719 -3723 0
3722 3723 -3724 0
-3722 3724 0
-3723 3724 0
-66 -3673 3725 0
66 -3725 0
3673 -3725 0
-3543 -3725 -3726 0
3543 3725 -3726 0
3543 -3725 3726 0
-3543 3725 3726 0
-3726 -3724 -3727 0
3726 3724 -3727 0
3726 -3724 3727 0
-3726 3724 3727 0
-3726 -3724 3728 0
3726 -3728 0
3724 -3728 0
-3543 -3725 3729 0
3543 -3729 0
3725 -3729 0
3728 3729 -3730 0
-3728 3730 0
-3729 3730 0
-74 -3673 3731 0
74 -3731 0
3673 -3731 0
-3549 -3731 -3732 0
3549 3731 -3732 0
3549 -3731 3732 0
-3549 3731 3732 0
-3732 -3730 -3733 0
3732 3730 -3733 0
3732 -3730 3733 0
-3732 3730 3733 0
-3732 -3730 3734 0
3732 -3734 0
3730 -3734 0
-3549 -3731 3735 0
3549 -3735 0
3731 -3735 0
3734 3735 -3736 0
-3734 3736 0
-3735 3736 0
-82 -3673 3737 0
82 -3737 0
3673 -3737 0
-3555 -3737 -3738 0
3555 3737 -3738 0
3555 -3737 3738 0
-3555 3737 3738 0
-3738 -3736 -3739 0
3738 3736 -3739 0
3738 -3736 3739 0
-3738 3736 3739 0
-3738 -3736 3740 0
3738 -3740 0
3736 -3740 0
-3555 -3737 3741 0
3555 -3741 0
3737 -3741 0
3740 3741 -3742 0
-3740 3742 0
-3741 3742 0
-90 -3673 3743 0
90 -3743 0
3673 -3743 0
-3561 -3743 -3744 0
3561 3743 -3744 0
3561 -3743 3744 0
-3561 3743 3744 0
-3744 -3742 -3745 0
3744 3742 -3745 0
3744 -3742 3745 0
-3744 3742 3745 0
-3744 -3742 3746 0
3744 -3746 0
3742 -3746 0
-3561 -3743 3747 0
3561 -3747 0
3743 -3747 0
3746 3747 -3748 0
-3746 3748 0
-3747 3748 0
-98 -3673 3749 0
98 -3749 0
3673 -3749 0
-3567 -3749 -3750 0
3567 3749 -3750 0
3567 -3749 3750 0
-3567 3749 3750 0
-3750 -3748 -3751 0
3750 3748 -3751 0
3750 -3748 3751 0
-3750 3748 3751 0
-3750 -3748 3752 0
3750 -3752 0
3748 -3752 0
-3567 -3749 3753 0
3567 -3753 0
3749 -3753 0
3752 3753 -3754 0
-3752 3754 0
-3753 3754 0
-106 -3673 3755 0
106 -3755 0
3673 -3755 0
-3573 -3755 -3756 0
3573 3755 -3756 0
3573 -3755 3756 0
-3573 3755 3756 0
-3756 -3754 -3757 0
3756 3754 -3757 0
3756 -3754 3757 0
-3756 3754 3757 0
-3756 -3754 3758 0
3756 -3758 0
3754 -3758 0
-3573 -3755 3759 0
3573 -3759 0
3755 -3759 0
3758 3759 -3760 0
-3758 3760 0
-3759 3760 0
-114 -3673 3761 0
114 -3761 0
3673 -3761 0
-3579 -3761 -3762 0
3579 3761 -3762 0
3579 -3761 3762 0
-3579 3761 3762 0
-3762 -3760 -3763 0
3762 3760 -3763 0
3762 -3760 3763 0
-3762 3760 3763 0
-3762 -3760 3764 0
3762 -3764 0
3760 -3764 0
-3579 -3761 3765 0
3579 -3765 0
3761 -3765 0
3764 3765 -3766 0
-3764 3766 0
-3765 3766 0
-122 -3673 3767 0
122 -3767 0
3673 -3767 0
-3585 -3767 -3768 0
3585 3767 -3768 0
3585 -3767 3768 0
-3585 3767 3768 0
-3768 -3766 -3769 0
3768 3766 -3769 0
3768 -3766 3769 0
-3768 3766 3769 0
-3768 -3766 3770 0
3768 -3770 0
3766 -3770 0
-3585 -3767 3771 0
3585 -3771 0
3767 -3771 0
3770 3771 -3772 0
-3770 3772 0
-3771 3772 0
-130 -3673 3773 0
130 -3773 0
3673 -3773 0
-3591 -3773 -3774 0
3591 3773 -3774 0
3591 -3773 3774 0
-3591 3773 3774 0
-3774 -3772 -3775 0
3774 3772 -3775 0
3774 -3772 3775 0
-3774 3772 3775 0
-3774 -3772 3776 0
3774 -3776 0
3772 -3776 0
-3591 -3773 3777 0
3591 -3777 0
3773 -3777 0
3776 3777 -3778 0
-3776 3778 0
-3777 3778 0
-138 -3673 3779 0
138 -3779 0
3673 -3779 0
-3597 -3779 -3780 0
3597 3779 -3780 0
3597 -3779 3780 0
-3597 3779 3780 0
-3780 -3778 -3781 0
3780 3778 -3781 0
3780 -3778 3781 0
-3780 3778 3781 0
-3780 -3778 3782 0
3780 -3782 0
3778 -3782 0
-3597 -3779 3783 0
3597 -3783 0
3779 -3783 0
3782 3783 -3784 0
-3782 3784 0
-3783 3784 0
-146 -3673 3785 0
146 -3785 0
3673 -3785 0
-3603 -3785 -3786 0
3603 3785 -3786 0
3603 -3785 3786 0
-3603 3785 3786 0
-3786 -3784 -3787 0
3786 3784 -3787 0
3786 -3784 3787 0
-3786 3784 3787 0
-3786 -3784 3788 0
3786 -3788 0
3784 -3788 0
-3603 -3785 3789 0
3603 -3789 0
3785 -3789 0
3788 3789 -3790 0
-3788 3790 0
-3789 3790 0
-154 -3673 3791 0
154 -3791 0
3673 -3791 0
-3609 -3791 -3792 0
3609 3791 -3792 0
3609 -3791 3792 0
-3609 3791 3792 0
-3792 -3790 -3793 0
3792 3790 -3793 0
3792 -3790 3793 0
-3792 3790 3793 0
-3792 -3790 3794 0
3792 -3794 0
3790 -3794 0
-3609 -3791 3795 0
3609 -3795 0
3791 -3795 0
3794 3795 -3796 0
-3794 3796 0
-3795 3796 0
-162 -3673 3797 0
162 -3797 0
3673 -3797 0
-3615 -3797 -3798 0
3615 3797 -3798 0
3615 -3797 3798 0
-3615 3797 3798 0
-3798 -3796 -3799 0
3798 3796 -3799 0
3798 -3796 3799 0
-3798 3796 3799 0
-3798 -3796 3800 0
3798 -3800 0
3796 -3800 0
-3615 -3797 3801 0
3615 -3801 0
3797 -3801 0
3800 3801 -3802 0
-3800 3802 0
-3801 3802 0
-170 -3673 3803 0
170 -3803 0
3673 -3803 0
-3621 -3803 -3804 0
3621 3803 -3804 0
3621 -3803 3804 0
-3621 3803 3804 0
-3804 -3802 -3805 0
3804 3802 -3805 0
3804 -3802 3805 0
-3804 3802 3805 0
-3804 -3802 3806 0
3804 -3806 0
3802 -3806 0
-3621 -3803 3807 0
3621 -3807 0
3803 -3807 0
3806 3807 -3808 0
-3806 3808 0
-3807 3808 0
-178 -3673 3809 0
178 -3809 0
3673 -3809 0
-3627 -3809 -3810 0
3627 3809 -3810 0
3627 -3809 3810 0
-3627 3809 3810 0
-3810 -3808 -3811 0
3810 3808 -3811 0
3810 -3808 3811 0
-3810 3808 3811 0
-3810 -3808 3812 0
3810 -3812 0
3808 -3812 0
-3627 -3809 3813 0
3627 -3813 0
3809 -3813 0
3812 3813 -3814 0
-3812 3814 0
-3813 3814 0
-186 -3673 3815 0
186 -3815 0
3673 -3815 0
-3633 -3815 -3816 0
3633 3815 -3816 0
3633 -3815 3816 0
-3633 3815 3816 0
-3816 -3814 -3817 0
3816 3814 -3817 0
3816 -3814 3817 0
-3816 3814 3817 0
-3816 -3814 3818 0
3816 -3818 0
3814 -3818 0
-3633 -3815 3819 0
3633 -3819 0
3815 -3819 0
3818 3819 -3820 0
-3818 3820 0
-3819 3820 0
-194 -3673 3821 0
194 -3821 0
3673 -3821 0
-3639 -3821 -3822 0
3639 3821 -3822 0
3639 -3821 3822 0
-3639 3821 3822 0
-3822 -3820 -3823 0
3822 3820 -3823 0
3822 -3820 3823 0
-3822 3820 3823 0
-3822 -3820 3824 0
3822 -3824 0
3820 -3824 0
-3639 -3821 3825 0
3639 -3825 0
3821 -3825 0
3824 3825 -3826 0
-3824 3826 0
-3825 3826 0
-202 -3673 3827 0
202 -3827 0
3673 -3827 0
-3645 -3827 -3828 0
3645 3827 -3828 0
3645 -3827 3828 0
-3645 3827 3828 0
-3828 -3826 -3829 0
3828 3826 -3829 0
3828 -3826 3829 0
-3828 3826 3829 0
-3828 -3826 3830 0
3828 -3830 0
3826 -3830 0
-3645 -3827 3831 0
3645 -3831 0
3827 -3831 0
3830 3831 -3832 0
-3830 3832 0
-3831 3832 0
-210 -3673 3833 0
210 -3833 0
3673 -3833 0
-3651 -3833 -3834 0
3651 3833 -3834 0
3651 -3833 3834 0
-3651 3833 3834 0
-3834 -3832 -3835 0
3834 3832 -3835 0
3834 -3832 3835 0
-3834 3832 3835 0
-3834 -3832 3836 0
3834 -3836 0
3832 -3836 0
-3651 -3833 3837 0
3651 -3837 0
3833 -3837 0
3836 3837 -3838 0
-3836 3838 0
-3837 3838 0
-218 -3673 3839 0
218 -3839 0
3673 -3839 0
-3657 -3839 -3840 0
3657 3839 -3840 0
3657 -3839 3840 0
-3657 3839 3840 0
-3840 -3838 -3841 0
3840 3838 -3841 0
3840 -3838 3841 0
-3840 3838 3841 0
-3840 -3838 3842 0
3840 -3842 0
3838 -3842 0
-3657 -3839 3843 0
3657 -3843 0
3839 -3843 0
3842 3843 -3844 0
-3842 3844 0
-3843 3844 0
-226 -3673 3845 0
226 -3845 0
3673 -3845 0
-3663 -3845 -3846 0
3663 3845 -3846 0
3663 -3845 3846 0
-3663 3845 3846 0
-3846 -3844 -3847 0
3846 3844 -3847 0
3846 -3844 3847 0
-3846 3844 3847 0
-3846 -3844 3848 0
3846 -3848 0
3844 -3848 0
-3663 -3845 3849 0
3663 -3849 0
3845 -3849 0
3848 3849 -3850 0
-3848 3850 0
-3849 3850 0
-234 -3673 3851 0
234 -3851 0
3673 -3851 0
-3669 -3851 -3852 0
3669 3851 -3852 0
3669 -3851 3852 0
-3669 3851 3852 0
-3852 -3850 -3853 0
3852 3850 -3853 0
3852 -3850 3853 0
-3852 3850 3853 0
-3852 -3850 3854 0
3852 -3854 0
3850 -3854 0
-3669 -3851 3855 0
3669 -3855 0
3851 -3855 0
3854 3855 -3856 0
-3854 3856 0
-3855 3856 0
-242 -3673 3857 0
242 -3857 0
3673 -3857 0
-3672 -3857 -3858 0
3672 3857 -3858 0
3672 -3857 3858 0
-3672 3857 3858 0
-3858 -3856 -3859 0
3858 3856 -3859 0
3858 -3856 3859 0
-3858 3856 3859 0
-3858 -3856 3860 0
3858 -3860 0
3856 -3860 0
-3672 -3857 3861 0
3672 -3861 0
3857 -3861 0
3860 3861 -3862 0
-3860 3862 0
-3861 3862 0
-1 -3863 3864 0
1 -3864 0
3863 -3864 0
-3679 -3864 -3865 0
3679 3864 -3865 0
3679 -3864 3865 0
-3679 3864 3865 0
-3679 -3864 3866 0
3679 -3866 0
3864 -3866 0
-4 -3863 3867 0
4 -3867 0
3863 -3867 0
-3685 -3867 -3868 0
3685 3867 -3868 0
3685 -3867 3868 0
-3685 3867 3868 0
-3868 -3866 -3869 0
3868 3866 -3869 0
3868 -3866 3869 0
-3868 3866 3869 0
-3868 -3866 3870 0
3868 -3870 0
3866 -3870 0
-3685 -3867 3871 0
3685 -3871 0
3867 -3871 0
3870 3871 -3872 0
-3870 3872 0
-3871 3872 0
-10 -3863 3873 0
10 -3873 0
3863 -3873 0
-3691 -3873 -3874 0
3691 3873 -3874 0
3691 -3873 3874 0
-3691 3873 3874 0
-3874 -3872 -3875 0
3874 3872 -3875 0
3874 -3872 3875 0
-3874 3872 3875 0
-3874 -3872 3876 0
3874 -3876 0
3872 -3876 0
-3691 -3873 3877 0
3691 -3877 0
3873 -3877 0
3876 3877 -3878 0
-3876 3878 0
-3877 3878 0
-18 -3863 3879 0
18 -3879 0
3863 -3879 0
-3697 -3879 -3880 0
3697 3879 -3880 0
3697 -3879 3880 0
-3697 3879 3880 0
-3880 -3878 -3881 0
3880 3878 -3881 0
3880 -3878 3881 0
-3880 3878 3881 0
-3880 -3878 3882 0
3880 -3882 0
3878 -3882 0
-3697 -3879 3883 0
3697 -3883 0
3879 -3883 0
3882 3883 -3884 0
-3882 3884 0
-3883 3884 0
-26 -3863 3885 0
26 -3885 0
3863 -3885 0
-3703 -3885 -3886 0
3703 3885 -3886 0
3703 -3885 3886 0
-3703 3885 3886 0
-3886 -3884 -3887 0
3886 3884 -3887 0
3886 -3884 3887 0
-3886 3884 3887 0
-3886 -3884 3888 0
3886 -3888 0
3884 -3888 0
-3703 -3885 3889 0
3703 -3889 0
3885 -3889 0
3888 3889 -3890 0
-3888 3890 0
-3889 3890 0
-34 -3863 3891 0
34 -3891 0
3863 -3891 0
-3709 -3891 -3892 0
3709 3891 -3892 0
3709 -3891 3892 0
-3709 3891 3892 0
-3892 -3890 -3893 0
3892 3890 -3893 0
3892 -3890 3893 0
-3892 3890 3893 0
-3892 -3890 3894 0
3892 -3894 0
3890 -3894 0
-3709 -3891 3895 0
3709 -3895 0
3891 -3895 0
3894 3895 -3896 0
-3894 3896 0
-3895 3896 0
-42 -3863 3897 0
42 -3897 0
3863 -3897 0
-3715 -3897 -3898 0
3715 3897 -3898 0
3715 -3897 3898 0
-3715 3897 3898 0
-3898 -3896 -3899 0
3898 3896 -3899 0
3898 -3896 3899 0
-3898 3896 3899 0
-3898 -3896 3900 0
3898 -3900 0
3896 -3900 0
-3715 -3897 3901 0
3715 -3901 0
3897 -3901 0
3900 3901 -3902 0
-3900 3902 0
-3901 3902 0
-50 -3863 3903 0
50 -3903 0
3863 -3903 0
-3721 -3903 -3904 0
3721 3903 -3904 0
3721 -3903 3904 0
-3721 3903 3904 0
-3904 -3902 -3905 0
3904 3902 -3905 0
3904 -3902 3905 0
-3904 3902 3905 0
-3904 -3902 3906 0
3904 -3906 0
3902 -3906 0
-3721 -3903 3907 0
3721 -3907 0
3903 -3907 0
3906 3907 -3908 0
-3906 3908 0
-3907 3908 0
-58 -3863 3909 0
58 -3909 0
3863 -3909 0
-3727 -3909 -3910 0
3727 3909 -3910 0
3727 -3909 3910 0
-3727 3909 3910 0
-3910 -3908 -3911 0
3910 3908 -3911 0
3910 -3908 3911 0
-3910 3908 3911 0
-3910 -3908 3912 0
3910 -3912 0
3908 -3912 0
-3727 -3909 3913 0
3727 -3913 0
3909 -3913 0
3912 3913 -3914 0
-3912 3914 0
-3913 3914 0
-66 -3863 3915 0
66 -3915 0
3863 -3915 0
-3733 -3915 -3916 0
3733 3915 -3916 0
3733 -3915 3916 0
-3733 3915 3916 0
-3916 -3914 -3917 0
3916 3914 -3917 0
3916 -3914 3917 0
-3916 3914 3917 0
-3916 -3914 3918 0
3916 -3918 0
3914 -3918 0
-3733 -3915 3919 0
3733 -3919 0
3915 -3919 0
3918 3919 -3920 0
-3918 3920 0
-3919 3920 0
-74 -3863 3921 0
74 -3921 0
3863 -3921 0
-3739 -3921 -3922 0
3739 3921 -3922 0
3739 -3921 3922 0
-3739 3921 3922 0
-3922 -3920 -3923 0
3922 3920 -3923 0
3922 -3920 3923 0
-3922 3920 3923 0
-3922 -3920 3924 0
3922 -3924 0
3920 -3924 0
-3739 -3921 3925 0
3739 -3925 0
3921 -3925 0
3924 3925 -3926 0
-3924 3926 0
-3925 3926 0
-82 -3863 3927 0
82 -3927 0
3863 -3927 0
-3745 -3927 -3928 0
3745 3927 -3928 0
3745 -3927 3928 0
-3745 3927 3928 0
-3928 -3926 -3929 0
3928 3926 -3929 0
3928 -3926 3929 0
-3928 3926 3929 0
-3928 -3926 3930 0
3928 -3930 0
3926 -3930 0
-3745 -3927 3931 0
3745 -3931 0
3927 -3931 0
3930 3931 -3932 0
-3930 3932 0
-3931 3932 0
-90 -3863 3933 0
90 -3933 0
3863 -3933 0
-3751 -3933 -3934 0
3751 3933 -3934 0
3751 -3933 3934 0
-3751 3933 3934 0
-3934 -3932 -3935 0
3934 3932 -3935 0
3934 -3932 3935 0
-3934 3932 3935 0
-3934 -3932 3936 0
3934 -3936 0
3932 -3936 0
-3751 -3933 3937 0
3751 -3937 0
3933 -3937 0
3936 3937 -3938 0
-3936 3938 0
-3937 3938 0
-98 -3863 3939 0
98 -3939 0
3863 -3939 0
-3757 -3939 -3940 0
3757 3939 -3940 0
3757 -3939 3940 0
-3757 3939 3940 0
-3940 -3938 -3941 0
3940 3938 -3941 0
3940 -3938 3941 0
-3940 3938 3941 0
-3940 -3938 3942 0
3940 -3942 0
3938 -3942 0
-3757 -3939 3943 0
3757 -3943 0
3939 -3943 0
3942 3943 -3944 0
-3942 3944 0
-3943 3944 0
-106 -3863 3945 0
106 -3945 0
3863 -3945 0
-3763 -3945 -3946 0
3763 3945 -3946 0
3763 -3945 3946 0
-3763 3945 3946 0
-3946 -3944 -3947 0
3946 3944 -3947 0
3946 -3944 3947 0
-3946 3944 3947 0
-3946 -3944 3948 0
3946 -3948 0
3944 -3948 0
-3763 -3945 3949 0
3763 -3949 0
3945 -3949 0
3948 3949 -3950 0
-3948 3950 0
-3949 3950 0
-114 -3863 3951 0
114 -3951 0
3863 -3951 0
-3769 -3951 -3952 0
3769 3951 -3952 0
3769 -3951 3952 0
-3769 3951 3952 0
-3952 -3950 -3953 0
3952 3950 -3953 0
3952 -3950 3953 0
-3952 3950 3953 0
-3952 -3950 3954 0
3952 -3954 0
3950 -3954 0
-3769 -3951 3955 0
3769 -3955 0
3951 -3955 0
3954 3955 -3956 0
-3954 3956 0
-3955 3956 0
-122 -3863 3957 0
122 -3957 0
3863 -3957 0
-3775 -3957 -3958 0
3775 3957 -3958 0
3775 -3957 3958 0
-3775 3957 3958 0
-3958 -3956 -3959 0
3958 3956 -3959 0
3958 -3956 3959 0
-3958 3956 3959 0
-3958 -3956 3960 0
3958 -3960 0
3956 -3960 0
-3775 -3957 3961 0
3775 -3961 0
3957 -3961 0
3960 3961 -3962 0
-3960 3962 0
-3961 3962 0
-130 -3863 3963 0
130 -3963 0
3863 -3963 0
-3781 -3963 -3964 0
3781 3963 -3964 0
3781 -3963 3964 0
-3781 3963 3964 0
-3964 -3962 -3965 0
3964 3962 -3965 0
3964 -3962 3965 0
-3964 3962 3965 0
-3964 -3962 3966 0
3964 -3966 0
3962 -3966 0
-3781 -3963 3967 0
3781 -3967 0
3963 -3967 0
3966 3967 -3968 0
-3966 3968 0
-3967 3968 0
-138 -3863 3969 0
138 -3969 0
3863 -3969 0
-3787 -3969 -3970 0
3787 3969 -3970 0
3787 -3969 3970 0
-3787 3969 3970 0
-3970 -3968 -3971 0
3970 3968 -3971 0
3970 -3968 3971 0
-3970 3968 3971 0
-3970 -3968 3972 0
3970 -3972 0
3968 -3972 0
-3787 -3969 3973 0
3787 -3973 0
3969 -3973 0
3972 3973 -3974 0
-3972 3974 0
-3973 3974 0
-146 -3863 3975 0
146 -3975 0
3863 -3975 0
-3793 -3975 -3976 0
3793 3975 -3976 0
3793 -3975 3976 0
-3793 3975 3976 0
-3976 -3974 -3977 0
3976 3974 -3977 0
3976 -3974 3977 0
-3976 3974 3977 0
-3976 -3974 3978 0
3976 -3978 0
3974 -3978 0
-3793 -3975 3979 0
3793 -3979 0
3975 -3979 0
3978 3979 -3980 0
-3978 3980 0
-3979 3980 0
-154 -3863 3981 0
154 -3981 0
3863 -3981 0
-3799 -3981 -3982 0
3799 3981 -3982 0
3799 -3981 3982 0
-3799 3981 3982 0
-3982 -3980 -3983 0
3982 3980 -3983 0
3982 -3980 3983 0
-3982 3980 3983 0
-3982 -3980 3984 0
3982 -3984 0
3980 -3984 0
-3799 -3981 3985 0
3799 -3985 0
3981 -3985 0
3984 3985 -3986 0
-3984 3986 0
-3985 3986 0
-162 -3863 3987 0
162 -3987 0
3863 -3987 0
-3805 -3987 -3988 0
3805 3987 -3988 0
3805 -3987 3988 0
-3805 3987 3988 0
-3988 -3986 -3989 0
3988 3986 -3989 0
3988 -3986 3989 0
-3988 3986 3989 0
-3988 -3986 3990 0
3988 -3990 0
3986 -3990 0
-3805 -3987 3991 0
3805 -3991 0
3987 -3991 0
3990 3991 -3992 0
-3990 3992 0
-3991 3992 0
-170 -3863 3993 0
170 -3993 0
3863 -3993 0
-3811 -3993 -3994 0
3811 3993 -3994 0
3811 -3993 3994 0
-3811 3993 3994 0
-3994 -3992 -3995 0
3994 3992 -3995 0
3994 -3992 3995 0
-3994 3992 3995 0
-3994 -3992 3996 0
3994 -3996 0
3992 -3996 0
-3811 -3993 3997 0
3811 -3997 0
3993 -3997 0
3996 3997 -3998 0
-3996 3998 0
-3997 3998 0
-178 -3863 3999 0
178 -3999 0
3863 -3999 0
-3817 -3999 -4000 0
3817 3999 -4000 0
3817 -3999 4000 0
-3817 3999 4000 0
-4000 -3998 -4001 0
4000 3998 -4001 0
4000 -3998 4001 0
-4000 3998 4001 0
-4000 -3998 4002 0
4000 -4002 0
3998 -4002 0
-3817 -3999 4003 0
3817 -4003 0
3999 -4003 0
4002 4003 -4004 0
-4002 4004 0
-4003 4004 0
-186 -3863 4005 0
186 -4005 0
3863 -4005 0
-3823 -4005 -4006 0
3823 4005 -4006 0
3823 -4005 4006 0
-3823 4005 4006 0
-4006 -4004 -4007 0
4006 4004 -4007 0
4006 -4004 4007 0
-4006 4004 4007 0
-4006 -4004 4008 0
4006 -4008 0
4004 -4008 0
-3823 -4005 4009 0
3823 -4009 0
4005 -4009 0
4008 4009 -4010 0
-4008 4010 0
-4009 4010 0
-194 -3863 4011 0
194 -4011 0
3863 -4011 0
-3829 -4011 -4012 0
3829 4011 -4012 0
3829 -4011 4012 0
-3829 4011 4012 0
-4012 -4010 -4013 0
4012 4010 -4013 0
4012 -4010 4013 0
-4012 4010 4013 0
-4012 -4010 4014 0
4012 -4014 0
4010 -4014 0
-3829 -4011 4015 0
3829 -4015 0
4011 -4015 0
4014 4015 -4016 0
-4014 4016 0
-4015 4016 0
-202 -3863 4017 0
202 -4017 0
3863 -4017 0
-3835 -4017 -4018 0
3835 4017 -4018 0
3835 -4017 4018 0
-3835 4017 4018 0
-4018 -4016 -4019 0
4018 4016 -4019 0
4018 -4016 4019 0
-4018 4016 4019 0
-4018 -4016 4020 0
4018 -4020 0
4016 -4020 0
-3835 -4017 4021 0
3835 -4021 0
4017 -4021 0
4020 4021 -4022 0
-4020 4022 0
-4021 4022 0
-210 -3863 4023 0
210 -4023 0
3863 -4023 0
-3841 -4023 -4024 0
3841 4023 -4024 0
3841 -4023 4024 0
-3841 4023 4024 0
-4024 -4022 -4025 0
4024 4022 -4025 0
4024 -4022 4025 0
-4024 4022 4025 0
-4024 -4022 4026 0
4024 -4026 0
4022 -4026 0
-3841 -4023 4027 0
3841 -4027 0
4023 -4027 0
4026 4027 -4028 0
-4026 4028 0
-4027 4028 0
-218 -3863 4029 0
218 -4029 0
3863 -4029 0
-3847 -4029 -4030 0
3847 4029 -4030 0
3847 -4029 4030 0
-3847 4029 4030 0
-4030 -4028 -4031 0
4030 4028 -4031 0
4030 -4028 4031 0
-4030 4028 4031 0
-4030 -4028 4032 0
4030 -4032 0
4028 -4032 0
-3847 -4029 4033 0
3847 -4033 0
4029 -4033 0
4032 4033 -4034 0
-4032 4034 0
-4033 4034 0
-226 -3863 4035 0
226 -4035 0
3863 -4035 0
-3853 -4035 -4036 0
3853 4035 -4036 0
3853 -4035 4036 0
-3853 4035 4036 0
-4036 -4034 -4037 0
4036 4034 -4037 0
4036 -4034 4037 0
-4036 4034 4037 0
-4036 -4034 4038 0
4036 -4038 0
4034 -4038 0
-3853 -4035 4039 0
3853 -4039 0
4035 -4039 0
4038 4039 -4040 0
-4038 4040 0
-4039 4040 0
-234 -3863 4041 0
234 -4041 0
3863 -4041 0
-3859 -4041 -4042 0
3859 4041 -4042 0
3859 -4041 4042 0
-3859 4041 4042 0
-4042 -4040 -4043 0
4042 4040 -4043 0
4042 -4040 4043 0
-4042 4040 4043 0
-4042 -4040 4044 0
4042 -4044 0
4040 -4044 0
-3859 -4041 4045 0
3859 -4045 0
4041 -4045 0
4044 4045 -4046 0
-4044 4046 0
-4045 4046 0
-242 -3863 4047 0
242 -4047 0
3863 -4047 0
-3862 -4047 -4048 0
3862 4047 -4048 0
3862 -4047 4048 0
-3862 4047 4048 0
-4048 -4046 -4049 0
4048 4046 -4049 0
4048 -4046 4049 0
-4048 4046 4049 0
-4048 -4046 4050 0
4048 -4050 0
4046 -4050 0
-3862 -4047 4051 0
3862 -4051 0
4047 -4051 0
4050 4051 -4052 0
-4050 4052 0
-4051 4052 0
-1 -4053 4054 0
1 -4054 0
4053 -4054 0
-3869 -4054 -4055 0
3869 4054 -4055 0
3869 -4054 4055 0
-3869 4054 4055 0
-3869 -4054 4056 0
3869 -4056 0
4054 -4056 0
-4 -4053 4057 0
4 -4057 0
4053 -4057 0
-3875 -4057 -4058 0
3875 4057 -4058 0
3875 -4057 4058 0
-3875 4057 4058 0
-4058 -4056 -4059 0
4058 4056 -4059 0
4058 -4056 4059 0
-4058 4056 4059 0
-4058 -4056 4060 0
4058 -4060 0
4056 -4060 0
-3875 -4057 4061 0
3875 -4061 0
4057 -4061 0
4060 4061 -4062 0
-4060 4062 0
-4061 4062 0
-10 -4053 4063 0
10 -4063 0
4053 -4063 0
-3881 -4063 -4064 0
3881 4063 -4064 0
3881 -4063 4064 0
-3881 4063 4064 0
-4064 -4062 -4065 0
4064 4062 -4065 0
4064 -4062 4065 0
-4064 4062 4065 0
-4064 -4062 4066 0
4064 -4066 0
4062 -4066 0
-3881 -4063 4067 0
3881 -4067 0
4063 -4067 0
4066 4067 -4068 0
-4066 4068 0
-4067 4068 0
-18 -4053 4069 0
18 -4069 0
4053 -4069 0
-3887 -4069 -4070 0
3887 4069 -4070 0
3887 -4069 4070 0
-3887 4069 4070 0
-4070 -4068 -4071 0
4070 4068 -4071 0
4070 -4068 4071 0
-4070 4068 4071 0
-4070 -4068 4072 0
4070 -4072 0
4068 -4072 0
-3887 -4069 4073 0
3887 -4073 0
4069 -4073 0
4072 4073 -4074 0
-4072 4074 0
-4073 4074 0
-26 -4053 4075 0
26 -4075 0
4053 -4075 0
-3893 -4075 -4076 0
3893 4075 -4076 0
3893 -4075 4076 0
-3893 4075 4076 0
-4076 -4074 -4077 0
4076 4074 -4077 0
4076 -4074 4077 0
-4076 4074 4077 0
-4076 -4074 4078 0
4076 -4078 0
4074 -4078 0
-3893 -4075 4079 0
3893 -4079 0
4075 -4079 0
4078 4079 -4080 0
-4078 4080 0
-4079 4080 0
-34 -4053 4081 0
34 -4081 0
4053 -4081 0
-3899 -4081 -4082 0
3899 4081 -4082 0
3899 -4081 4082 0
-3899 4081 4082 0
-4082 -4080 -4083 0
4082 4080 -4083 0
4082 -4080 4083 0
-4082 4080 4083 0
-4082 -4080 4084 0
4082 -4084 0
4080 -4084 0
-3899 -4081 4085 0
3899 -4085 0
4081 -4085 0
4084 4085 -4086 0
-4084 4086 0
-4085 4086 0
-42 -4053 4087 0
42 -4087 0
4053 -4087 0
-3905 -4087 -4088 0
3905 4087 -4088 0
3905 -4087 4088 0
-3905 4087 4088 0
-4088 -4086 -4089 0
4088 4086 -4089 0
4088 -4086 4089 0
-4088 4086 4089 0
-4088 -4086 4090 0
4088 -4090 0
4086 -4090 0
-3905 -4087 4091 0
3905 -4091 0
4087 -4091 0
4090 4091 -4092 0
-4090 4092 0
-4091 4092 0
-50 -4053 4093 0
50 -4093 0
4053 -4093 0
-3911 -4093 -4094 0
3911 4093 -4094 0
3911 -4093 4094 0
-3911 4093 4094 0
-4094 -4092 -4095 0
4094 4092 -4095 0
4094 -4092 4095 0
-4094 4092 4095 0
-4094 -4092 4096 0
4094 -4096 0
4092 -4096 0
-3911 -4093 4097 0
3911 -4097 0
4093 -4097 0
4096 4097 -4098 0
-4096 4098 0
-4097 4098 0
-58 -4053 4099 0
58 -4099 0
4053 -4099 0
-3917 -4099 -4100 0
3917 4099 -4100 0
3917 -4099 4100 0
-3917 4099 4100 0
-4100 -4098 -4101 0
4100 4098 -4101 0
4100 -4098 4101 0
-4100 4098 4101 0
-4100 -4098 4102 0
4100 -4102 0
4098 -4102 0
-3917 -4099 4103 0
3917 -4103 0
4099 -4103 0
4102 4103 -4104 0
-4102 4104 0
-4103 4104 0
-66 -4053 4105 0
66 -4105 0
4053 -4105 0
-3923 -4105 -4106 0
3923 4105 -4106 0
3923 -4105 4106 0
-3923 4105 4106 0
-4106 -4104 -4107 0
4106 4104 -4107 0
4106 -4104 4107 0
-4106 4104 4107 0
-4106 -4104 4108 0
4106 -4108 0
4104 -4108 0
-3923 -4105 4109 0
3923 -4109 0
4105 -4109 0
4108 4109 -4110 0
-4108 4110 0
-4109 4110 0
-74 -4053 4111 0
74 -4111 0
4053 -4111 0
-3929 -4111 -4112 0
3929 4111 -4112 0
3929 -4111 4112 0
-3929 4111 4112 0
-4112 -4110 -4113 0
4112 4110 -4113 0
4112 -4110 4113 0
-4112 4110 4113 0
-4112 -4110 4114 0
4112 -4114 0
4110 -4114 0
-3929 -4111 4115 0
3929 -4115 0
4111 -4115 0
4114 4115 -4116 0
-4114 4116 0
-4115 4116 0
-82 -4053 4117 0
82 -4117 0
4053 -4117 0
-3935 -4117 -4118 0
3935 4117 -4118 0
3935 -4117 4118 0
-3935 4117 4118 0
-4118 -4116 -4119 0
4118 4116 -4119 0
4118 -4116 4119 0
-4118 4116 4119 0
-4118 -4116 4120 0
4118 -4120 0
4116 -4120 0
-3935 -4117 4121 0
3935 -4121 0
4117 -4121 0
4120 4121 -4122 0
-4120 4122 0
-4121 4122 0
-90 -4053 4123 0
90 -4123 0
4053 -4123 0
-3941 -4123 -4124 0
3941 4123 -4124 0
3941 -4123 4124 0
-3941 4123 4124 0
-4124 -4122 -4125 0
4124 4122 -4125 0
4124 -4122 4125 0
-4124 4122 4125 0
-4124 -4122 4126 0
4124 -4126 0
4122 -4126 0
-3941 -4123 4127 0
3941 -4127 0
4123 -4127 0
4126 4127 -4128 0
-4126 4128 0
-4127 4128 0
-98 -4053 4129 0
98 -4129 0
4053 -4129 0
-3947 -4129 -4130 0
3947 4129 -4130 0
3947 -4129 4130 0
-3947 4129 4130 0
-4130 -4128 -4131 0
4130 4128 -4131 0
4130 -4128 4131 0
-4130 4128 4131 0
-4130 -4128 4132 0
4130 -4132 0
4128 -4132 0
-3947 -4129 4133 0
3947 -4133 0
4129 -4133 0
4132 4133 -4134 0
-4132 4134 0
-4133 4134 0
-106 -4053 4135 0
106 -4135 0
4053 -4135 0
-3953 -4135 -4136 0
3953 4135 -4136 0
3953 -4135 4136 0
-3953 4135 4136 0
-4136 -4134 -4137 0
4136 4134 -4137 0
4136 -4134 4137 0
-4136 4134 4137 0
-4136 -4134 4138 0
4136 -4138 0
4134 -4138 0
-3953 -4135 4139 0
3953 -4139 0
4135 -4139 0
4138 4139 -4140 0
-4138 4140 0
-4139 4140 0
-114 -4053 4141 0
114 -4141 0
4053 -4141 0
-3959 -4141 -4142 0
3959 4141 -4142 0
3959 -4141 4142 0
-3959 4141 4142 0
-4142 -4140 -4143 0
4142 4140 -4143 0
4142 -4140 4143 0
-4142 4140 4143 0
-4142 -4140 4144 0
4142 -4144 0
4140 -4144 0
-3959 -4141 4145 0
3959 -4145 0
4141 -4145 0
4144 4145 -4146 0
-4144 4146 0
-4145 4146 0
-122 -4053 4147 0
122 -4147 0
4053 -4147 0
-3965 -4147 -4148 0
3965 4147 -4148 0
3965 -4147 4148 0
-3965 4147 4148 0
-4148 -4146 -4149 0
4148 4146 -4149 0
4148 -4146 4149 0
-4148 4146 4149 0
-4148 -4146 4150 0
4148 -4150 0
4146 -4150 0
-3965 -4147 4151 0
3965 -4151 0
4147 -4151 0
4150 4151 -4152 0
-4150 4152 0
-4151 4152 0
-130 -4053 4153 0
130 -4153 0
4053 -4153 0
-3971 -4153 -4154 0
3971 4153 -4154 0
3971 -4153 4154 0
-3971 4153 4154 0
-4154 -4152 -4155 0
4154 4152 -4155 0
4154 -4152 4155 0
-4154 4152 4155 0
-4154 -4152 4156 0
4154 -4156 0
4152 -4156 0
-3971 -4153 4157 0
3971 -4157 0
4153 -4157 0
4156 4157 -4158 0
-4156 4158 0
-4157 4158 0
-138 -4053 4159 0
138 -4159 0
4053 -4159 0
-3977 -4159 -4160 0
3977 4159 -4160 0
3977 -4159 4160 0
-3977 4159 4160 0
-4160 -4158 -4161 0
4160 4158 -4161 0
4160 -4158 4161 0
-4160 4158 4161 0
-4160 -4158 4162 0
4160 -4162 0
4158 -4162 0
-3977 -4159 4163 0
3977 -4163 0
4159 -4163 0
4162 4163 -4164 0
-4162 4164 0
-4163 4164 0
-146 -4053 4165 0
146 -4165 0
4053 -4165 0
-3983 -4165 -4166 0
3983 4165 -4166 0
3983 -4165 4166 0
-3983 4165 4166 0
-4166 -4164 -4167 0
4166 4164 -4167 0
4166 -4164 4167 0
-4166 4164 4167 0
-4166 -4164 4168 0
4166 -4168 0
4164 -4168 0
-3983 -4165 4169 0
3983 -4169 0
4165 -4169 0
4168 4169 -4170 0
-4168 4170 0
-4169 4170 0
-154 -4053 4171 0
154 -4171 0
4053 -4171 0
-3989 -4171 -4172 0
3989 4171 -4172 0
3989 -4171 4172 0
-3989 4171 4172 0
-4172 -4170 -4173 0
4172 4170 -4173 0
4172 -4170 4173 0
-4172 4170 4173 0
-4172 -4170 4174 0
4172 -4174 0
4170 -4174 0
-3989 -4171 4175 0
3989 -4175 0
4171 -4175 0
4174 4175 -4176 0
-4174 4176 0
-4175 4176 0
-162 -4053 4177 0
162 -4177 0
4053 -4177 0
-3995 -4177 -4178 0
3995 4177 -4178 0
3995 -4177 4178 0
-3995 4177 4178 0
-4178 -4176 -4179 0
4178 4176 -4179 0
4178 -4176 4179 0
-4178 4176 4179 0
-4178 -4176 4180 0
4178 -4180 0
4176 -4180 0
-3995 -4177 4181 0
3995 -4181 0
4177 -4181 0
4180 4181 -4182 0
-4180 4182 0
-4181 4182 0
-170 -4053 4183 0
170 -4183 0
4053 -4183 0
-4001 -4183 -4184 0
4001 4183 -4184 0
4001 -4183 4184 0
-4001 4183 4184 0
-4184 -4182 -4185 0
4184 4182 -4185 0
4184 -4182 4185 0
-4184 4182 4185 0
-4184 -4182 4186 0
4184 -4186 0
4182 -4186 0
-4001 -4183 4187 0
4001 -4187 0
4183 -4187 0
4186 4187 -4188 0
-4186 4188 0
-4187 4188 0
-178 -4053 4189 0
178 -4189 0
4053 -4189 0
-4007 -4189 -4190 0
4007 4189 -4190 0
4007 -4189 4190 0
-4007 4189 4190 0
-4190 -4188 -4191 0
4190 4188 -4191 0
4190 -4188 4191 0
-4190 4188 4191 0
-4190 -4188 4192 0
4190 -4192 0
4188 -4192 0
-4007 -4189 4193 0
4007 -4193 0
4189 -4193 0
4192 4193 -4194 0
-4192 4194 0
-4193 4194 0
-186 -4053 4195 0
186 -4195 0
4053 -4195 0
-4013 -4195 -4196 0
4013 4195 -4196 0
4013 -4195 4196 0
-4013 4195 4196 0
-4196 -4194 -4197 0
4196 4194 -4197 0
4196 -4194 4197 0
-4196 4194 4197 0
-4196 -4194 4198 0
4196 -4198 0
4194 -4198 0
-4013 -4195 4199 0
4013 -4199 0
4195 -4199 0
4198 4199 -4200 0
-4198 4200 0
-4199 4200 0
-194 -4053 4201 0
194 -4201 0
4053 -4201 0
-4019 -4201 -4202 0
4019 4201 -4202 0
4019 -4201 4202 0
-4019 4201 4202 0
-4202 -4200 -4203 0
4202 4200 -4203 0
4202 -4200 4203 0
-4202 4200 4203 0
-4202 -4200 4204 0
4202 -4204 0
4200 -4204 0
-4019 -4201 4205 0
4019 -4205 0
4201 -4205 0
4204 4205 -4206 0
-4204 4206 0
-4205 4206 0
-202 -4053 4207 0
202 -4207 0
4053 -4207 0
-4025 -4207 -4208 0
4025 4207 -4208 0
4025 -4207 4208 0
-4025 4207 4208 0
-4208 -4206 -4209 0
4208 4206 -4209 0
4208 -4206 4209 0
-4208 4206 4209 0
-4208 -4206 4210 0
4208 -4210 0
4206 -4210 0
-4025 -4207 4211 0
4025 -4211 0
4207 -4211 0
4210 4211 -4212 0
-4210 4212 0
-4211 4212 0
-210 -4053 4213 0
210 -4213 0
4053 -4213 0
-4031 -4213 -4214 0
4031 4213 -4214 0
4031 -4213 4214 0
-4031 4213 4214 0
-4214 -4212 -4215 0
4214 4212 -4215 0
4214 -4212 4215 0
-4214 4212 4215 0
-4214 -4212 4216 0
4214 -4216 0
4212 -4216 0
-4031 -4213 4217 0
4031 -4217 0
4213 -4217 0
4216 4217 -4218 0
-4216 4218 0
-4217 4218 0
-218 -4053 4219 0
218 -4219 0
4053 -4219 0
-4037 -4219 -4220 0
4037 4219 -4220 0
4037 -4219 4220 0
-4037 4219 4220 0
-4220 -4218 -4221 0
4220 4218 -4221 0
4220 -4218 4221 0
-4220 4218 4221 0
-4220 -4218 4222 0
4220 -4222 0
4218 -4222 0
-4037 -4219 4223 0
4037 -4223 0
4219 -4223 0
4222 4223 -4224 0
-4222 4224 0
-4223 4224 0
-226 -4053 4225 0
226 -4225 0
4053 -4225 0
-4043 -4225 -4226 0
4043 4225 -4226 0
4043 -4225 4226 0
-4043 4225 4226 0
-4226 -4224 -4227 0
4226 4224 -4227 0
4226 -4224 4227 0
-4226 4224 4227 0
-4226 -4224 4228 0
4226 -4228 0
4224 -4228 0
-4043 -4225 4229 0
4043 -4229 0
4225 -4229 0
4228 4229 -4230 0
-4228 4230 0
-4229 4230 0
-234 -4053 4231 0
234 -4231 0
4053 -4231 0
-4049 -4231 -4232 0
4049 4231 -4232 0
4049 -4231 4232 0
-4049 4231 4232 0
-4232 -4230 -4233 0
4232 4230 -4233 0
4232 -4230 4233 0
-4232 4230 4233 0
-4232 -4230 4234 0
4232 -4234 0
4230 -4234 0
-4049 -4231 4235 0
4049 -4235 0
4231 -4235 0
4234 4235 -4236 0
-4234 4236 0
-4235 4236 0
-242 -4053 4237 0
242 -4237 0
4053 -4237 0
-4052 -4237 -4238 0
4052 4237 -4238 0
4052 -4237 4238 0
-4052 4237 4238 0
-4238 -4236 -4239 0
4238 4236 -4239 0
4238 -4236 4239 0
-4238 4236 4239 0
-4238 -4236 4240 0
4238 -4240 0
4236 -4240 0
-4052 -4237 4241 0
4052 -4241 0
4237 -4241 0
4240 4241 -4242 0
-4240 4242 0
-4241 4242 0
-1 -4243 4244 0
1 -4244 0
4243 -4244 0
-4059 -4244 -4245 0
4059 4244 -4245 0
4059 -4244 4245 0
-4059 4244 4245 0
-4059 -4244 4246 0
4059 -4246 0
4244 -4246 0
-4 -4243 4247 0
4 -4247 0
4243 -4247 0
-4065 -4247 -4248 0
4065 4247 -4248 0
4065 -4247 4248 0
-4065 4247 4248 0
-4248 -4246 -4249 0
4248 4246 -4249 0
4248 -4246 4249 0
-4248 4246 4249 0
-4248 -4246 4250 0
4248 -4250 0
4246 -4250 0
-4065 -4247 4251 0
4065 -4251 0
4247 -4251 0
4250 4251 -4252 0
-4250 4252 0
-4251 4252 0
-10 -4243 4253 0
10 -4253 0
4243 -4253 0
-4071 -4253 -4254 0
4071 4253 -4254 0
4071 -4253 4254 0
-4071 4253 4254 0
-4254 -4252 -4255 0
4254 4252 -4255 0
4254 -4252 4255 0
-4254 4252 4255 0
-4254 -4252 4256 0
4254 -4256 0
4252 -4256 0
-4071 -4253 4257 0
4071 -4257 0
4253 -4257 0
4256 4257 -4258 0
-4256 4258 0
-4257 4258 0
-18 -4243 4259 0
18 -4259 0
4243 -4259 0
-4077 -4259 -4260 0
4077 4259 -4260 0
4077 -4259 4260 0
-4077 4259 4260 0
-4260 -4258 -4261 0
4260 4258 -4261 0
4260 -4258 4261 0
-4260 4258 4261 0
-4260 -4258 4262 0
4260 -4262 0
4258 -4262 0
-4077 -4259 4263 0
4077 -4263 0
4259 -4263 0
4262 4263 -4264 0
-4262 4264 0
-4263 4264 0
-26 -4243 4265 0
26 -4265 0
4243 -4265 0
-4083 -4265 -4266 0
4083 4265 -4266 0
4083 -4265 4266 0
-4083 4265 4266 0
-4266 -4264 -4267 0
4266 4264 -4267 0
4266 -4264 4267 0
-4266 4264 4267 0
-4266 -4264 4268 0
4266 -4268 0
4264 -4268 0
-4083 -4265 4269 0
4083 -4269 0
4265 -4269 0
4268 4269 -4270 0
-4268 4270 0
-4269 4270 0
-34 -4243 4271 0
34 -4271 0
4243 -4271 0
-4089 -4271 -4272 0
4089 4271 -4272 0
4089 -4271 4272 0
-4089 4271 4272 0
-4272 -4270 -4273 0
4272 4270 -4273 0
4272 -4270 4273 0
-4272 4270 4273 0
-4272 -4270 4274 0
4272 -4274 0
4270 -4274 0
-4089 -4271 4275 0
4089 -4275 0
4271 -4275 0
4274 4275 -4276 0
-4274 4276 0
-4275 4276 0
-42 -4243 4277 0
42 -4277 0
4243 -4277 0
-4095 -4277 -4278 0
4095 4277 -4278 0
4095 -4277 4278 0
-4095 4277 4278 0
-4278 -4276 -4279 0
4278 4276 -4279 0
4278 -4276 4279 0
-4278 4276 4279 0
-4278 -4276 4280 0
4278 -4280 0
4276 -4280 0
-4095 -4277 4281 0
4095 -4281 0
4277 -4281 0
4280 4281 -4282 0
-4280 4282 0
-4281 4282 0
-50 -4243 4283 0
50 -4283 0
4243 -4283 0
-4101 -4283 -4284 0
4101 4283 -4284 0
4101 -4283 4284 0
-4101 4283 4284 0
-4284 -4282 -4285 0
4284 4282 -4285 0
4284 -4282 4285 0
-4284 4282 4285 0
-4284 -4282 4286 0
4284 -4286 0
4282 -4286 0
-4101 -4283 4287 0
4101 -4287 0
4283 -4287 0
4286 4287 -4288 0
-4286 4288 0
-4287 4288 0
-58 -4243 4289 0
58 -4289 0
4243 -4289 0
-4107 -4289 -4290 0
4107 4289 -4290 0
4107 -4289 4290 0
-4107 4289 4290 0
-4290 -4288 -4291 0
4290 4288 -4291 0
4290 -4288 4291 0
-4290 4288 4291 0
-4290 -4288 4292 0
4290 -4292 0
4288 -4292 0
-4107 -4289 4293 0
4107 -4293 0
4289 -4293 0
4292 4293 -4294 0
-4292 4294 0
-4293 4294 0
-66 -4243 4295 0
66 -4295 0
4243 -4295 0
-4113 -4295 -4296 0
4113 4295 -4296 0
4113 -4295 4296 0
-4113 4295 4296 0
-4296 -4294 -4297 0
4296 4294 -4297 0
4296 -4294 4297 0
-4296 4294 4297 0
-4296 -4294 4298 0
4296 -4298 0
4294 -4298 0
-4113 -4295 4299 0
4113 -4299 0
4295 -4299 0
4298 4299 -4300 0
-4298 4300 0
-4299 4300 0
-74 -4243 4301 0
74 -4301 0
4243 -4301 0
-4119 -4301 -4302 0
4119 4301 -4302 0
4119 -4301 4302 0
-4119 4301 4302 0
-4302 -4300 -4303 0
4302 4300 -4303 0
4302 -4300 4303 0
-4302 4300 4303 0
-4302 -4300 4304 0
4302 -4304 0
4300 -4304 0
-4119 -4301 4305 0
4119 -4305 0
4301 -4305 0
4304 4305 -4306 0
-4304 4306 0
-4305 4306 0
-82 -4243 4307 0
82 -4307 0
4243 -4307 0
-4125 -4307 -4308 0
4125 4307 -4308 0
4125 -4307 4308 0
-4125 4307 4308 0
-4308 -4306 -4309 0
4308 4306 -4309 0
4308 -4306 4309 0
-4308 4306 4309 0
-4308 -4306 4310 0
4308 -4310 0
4306 -4310 0
-4125 -4307 4311 0
4125 -4311 0
4307 -4311 0
4310 4311 -4312 0
-4310 4312 0
-4311 4312 0
-90 -4243 4313 0
90 -4313 0
4243 -4313 0
-4131 -4313 -4314 0
4131 4313 -4314 0
4131 -4313 4314 0
-4131 4313 4314 0
-4314 -4312 -4315 0
4314 4312 -4315 0
4314 -4312 4315 0
-4314 4312 4315 0
-4314 -4312 4316 0
4314 -4316 0
4312 -4316 0
-4131 -4313 4317 0
4131 -4317 0
4313 -4317 0
4316 4317 -4318 0
-4316 4318 0
-4317 4318 0
-98 -4243 4319 0
98 -4319 0
4243 -4319 0
-4137 -4319 -4320 0
4137 4319 -4320 0
4137 -4319 4320 0
-4137 4319 4320 0
-4320 -4318 -4321 0
4320 4318 -4321 0
4320 -4318 4321 0
-4320 4318 4321 0
-4320 -4318 4322 0
4320 -4322 0
4318 -4322 0
-4137 -4319 4323 0
4137 -4323 0
4319 -4323 0
4322 4323 -4324 0
-4322 4324 0
-4323 4324 0
-106 -4243 4325 0
106 -4325 0
4243 -4325 0
-4143 -4325 -4326 0
4143 4325 -4326 0
4143 -4325 4326 0
-4143 4325 4326 0
-4326 -4324 -4327 0
4326 4324 -4327 0
4326 -4324 4327 0
-4326 4324 4327 0
-4326 -4324 4328 0
4326 -4328 0
4324 -4328 0
-4143 -4325 4329 0
4143 -4329 0
4325 -4329 0
4328 4329 -4330 0
-4328 4330 0
-4329 4330 0
-114 -4243 4331 0
114 -4331 0
4243 -4331 0
-4149 -4331 -4332 0
4149 4331 -4332 0
4149 -4331 4332 0
-4149 4331 4332 0
-4332 -4330 -4333 0
4332 4330 -4333 0
4332 -4330 4333 0
-4332 4330 4333 0
-4332 -4330 4334 0
4332 -4334 0
4330 -4334 0
-4149 -4331 4335 0
4149 -4335 0
4331 -4335 0
4334 4335 -4336 0
-4334 4336 0
-4335 4336 0
-122 -4243 4337 0
122 -4337 0
4243 -4337 0
-4155 -4337 -4338 0
4155 4337 -4338 0
4155 -4337 4338 0
-4155 4337 4338 0
-4338 -4336 -4339 0
4338 4336 -4339 0
4338 -4336 4339 0
-4338 4336 4339 0
-4338 -4336 4340 0
4338 -4340 0
4336 -4340 0
-4155 -4337 4341 0
4155 -4341 0
4337 -4341 0
4340 4341 -4342 0
-4340 4342 0
-4341 4342 0
-130 -4243 4343 0
130 -4343 0
4243 -4343 0
-4161 -4343 -4344 0
4161 4343 -4344 0
4161 -4343 4344 0
-4161 4343 4344 0
-4344 -4342 -4345 0
4344 4342 -4345 0
4344 -4342 4345 0
-4344 4342 4345 0
-4344 -4342 4346 0
4344 -4346 0
4342 -4346 0
-4161 -4343 4347 0
4161 -4347 0
4343 -4347 0
4346 4347 -4348 0
-4346 4348 0
-4347 4348 0
-138 -4243 4349 0
138 -4349 0
4243 -4349 0
-4167 -4349 -4350 0
4167 4349 -4350 0
4167 -4349 4350 0
-4167 4349 4350 0
-4350 -4348 -4351 0
4350 4348 -4351 0
4350 -4348 4351 0
-4350 4348 4351 0
-4350 -4348 4352 0
4350 -4352 0
4348 -4352 0
-4167 -4349 4353 0
4167 -4353 0
4349 -4353 0
4352 4353 -4354 0
-4352 4354 0
-4353 4354 0
-146 -4243 4355 0
146 -4355 0
4243 -4355 0
-4173 -4355 -4356 0
4173 4355 -4356 0
4173 -4355 4356 0
-4173 4355 4356 0
-4356 -4354 -4357 0
4356 4354 -4357 0
4356 -4354 4357 0
-4356 4354 4357 0
-4356 -4354 4358 0
4356 -4358 0
4354 -4358 0
-4173 -4355 4359 0
4173 -4359 0
4355 -4359 0
4358 4359 -4360 0
-4358 4360 0
-4359 4360 0
-154 -4243 4361 0
154 -4361 0
4243 -4361 0
-4179 -4361 -4362 0
4179 4361 -4362 0
4179 -4361 4362 0
-4179 4361 4362 0
-4362 -4360 -4363 0
4362 4360 -4363 0
4362 -4360 4363 0
-4362 4360 4363 0
-4362 -4360 4364 0
4362 -4364 0
4360 -4364 0
-4179 -4361 4365 0
4179 -4365 0
4361 -4365 0
4364 4365 -4366 0
-4364 4366 0
-4365 4366 0
-162 -4243 4367 0
162 -4367 0
4243 -4367 0
-4185 -4367 -4368 0
4185 4367 -4368 0
4185 -4367 4368 0
-4185 4367 4368 0
-4368 -4366 -4369 0
4368 4366 -4369 0
4368 -4366 4369 0
-4368 4366 4369 0
-4368 -4366 4370 0
4368 -4370 0
4366 -4370 0
-4185 -4367 4371 0
4185 -4371 0
4367 -4371 0
4370 4371 -4372 0
-4370 4372 0
-4371 4372 0
-170 -4243 4373 0
170 -4373 0
4243 -4373 0
-4191 -4373 -4374 0
4191 4373 -4374 0
4191 -4373 4374 0
-4191 4373 4374 0
-4374 -4372 -4375 0
4374 4372 -4375 0
4374 -4372 4375 0
-4374 4372 4375 0
-4374 -4372 4376 0
4374 -4376 0
4372 -4376 0
-4191 -4373 4377 0
4191 -4377 0
4373 -4377 0
4376 4377 -4378 0
-4376 4378 0
-4377 4378 0
-178 -4243 4379 0
178 -4379 0
4243 -4379 0
-4197 -4379 -4380 0
4197 4379 -4380 0
4197 -4379 4380 0
-4197 4379 4380 0
-4380 -4378 -4381 0
4380 4378 -4381 0
4380 -4378 4381 0
-4380 4378 4381 0
-4380 -4378 4382 0
4380 -4382 0
4378 -4382 0
-4197 -4379 4383 0
4197 -4383 0
4379 -4383 0
4382 4383 -4384 0
-4382 4384 0
-4383 4384 0
-186 -4243 4385 0
186 -4385 0
4243 -4385 0
-4203 -4385 -4386 0
4203 4385 -4386 0
4203 -4385 4386 0
-4203 4385 4386 0
-4386 -4384 -4387 0
4386 4384 -4387 0
4386 -4384 4387 0
-4386 4384 4387 0
-4386 -4384 4388 0
4386 -4388 0
4384 -4388 0
-4203 -4385 4389 0
4203 -4389 0
4385 -4389 0
4388 4389 -4390 0
-4388 4390 0
-4389 4390 0
-194 -4243 4391 0
194 -4391 0
4243 -4391 0
-4209 -4391 -4392 0
4209 4391 -4392 0
4209 -4391 4392 0
-4209 4391 4392 0
-4392 -4390 -4393 0
4392 4390 -4393 0
4392 -4390 4393 0
-4392 4390 4393 0
-4392 -4390 4394 0
4392 -4394 0
4390 -4394 0
-4209 -4391 4395 0
4209 -4395 0
4391 -4395 0
4394 4395 -4396 0
-4394 4396 0
-4395 4396 0
-202 -4243 4397 0
202 -4397 0
4243 -4397 0
-4215 -4397 -4398 0
4215 4397 -4398 0
4215 -4397 4398 0
-4215 4397 4398 0
-4398 -4396 -4399 0
4398 4396 -4399 0
4398 -4396 4399 0
-4398 4396 4399 0
-4398 -4396 4400 0
4398 -4400 0
4396 -4400 0
-4215 -4397 4401 0
4215 -4401 0
4397 -4401 0
4400 4401 -4402 0
-4400 4402 0
-4401 4402 0
-210 -4243 4403 0
210 -4403 0
4243 -4403 0
-4221 -4403 -4404 0
4221 4403 -4404 0
4221 -4403 4404 0
-4221 4403 4404 0
-4404 -4402 -4405 0
4404 4402 -4405 0
4404 -4402 4405 0
-4404 4402 4405 0
-4404 -4402 4406 0
4404 -4406 0
4402 -4406 0
-4221 -4403 4407 0
4221 -4407 0
4403 -4407 0
4406 4407 -4408 0
-4406 4408 0
-4407 4408 0
-218 -4243 4409 0
218 -4409 0
4243 -4409 0
-4227 -4409 -4410 0
4227 4409 -4410 0
4227 -4409 4410 0
-4227 4409 4410 0
-4410 -4408 -4411 0
4410 4408 -4411 0
4410 -4408 4411 0
-4410 4408 4411 0
-4410 -4408 4412 0
4410 -4412 0
4408 -4412 0
-4227 -4409 4413 0
4227 -4413 0
4409 -4413 0
4412 4413 -4414 0
-4412 4414 0
-4413 4414 0
-226 -4243 4415 0
226 -4415 0
4243 -4415 0
-4233 -4415 -4416 0
4233 4415 -4416 0
4233 -4415 4416 0
-4233 4415 4416 0
-4416 -4414 -4417 0
4416 4414 -4417 0
4416 -4414 4417 0
-4416 4414 4417 0
-4416 -4414 4418 0
4416 -4418 0
4414 -4418 0
-4233 -4415 4419 0
4233 -4419 0
4415 -4419 0
4418 4419 -4420 0
-4418 4420 0
-4419 4420 0
-234 -4243 4421 0
234 -4421 0
4243 -4421 0
-4239 -4421 -4422 0
4239 4421 -4422 0
4239 -4421 4422 0
-4239 4421 4422 0
-4422 -4420 -4423 0
4422 4420 -4423 0
4422 -4420 4423 0
-4422 4420 4423 0
-4422 -4420 4424 0
4422 -4424 0
4420 -4424 0
-4239 -4421 4425 0
4239 -4425 0
4421 -4425 0
4424 4425 -4426 0
-4424 4426 0
-4425 4426 0
-242 -4243 4427 0
242 -4427 0
4243 -4427 0
-4242 -4427 -4428 0
4242 4427 -4428 0
4242 -4427 4428 0
-4242 4427 4428 0
-4428 -4426 -4429 0
4428 4426 -4429 0
4428 -4426 4429 0
-4428 4426 4429 0
-4428 -4426 4430 0
4428 -4430 0
4426 -4430 0
-4242 -4427 4431 0
4242 -4431 0
4427 -4431 0
4430 4431 -4432 0
-4430 4432 0
-4431 4432 0
-1 -4433 4434 0
1 -4434 0
4433 -4434 0
-4249 -4434 -4435 0
4249 4434 -4435 0
4249 -4434 4435 0
-4249 4434 4435 0
-4249 -4434 4436 0
4249 -4436 0
4434 -4436 0
-4 -4433 4437 0
4 -4437 0
4433 -4437 0
-4255 -4437 -4438 0
4255 4437 -4438 0
4255 -4437 4438 0
-4255 4437 4438 0
-4438 -4436 -4439 0
4438 4436 -4439 0
4438 -4436 4439 0
-4438 4436 4439 0
-4438 -4436 4440 0
4438 -4440 0
4436 -4440 0
-4255 -4437 4441 0
4255 -4441 0
4437 -4441 0
4440 4441 -4442 0
-4440 4442 0
-4441 4442 0
-10 -4433 4443 0
10 -4443 0
4433 -4443 0
-4261 -4443 -4444 0
4261 4443 -4444 0
4261 -4443 4444 0
-4261 4443 4444 0
-4444 -4442 -4445 0
4444 4442 -4445 0
4444 -4442 4445 0
-4444 4442 4445 0
-4444 -4442 4446 0
4444 -4446 0
4442 -4446 0
-4261 -4443 4447 0
4261 -4447 0
4443 -4447 0
4446 4447 -4448 0
-4446 4448 0
-4447 4448 0
-18 -4433 4449 0
18 -4449 0
4433 -4449 0
-4267 -4449 -4450 0
4267 4449 -4450 0
4267 -4449 4450 0
-4267 4449 4450 0
-4450 -4448 -4451 0
4450 4448 -4451 0
4450 -4448 4451 0
-4450 4448 4451 0
-4450 -4448 4452 0
4450 -4452 0
4448 -4452 0
-4267 -4449 4453 0
4267 -4453 0
4449 -4453 0
4452 4453 -4454 0
-4452 4454 0
-4453 4454 0
-26 -4433 4455 0
26 -4455 0
4433 -4455 0
-4273 -4455 -4456 0
4273 4455 -4456 0
4273 -4455 4456 0
-4273 4455 4456 0
-4456 -4454 -4457 0
4456 4454 -4457 0
4456 -4454 4457 0
-4456 4454 4457 0
-4456 -4454 4458 0
4456 -4458 0
4454 -4458 0
-4273 -4455 4459 0
4273 -4459 0
4455 -4459 0
4458 4459 -4460 0
-4458 4460 0
-4459 4460 0
-34 -4433 4461 0
34 -4461 0
4433 -4461 0
-4279 -4461 -4462 0
4279 4461 -4462 0
4279 -4461 4462 0
-4279 4461 4462 0
-4462 -4460 -4463 0
4462 4460 -4463 0
4462 -4460 4463 0
-4462 4460 4463 0
-4462 -4460 4464 0
4462 -4464 0
4460 -4464 0
-4279 -4461 4465 0
4279 -4465 0
4461 -4465 0
4464 4465 -4466 0
-4464 4466 0
-4465 4466 0
-42 -4433 4467 0
42 -4467 0
4433 -4467 0
-4285 -4467 -4468 0
4285 4467 -4468 0
4285 -4467 4468 0
-4285 4467 4468 0
-4468 -4466 -4469 0
4468 4466 -4469 0
4468 -4466 4469 0
-4468 4466 4469 0
-4468 -4466 4470 0
4468 -4470 0
4466 -4470 0
-4285 -4467 4471 0
4285 -4471 0
4467 -4471 0
4470 4471 -4472 0
-4470 4472 0
-4471 4472 0
-50 -4433 4473 0
50 -4473 0
4433 -4473 0
-4291 -4473 -4474 0
4291 4473 -4474 0
4291 -4473 4474 0
-4291 4473 4474 0
-4474 -4472 -4475 0
4474 4472 -4475 0
4474 -4472 4475 0
-4474 4472 4475 0
-4474 -4472 4476 0
4474 -4476 0
4472 -4476 0
-4291 -4473 4477 0
4291 -4477 0
4473 -4477 0
4476 4477 -4478 0
-4476 4478 0
-4477 4478 0
-58 -4433 4479 0
58 -4479 0
4433 -4479 0
-4297 -4479 -4480 0
4297 4479 -4480 0
4297 -4479 4480 0
-4297 4479 4480 0
-4480 -4478 -4481 0
4480 4478 -4481 0
4480 -4478 4481 0
-4480 4478 4481 0
-4480 -4478 4482 0
4480 -4482 0
4478 -4482 0
-4297 -4479 4483 0
4297 -4483 0
4479 -4483 0
4482 4483 -4484 0
-4482 4484 0
-4483 4484 0
-66 -4433 4485 0
66 -4485 0
4433 -4485 0
-4303 -4485 -4486 0
4303 4485 -4486 0
4303 -4485 4486 0
-4303 4485 4486 0
-4486 -4484 -4487 0
4486 4484 -4487 0
4486 -4484 4487 0
-4486 4484 4487 0
-4486 -4484 4488 0
4486 -4488 0
4484 -4488 0
-4303 -4485 4489 0
4303 -4489 0
4485 -4489 0
4488 4489 -4490 0
-4488 4490 0
-4489 4490 0
-74 -4433 4491 0
74 -4491 0
4433 -4491 0
-4309 -4491 -4492 0
4309 4491 -4492 0
4309 -4491 4492 0
-4309 4491 4492 0
-4492 -4490 -4493 0
4492 4490 -4493 0
4492 -4490 4493 0
-4492 4490 4493 0
-4492 -4490 4494 0
4492 -4494 0
4490 -4494 0
-4309 -4491 4495 0
4309 -4495 0
4491 -4495 0
4494 4495 -4496 0
-4494 4496 0
-4495 4496 0
-82 -4433 4497 0
82 -4497 0
4433 -4497 0
-4315 -4497 -4498 0
4315 4497 -4498 0
4315 -4497 4498 0
-4315 4497 4498 0
-4498 -4496 -4499 0
4498 4496 -4499 0
4498 -4496 4499 0
-4498 4496 4499 0
-4498 -4496 4500 0
4498 -4500 0
4496 -4500 0
-4315 -4497 4501 0
4315 -4501 0
4497 -4501 0
4500 4501 -4502 0
-4500 4502 0
-4501 4502 0
-90 -4433 4503 0
90 -4503 0
4433 -4503 0
-4321 -4503 -4504 0
4321 4503 -4504 0
4321 -4503 4504 0
-4321 4503 4504 0
-4504 -4502 -4505 0
4504 4502 -4505 0
4504 -4502 4505 0
-4504 4502 4505 0
-4504 -4502 4506 0
4504 -4506 0
4502 -4506 0
-4321 -4503 4507 0
4321 -4507 0
4503 -4507 0
4506 4507 -4508 0
-4506 4508 0
-4507 4508 0
-98 -4433 4509 0
98 -4509 0
4433 -4509 0
-4327 -4509 -4510 0
4327 4509 -4510 0
4327 -4509 4510 0
-4327 4509 4510 0
-4510 -4508 -4511 0
4510 4508 -4511 0
4510 -4508 4511 0
-4510 4508 4511 0
-4510 -4508 4512 0
4510 -4512 0
4508 -4512 0
-4327 -4509 4513 0
4327 -4513 0
4509 -4513 0
4512 4513 -4514 0
-4512 4514 0
-4513 4514 0
-106 -4433 4515 0
106 -4515 0
4433 -4515 0
-4333 -4515 -4516 0
4333 4515 -4516 0
4333 -4515 4516 0
-4333 4515 4516 0
-4516 -4514 -4517 0
4516 4514 -4517 0
4516 -4514 4517 0
-4516 4514 4517 0
-4516 -4514 4518 0
4516 -4518 0
4514 -4518 0
-4333 -4515 4519 0
4333 -4519 0
4515 -4519 0
4518 4519 -4520 0
-4518 4520 0
-4519 4520 0
-114 -4433 4521 0
114 -4521 0
4433 -4521 0
-4339 -4521 -4522 0
4339 4521 -4522 0
4339 -4521 4522 0
-4339 4521 4522 0
-4522 -4520 -4523 0
4522 4520 -4523 0
4522 -4520 4523 0
-4522 4520 4523 0
-4522 -4520 4524 0
4522 -4524 0
4520 -4524 0
-4339 -4521 4525 0
4339 -4525 0
4521 -4525 0
4524 4525 -4526 0
-4524 4526 0
-4525 4526 0
-122 -4433 4527 0
122 -4527 0
4433 -4527 0
-4345 -4527 -4528 0
4345 4527 -4528 0
4345 -4527 4528 0
-4345 4527 4528 0
-4528 -4526 -4529 0
4528 4526 -4529 0
4528 -4526 4529 0
-4528 4526 4529 0
-4528 -4526 4530 0
4528 -4530 0
4526 -4530 0
-4345 -4527 4531 0
4345 -4531 0
4527 -4531 0
4530 4531 -4532 0
-4530 4532 0
-4531 4532 0
-130 -4433 4533 0
130 -4533 0
4433 -4533 0
-4351 -4533 -4534 0
4351 4533 -4534 0
4351 -4533 4534 0
-4351 4533 4534 0
-4534 -4532 -4535 0
4534 4532 -4535 0
4534 -4532 4535 0
-4534 4532 4535 0
-4534 -4532 4536 0
4534 -4536 0
4532 -4536 0
-4351 -4533 4537 0
4351 -4537 0
4533 -4537 0
4536 4537 -4538 0
-4536 4538 0
-4537 4538 0
-138 -4433 4539 0
138 -4539 0
4433 -4539 0
-4357 -4539 -4540 0
4357 4539 -4540 0
4357 -4539 4540 0
-4357 4539 4540 0
-4540 -4538 -4541 0
4540 4538 -4541 0
4540 -4538 4541 0
-4540 4538 4541 0
-4540 -4538 4542 0
4540 -4542 0
4538 -4542 0
-4357 -4539 4543 0
4357 -4543 0
4539 -4543 0
4542 4543 -4544 0
-4542 4544 0
-4543 4544 0
-146 -4433 4545 0
146 -4545 0
4433 -4545 0
-4363 -4545 -4546 0
4363 4545 -4546 0
4363 -4545 4546 0
-4363 4545 4546 0
-4546 -4544 -4547 0
4546 4544 -4547 0
4546 -4544 4547 0
-4546 4544 4547 0
-4546 -4544 4548 0
4546 -4548 0
4544 -4548 0
-4363 -4545 4549 0
4363 -4549 0
4545 -4549 0
4548 4549 -4550 0
-4548 4550 0
-4549 4550 0
-154 -4433 4551 0
154 -4551 0
4433 -4551 0
-4369 -4551 -4552 0
4369 4551 -4552 0
4369 -4551 4552 0
-4369 4551 4552 0
-4552 -4550 -4553 0
4552 4550 -4553 0
4552 -4550 4553 0
-4552 4550 4553 0
-4552 -4550 4554 0
4552 -4554 0
4550 -4554 0
-4369 -4551 4555 0
4369 -4555 0
4551 -4555 0
4554 4555 -4556 0
-4554 4556 0
-4555 4556 0
-162 -4433 4557 0
162 -4557 0
4433 -4557 0
-4375 -4557 -4558 0
4375 4557 -4558 0
4375 -4557 4558 0
-4375 4557 4558 0
-4558 -4556 -4559 0
4558 4556 -4559 0
4558 -4556 4559 0
-4558 4556 4559 0
-4558 -4556 4560 0
4558 -4560 0
4556 -4560 0
-4375 -4557 4561 0
4375 -4561 0
4557 -4561 0
4560 4561 -4562 0
-4560 4562 0
-4561 4562 0
-170 -4433 4563 0
170 -4563 0
4433 -4563 0
-4381 -4563 -4564 0
4381 4563 -4564 0
4381 -4563 4564 0
-4381 4563 4564 0
-4564 -4562 -4565 0
4564 4562 -4565 0
4564 -4562 4565 0
-4564 4562 4565 0
-4564 -4562 4566 0
4564 -4566 0
4562 -4566 0
-4381 -4563 4567 0
4381 -4567 0
4563 -4567 0
4566 4567 -4568 0
-4566 4568 0
-4567 4568 0
-178 -4433 4569 0
178 -4569 0
4433 -4569 0
-4387 -4569 -4570 0
4387 4569 -4570 0
4387 -4569 4570 0
-4387 4569 4570 0
-4570 -4568 -4571 0
4570 4568 -4571 0
4570 -4568 4571 0
-4570 4568 4571 0
-4570 -4568 4572 0
4570 -4572 0
4568 -4572 0
-4387 -4569 4573 0
4387 -4573 0
4569 -4573 0
4572 4573 -4574 0
-4572 4574 0
-4573 4574 0
-186 -4433 4575 0
186 -4575 0
4433 -4575 0
-4393 -4575 -4576 0
4393 4575 -4576 0
4393 -4575 4576 0
-4393 4575 4576 0
-4576 -4574 -4577 0
4576 4574 -4577 0
4576 -4574 4577 0
-4576 4574 4577 0
-4576 -4574 4578 0
4576 -4578 0
4574 -4578 0
-4393 -4575 4579 0
4393 -4579 0
4575 -4579 0
4578 4579 -4580 0
-4578 4580 0
-4579 4580 0
-194 -4433 4581 0
194 -4581 0
4433 -4581 0
-4399 -4581 -4582 0
4399 4581 -4582 0
4399 -4581 4582 0
-4399 4581 4582 0
-4582 -4580 -4583 0
4582 4580 -4583 0
4582 -4580 4583 0
-4582 4580 4583 0
-4582 -4580 4584 0
4582 -4584 0
4580 -4584 0
-4399 -4581 4585 0
4399 -4585 0
4581 -4585 0
4584 4585 -4586 0
-4584 4586 0
-4585 4586 0
-202 -4433 4587 0
202 -4587 0
4433 -4587 0
-4405 -4587 -4588 0
4405 4587 -4588 0
4405 -4587 4588 0
-4405 4587 4588 0
-4588 -4586 -4589 0
4588 4586 -4589 0
4588 -4586 4589 0
-4588 4586 4589 0
-4588 -4586 4590 0
4588 -4590 0
4586 -4590 0
-4405 -4587 4591 0
4405 -4591 0
4587 -4591 0
4590 4591 -4592 0
-4590 4592 0
-4591 4592 0
-210 -4433 4593 0
210 -4593 0
4433 -4593 0
-4411 -4593 -4594 0
4411 4593 -4594 0
4411 -4593 4594 0
-4411 4593 4594 0
-4594 -4592 -4595 0
4594 4592 -4595 0
4594 -4592 4595 0
-4594 4592 4595 0
-4594 -4592 4596 0
4594 -4596 0
4592 -4596 0
-4411 -4593 4597 0
4411 -4597 0
4593 -4597 0
4596 4597 -4598 0
-4596 4598 0
-4597 4598 0
-218 -4433 4599 0
218 -4599 0
4433 -4599 0
-4417 -4599 -4600 0
4417 4599 -4600 0
4417 -4599 4600 0
-4417 4599 4600 0
-4600 -4598 -4601 0
4600 4598 -4601 0
4600 -4598 4601 0
-4600 4598 4601 0
-4600 -4598 4602 0
4600 -4602 0
4598 -4602 0
-4417 -4599 4603 0
4417 -4603 0
4599 -4603 0
4602 4603 -4604 0
-4602 4604 0
-4603 4604 0
-226 -4433 4605 0
226 -4605 0
4433 -4605 0
-4423 -4605 -4606 0
4423 4605 -4606 0
4423 -4605 4606 0
-4423 4605 4606 0
-4606 -4604 -4607 0
4606 4604 -4607 0
4606 -4604 4607 0
-4606 4604 4607 0
-4606 -4604 4608 0
4606 -4608 0
4604 -4608 0
-4423 -4605 4609 0
4423 -4609 0
4605 -4609 0
4608 4609 -4610 0
-4608 4610 0
-4609 4610 0
-234 -4433 4611 0
234 -4611 0
4433 -4611 0
-4429 -4611 -4612 0
4429 4611 -4612 0
4429 -4611 4612 0
-4429 4611 4612 0
-4612 -4610 -4613 0
4612 4610 -4613 0
4612 -4610 4613 0
-4612 4610 4613 0
-4612 -4610 4614 0
4612 -4614 0
4610 -4614 0
-4429 -4611 4615 0
4429 -4615 0
4611 -4615 0
4614 4615 -4616 0
-4614 4616 0
-4615 4616 0
-242 -4433 4617 0
242 -4617 0
4433 -4617 0
-4432 -4617 -4618 0
4432 4617 -4618 0
4432 -4617 4618 0
-4432 4617 4618 0
-4618 -4616 -4619 0
4618 4616 -4619 0
4618 -4616 4619 0
-4618 4616 4619 0
-4618 -4616 4620 0
4618 -4620 0
4616 -4620 0
-4432 -4617 4621 0
4432 -4621 0
4617 -4621 0
4620 4621 -4622 0
-4620 4622 0
-4621 4622 0
-1 -4623 4624 0
1 -4624 0
4623 -4624 0
-4439 -4624 -4625 0
4439 4624 -4625 0
4439 -4624 4625 0
-4439 4624 4625 0
-4439 -4624 4626 0
4439 -4626 0
4624 -4626 0
-4 -4623 4627 0
4 -4627 0
4623 -4627 0
-4445 -4627 -4628 0
4445 4627 -4628 0
4445 -4627 4628 0
-4445 4627 4628 0
-4628 -4626 -4629 0
4628 4626 -4629 0
4628 -4626 4629 0
-4628 4626 4629 0
-4628 -4626 4630 0
4628 -4630 0
4626 -4630 0
-4445 -4627 4631 0
4445 -4631 0
4627 -4631 0
4630 4631 -4632 0
-4630 4632 0
-4631 4632 0
-10 -4623 4633 0
10 -4633 0
4623 -4633 0
-4451 -4633 -4634 0
4451 4633 -4634 0
4451 -4633 4634 0
-4451 4633 4634 0
-4634 -4632 -4635 0
4634 4632 -4635 0
4634 -4632 4635 0
-4634 4632 4635 0
-4634 -4632 4636 0
4634 -4636 0
4632 -4636 0
-4451 -4633 4637 0
4451 -4637 0
4633 -4637 0
4636 4637 -4638 0
-4636 4638 0
-4637 4638 0
-18 -4623 4639 0
18 -4639 0
4623 -4639 0
-4457 -4639 -4640 0
4457 4639 -4640 0
4457 -4639 4640 0
-4457 4639 4640 0
-4640 -4638 -4641 0
4640 4638 -4641 0
4640 -4638 4641 0
-4640 4638 4641 0
-4640 -4638 4642 0
4640 -4642 0
4638 -4642 0
-4457 -4639 4643 0
4457 -4643 0
4639 -4643 0
4642 4643 -4644 0
-4642 4644 0
-4643 4644 0
-26 -4623 4645 0
26 -4645 0
4623 -4645 0
-4463 -4645 -4646 0
4463 4645 -4646 0
4463 -4645 4646 0
-4463 4645 4646 0
-4646 -4644 -4647 0
4646 4644 -4647 0
4646 -4644 4647 0
-4646 4644 4647 0
-4646 -4644 4648 0
4646 -4648 0
4644 -4648 0
-4463 -4645 4649 0
4463 -4649 0
4645 -4649 0
4648 4649 -4650 0
-4648 4650 0
-4649 4650 0
-34 -4623 4651 0
34 -4651 0
4623 -4651 0
-4469 -4651 -4652 0
4469 4651 -4652 0
4469 -4651 4652 0
-4469 4651 4652 0
-4652 -4650 -4653 0
4652 4650 -4653 0
4652 -4650 4653 0
-4652 4650 4653 0
-4652 -4650 4654 0
4652 -4654 0
4650 -4654 0
-4469 -4651 4655 0
4469 -4655 0
4651 -4655 0
4654 4655 -4656 0
-4654 4656 0
-4655 4656 0
-42 -4623 4657 0
42 -4657 0
4623 -4657 0
-4475 -4657 -4658 0
4475 4657 -4658 0
4475 -4657 4658 0
-4475 4657 4658 0
-4658 -4656 -4659 0
4658 4656 -4659 0
4658 -4656 4659 0
-4658 4656 4659 0
-4658 -4656 4660 0
4658 -4660 0
4656 -4660 0
-4475 -4657 4661 0
4475 -4661 0
4657 -4661 0
4660 4661 -4662 0
-4660 4662 0
-4661 4662 0
-50 -4623 4663 0
50 -4663 0
4623 -4663 0
-4481 -4663 -4664 0
4481 4663 -4664 0
4481 -4663 4664 0
-4481 4663 4664 0
-4664 -4662 -4665 0
4664 4662 -4665 0
4664 -4662 4665 0
-4664 4662 4665 0
-4664 -4662 4666 0
4664 -4666 0
4662 -4666 0
-4481 -4663 4667 0
4481 -4667 0
4663 -4667 0
4666 4667 -4668 0
-4666 4668 0
-4667 4668 0
-58 -4623 4669 0
58 -4669 0
4623 -4669 0
-4487 -4669 -4670 0
4487 4669 -4670 0
4487 -4669 4670 0
-4487 4669 4670 0
-4670 -4668 -4671 0
4670 4668 -4671 0
4670 -4668 4671 0
-4670 4668 4671 0
-4670 -4668 4672 0
4670 -4672 0
4668 -4672 0
-4487 -4669 4673 0
4487 -4673 0
4669 -4673 0
4672 4673 -4674 0
-4672 4674 0
-4673 4674 0
-66 -4623 4675 0
66 -4675 0
4623 -4675 0
-4493 -4675 -4676 0
4493 4675 -4676 0
4493 -4675 4676 0
-4493 4675 4676 0
-4676 -4674 -4677 0
4676 4674 -4677 0
4676 -4674 4677 0
-4676 4674 4677 0
-4676 -4674 4678 0
4676 -4678 0
4674 -4678 0
-4493 -4675 4679 0
4493 -4679 0
4675 -4679 0
4678 4679 -4680 0
-4678 4680 0
-4679 4680 0
-74 -4623 4681 0
74 -4681 0
4623 -4681 0
-4499 -4681 -4682 0
4499 4681 -4682 0
4499 -4681 4682 0
-4499 4681 4682 0
-4682 -4680 -4683 0
4682 4680 -4683 0
4682 -4680 4683 0
-4682 4680 4683 0
-4682 -4680 4684 0
4682 -4684 0
4680 -4684 0
-4499 -4681 4685 0
4499 -4685 0
4681 -4685 0
4684 4685 -4686 0
-4684 4686 0
-4685 4686 0
-82 -4623 4687 0
82 -4687 0
4623 -4687 0
-4505 -4687 -4688 0
4505 4687 -4688 0
4505 -4687 4688 0
-4505 4687 4688 0
-4688 -4686 -4689 0
4688 4686 -4689 0
4688 -4686 4689 0
-4688 4686 4689 0
-4688 -4686 4690 0
4688 -4690 0
4686 -4690 0
-4505 -4687 4691 0
4505 -4691 0
4687 -4691 0
4690 4691 -4692 0
-4690 4692 0
-4691 4692 0
-90 -4623 4693 0
90 -4693 0
4623 -4693 0
-4511 -4693 -4694 0
4511 4693 -4694 0
4511 -4693 4694 0
-4511 4693 4694 0
-4694 -4692 -4695 0
4694 4692 -4695 0
4694 -4692 4695 0
-4694 4692 4695 0
-4694 -4692 4696 0
4694 -4696 0
4692 -4696 0
-4511 -4693 4697 0
4511 -4697 0
4693 -4697 0
4696 4697 -4698 0
-4696 4698 0
-4697 4698 0
-98 -4623 4699 0
98 -4699 0
4623 -4699 0
-4517 -4699 -4700 0
4517 4699 -4700 0
4517 -4699 4700 0
-4517 4699 4700 0
-4700 -4698 -4701 0
4700 4698 -4701 0
4700 -4698 4701 0
-4700 4698 4701 0
-4700 -4698 4702 0
4700 -4702 0
4698 -4702 0
-4517 -4699 4703 0
4517 -4703 0
4699 -4703 0
4702 4703 -4704 0
-4702 4704 0
-4703 4704 0
-106 -4623 4705 0
106 -4705 0
4623 -4705 0
-4523 -4705 -4706 0
4523 4705 -4706 0
4523 -4705 4706 0
-4523 4705 4706 0
-4706 -4704 -4707 0
4706 4704 -4707 0
4706 -4704 4707 0
-4706 4704 4707 0
-4706 -4704 4708 0
4706 -4708 0
4704 -4708 0
-4523 -4705 4709 0
4523 -4709 0
4705 -4709 0
4708 4709 -4710 0
-4708 4710 0
-4709 4710 0
-114 -4623 4711 0
114 -4711 0
4623 -4711 0
-4529 -4711 -4712 0
4529 4711 -4712 0
4529 -4711 4712 0
-4529 4711 4712 0
-4712 -4710 -4713 0
4712 4710 -4713 0
4712 -4710 4713 0
-4712 4710 4713 0
-4712 -4710 4714 0
4712 -4714 0
4710 -4714 0
-4529 -4711 4715 0
4529 -4715 0
4711 -4715 0
4714 4715 -4716 0
-4714 4716 0
-4715 4716 0
-122 -4623 4717 0
122 -4717 0
4623 -4717 0
-4535 -4717 -4718 0
4535 4717 -4718 0
4535 -4717 4718 0
-4535 4717 4718 0
-4718 -4716 -4719 0
4718 4716 -4719 0
4718 -4716 4719 0
-4718 4716 4719 0
-4718 -4716 4720 0
4718 -4720 0
4716 -4720 0
-4535 -4717 4721 0
4535 -4721 0
4717 -4721 0
4720 4721 -4722 0
-4720 4722 0
-4721 4722 0
-130 -4623 4723 0
130 -4723 0
4623 -4723 0
-4541 -4723 -4724 0
4541 4723 -4724 0
4541 -4723 4724 0
-4541 4723 4724 0
-4724 -4722 -4725 0
4724 4722 -4725 0
4724 -4722 4725 0
-4724 4722 4725 0
-4724 -4722 4726 0
4724 -4726 0
4722 -4726 0
-4541 -4723 4727 0
4541 -4727 0
4723 -4727 0
4726 4727 -4728 0
-4726 4728 0
-4727 4728 0
-138 -4623 4729 0
138 -4729 0
4623 -4729 0
-4547 -4729 -4730 0
4547 4729 -4730 0
4547 -4729 4730 0
-4547 4729 4730 0
-4730 -4728 -4731 0
4730 4728 -4731 0
4730 -4728 4731 0
-4730 4728 4731 0
-4730 -4728 4732 0
4730 -4732 0
4728 -4732 0
-4547 -4729 4733 0
4547 -4733 0
4729 -4733 0
4732 4733 -4734 0
-4732 4734 0
-4733 4734 0
-146 -4623 4735 0
146 -4735 0
4623 -4735 0
-4553 -4735 -4736 0
4553 4735 -4736 0
4553 -4735 4736 0
-4553 4735 4736 0
-4736 -4734 -4737 0
4736 4734 -4737 0
4736 -4734 4737 0
-4736 4734 4737 0
-4736 -4734 4738 0
4736 -4738 0
4734 -4738 0
-4553 -4735 4739 0
4553 -4739 0
4735 -4739 0
4738 4739 -4740 0
-4738 4740 0
-4739 4740 0
-154 -4623 4741 0
154 -4741 0
4623 -4741 0
-4559 -4741 -4742 0
4559 4741 -4742 0
4559 -4741 4742 0
-4559 4741 4742 0
-4742 -4740 -4743 0
4742 4740 -4743 0
4742 -4740 4743 0
-4742 4740 4743 0
-4742 -4740 4744 0
4742 -4744 0
4740 -4744 0
-4559 -4741 4745 0
4559 -4745 0
4741 -4745 0
4744 4745 -4746 0
-4744 4746 0
-4745 4746 0
-162 -4623 4747 0
162 -4747 0
4623 -4747 0
-4565 -4747 -4748 0
4565 4747 -4748 0
4565 -4747 4748 0
-4565 4747 4748 0
-4748 -4746 -4749 0
4748 4746 -4749 0
4748 -4746 4749 0
-4748 4746 4749 0
-4748 -4746 4750 0
4748 -4750 0
4746 -4750 0
-4565 -4747 4751 0
4565 -4751 0
4747 -4751 0
4750 4751 -4752 0
-4750 4752 0
-4751 4752 0
-170 -4623 4753 0
170 -4753 0
4623 -4753 0
-4571 -4753 -4754 0
4571 4753 -4754 0
4571 -4753 4754 0
-4571 4753 4754 0
-4754 -4752 -4755 0
4754 4752 -4755 0
4754 -4752 4755 0
-4754 4752 4755 0
-4754 -4752 4756 0
4754 -4756 0
4752 -4756 0
-4571 -4753 4757 0
4571 -4757 0
4753 -4757 0
4756 4757 -4758 0
-4756 4758 0
-4757 4758 0
-178 -4623 4759 0
178 -4759 0
4623 -4759 0
-4577 -4759 -4760 0
4577 4759 -4760 0
4577 -4759 4760 0
-4577 4759 4760 0
-4760 -4758 -4761 0
4760 4758 -4761 0
4760 -4758 4761 0
-4760 4758 4761 0
-4760 -4758 4762 0
4760 -4762 0
4758 -4762 0
-4577 -4759 4763 0
4577 -4763 0
4759 -4763 0
4762 4763 -4764 0
-4762 4764 0
-4763 4764 0
-186 -4623 4765 0
186 -4765 0
4623 -4765 0
-4583 -4765 -4766 0
4583 4765 -4766 0
4583 -4765 4766 0
-4583 4765 4766 0
-4766 -4764 -4767 0
4766 4764 -4767 0
4766 -4764 4767 0
-4766 4764 4767 0
-4766 -4764 4768 0
4766 -4768 0
4764 -4768 0
-4583 -4765 4769 0
4583 -4769 0
4765 -4769 0
4768 4769 -4770 0
-4768 4770 0
-4769 4770 0
-194 -4623 4771 0
194 -4771 0
4623 -4771 0
-4589 -4771 -4772 0
4589 4771 -4772 0
4589 -4771 4772 0
-4589 4771 4772 0
-4772 -4770 -4773 0
4772 4770 -4773 0
4772 -4770 4773 0
-4772 4770 4773 0
-4772 -4770 4774 0
4772 -4774 0
4770 -4774 0
-4589 -4771 4775 0
4589 -4775 0
4771 -4775 0
4774 4775 -4776 0
-4774 4776 0
-4775 4776 0
-202 -4623 4777 0
202 -4777 0
4623 -4777 0
-4595 -4777 -4778 0
4595 4777 -4778 0
4595 -4777 4778 0
-4595 4777 4778 0
-4778 -4776 -4779 0
4778 4776 -4779 0
4778 -4776 4779 0
-4778 4776 4779 0
-4778 -4776 4780 0
4778 -4780 0
4776 -4780 0
-4595 -4777 4781 0
4595 -4781 0
4777 -4781 0
4780 4781 -4782 0
-4780 4782 0
-4781 4782 0
-210 -4623 4783 0
210 -4783 0
4623 -4783 0
-4601 -4783 -4784 0
4601 4783 -4784 0
4601 -4783 4784 0
-4601 4783 4784 0
-4784 -4782 -4785 0
4784 4782 -4785 0
4784 -4782 4785 0
-4784 4782 4785 0
-4784 -4782 4786 0
4784 -4786 0
4782 -4786 0
-4601 -4783 4787 0
4601 -4787 0
4783 -4787 0
4786 4787 -4788 0
-4786 4788 0
-4787 4788 0
-218 -4623 4789 0
218 -4789 0
4623 -4789 0
-4607 -4789 -4790 0
4607 4789 -4790 0
4607 -4789 4790 0
-4607 4789 4790 0
-4790 -4788 -4791 0
4790 4788 -4791 0
4790 -4788 4791 0
-4790 4788 4791 0
-4790 -4788 4792 0
4790 -4792 0
4788 -4792 0
-4607 -4789 4793 0
4607 -4793 0
4789 -4793 0
4792 4793 -4794 0
-4792 4794 0
-4793 4794 0
-226 -4623 4795 0
226 -4795 0
4623 -4795 0
-4613 -4795 -4796 0
4613 4795 -4796 0
4613 -4795 4796 0
-4613 4795 4796 0
-4796 -4794 -4797 0
4796 4794 -4797 0
4796 -4794 4797 0
-4796 4794 4797 0
-4796 -4794 4798 0
4796 -4798 0
4794 -4798 0
-4613 -4795 4799 0
4613 -4799 0
4795 -4799 0
4798 4799 -4800 0
-4798 4800 0
-4799 4800 0
-234 -4623 4801 0
234 -4801 0
4623 -4801 0
-4619 -4801 -4802 0
4619 4801 -4802 0
4619 -4801 4802 0
-4619 4801 4802 0
-4802 -4800 -4803 0
4802 4800 -4803 0
4802 -4800 4803 0
-4802 4800 4803 0
-4802 -4800 4804 0
4802 -4804 0
4800 -4804 0
-4619 -4801 4805 0
4619 -4805 0
4801 -4805 0
4804 4805 -4806 0
-4804 4806 0
-4805 4806 0
-242 -4623 4807 0
242 -4807 0
4623 -4807 0
-4622 -4807 -4808 0
4622 4807 -4808 0
4622 -4807 4808 0
-4622 4807 4808 0
-4808 -4806 -4809 0
4808 4806 -4809 0
4808 -4806 4809 0
-4808 4806 4809 0
-4808 -4806 4810 0
4808 -4810 0
4806 -4810 0
-4622 -4807 4811 0
4622 -4811 0
4807 -4811 0
4810 4811 -4812 0
-4810 4812 0
-4811 4812 0
-1 -4813 4814 0
1 -4814 0
4813 -4814 0
-4629 -4814 -4815 0
4629 4814 -4815 0
4629 -4814 4815 0
-4629 4814 4815 0
-4629 -4814 4816 0
4629 -4816 0
4814 -4816 0
-4 -4813 4817 0
4 -4817 0
4813 -4817 0
-4635 -4817 -4818 0
4635 4817 -4818 0
4635 -4817 4818 0
-4635 4817 4818 0
-4818 -4816 -4819 0
4818 4816 -4819 0
4818 -4816 4819 0
-4818 4816 4819 0
-4818 -4816 4820 0
4818 -4820 0
4816 -4820 0
-4635 -4817 4821 0
4635 -4821 0
4817 -4821 0
4820 4821 -4822 0
-4820 4822 0
-4821 4822 0
-10 -4813 4823 0
10 -4823 0
4813 -4823 0
-4641 -4823 -4824 0
4641 4823 -4824 0
4641 -4823 4824 0
-4641 4823 4824 0
-4824 -4822 -4825 0
4824 4822 -4825 0
4824 -4822 4825 0
-4824 4822 4825 0
-4824 -4822 4826 0
4824 -4826 0
4822 -4826 0
-4641 -4823 4827 0
4641 -4827 0
4823 -4827 0
4826 4827 -4828 0
-4826 4828 0
-4827 4828 0
-18 -4813 4829 0
18 -4829 0
4813 -4829 0
-4647 -4829 -4830 0
4647 4829 -4830 0
4647 -4829 4830 0
-4647 4829 4830 0
-4830 -4828 -4831 0
4830 4828 -4831 0
4830 -4828 4831 0
-4830 4828 4831 0
-4830 -4828 4832 0
4830 -4832 0
4828 -4832 0
-4647 -4829 4833 0
4647 -4833 0
4829 -4833 0
4832 4833 -4834 0
-4832 4834 0
-4833 4834 0
-26 -4813 4835 0
26 -4835 0
4813 -4835 0
-4653 -4835 -4836 0
4653 4835 -4836 0
4653 -4835 4836 0
-4653 4835 4836 0
-4836 -4834 -4837 0
4836 4834 -4837 0
4836 -4834 4837 0
-4836 4834 4837 0
-4836 -4834 4838 0
4836 -4838 0
4834 -4838 0
-4653 -4835 4839 0
4653 -4839 0
4835 -4839 0
4838 4839 -4840 0
-4838 4840 0
-4839 4840 0
-34 -4813 4841 0
34 -4841 0
4813 -4841 0
-4659 -4841 -4842 0
4659 4841 -4842 0
4659 -4841 4842 0
-4659 4841 4842 0
-4842 -4840 -4843 0
4842 4840 -4843 0
4842 -4840 4843 0
-4842 4840 4843 0
-4842 -4840 4844 0
4842 -4844 0
4840 -4844 0
-4659 -4841 4845 0
4659 -4845 0
4841 -4845 0
4844 4845 -4846 0
-4844 4846 0
-4845 4846 0
-42 -4813 4847 0
42 -4847 0
4813 -4847 0
-4665 -4847 -4848 0
4665 4847 -4848 0
4665 -4847 4848 0
-4665 4847 4848 0
-4848 -4846 -4849 0
4848 4846 -4849 0
4848 -4846 4849 0
-4848 4846 4849 0
-4848 -4846 4850 0
4848 -4850 0
4846 -4850 0
-4665 -4847 4851 0
4665 -4851 0
4847 -4851 0
4850 4851 -4852 0
-4850 4852 0
-4851 4852 0
-50 -4813 4853 0
50 -4853 0
4813 -4853 0
-4671 -4853 -4854 0
4671 4853 -4854 0
4671 -4853 4854 0
-4671 4853 4854 0
-4854 -4852 -4855 0
4854 4852 -4855 0
4854 -4852 4855 0
-4854 4852 4855 0
-4854 -4852 4856 0
4854 -4856 0
4852 -4856 0
-4671 -4853 4857 0
4671 -4857 0
4853 -4857 0
4856 4857 -4858 0
-4856 4858 0
-4857 4858 0
-58 -4813 4859 0
58 -4859 0
4813 -4859 0
-4677 -4859 -4860 0
4677 4859 -4860 0
4677 -4859 4860 0
-4677 4859 4860 0
-4860 -4858 -4861 0
4860 4858 -4861 0
4860 -4858 4861 0
-4860 4858 4861 0
-4860 -4858 4862 0
4860 -4862 0
4858 -4862 0
-4677 -4859 4863 0
4677 -4863 0
4859 -4863 0
4862 4863 -4864 0
-4862 4864 0
-4863 4864 0
-66 -4813 4865 0
66 -4865 0
4813 -4865 0
-4683 -4865 -4866 0
4683 4865 -4866 0
4683 -4865 4866 0
-4683 4865 4866 0
-4866 -4864 -4867 0
4866 4864 -4867 0
4866 -4864 4867 0
-4866 4864 4867 0
-4866 -4864 4868 0
4866 -4868 0
4864 -4868 0
-4683 -4865 4869 0
4683 -4869 0
4865 -4869 0
4868 4869 -4870 0
-4868 4870 0
-4869 4870 0
-74 -4813 4871 0
74 -4871 0
4813 -4871 0
-4689 -4871 -4872 0
4689 4871 -4872 0
4689 -4871 4872 0
-4689 4871 4872 0
-4872 -4870 -4873 0
4872 4870 -4873 0
4872 -4870 4873 0
-4872 4870 4873 0
-4872 -4870 4874 0
4872 -4874 0
4870 -4874 0
-4689 -4871 4875 0
4689 -4875 0
4871 -4875 0
4874 4875 -4876 0
-4874 4876 0
-4875 4876 0
-82 -4813 4877 0
82 -4877 0
4813 -4877 0
-4695 -4877 -4878 0
4695 4877 -4878 0
4695 -4877 4878 0
-4695 4877 4878 0
-4878 -4876 -4879 0
4878 4876 -4879 0
4878 -4876 4879 0
-4878 4876 4879 0
-4878 -4876 4880 0
4878 -4880 0
4876 -4880 0
-4695 -4877 4881 0
4695 -4881 0
4877 -4881 0
4880 4881 -4882 0
-4880 4882 0
-4881 4882 0
-90 -4813 4883 0
90 -4883 0
4813 -4883 0
-4701 -4883 -4884 0
4701 4883 -4884 0
4701 -4883 4884 0
-4701 4883 4884 0
-4884 -4882 -4885 0
4884 4882 -4885 0
4884 -4882 4885 0
-4884 4882 4885 0
-4884 -4882 4886 0
4884 -4886 0
4882 -4886 0
-4701 -4883 4887 0
4701 -4887 0
4883 -4887 0
4886 4887 -4888 0
-4886 4888 0
-4887 4888 0
-98 -4813 4889 0
98 -4889 0
4813 -4889 0
-4707 -4889 -4890 0
4707 4889 -4890 0
4707 -4889 4890 0
-4707 4889 4890 0
-4890 -4888 -4891 0
4890 4888 -4891 0
4890 -4888 4891 0
-4890 4888 4891 0
-4890 -4888 4892 0
4890 -4892 0
4888 -4892 0
-4707 -4889 4893 0
4707 -4893 0
4889 -4893 0
4892 4893 -4894 0
-4892 4894 0
-4893 4894 0
-106 -4813 4895 0
106 -4895 0
4813 -4895 0
-4713 -4895 -4896 0
4713 4895 -4896 0
4713 -4895 4896 0
-4713 4895 4896 0
-4896 -4894 -4897 0
4896 4894 -4897 0
4896 -4894 4897 0
-4896 4894 4897 0
-4896 -4894 4898 0
4896 -4898 0
4894 -4898 0
-4713 -4895 4899 0
4713 -4899 0
4895 -4899 0
4898 4899 -4900 0
-4898 4900 0
-4899 4900 0
-114 -4813 4901 0
114 -4901 0
4813 -4901 0
-4719 -4901 -4902 0
4719 4901 -4902 0
4719 -4901 4902 0
-4719 4901 4902 0
-4902 -4900 -4903 0
4902 4900 -4903 0
4902 -4900 4903 0
-4902 4900 4903 0
-4902 -4900 4904 0
4902 -4904 0
4900 -4904 0
-4719 -4901 4905 0
4719 -4905 0
4901 -4905 0
4904 4905 -4906 0
-4904 4906 0
-4905 4906 0
-122 -4813 4907 0
122 -4907 0
4813 -4907 0
-4725 -4907 -4908 0
4725 4907 -4908 0
4725 -4907 4908 0
-4725 4907 4908 0
-4908 -4906 -4909 0
4908 4906 -4909 0
4908 -4906 4909 0
-4908 4906 4909 0
-4908 -4906 4910 0
4908 -4910 0
4906 -4910 0
-4725 -4907 4911 0
4725 -4911 0
4907 -4911 0
4910 4911 -4912 0
-4910 4912 0
-4911 4912 0
-130 -4813 4913 0
130 -4913 0
4813 -4913 0
-4731 -4913 -4914 0
4731 4913 -4914 0
4731 -4913 4914 0
-4731 4913 4914 0
-4914 -4912 -4915 0
4914 4912 -4915 0
4914 -4912 4915 0
-4914 4912 4915 0
-4914 -4912 4916 0
4914 -4916 0
4912 -4916 0
-4731 -4913 4917 0
4731 -4917 0
4913 -4917 0
4916 4917 -4918 0
-4916 4918 0
-4917 4918 0
-138 -4813 4919 0
138 -4919 0
4813 -4919 0
-4737 -4919 -4920 0
4737 4919 -4920 0
4737 -4919 4920 0
-4737 4919 4920 0
-4920 -4918 -4921 0
4920 4918 -4921 0
4920 -4918 4921 0
-4920 4918 4921 0
-4920 -4918 4922 0
4920 -4922 0
4918 -4922 0
-4737 -4919 4923 0
4737 -4923 0
4919 -4923 0
4922 4923 -4924 0
-4922 4924 0
-4923 4924 0
-146 -4813 4925 0
146 -4925 0
4813 -4925 0
-4743 -4925 -4926 0
4743 4925 -4926 0
4743 -4925 4926 0
-4743 4925 4926 0
-4926 -4924 -4927 0
4926 4924 -4927 0
4926 -4924 4927 0
-4926 4924 4927 0
-4926 -4924 4928 0
4926 -4928 0
4924 -4928 0
-4743 -4925 4929 0
4743 -4929 0
4925 -4929 0
4928 4929 -4930 0
-4928 4930 0
-4929 4930 0
-154 -4813 4931 0
154 -4931 0
4813 -4931 0
-4749 -4931 -4932 0
4749 4931 -4932 0
4749 -4931 4932 0
-4749 4931 4932 0
-4932 -4930 -4933 0
4932 4930 -4933 0
4932 -4930 4933 0
-4932 4930 4933 0
-4932 -4930 4934 0
4932 -4934 0
4930 -4934 0
-4749 -4931 4935 0
4749 -4935 0
4931 -4935 0
4934 4935 -4936 0
-4934 4936 0
-4935 4936 0
-162 -4813 4937 0
162 -4937 0
4813 -4937 0
-4755 -4937 -4938 0
4755 4937 -4938 0
4755 -4937 4938 0
-4755 4937 4938 0
-4938 -4936 -4939 0
4938 4936 -4939 0
4938 -4936 4939 0
-4938 4936 4939 0
-4938 -4936 4940 0
4938 -4940 0
4936 -4940 0
-4755 -4937 4941 0
4755 -4941 0
4937 -4941 0
4940 4941 -4942 0
-4940 4942 0
-4941 4942 0
-170 -4813 4943 0
170 -4943 0
4813 -4943 0
-4761 -4943 -4944 0
4761 4943 -4944 0
4761 -4943 4944 0
-4761 4943 4944 0
-4944 -4942 -4945 0
4944 4942 -4945 0
4944 -4942 4945 0
-4944 4942 4945 0
-4944 -4942 4946 0
4944 -4946 0
4942 -4946 0
-4761 -4943 4947 0
4761 -4947 0
4943 -4947 0
4946 4947 -4948 0
-4946 4948 0
-4947 4948 0
-178 -4813 4949 0
178 -4949 0
4813 -4949 0
-4767 -4949 -4950 0
4767 4949 -4950 0
4767 -4949 4950 0
-4767 4949 4950 0
-4950 -4948 -4951 0
4950 4948 -4951 0
4950 -4948 4951 0
-4950 4948 4951 0
-4950 -4948 4952 0
4950 -4952 0
4948 -4952 0
-4767 -4949 4953 0
4767 -4953 0
4949 -4953 0
4952 4953 -4954 0
-4952 4954 0
-4953 4954 0
-186 -4813 4955 0
186 -4955 0
4813 -4955 0
-4773 -4955 -4956 0
4773 4955 -4956 0
4773 -4955 4956 0
-4773 4955 4956 0
-4956 -4954 -4957 0
4956 4954 -4957 0
4956 -4954 4957 0
-4956 4954 4957 0
-4956 -4954 4958 0
4956 -4958 0
4954 -4958 0
-4773 -4955 4959 0
4773 -4959 0
4955 -4959 0
4958 4959 -4960 0
-4958 4960 0
-4959 4960 0
-194 -4813 4961 0
194 -4961 0
4813 -4961 0
-4779 -4961 -4962 0
4779 4961 -4962 0
4779 -4961 4962 0
-4779 4961 4962 0
-4962 -4960 -4963 0
4962 4960 -4963 0
4962 -4960 4963 0
-4962 4960 4963 0
-4962 -4960 4964 0
4962 -4964 0
4960 -4964 0
-4779 -4961 4965 0
4779 -4965 0
4961 -4965 0
4964 4965 -4966 0
-4964 4966 0
-4965 4966 0
-202 -4813 4967 0
202 -4967 0
4813 -4967 0
-4785 -4967 -4968 0
4785 4967 -4968 0
4785 -4967 4968 0
-4785 4967 4968 0
-4968 -4966 -4969 0
4968 4966 -4969 0
4968 -4966 4969 0
-4968 4966 4969 0
-4968 -4966 4970 0
4968 -4970 0
4966 -4970 0
-4785 -4967 4971 0
4785 -4971 0
4967 -4971 0
4970 4971 -4972 0
-4970 4972 0
-4971 4972 0
-210 -4813 4973 0
210 -4973 0
4813 -4973 0
-4791 -4973 -4974 0
4791 4973 -4974 0
4791 -4973 4974 0
-4791 4973 4974 0
-4974 -4972 -4975 0
4974 4972 -4975 0
4974 -4972 4975 0
-4974 4972 4975 0
-4974 -4972 4976 0
4974 -4976 0
4972 -4976 0
-4791 -4973 4977 0
4791 -4977 0
4973 -4977 0
4976 4977 -4978 0
-4976 4978 0
-4977 4978 0
-218 -4813 4979 0
218 -4979 0
4813 -4979 0
-4797 -4979 -4980 0
4797 4979 -4980 0
4797 -4979 4980 0
-4797 4979 4980 0
-4980 -4978 -4981 0
4980 4978 -4981 0
4980 -4978 4981 0
-4980 4978 4981 0
-4980 -4978 4982 0
4980 -4982 0
4978 -4982 0
-4797 -4979 4983 0
4797 -4983 0
4979 -4983 0
4982 4983 -4984 0
-4982 4984 0
-4983 4984 0
-226 -4813 4985 0
226 -4985 0
4813 -4985 0
-4803 -4985 -4986 0
4803 4985 -4986 0
4803 -4985 4986 0
-4803 4985 4986 0
-4986 -4984 -4987 0
4986 4984 -4987 0
4986 -4984 4987 0
-4986 4984 4987 0
-4986 -4984 4988 0
4986 -4988 0
4984 -4988 0
-4803 -4985 4989 0
4803 -4989 0
4985 -4989 0
4988 4989 -4990 0
-4988 4990 0
-4989 4990 0
-234 -4813 4991 0
234 -4991 0
4813 -4991 0
-4809 -4991 -4992 0
4809 4991 -4992 0
4809 -4991 4992 0
-4809 4991 4992 0
-4992 -4990 -4993 0
4992 4990 -4993 0
4992 -4990 4993 0
-4992 4990 4993 0
-4992 -4990 4994 0
4992 -4994 0
4990 -4994 0
-4809 -4991 4995 0
4809 -4995 0
4991 -4995 0
4994 4995 -4996 0
-4994 4996 0
-4995 4996 0
-242 -4813 4997 0
242 -4997 0
4813 -4997 0
-4812 -4997 -4998 0
4812 4997 -4998 0
4812 -4997 4998 0
-4812 4997 4998 0
-4998 -4996 -4999 0
4998 4996 -4999 0
4998 -4996 4999 0
-4998 4996 4999 0
-4998 -4996 5000 0
4998 -5000 0
4996 -5000 0
-4812 -4997 5001 0
4812 -5001 0
4997 -5001 0
5000 5001 -5002 0
-5000 5002 0
-5001 5002 0
-1 -5003 5004 0
1 -5004 0
5003 -5004 0
-4819 -5004 -5005 0
4819 5004 -5005 0
4819 -5004 5005 0
-4819 5004 5005 0
-4819 -5004 5006 0
4819 -5006 0
5004 -5006 0
-4 -5003 5007 0
4 -5007 0
5003 -5007 0
-4825 -5007 -5008 0
4825 5007 -5008 0
4825 -5007 5008 0
-4825 5007 5008 0
-5008 -5006 -5009 0
5008 5006 -5009 0
5008 -5006 5009 0
-5008 5006 5009 0
-5008 -5006 5010 0
5008 -5010 0
5006 -5010 0
-4825 -5007 5011 0
4825 -5011 0
5007 -5011 0
5010 5011 -5012 0
-5010 5012 0
-5011 5012 0
-10 -5003 5013 0
10 -5013 0
5003 -5013 0
-4831 -5013 -5014 0
4831 5013 -5014 0
4831 -5013 5014 0
-4831 5013 5014 0
-5014 -5012 -5015 0
5014 5012 -5015 0
5014 -5012 5015 0
-5014 5012 5015 0
-5014 -5012 5016 0
5014 -5016 0
5012 -5016 0
-4831 -5013 5017 0
4831 -5017 0
5013 -5017 0
5016 5017 -5018 0
-5016 5018 0
-5017 5018 0
-18 -5003 5019 0
18 -5019 0
5003 -5019 0
-4837 -5019 -5020 0
4837 5019 -5020 0
4837 -5019 5020 0
-4837 5019 5020 0
-5020 -5018 -5021 0
5020 5018 -5021 0
5020 -5018 5021 0
-5020 5018 5021 0
-5020 -5018 5022 0
5020 -5022 0
5018 -5022 0
-4837 -5019 5023 0
4837 -5023 0
5019 -5023 0
5022 5023 -5024 0
-5022 5024 0
-5023 5024 0
-26 -5003 5025 0
26 -5025 0
5003 -5025 0
-4843 -5025 -5026 0
4843 5025 -5026 0
4843 -5025 5026 0
-4843 5025 5026 0
-5026 -5024 -5027 0
5026 5024 -5027 0
5026 -5024 5027 0
-5026 5024 5027 0
-5026 -5024 5028 0
5026 -5028 0
5024 -5028 0
-4843 -5025 5029 0
4843 -5029 0
5025 -5029 0
5028 5029 -5030 0
-5028 5030 0
-5029 5030 0
-34 -5003 5031 0
34 -5031 0
5003 -5031 0
-4849 -5031 -5032 0
4849 5031 -5032 0
4849 -5031 5032 0
-4849 5031 5032 0
-5032 -5030 -5033 0
5032 5030 -5033 0
5032 -5030 5033 0
-5032 5030 5033 0
-5032 -5030 5034 0
5032 -5034 0
5030 -5034 0
-4849 -5031 5035 0
4849 -5035 0
5031 -5035 0
5034 5035 -5036 0
-5034 5036 0
-5035 5036 0
-42 -5003 5037 0
42 -5037 0
5003 -5037 0
-4855 -5037 -5038 0
4855 5037 -5038 0
4855 -5037 5038 0
-4855 5037 5038 0
-5038 -5036 -5039 0
5038 5036 -5039 0
5038 -5036 5039 0
-5038 5036 5039 0
-5038 -5036 5040 0
5038 -5040 0
5036 -5040 0
-4855 -5037 5041 0
4855 -5041 0
5037 -5041 0
5040 5041 -5042 0
-5040 5042 0
-5041 5042 0
-50 -5003 5043 0
50 -5043 0
5003 -5043 0
-4861 -5043 -5044 0
4861 5043 -5044 0
4861 -5043 5044 0
-4861 5043 5044 0
-5044 -5042 -5045 0
5044 5042 -5045 0
5044 -5042 5045 0
-5044 5042 5045 0
-5044 -5042 5046 0
5044 -5046 0
5042 -5046 0
-4861 -5043 5047 0
4861 -5047 0
5043 -5047 0
5046 5047 -5048 0
-5046 5048 0
-5047 5048 0
-58 -5003 5049 0
58 -5049 0
5003 -5049 0
-4867 -5049 -5050 0
4867 5049 -5050 0
4867 -5049 5050 0
-4867 5049 5050 0
-5050 -5048 -5051 0
5050 5048 -5051 0
5050 -5048 5051 0
-5050 5048 5051 0
-5050 -5048 5052 0
5050 -5052 0
5048 -5052 0
-4867 -5049 5053 0
4867 -5053 0
5049 -5053 0
5052 5053 -5054 0
-5052 5054 0
-5053 5054 0
-66 -5003 5055 0
66 -5055 0
5003 -5055 0
-4873 -5055 -5056 0
4873 5055 -5056 0
4873 -5055 5056 0
-4873 5055 5056 0
-5056 -5054 -5057 0
5056 5054 -5057 0
5056 -5054 5057 0
-5056 5054 5057 0
-5056 -5054 5058 0
5056 -5058 0
5054 -5058 0
-4873 -5055 5059 0
4873 -5059 0
5055 -5059 0
5058 5059 -5060 0
-5058 5060 0
-5059 5060 0
-74 -5003 5061 0
74 -5061 0
5003 -5061 0
-4879 -5061 -5062 0
4879 5061 -5062 0
4879 -5061 5062 0
-4879 5061 5062 0
-5062 -5060 -5063 0
5062 5060 -5063 0
5062 -5060 5063 0
-5062 5060 5063 0
-5062 -5060 5064 0
5062 -5064 0
5060 -5064 0
-4879 -5061 5065 0
4879 -5065 0
5061 -5065 0
5064 5065 -5066 0
-5064 5066 0
-5065 5066 0
-82 -5003 5067 0
82 -5067 0
5003 -5067 0
-4885 -5067 -5068 0
4885 5067 -5068 0
4885 -5067 5068 0
-4885 5067 5068 0
-5068 -5066 -5069 0
5068 5066 -5069 0
5068 -5066 5069 0
-5068 5066 5069 0
-5068 -5066 5070 0
5068 -5070 0
5066 -5070 0
-4885 -5067 5071 0
4885 -5071 0
5067 -5071 0
5070 5071 -5072 0
-5070 5072 0
-5071 5072 0
-90 -5003 5073 0
90 -5073 0
5003 -5073 0
-4891 -5073 -5074 0
4891 5073 -5074 0
4891 -5073 5074 0
-4891 5073 5074 0
-5074 -5072 -5075 0
5074 5072 -5075 0
5074 -5072 5075 0
-5074 5072 5075 0
-5074 -5072 5076 0
5074 -5076 0
5072 -5076 0
-4891 -5073 5077 0
4891 -5077 0
5073 -5077 0
5076 5077 -5078 0
-5076 5078 0
-5077 5078 0
-98 -5003 5079 0
98 -5079 0
5003 -5079 0
-4897 -5079 -5080 0
4897 5079 -5080 0
4897 -5079 5080 0
-4897 5079 5080 0
-5080 -5078 -5081 0
5080 5078 -5081 0
5080 -5078 5081 0
-5080 5078 5081 0
-5080 -5078 5082 0
5080 -5082 0
5078 -5082 0
-4897 -5079 5083 0
4897 -5083 0
5079 -5083 0
5082 5083 -5084 0
-5082 5084 0
-5083 5084 0
-106 -5003 5085 0
106 -5085 0
5003 -5085 0
-4903 -5085 -5086 0
4903 5085 -5086 0
4903 -5085 5086 0
-4903 5085 5086 0
-5086 -5084 -5087 0
5086 5084 -5087 0
5086 -5084 5087 0
-5086 5084 5087 0
-5086 -5084 5088 0
5086 -5088 0
5084 -5088 0
-4903 -5085 5089 0
4903 -5089 0
5085 -5089 0
5088 5089 -5090 0
-5088 5090 0
-5089 5090 0
-114 -5003 5091 0
114 -5091 0
5003 -5091 0
-4909 -5091 -5092 0
4909 5091 -5092 0
4909 -5091 5092 0
-4909 5091 5092 0
-5092 -5090 -5093 0
5092 5090 -5093 0
5092 -5090 5093 0
-5092 5090 5093 0
-5092 -5090 5094 0
5092 -5094 0
5090 -5094 0
-4909 -5091 5095 0
4909 -5095 0
5091 -5095 0
5094 5095 -5096 0
-5094 5096 0
-5095 5096 0
-122 -5003 5097 0
122 -5097 0
5003 -5097 0
-4915 -5097 -5098 0
4915 5097 -5098 0
4915 -5097 5098 0
-4915 5097 5098 0
-5098 -5096 -5099 0
5098 5096 -5099 0
5098 -5096 5099 0
-5098 5096 5099 0
-5098 -5096 5100 0
5098 -5100 0
5096 -5100 0
-4915 -5097 5101 0
4915 -5101 0
5097 -5101 0
5100 5101 -5102 0
-5100 5102 0
-5101 5102 0
-130 -5003 5103 0
130 -5103 0
5003 -5103 0
-4921 -5103 -5104 0
4921 5103 -5104 0
4921 -5103 5104 0
-4921 5103 5104 0
-5104 -5102 -5105 0
5104 5102 -5105 0
5104 -5102 5105 0
-5104 5102 5105 0
-5104 -5102 5106 0
5104 -5106 0
5102 -5106 0
-4921 -5103 5107 0
4921 -5107 0
5103 -5107 0
5106 5107 -5108 0
-5106 5108 0
-5107 5108 0
-138 -5003 5109 0
138 -5109 0
5003 -5109 0
-4927 -5109 -5110 0
4927 5109 -5110 0
4927 -5109 5110 0
-4927 5109 5110 0
-5110 -5108 -5111 0
5110 5108 -5111 0
5110 -5108 5111 0
-5110 5108 5111 0
-5110 -5108 5112 0
5110 -5112 0
5108 -5112 0
-4927 -5109 5113 0
4927 -5113 0
5109 -5113 0
5112 5113 -5114 0
-5112 5114 0
-5113 5114 0
-146 -5003 5115 0
146 -5115 0
5003 -5115 0
-4933 -5115 -5116 0
4933 5115 -5116 0
4933 -5115 5116 0
-4933 5115 5116 0
-5116 -5114 -5117 0
5116 5114 -5117 0
5116 -5114 5117 0
-5116 5114 5117 0
-5116 -5114 5118 0
5116 -5118 0
5114 -5118 0
-4933 -5115 5119 0
4933 -5119 0
5115 -5119 0
5118 5119 -5120 0
-5118 5120 0
-5119 5120 0
-154 -5003 5121 0
154 -5121 0
5003 -5121 0
-4939 -5121 -5122 0
4939 5121 -5122 0
4939 -5121 5122 0
-4939 5121 5122 0
-5122 -5120 -5123 0
5122 5120 -5123 0
5122 -5120 5123 0
-5122 5120 5123 0
-5122 -5120 5124 0
5122 -5124 0
5120 -5124 0
-4939 -5121 5125 0
4939 -5125 0
5121 -5125 0
5124 5125 -5126 0
-5124 5126 0
-5125 5126 0
-162 -5003 5127 0
162 -5127 0
5003 -5127 0
-4945 -5127 -5128 0
4945 5127 -5128 0
4945 -5127 5128 0
-4945 5127 5128 0
-5128 -5126 -5129 0
5128 5126 -5129 0
5128 -5126 5129 0
-5128 5126 5129 0
-5128 -5126 5130 0
5128 -5130 0
5126 -5130 0
-4945 -5127 5131 0
4945 -5131 0
5127 -5131 0
5130 5131 -5132 0
-5130 5132 0
-5131 5132 0
-170 -5003 5133 0
170 -5133 0
5003 -5133 0
-4951 -5133 -5134 0
4951 5133 -5134 0
4951 -5133 5134 0
-4951 5133 5134 0
-5134 -5132 -5135 0
5134 5132 -5135 0
5134 -5132 5135 0
-5134 5132 5135 0
-5134 -5132 5136 0
5134 -5136 0
5132 -5136 0
-4951 -5133 5137 0
4951 -5137 0
5133 -5137 0
5136 5137 -5138 0
-5136 5138 0
-5137 5138 0
-178 -5003 5139 0
178 -5139 0
5003 -5139 0
-4957 -5139 -5140 0
4957 5139 -5140 0
4957 -5139 5140 0
-4957 5139 5140 0
-5140 -5138 -5141 0
5140 5138 -5141 0
5140 -5138 5141 0
-5140 5138 5141 0
-5140 -5138 5142 0
5140 -5142 0
5138 -5142 0
-4957 -5139 5143 0
4957 -5143 0
5139 -5143 0
5142 5143 -5144 0
-5142 5144 0
-5143 5144 0
-186 -5003 5145 0
186 -5145 0
5003 -5145 0
-4963 -5145 -5146 0
4963 5145 -5146 0
4963 -5145 5146 0
-4963 5145 5146 0
-5146 -5144 -5147 0
5146 5144 -5147 0
5146 -5144 5147 0
-5146 5144 5147 0
-5146 -5144 5148 0
5146 -5148 0
5144 -5148 0
-4963 -5145 5149 0
4963 -5149 0
5145 -5149 0
5148 5149 -5150 0
-5148 5150 0
-5149 5150 0
-194 -5003 5151 0
194 -5151 0
5003 -5151 0
-4969 -5151 -5152 0
4969 5151 -5152 0
4969 -5151 5152 0
-4969 5151 5152 0
-5152 -5150 -5153 0
5152 5150 -5153 0
5152 -5150 5153 0
-5152 5150 5153 0
-5152 -5150 5154 0
5152 -5154 0
5150 -5154 0
-4969 -5151 5155 0
4969 -5155 0
5151 -5155 0
5154 5155 -5156 0
-5154 5156 0
-5155 5156 0
-202 -5003 5157 0
202 -5157 0
5003 -5157 0
-4975 -5157 -5158 0
4975 5157 -5158 0
4975 -5157 5158 0
-4975 5157 5158 0
-5158 -5156 -5159 0
5158 5156 -5159 0
5158 -5156 5159 0
-5158 5156 5159 0
-5158 -5156 5160 0
5158 -5160 0
5156 -5160 0
-4975 -5157 5161 0
4975 -5161 0
5157 -5161 0
5160 5161 -5162 0
-5160 5162 0
-5161 5162 0
-210 -5003 5163 0
210 -5163 0
5003 -5163 0
-4981 -5163 -5164 0
4981 5163 -5164 0
4981 -5163 5164 0
-4981 5163 5164 0
-5164 -5162 -5165 0
5164 5162 -5165 0
5164 -5162 5165 0
-5164 5162 5165 0
-5164 -5162 5166 0
5164 -5166 0
5162 -5166 0
-4981 -5163 5167 0
4981 -5167 0
5163 -5167 0
5166 5167 -5168 0
-5166 5168 0
-5167 5168 0
-218 -5003 5169 0
218 -5169 0
5003 -5169 0
-4987 -5169 -5170 0
4987 5169 -5170 0
4987 -5169 5170 0
-4987 5169 5170 0
-5170 -5168 -5171 0
5170 5168 -5171 0
5170 -5168 5171 0
-5170 5168 5171 0
-5170 -5168 5172 0
5170 -5172 0
5168 -5172 0
-4987 -5169 5173 0
4987 -5173 0
5169 -5173 0
5172 5173 -5174 0
-5172 5174 0
-5173 5174 0
-226 -5003 5175 0
226 -5175 0
5003 -5175 0
-4993 -5175 -5176 0
4993 5175 -5176 0
4993 -5175 5176 0
-4993 5175 5176 0
-5176 -5174 -5177 0
5176 5174 -5177 0
5176 -5174 5177 0
-5176 5174 5177 0
-5176 -5174 5178 0
5176 -5178 0
5174 -5178 0
-4993 -5175 5179 0
4993 -5179 0
5175 -5179 0
5178 5179 -5180 0
-5178 5180 0
-5179 5180 0
-234 -5003 5181 0
234 -5181 0
5003 -5181 0
-4999 -5181 -5182 0
4999 5181 -5182 0
4999 -5181 5182 0
-4999 5181 5182 0
-5182 -5180 -5183 0
5182 5180 -5183 0
5182 -5180 5183 0
-5182 5180 5183 0
-5182 -5180 5184 0
5182 -5184 0
5180 -5184 0
-4999 -5181 5185 0
4999 -5185 0
5181 -5185 0
5184 5185 -5186 0
-5184 5186 0
-5185 5186 0
-242 -5003 5187 0
242 -5187 0
5003 -5187 0
-5002 -5187 -5188 0
5002 5187 -5188 0
5002 -5187 5188 0
-5002 5187 5188 0
-5188 -5186 -5189 0
5188 5186 -5189 0
5188 -5186 5189 0
-5188 5186 5189 0
-5188 -5186 5190 0
5188 -5190 0
5186 -5190 0
-5002 -5187 5191 0
5002 -5191 0
5187 -5191 0
5190 5191 -5192 0
-5190 5192 0
-5191 5192 0
-1 -5193 5194 0
1 -5194 0
5193 -5194 0
-5009 -5194 -5195 0
5009 5194 -5195 0
5009 -5194 5195 0
-5009 5194 5195 0
-5009 -5194 5196 0
5009 -5196 0
5194 -5196 0
-4 -5193 5197 0
4 -5197 0
5193 -5197 0
-5015 -5197 -5198 0
5015 5197 -5198 0
5015 -5197 5198 0
-5015 5197 5198 0
-5198 -5196 -5199 0
5198 5196 -5199 0
5198 -5196 5199 0
-5198 5196 5199 0
-5198 -5196 5200 0
5198 -5200 0
5196 -5200 0
-5015 -5197 5201 0
5015 -5201 0
5197 -5201 0
5200 5201 -5202 0
-5200 5202 0
-5201 5202 0
-10 -5193 5203 0
10 -5203 0
5193 -5203 0
-5021 -5203 -5204 0
5021 5203 -5204 0
5021 -5203 5204 0
-5021 5203 5204 0
-5204 -5202 -5205 0
5204 5202 -5205 0
5204 -5202 5205 0
-5204 5202 5205 0
-5204 -5202 5206 0
5204 -5206 0
5202 -5206 0
-5021 -5203 5207 0
5021 -5207 0
5203 -5207 0
5206 5207 -5208 0
-5206 5208 0
-5207 5208 0
-18 -5193 5209 0
18 -5209 0
5193 -5209 0
-5027 -5209 -5210 0
5027 5209 -5210 0
5027 -5209 5210 0
-5027 5209 5210 0
-5210 -5208 -5211 0
5210 5208 -5211 0
5210 -5208 5211 0
-5210 5208 5211 0
-5210 -5208 5212 0
5210 -5212 0
5208 -5212 0
-5027 -5209 5213 0
5027 -5213 0
5209 -5213 0
5212 5213 -5214 0
-5212 5214 0
-5213 5214 0
-26 -5193 5215 0
26 -5215 0
5193 -5215 0
-5033 -5215 -5216 0
5033 5215 -5216 0
5033 -5215 5216 0
-5033 5215 5216 0
-5216 -5214 -5217 0
5216 5214 -5217 0
5216 -5214 5217 0
-5216 5214 5217 0
-5216 -5214 5218 0
5216 -5218 0
5214 -5218 0
-5033 -5215 5219 0
5033 -5219 0
5215 -5219 0
5218 5219 -5220 0
-5218 5220 0
-5219 5220 0
-34 -5193 5221 0
34 -5221 0
5193 -5221 0
-5039 -5221 -5222 0
5039 5221 -5222 0
5039 -5221 5222 0
-5039 5221 5222 0
-5222 -5220 -5223 0
5222 5220 -5223 0
5222 -5220 5223 0
-5222 5220 5223 0
-5222 -5220 5224 0
5222 -5224 0
5220 -5224 0
-5039 -5221 5225 0
5039 -5225 0
5221 -5225 0
5224 5225 -5226 0
-5224 5226 0
-5225 5226 0
-42 -5193 5227 0
42 -5227 0
5193 -5227 0
-5045 -5227 -5228 0
5045 5227 -5228 0
5045 -5227 5228 0
-5045 5227 5228 0
-5228 -5226 -5229 0
5228 5226 -5229 0
5228 -5226 5229 0
-5228 5226 5229 0
-5228 -5226 5230 0
5228 -5230 0
5226 -5230 0
-5045 -5227 5231 0
5045 -5231 0
5227 -5231 0
5230 5231 -5232 0
-5230 5232 0
-5231 5232 0
-50 -5193 5233 0
50 -5233 0
5193 -5233 0
-5051 -5233 -5234 0
5051 5233 -5234 0
5051 -5233 5234 0
-5051 5233 5234 0
-5234 -5232 -5235 0
5234 5232 -5235 0
5234 -5232 5235 0
-5234 5232 5235 0
-5234 -5232 5236 0
5234 -5236 0
5232 -5236 0
-5051 -5233 5237 0
5051 -5237 0
5233 -5237 0
5236 5237 -5238 0
-5236 5238 0
-5237 5238 0
-58 -5193 5239 0
58 -5239 0
5193 -5239 0
-5057 -5239 -5240 0
5057 5239 -5240 0
5057 -5239 5240 0
-5057 5239 5240 0
-5240 -5238 -5241 0
5240 5238 -5241 0
5240 -5238 5241 0
-5240 5238 5241 0
-5240 -5238 5242 0
5240 -5242 0
5238 -5242 0
-5057 -5239 5243 0
5057 -5243 0
5239 -5243 0
5242 5243 -5244 0
-5242 5244 0
-5243 5244 0
-66 -5193 5245 0
66 -5245 0
5193 -5245 0
-5063 -5245 -5246 0
5063 5245 -5246 0
5063 -5245 5246 0
-5063 5245 5246 0
-5246 -5244 -5247 0
5246 5244 -5247 0
5246 -5244 5247 0
-5246 5244 5247 0
-5246 -5244 5248 0
5246 -5248 0
5244 -5248 0
-5063 -5245 5249 0
5063 -5249 0
5245 -5249 0
5248 5249 -5250 0
-5248 5250 0
-5249 5250 0
-74 -5193 5251 0
74 -5251 0
5193 -5251 0
-5069 -5251 -5252 0
5069 5251 -5252 0
5069 -5251 5252 0
-5069 5251 5252 0
-5252 -5250 -5253 0
5252 5250 -5253 0
5252 -5250 5253 0
-5252 5250 5253 0
-5252 -5250 5254 0
5252 -5254 0
5250 -5254 0
-5069 -5251 5255 0
5069 -5255 0
5251 -5255 0
5254 5255 -5256 0
-5254 5256 0
-5255 5256 0
-82 -5193 5257 0
82 -5257 0
5193 -5257 0
-5075 -5257 -5258 0
5075 5257 -5258 0
5075 -5257 5258 0
-5075 5257 5258 0
-5258 -5256 -5259 0
5258 5256 -5259 0
5258 -5256 5259 0
-5258 5256 5259 0
-5258 -5256 5260 0
5258 -5260 0
5256 -5260 0
-5075 -5257 5261 0
5075 -5261 0
5257 -5261 0
5260 5261 -5262 0
-5260 5262 0
-5261 5262 0
-90 -5193 5263 0
90 -5263 0
5193 -5263 0
-5081 -5263 -5264 0
5081 5263 -5264 0
5081 -5263 5264 0
-5081 5263 5264 0
-5264 -5262 -5265 0
5264 5262 -5265 0
5264 -5262 5265 0
-5264 5262 5265 0
-5264 -5262 5266 0
5264 -5266 0
5262 -5266 0
-5081 -5263 5267 0
5081 -5267 0
5263 -5267 0
5266 5267 -5268 0
-5266 5268 0
-5267 5268 0
-98 -5193 5269 0
98 -5269 0
5193 -5269 0
-5087 -5269 -5270 0
5087 5269 -5270 0
5087 -5269 5270 0
-5087 5269 5270 0
-5270 -5268 -5271 0
5270 5268 -5271 0
5270 -5268 5271 0
-5270 5268 5271 0
-5270 -5268 5272 0
5270 -5272 0
5268 -5272 0
-5087 -5269 5273 0
5087 -5273 0
5269 -5273 0
5272 5273 -5274 0
-5272 5274 0
-5273 5274 0
-106 -5193 5275 0
106 -5275 0
5193 -5275 0
-5093 -5275 -5276 0
5093 5275 -5276 0
5093 -5275 5276 0
-5093 5275 5276 0
-5276 -5274 -5277 0
5276 5274 -5277 0
5276 -5274 5277 0
-5276 5274 5277 0
-5276 -5274 5278 0
5276 -5278 0
5274 -5278 0
-5093 -5275 5279 0
5093 -5279 0
5275 -5279 0
5278 5279 -5280 0
-5278 5280 0
-5279 5280 0
-114 -5193 5281 0
114 -5281 0
5193 -5281 0
-5099 -5281 -5282 0
5099 5281 -5282 0
5099 -5281 5282 0
-5099 5281 5282 0
-5282 -5280 -5283 0
5282 5280 -5283 0
5282 -5280 5283 0
-5282 5280 5283 0
-5282 -5280 5284 0
5282 -5284 0
5280 -5284 0
-5099 -5281 5285 0
5099 -5285 0
5281 -5285 0
5284 5285 -5286 0
-5284 5286 0
-5285 5286 0
-122 -5193 5287 0
122 -5287 0
5193 -5287 0
-5105 -5287 -5288 0
5105 5287 -5288 0
5105 -5287 5288 0
-5105 5287 5288 0
-5288 -5286 -5289 0
5288 5286 -5289 0
5288 -5286 5289 0
-5288 5286 5289 0
-5288 -5286 5290 0
5288 -5290 0
5286 -5290 0
-5105 -5287 5291 0
5105 -5291 0
5287 -5291 0
5290 5291 -5292 0
-5290 5292 0
-5291 5292 0
-130 -5193 5293 0
130 -5293 0
5193 -5293 0
-5111 -5293 -5294 0
5111 5293 -5294 0
5111 -5293 5294 0
-5111 5293 5294 0
-5294 -5292 -5295 0
5294 5292 -5295 0
5294 -5292 5295 0
-5294 5292 5295 0
-5294 -5292 5296 0
5294 -5296 0
5292 -5296 0
-5111 -5293 5297 0
5111 -5297 0
5293 -5297 0
5296 5297 -5298 0
-5296 5298 0
-5297 5298 0
-138 -5193 5299 0
138 -5299 0
5193 -5299 0
-5117 -5299 -5300 0
5117 5299 -5300 0
5117 -5299 5300 0
-5117 5299 5300 0
-5300 -5298 -5301 0
5300 5298 -5301 0
5300 -5298 5301 0
-5300 5298 5301 0
-5300 -5298 5302 0
5300 -5302 0
5298 -5302 0
-5117 -5299 5303 0
5117 -5303 0
5299 -5303 0
5302 5303 -5304 0
-5302 5304 0
-5303 5304 0
-146 -5193 5305 0
146 -5305 0
5193 -5305 0
-5123 -5305 -5306 0
5123 5305 -5306 0
5123 -5305 5306 0
-5123 5305 5306 0
-5306 -5304 -5307 0
5306 5304 -5307 0
5306 -5304 5307 0
-5306 5304 5307 0
-5306 -5304 5308 0
5306 -5308 0
5304 -5308 0
-5123 -5305 5309 0
5123 -5309 0
5305 -5309 0
5308 5309 -5310 0
-5308 5310 0
-5309 5310 0
-154 -5193 5311 0
154 -5311 0
5193 -5311 0
-5129 -5311 -5312 0
5129 5311 -5312 0
5129 -5311 5312 0
-5129 5311 5312 0
-5312 -5310 -5313 0
5312 5310 -5313 0
5312 -5310 5313 0
-5312 5310 5313 0
-5312 -5310 5314 0
5312 -5314 0
5310 -5314 0
-5129 -5311 5315 0
5129 -5315 0
5311 -5315 0
5314 5315 -5316 0
-5314 5316 0
-5315 5316 0
-162 -5193 5317 0
162 -5317 0
5193 -5317 0
-5135 -5317 -5318 0
5135 5317 -5318 0
5135 -5317 5318 0
-5135 5317 5318 0
-5318 -5316 -5319 0
5318 5316 -5319 0
5318 -5316 5319 0
-5318 5316 5319 0
-5318 -5316 5320 0
5318 -5320 0
5316 -5320 0
-5135 -5317 5321 0
5135 -5321 0
5317 -5321 0
5320 5321 -5322 0
-5320 5322 0
-5321 5322 0
-170 -5193 5323 0
170 -5323 0
5193 -5323 0
-5141 -5323 -5324 0
5141 5323 -5324 0
5141 -5323 5324 0
-5141 5323 5324 0
-5324 -5322 -5325 0
5324 5322 -5325 0
5324 -5322 5325 0
-5324 5322 5325 0
-5324 -5322 5326 0
5324 -5326 0
5322 -5326 0
-5141 -5323 5327 0
5141 -5327 0
5323 -5327 0
5326 5327 -5328 0
-5326 5328 0
-5327 5328 0
-178 -5193 5329 0
178 -5329 0
5193 -5329 0
-5147 -5329 -5330 0
5147 5329 -5330 0
5147 -5329 5330 0
-5147 5329 5330 0
-5330 -5328 -5331 0
5330 5328 -5331 0
5330 -5328 5331 0
-5330 5328 5331 0
-5330 -5328 5332 0
5330 -5332 0
5328 -5332 0
-5147 -5329 5333 0
5147 -5333 0
5329 -5333 0
5332 5333 -5334 0
-5332 5334 0
-5333 5334 0
-186 -5193 5335 0
186 -5335 0
5193 -5335 0
-5153 -5335 -5336 0
5153 5335 -5336 0
5153 -5335 5336 0
-5153 5335 5336 0
-5336 -5334 -5337 0
5336 5334 -5337 0
5336 -5334 5337 0
-5336 5334 5337 0
-5336 -5334 5338 0
5336 -5338 0
5334 -5338 0
-5153 -5335 5339 0
5153 -5339 0
5335 -5339 0
5338 5339 -5340 0
-5338 5340 0
-5339 5340 0
-194 -5193 5341 0
194 -5341 0
5193 -5341 0
-5159 -5341 -5342 0
5159 5341 -5342 0
5159 -5341 5342 0
-5159 5341 5342 0
-5342 -5340 -5343 0
5342 5340 -5343 0
5342 -5340 5343 0
-5342 5340 5343 0
-5342 -5340 5344 0
5342 -5344 0
5340 -5344 0
-5159 -5341 5345 0
5159 -5345 0
5341 -5345 0
5344 5345 -5346 0
-5344 5346 0
-5345 5346 0
-202 -5193 5347 0
202 -5347 0
5193 -5347 0
-5165 -5347 -5348 0
5165 5347 -5348 0
5165 -5347 5348 0
-5165 5347 5348 0
-5348 -5346 -5349 0
5348 5346 -5349 0
5348 -5346 5349 0
-5348 5346 5349 0
-5348 -5346 5350 0
5348 -5350 0
5346 -5350 0
-5165 -5347 5351 0
5165 -5351 0
5347 -5351 0
5350 5351 -5352 0
-5350 5352 0
-5351 5352 0
-210 -5193 5353 0
210 -5353 0
5193 -5353 0
-5171 -5353 -5354 0
5171 5353 -5354 0
5171 -5353 5354 0
-5171 5353 5354 0
-5354 -5352 -5355 0
5354 5352 -5355 0
5354 -5352 5355 0
-5354 5352 5355 0
-5354 -5352 5356 0
5354 -5356 0
5352 -5356 0
-5171 -5353 5357 0
5171 -5357 0
5353 -5357 0
5356 5357 -5358 0
-5356 5358 0
-5357 5358 0
-218 -5193 5359 0
218 -5359 0
5193 -5359 0
-5177 -5359 -5360 0
5177 5359 -5360 0
5177 -5359 5360 0
-5177 5359 5360 0
-5360 -5358 -5361 0
5360 5358 -5361 0
5360 -5358 5361 0
-5360 5358 5361 0
-5360 -5358 5362 0
5360 -5362 0
5358 -5362 0
-5177 -5359 5363 0
5177 -5363 0
5359 -5363 0
5362 5363 -5364 0
-5362 5364 0
-5363 5364 0
-226 -5193 5365 0
226 -5365 0
5193 -5365 0
-5183 -5365 -5366 0
5183 5365 -5366 0
5183 -5365 5366 0
-5183 5365 5366 0
-5366 -5364 -5367 0
5366 5364 -5367 0
5366 -5364 5367 0
-5366 5364 5367 0
-5366 -5364 5368 0
5366 -5368 0
5364 -5368 0
-5183 -5365 5369 0
5183 -5369 0
5365 -5369 0
5368 5369 -5370 0
-5368 5370 0
-5369 5370 0
-234 -5193 5371 0
234 -5371 0
5193 -5371 0
-5189 -5371 -5372 0
5189 5371 -5372 0
5189 -5371 5372 0
-5189 5371 5372 0
-5372 -5370 -5373 0
5372 5370 -5373 0
5372 -5370 5373 0
-5372 5370 5373 0
-5372 -5370 5374 0
5372 -5374 0
5370 -5374 0
-5189 -5371 5375 0
5189 -5375 0
5371 -5375 0
5374 5375 -5376 0
-5374 5376 0
-5375 5376 0
-242 -5193 5377 0
242 -5377 0
5193 -5377 0
-5192 -5377 -5378 0
5192 5377 -5378 0
5192 -5377 5378 0
-5192 5377 5378 0
-5378 -5376 -5379 0
5378 5376 -5379 0
5378 -5376 5379 0
-5378 5376 5379 0
-5378 -5376 5380 0
5378 -5380 0
5376 -5380 0
-5192 -5377 5381 0
5192 -5381 0
5377 -5381 0
5380 5381 -5382 0
-5380 5382 0
-5381 5382 0
-1 -5383 5384 0
1 -5384 0
5383 -5384 0
-5199 -5384 -5385 0
5199 5384 -5385 0
5199 -5384 5385 0
-5199 5384 5385 0
-5199 -5384 5386 0
5199 -5386 0
5384 -5386 0
-4 -5383 5387 0
4 -5387 0
5383 -5387 0
-5205 -5387 -5388 0
5205 5387 -5388 0
5205 -5387 5388 0
-5205 5387 5388 0
-5388 -5386 -5389 0
5388 5386 -5389 0
5388 -5386 5389 0
-5388 5386 5389 0
-5388 -5386 5390 0
5388 -5390 0
5386 -5390 0
-5205 -5387 5391 0
5205 -5391 0
5387 -5391 0
5390 5391 -5392 0
-5390 5392 0
-5391 5392 0
-10 -5383 5393 0
10 -5393 0
5383 -5393 0
-5211 -5393 -5394 0
5211 5393 -5394 0
5211 -5393 5394 0
-5211 5393 5394 0
-5394 -5392 -5395 0
5394 5392 -5395 0
5394 -5392 5395 0
-5394 5392 5395 0
-5394 -5392 5396 0
5394 -5396 0
5392 -5396 0
-5211 -5393 5397 0
5211 -5397 0
5393 -5397 0
5396 5397 -5398 0
-5396 5398 0
-5397 5398 0
-18 -5383 5399 0
18 -5399 0
5383 -5399 0
-5217 -5399 -5400 0
5217 5399 -5400 0
5217 -5399 5400 0
-5217 5399 5400 0
-5400 -5398 -5401 0
5400 5398 -5401 0
5400 -5398 5401 0
-5400 5398 5401 0
-5400 -5398 5402 0
5400 -5402 0
5398 -5402 0
-5217 -5399 5403 0
5217 -5403 0
5399 -5403 0
5402 5403 -5404 0
-5402 5404 0
-5403 5404 0
-26 -5383 5405 0
26 -5405 0
5383 -5405 0
-5223 -5405 -5406 0
5223 5405 -5406 0
5223 -5405 5406 0
-5223 5405 5406 0
-5406 -5404 -5407 0
5406 5404 -5407 0
5406 -5404 5407 0
-5406 5404 5407 0
-5406 -5404 5408 0
5406 -5408 0
5404 -5408 0
-5223 -5405 5409 0
5223 -5409 0
5405 -5409 0
5408 5409 -5410 0
-5408 5410 0
-5409 5410 0
-34 -5383 5411 0
34 -5411 0
5383 -5411 0
-5229 -5411 -5412 0
5229 5411 -5412 0
5229 -5411 5412 0
-5229 5411 5412 0
-5412 -5410 -5413 0
5412 5410 -5413 0
5412 -5410 5413 0
-5412 5410 5413 0
-5412 -5410 5414 0
5412 -5414 0
5410 -5414 0
-5229 -5411 5415 0
5229 -5415 0
5411 -5415 0
5414 5415 -5416 0
-5414 5416 0
-5415 5416 0
-42 -5383 5417 0
42 -5417 0
5383 -5417 0
-5235 -5417 -5418 0
5235 5417 -5418 0
5235 -5417 5418 0
-5235 5417 5418 0
-5418 -5416 -5419 0
5418 5416 -5419 0
5418 -5416 5419 0
-5418 5416 5419 0
-5418 -5416 5420 0
5418 -5420 0
5416 -5420 0
-5235 -5417 5421 0
5235 -5421 0
5417 -5421 0
5420 5421 -5422 0
-5420 5422 0
-5421 5422 0
-50 -5383 5423 0
50 -5423 0
5383 -5423 0
-5241 -5423 -5424 0
5241 5423 -5424 0
5241 -5423 5424 0
-5241 5423 5424 0
-5424 -5422 -5425 0
5424 5422 -5425 0
5424 -5422 5425 0
-5424 5422 5425 0
-5424 -5422 5426 0
5424 -5426 0
5422 -5426 0
-5241 -5423 5427 0
5241 -5427 0
5423 -5427 0
5426 5427 -5428 0
-5426 5428 0
-5427 5428 0
-58 -5383 5429 0
58 -5429 0
5383 -5429 0
-5247 -5429 -5430 0
5247 5429 -5430 0
5247 -5429 5430 0
-5247 5429 5430 0
-5430 -5428 -5431 0
5430 5428 -5431 0
5430 -5428 5431 0
-5430 5428 5431 0
-5430 -5428 5432 0
5430 -5432 0
5428 -5432 0
-5247 -5429 5433 0
5247 -5433 0
5429 -5433 0
5432 5433 -5434 0
-5432 5434 0
-5433 5434 0
-66 -5383 5435 0
66 -5435 0
5383 -5435 0
-5253 -5435 -5436 0
5253 5435 -5436 0
5253 -5435 5436 0
-5253 5435 5436 0
-5436 -5434 -5437 0
5436 5434 -5437 0
5436 -5434 5437 0
-5436 5434 5437 0
-5436 -5434 5438 0
5436 -5438 0
5434 -5438 0
-5253 -5435 5439 0
5253 -5439 0
5435 -5439 0
5438 5439 -5440 0
-5438 5440 0
-5439 5440 0
-74 -5383 5441 0
74 -5441 0
5383 -5441 0
-5259 -5441 -5442 0
5259 5441 -5442 0
5259 -5441 5442 0
-5259 5441 5442 0
-5442 -5440 -5443 0
5442 5440 -5443 0
5442 -5440 5443 0
-5442 5440 5443 0
-5442 -5440 5444 0
5442 -5444 0
5440 -5444 0
-5259 -5441 5445 0
5259 -5445 0
5441 -5445 0
5444 5445 -5446 0
-5444 5446 0
-5445 5446 0
-82 -5383 5447 0
82 -5447 0
5383 -5447 0
-5265 -5447 -5448 0
5265 5447 -5448 0
5265 -5447 5448 0
-5265 5447 5448 0
-5448 -5446 -5449 0
5448 5446 -5449 0
5448 -5446 5449 0
-5448 5446 5449 0
-5448 -5446 5450 0
5448 -5450 0
5446 -5450 0
-5265 -5447 5451 0
5265 -5451 0
5447 -5451 0
5450 5451 -5452 0
-5450 5452 0
-5451 5452 0
-90 -5383 5453 0
90 -5453 0
5383 -5453 0
-5271 -5453 -5454 0
5271 5453 -5454 0
5271 -5453 5454 0
-5271 5453 5454 0
-5454 -5452 -5455 0
5454 5452 -5455 0
5454 -5452 5455 0
-5454 5452 5455 0
-5454 -5452 5456 0
5454 -5456 0
5452 -5456 0
-5271 -5453 5457 0
5271 -5457 0
5453 -5457 0
5456 5457 -5458 0
-5456 5458 0
-5457 5458 0
-98 -5383 5459 0
98 -5459 0
5383 -5459 0
-5277 -5459 -5460 0
5277 5459 -5460 0
5277 -5459 5460 0
-5277 5459 5460 0
-5460 -5458 -5461 0
5460 5458 -5461 0
5460 -5458 5461 0
-5460 5458 5461 0
-5460 -5458 5462 0
5460 -5462 0
5458 -5462 0
-5277 -5459 5463 0
5277 -5463 0
5459 -5463 0
5462 5463 -5464 0
-5462 5464 0
-5463 5464 0
-106 -5383 5465 0
106 -5465 0
5383 -5465 0
-5283 -5465 -5466 0
5283 5465 -5466 0
5283 -5465 5466 0
-5283 5465 5466 0
-5466 -5464 -5467 0
5466 5464 -5467 0
5466 -5464 5467 0
-5466 5464 5467 0
-5466 -5464 5468 0
5466 -5468 0
5464 -5468 0
-5283 -5465 5469 0
5283 -5469 0
5465 -5469 0
5468 5469 -5470 0
-5468 5470 0
-5469 5470 0
-114 -5383 5471 0
114 -5471 0
5383 -5471 0
-5289 -5471 -5472 0
5289 5471 -5472 0
5289 -5471 5472 0
-5289 5471 5472 0
-5472 -5470 -5473 0
5472 5470 -5473 0
5472 -5470 5473 0
-5472 5470 5473 0
-5472 -5470 5474 0
5472 -5474 0
5470 -5474 0
-5289 -5471 5475 0
5289 -5475 0
5471 -5475 0
5474 5475 -5476 0
-5474 5476 0
-5475 5476 0
-122 -5383 5477 0
122 -5477 0
5383 -5477 0
-5295 -5477 -5478 0
5295 5477 -5478 0
5295 -5477 5478 0
-5295 5477 5478 0
-5478 -5476 -5479 0
5478 5476 -5479 0
5478 -5476 5479 0
-5478 5476 5479 0
-5478 -5476 5480 0
5478 -5480 0
5476 -5480 0
-5295 -5477 5481 0
5295 -5481 0
5477 -5481 0
5480 5481 -5482 0
-5480 5482 0
-5481 5482 0
-130 -5383 5483 0
130 -5483 0
5383 -5483 0
-5301 -5483 -5484 0
5301 5483 -5484 0
5301 -5483 5484 0
-5301 5483 5484 0
-5484 -5482 -5485 0
5484 5482 -5485 0
5484 -5482 5485 0
-5484 5482 5485 0
-5484 -5482 5486 0
5484 -5486 0
5482 -5486 0
-5301 -5483 5487 0
5301 -5487 0
5483 -5487 0
5486 5487 -5488 0
-5486 5488 0
-5487 5488 0
-138 -5383 5489 0
138 -5489 0
5383 -5489 0
-5307 -5489 -5490 0
5307 5489 -5490 0
5307 -5489 5490 0
-5307 5489 5490 0
-5490 -5488 -5491 0
5490 5488 -5491 0
5490 -5488 5491 0
-5490 5488 5491 0
-5490 -5488 5492 0
5490 -5492 0
5488 -5492 0
-5307 -5489 5493 0
5307 -5493 0
5489 -5493 0
5492 5493 -5494 0
-5492 5494 0
-5493 5494 0
-146 -5383 5495 0
146 -5495 0
5383 -5495 0
-5313 -5495 -5496 0
5313 5495 -5496 0
5313 -5495 5496 0
-5313 5495 5496 0
-5496 -5494 -5497 0
5496 5494 -5497 0
5496 -5494 5497 0
-5496 5494 5497 0
-5496 -5494 5498 0
5496 -5498 0
5494 -5498 0
-5313 -5495 5499 0
5313 -5499 0
5495 -5499 0
5498 5499 -5500 0
-5498 5500 0
-5499 5500 0
-154 -5383 5501 0
154 -5501 0
5383 -5501 0
-5319 -5501 -5502 0
5319 5501 -5502 0
5319 -5501 5502 0
-5319 5501 5502 0
-5502 -5500 -5503 0
5502 5500 -5503 0
5502 -5500 5503 0
-5502 5500 5503 0
-5502 -5500 5504 0
5502 -5504 0
5500 -5504 0
-5319 -5501 5505 0
5319 -5505 0
5501 -5505 0
5504 5505 -5506 0
-5504 5506 0
-5505 5506 0
-162 -5383 5507 0
162 -5507 0
5383 -5507 0
-5325 -5507 -5508 0
5325 5507 -5508 0
5325 -5507 5508 0
-5325 5507 5508 0
-5508 -5506 -5509 0
5508 5506 -5509 0
5508 -5506 5509 0
-5508 5506 5509 0
-5508 -5506 5510 0
5508 -5510 0
5506 -5510 0
-5325 -5507 5511 0
5325 -5511 0
5507 -5511 0
5510 5511 -5512 0
-5510 5512 0
-5511 5512 0
-170 -5383 5513 0
170 -5513 0
5383 -5513 0
-5331 -5513 -5514 0
5331 5513 -5514 0
5331 -5513 5514 0
-5331 5513 5514 0
-5514 -5512 -5515 0
5514 5512 -5515 0
5514 -5512 5515 0
-5514 5512 5515 0
-5514 -5512 5516 0
5514 -5516 0
5512 -5516 0
-5331 -5513 5517 0
5331 -5517 0
5513 -5517 0
5516 5517 -5518 0
-5516 5518 0
-5517 5518 0
-178 -5383 5519 0
178 -5519 0
5383 -5519 0
-5337 -5519 -5520 0
5337 5519 -5520 0
5337 -5519 5520 0
-5337 5519 5520 0
-5520 -5518 -5521 0
5520 5518 -5521 0
5520 -5518 5521 0
-5520 5518 5521 0
-5520 -5518 5522 0
5520 -5522 0
5518 -5522 0
-5337 -5519 5523 0
5337 -5523 0
5519 -5523 0
5522 5523 -5524 0
-5522 5524 0
-5523 5524 0
-186 -5383 5525 0
186 -5525 0
5383 -5525 0
-5343 -5525 -5526 0
5343 5525 -5526 0
5343 -5525 5526 0
-5343 5525 5526 0
-5526 -5524 -5527 0
5526 5524 -5527 0
5526 -5524 5527 0
-5526 5524 5527 0
-5526 -5524 5528 0
5526 -5528 0
5524 -5528 0
-5343 -5525 5529 0
5343 -5529 0
5525 -5529 0
5528 5529 -5530 0
-5528 5530 0
-5529 5530 0
-194 -5383 5531 0
194 -5531 0
5383 -5531 0
-5349 -5531 -5532 0
5349 5531 -5532 0
5349 -5531 5532 0
-5349 5531 5532 0
-5532 -5530 -5533 0
5532 5530 -5533 0
5532 -5530 5533 0
-5532 5530 5533 0
-5532 -5530 5534 0
5532 -5534 0
5530 -5534 0
-5349 -5531 5535 0
5349 -5535 0
5531 -5535 0
5534 5535 -5536 0
-5534 5536 0
-5535 5536 0
-202 -5383 5537 0
202 -5537 0
5383 -5537 0
-5355 -5537 -5538 0
5355 5537 -5538 0
5355 -5537 5538 0
-5355 5537 5538 0
-5538 -5536 -5539 0
5538 5536 -5539 0
5538 -5536 5539 0
-5538 5536 5539 0
-5538 -5536 5540 0
5538 -5540 0
5536 -5540 0
-5355 -5537 5541 0
5355 -5541 0
5537 -5541 0
5540 5541 -5542 0
-5540 5542 0
-5541 5542 0
-210 -5383 5543 0
210 -5543 0
5383 -5543 0
-5361 -5543 -5544 0
5361 5543 -5544 0
5361 -5543 5544 0
-5361 5543 5544 0
-5544 -5542 -5545 0
5544 5542 -5545 0
5544 -5542 5545 0
-5544 5542 5545 0
-5544 -5542 5546 0
5544 -5546 0
5542 -5546 0
-5361 -5543 5547 0
5361 -5547 0
5543 -5547 0
5546 5547 -5548 0
-5546 5548 0
-5547 5548 0
-218 -5383 5549 0
218 -5549 0
5383 -5549 0
-5367 -5549 -5550 0
5367 5549 -5550 0
5367 -5549 5550 0
-5367 5549 5550 0
-5550 -5548 -5551 0
5550 5548 -5551 0
5550 -5548 5551 0
-5550 5548 5551 0
-5550 -5548 5552 0
5550 -5552 0
5548 -5552 0
-5367 -5549 5553 0
5367 -5553 0
5549 -5553 0
5552 5553 -5554 0
-5552 5554 0
-5553 5554 0
-226 -5383 5555 0
226 -5555 0
5383 -5555 0
-5373 -5555 -5556 0
5373 5555 -5556 0
5373 -5555 5556 0
-5373 5555 5556 0
-5556 -5554 -5557 0
5556 5554 -5557 0
5556 -5554 5557 0
-5556 5554 5557 0
-5556 -5554 5558 0
5556 -5558 0
5554 -5558 0
-5373 -5555 5559 0
5373 -5559 0
5555 -5559 0
5558 5559 -5560 0
-5558 5560 0
-5559 5560 0
-234 -5383 5561 0
234 -5561 0
5383 -5561 0
-5379 -5561 -5562 0
5379 5561 -5562 0
5379 -5561 5562 0
-5379 5561 5562 0
-5562 -5560 -5563 0
5562 5560 -5563 0
5562 -5560 5563 0
-5562 5560 5563 0
-5562 -5560 5564 0
5562 -5564 0
5560 -5564 0
-5379 -5561 5565 0
5379 -5565 0
5561 -5565 0
5564 5565 -5566 0
-5564 5566 0
-5565 5566 0
-242 -5383 5567 0
242 -5567 0
5383 -5567 0
-5382 -5567 -5568 0
5382 5567 -5568 0
5382 -5567 5568 0
-5382 5567 5568 0
-5568 -5566 -5569 0
5568 5566 -5569 0
5568 -5566 5569 0
-5568 5566 5569 0
-5568 -5566 5570 0
5568 -5570 0
5566 -5570 0
-5382 -5567 5571 0
5382 -5571 0
5567 -5571 0
5570 5571 -5572 0
-5570 5572 0
-5571 5572 0
-1 -5573 5574 0
1 -5574 0
5573 -5574 0
-5389 -5574 -5575 0
5389 5574 -5575 0
5389 -5574 5575 0
-5389 5574 5575 0
-5389 -5574 5576 0
5389 -5576 0
5574 -5576 0
-4 -5573 5577 0
4 -5577 0
5573 -5577 0
-5395 -5577 -5578 0
5395 5577 -5578 0
5395 -5577 5578 0
-5395 5577 5578 0
-5578 -5576 -5579 0
5578 5576 -5579 0
5578 -5576 5579 0
-5578 5576 5579 0
-5578 -5576 5580 0
5578 -5580 0
5576 -5580 0
-5395 -5577 5581 0
5395 -5581 0
5577 -5581 0
5580 5581 -5582 0
-5580 5582 0
-5581 5582 0
-10 -5573 5583 0
10 -5583 0
5573 -5583 0
-5401 -5583 -5584 0
5401 5583 -5584 0
5401 -5583 5584 0
-5401 5583 5584 0
-5584 -5582 -5585 0
5584 5582 -5585 0
5584 -5582 5585 0
-5584 5582 5585 0
-5584 -5582 5586 0
5584 -5586 0
5582 -5586 0
-5401 -5583 5587 0
5401 -5587 0
5583 -5587 0
5586 5587 -5588 0
-5586 5588 0
-5587 5588 0
-18 -5573 5589 0
18 -5589 0
5573 -5589 0
-5407 -5589 -5590 0
5407 5589 -5590 0
5407 -5589 5590 0
-5407 5589 5590 0
-5590 -5588 -5591 0
5590 5588 -5591 0
5590 -5588 5591 0
-5590 5588 5591 0
-5590 -5588 5592 0
5590 -5592 0
5588 -5592 0
-5407 -5589 5593 0
5407 -5593 0
5589 -5593 0
5592 5593 -5594 0
-5592 5594 0
-5593 5594 0
-26 -5573 5595 0
26 -5595 0
5573 -5595 0
-5413 -5595 -5596 0
5413 5595 -5596 0
5413 -5595 5596 0
-5413 5595 5596 0
-5596 -5594 -5597 0
5596 5594 -5597 0
5596 -5594 5597 0
-5596 5594 5597 0
-5596 -5594 5598 0
5596 -5598 0
5594 -5598 0
-5413 -5595 5599 0
5413 -5599 0
5595 -5599 0
5598 5599 -5600 0
-5598 5600 0
-5599 5600 0
-34 -5573 5601 0
34 -5601 0
5573 -5601 0
-5419 -5601 -5602 0
5419 5601 -5602 0
5419 -5601 5602 0
-5419 5601 5602 0
-5602 -5600 -5603 0
5602 5600 -5603 0
5602 -5600 5603 0
-5602 5600 5603 0
-5602 -5600 5604 0
5602 -5604 0
5600 -5604 0
-5419 -5601 5605 0
5419 -5605 0
5601 -5605 0
5604 5605 -5606 0
-5604 5606 0
-5605 5606 0
-42 -5573 5607 0
42 -5607 0
5573 -5607 0
-5425 -5607 -5608 0
5425 5607 -5608 0
5425 -5607 5608 0
-5425 5607 5608 0
-5608 -5606 -5609 0
5608 5606 -5609 0
5608 -5606 5609 0
-5608 5606 5609 0
-5608 -5606 5610 0
5608 -5610 0
5606 -5610 0
-5425 -5607 5611 0
5425 -5611 0
5607 -5611 0
5610 5611 -5612 0
-5610 5612 0
-5611 5612 0
-50 -5573 5613 0
50 -5613 0
5573 -5613 0
-5431 -5613 -5614 0
5431 5613 -5614 0
5431 -5613 5614 0
-5431 5613 5614 0
-5614 -5612 -5615 0
5614 5612 -5615 0
5614 -5612 5615 0
-5614 5612 5615 0
-5614 -5612 5616 0
5614 -5616 0
5612 -5616 0
-5431 -5613 5617 0
5431 -5617 0
5613 -5617 0
5616 5617 -5618 0
-5616 5618 0
-5617 5618 0
-58 -5573 5619 0
58 -5619 0
5573 -5619 0
-5437 -5619 -5620 0
5437 5619 -5620 0
5437 -5619 5620 0
-5437 5619 5620 0
-5620 -5618 -5621 0
5620 5618 -5621 0
5620 -5618 5621 0
-5620 5618 5621 0
-5620 -5618 5622 0
5620 -5622 0
5618 -5622 0
-5437 -5619 5623 0
5437 -5623 0
5619 -5623 0
5622 5623 -5624 0
-5622 5624 0
-5623 5624 0
-66 -5573 5625 0
66 -5625 0
5573 -5625 0
-5443 -5625 -5626 0
5443 5625 -5626 0
5443 -5625 5626 0
-5443 5625 5626 0
-5626 -5624 -5627 0
5626 5624 -5627 0
5626 -5624 5627 0
-5626 5624 5627 0
-5626 -5624 5628 0
5626 -5628 0
5624 -5628 0
-5443 -5625 5629 0
5443 -5629 0
5625 -5629 0
5628 5629 -5630 0
-5628 5630 0
-5629 5630 0
-74 -5573 5631 0
74 -5631 0
5573 -5631 0
-5449 -5631 -5632 0
5449 5631 -5632 0
5449 -5631 5632 0
-5449 5631 5632 0
-5632 -5630 -5633 0
5632 5630 -5633 0
5632 -5630 5633 0
-5632 5630 5633 0
-5632 -5630 5634 0
5632 -5634 0
5630 -5634 0
-5449 -5631 5635 0
5449 -5635 0
5631 -5635 0
5634 5635 -5636 0
-5634 5636 0
-5635 5636 0
-82 -5573 5637 0
82 -5637 0
5573 -5637 0
-5455 -5637 -5638 0
5455 5637 -5638 0
5455 -5637 5638 0
-5455 5637 5638 0
-5638 -5636 -5639 0
5638 5636 -5639 0
5638 -5636 5639 0
-5638 5636 5639 0
-5638 -5636 5640 0
5638 -5640 0
5636 -5640 0
-5455 -5637 5641 0
5455 -5641 0
5637 -5641 0
5640 5641 -5642 0
-5640 5642 0
-5641 5642 0
-90 -5573 5643 0
90 -5643 0
5573 -5643 0
-5461 -5643 -5644 0
5461 5643 -5644 0
5461 -5643 5644 0
-5461 5643 5644 0
-5644 -5642 -5645 0
5644 5642 -5645 0
5644 -5642 5645 0
-5644 5642 5645 0
-5644 -5642 5646 0
5644 -5646 0
5642 -5646 0
-5461 -5643 5647 0
5461 -5647 0
5643 -5647 0
5646 5647 -5648 0
-5646 5648 0
-5647 5648 0
-98 -5573 5649 0
98 -5649 0
5573 -5649 0
-5467 -5649 -5650 0
5467 5649 -5650 0
5467 -5649 5650 0
-5467 5649 5650 0
-5650 -5648 -5651 0
5650 5648 -5651 0
5650 -5648 5651 0
-5650 5648 5651 0
-5650 -5648 5652 0
5650 -5652 0
5648 -5652 0
-5467 -5649 5653 0
5467 -5653 0
5649 -5653 0
5652 5653 -5654 0
-5652 5654 0
-5653 5654 0
-106 -5573 5655 0
106 -5655 0
5573 -5655 0
-5473 -5655 -5656 0
5473 5655 -5656 0
5473 -5655 5656 0
-5473 5655 5656 0
-5656 -5654 -5657 0
5656 5654 -5657 0
5656 -5654 5657 0
-5656 5654 5657 0
-5656 -5654 5658 0
5656 -5658 0
5654 -5658 0
-5473 -5655 5659 0
5473 -5659 0
5655 -5659 0
5658 5659 -5660 0
-5658 5660 0
-5659 5660 0
-114 -5573 5661 0
114 -5661 0
5573 -5661 0
-5479 -5661 -5662 0
5479 5661 -5662 0
5479 -5661 5662 0
-5479 5661 5662 0
-5662 -5660 -5663 0
5662 5660 -5663 0
5662 -5660 5663 0
-5662 5660 5663 0
-5662 -5660 5664 0
5662 -5664 0
5660 -5664 0
-5479 -5661 5665 0
5479 -5665 0
5661 -5665 0
5664 5665 -5666 0
-5664 5666 0
-5665 5666 0
-122 -5573 5667 0
122 -5667 0
5573 -5667 0
-5485 -5667 -5668 0
5485 5667 -5668 0
5485 -5667 5668 0
-5485 5667 5668 0
-5668 -5666 -5669 0
5668 5666 -5669 0
5668 -5666 5669 0
-5668 5666 5669 0
-5668 -5666 5670 0
5668 -5670 0
5666 -5670 0
-5485 -5667 5671 0
5485 -5671 0
5667 -5671 0
5670 5671 -5672 0
-5670 5672 0
-5671 5672 0
-130 -5573 5673 0
130 -5673 0
5573 -5673 0
-5491 -5673 -5674 0
5491 5673 -5674 0
5491 -5673 5674 0
-5491 5673 5674 0
-5674 -5672 -5675 0
5674 5672 -5675 0
5674 -5672 5675 0
-5674 5672 5675 0
-5674 -5672 5676 0
5674 -5676 0
5672 -5676 0
-5491 -5673 5677 0
5491 -5677 0
5673 -5677 0
5676 5677 -5678 0
-5676 5678 0
-5677 5678 0
-138 -5573 5679 0
138 -5679 0
5573 -5679 0
-5497 -5679 -5680 0
5497 5679 -5680 0
5497 -5679 5680 0
-5497 5679 5680 0
-5680 -5678 -5681 0
5680 5678 -5681 0
5680 -5678 5681 0
-5680 5678 5681 0
-5680 -5678 5682 0
5680 -5682 0
5678 -5682 0
-5497 -5679 5683 0
5497 -5683 0
5679 -5683 0
5682 5683 -5684 0
-5682 5684 0
-5683 5684 0
-146 -5573 5685 0
146 -5685 0
5573 -5685 0
-5503 -5685 -5686 0
5503 5685 -5686 0
5503 -5685 5686 0
-5503 5685 5686 0
-5686 -5684 -5687 0
5686 5684 -5687 0
5686 -5684 5687 0
-5686 5684 5687 0
-5686 -5684 5688 0
5686 -5688 0
5684 -5688 0
-5503 -5685 5689 0
5503 -5689 0
5685 -5689 0
5688 5689 -5690 0
-5688 5690 0
-5689 5690 0
-154 -5573 5691 0
154 -5691 0
5573 -5691 0
-5509 -5691 -5692 0
5509 5691 -5692 0
5509 -5691 5692 0
-5509 5691 5692 0
-5692 -5690 -5693 0
5692 5690 -5693 0
5692 -5690 5693 0
-5692 5690 5693 0
-5692 -5690 5694 0
5692 -5694 0
5690 -5694 0
-5509 -5691 5695 0
5509 -5695 0
5691 -5695 0
5694 5695 -5696 0
-5694 5696 0
-5695 5696 0
-162 -5573 5697 0
162 -5697 0
5573 -5697 0
-5515 -5697 -5698 0
5515 5697 -5698 0
5515 -5697 5698 0
-5515 5697 5698 0
-5698 -5696 -5699 0
5698 5696 -5699 0
5698 -5696 5699 0
-5698 5696 5699 0
-5698 -5696 5700 0
5698 -5700 0
5696 -5700 0
-5515 -5697 5701 0
5515 -5701 0
5697 -5701 0
5700 5701 -5702 0
-5700 5702 0
-5701 5702 0
-170 -5573 5703 0
170 -5703 0
5573 -5703 0
-5521 -5703 -5704 0
5521 5703 -5704 0
5521 -5703 5704 0
-5521 5703 5704 0
-5704 -5702 -5705 0
5704 5702 -5705 0
5704 -5702 5705 0
-5704 5702 5705 0
-5704 -5702 5706 0
5704 -5706 0
5702 -5706 0
-5521 -5703 5707 0
5521 -5707 0
5703 -5707 0
5706 5707 -5708 0
-5706 5708 0
-5707 5708 0
-178 -5573 5709 0
178 -5709 0
5573 -5709 0
-5527 -5709 -5710 0
5527 5709 -5710 0
5527 -5709 5710 0
-5527 5709 5710 0
-5710 -5708 -5711 0
5710 5708 -5711 0
5710 -5708 5711 0
-5710 5708 5711 0
-5710 -5708 5712 0
5710 -5712 0
5708 -5712 0
-5527 -5709 5713 0
5527 -5713 0
5709 -5713 0
5712 5713 -5714 0
-5712 5714 0
-5713 5714 0
-186 -5573 5715 0
186 -5715 0
5573 -5715 0
-5533 -5715 -5716 0
5533 5715 -5716 0
5533 -5715 5716 0
-5533 5715 5716 0
-5716 -5714 -5717 0
5716 5714 -5717 0
5716 -5714 5717 0
-5716 5714 5717 0
-5716 -5714 5718 0
5716 -5718 0
5714 -5718 0
-5533 -5715 5719 0
5533 -5719 0
5715 -5719 0
5718 5719 -5720 0
-5718 5720 0
-5719 5720 0
-194 -5573 5721 0
194 -5721 0
5573 -5721 0
-5539 -5721 -5722 0
5539 5721 -5722 0
5539 -5721 5722 0
-5539 5721 5722 0
-5722 -5720 -5723 0
5722 5720 -5723 0
5722 -5720 5723 0
-5722 5720 5723 0
-5722 -5720 5724 0
5722 -5724 0
5720 -5724 0
-5539 -5721 5725 0
5539 -5725 0
5721 -5725 0
5724 5725 -5726 0
-5724 5726 0
-5725 5726 0
-202 -5573 5727 0
202 -5727 0
5573 -5727 0
-5545 -5727 -5728 0
5545 5727 -5728 0
5545 -5727 5728 0
-5545 5727 5728 0
-5728 -5726 -5729 0
5728 5726 -5729 0
5728 -5726 5729 0
-5728 5726 5729 0
-5728 -5726 5730 0
5728 -5730 0
5726 -5730 0
-5545 -5727 5731 0
5545 -5731 0
5727 -5731 0
5730 5731 -5732 0
-5730 5732 0
-5731 5732 0
-210 -5573 5733 0
210 -5733 0
5573 -5733 0
-5551 -5733 -5734 0
5551 5733 -5734 0
5551 -5733 5734 0
-5551 5733 5734 0
-5734 -5732 -5735 0
5734 5732 -5735 0
5734 -5732 5735 0
-5734 5732 5735 0
-5734 -5732 5736 0
5734 -5736 0
5732 -5736 0
-5551 -5733 5737 0
5551 -5737 0
5733 -5737 0
5736 5737 -5738 0
-5736 5738 0
-5737 5738 0
-218 -5573 5739 0
218 -5739 0
5573 -5739 0
-5557 -5739 -5740 0
5557 5739 -5740 0
5557 -5739 5740 0
-5557 5739 5740 0
-5740 -5738 -5741 0
5740 5738 -5741 0
5740 -5738 5741 0
-5740 5738 5741 0
-5740 -5738 5742 0
5740 -5742 0
5738 -5742 0
-5557 -5739 5743 0
5557 -5743 0
5739 -5743 0
5742 5743 -5744 0
-5742 5744 0
-5743 5744 0
-226 -5573 5745 0
226 -5745 0
5573 -5745 0
-5563 -5745 -5746 0
5563 5745 -5746 0
5563 -5745 5746 0
-5563 5745 5746 0
-5746 -5744 -5747 0
5746 5744 -5747 0
5746 -5744 5747 0
-5746 5744 5747 0
-5746 -5744 5748 0
5746 -5748 0
5744 -5748 0
-5563 -5745 5749 0
5563 -5749 0
5745 -5749 0
5748 5749 -5750 0
-5748 5750 0
-5749 5750 0
-234 -5573 5751 0
234 -5751 0
5573 -5751 0
-5569 -5751 -5752 0
5569 5751 -5752 0
5569 -5751 5752 0
-5569 5751 5752 0
-5752 -5750 -5753 0
5752 5750 -5753 0
5752 -5750 5753 0
-5752 5750 5753 0
-5752 -5750 5754 0
5752 -5754 0
5750 -5754 0
-5569 -5751 5755 0
5569 -5755 0
5751 -5755 0
5754 5755 -5756 0
-5754 5756 0
-5755 5756 0
-242 -5573 5757 0
242 -5757 0
5573 -5757 0
-5572 -5757 -5758 0
5572 5757 -5758 0
5572 -5757 5758 0
-5572 5757 5758 0
-5758 -5756 -5759 0
5758 5756 -5759 0
5758 -5756 5759 0
-5758 5756 5759 0
-5758 -5756 5760 0
5758 -5760 0
5756 -5760 0
-5572 -5757 5761 0
5572 -5761 0
5757 -5761 0
5760 5761 -5762 0
-5760 5762 0
-5761 5762 0
-1 -5763 5764 0
1 -5764 0
5763 -5764 0
-5579 -5764 -5765 0
5579 5764 -5765 0
5579 -5764 5765 0
-5579 5764 5765 0
-5579 -5764 5766 0
5579 -5766 0
5764 -5766 0
-4 -5763 5767 0
4 -5767 0
5763 -5767 0
-5585 -5767 -5768 0
5585 5767 -5768 0
5585 -5767 5768 0
-5585 5767 5768 0
-5768 -5766 -5769 0
5768 5766 -5769 0
5768 -5766 5769 0
-5768 5766 5769 0
-5768 -5766 5770 0
5768 -5770 0
5766 -5770 0
-5585 -5767 5771 0
5585 -5771 0
5767 -5771 0
5770 5771 -5772 0
-5770 5772 0
-5771 5772 0
-10 -5763 5773 0
10 -5773 0
5763 -5773 0
-5591 -5773 -5774 0
5591 5773 -5774 0
5591 -5773 5774 0
-5591 5773 5774 0
-5774 -5772 -5775 0
5774 5772 -5775 0
5774 -5772 5775 0
-5774 5772 5775 0
-5774 -5772 5776 0
5774 -5776 0
5772 -5776 0
-5591 -5773 5777 0
5591 -5777 0
5773 -5777 0
5776 5777 -5778 0
-5776 5778 0
-5777 5778 0
-18 -5763 5779 0
18 -5779 0
5763 -5779 0
-5597 -5779 -5780 0
5597 5779 -5780 0
5597 -5779 5780 0
-5597 5779 5780 0
-5780 -5778 -5781 0
5780 5778 -5781 0
5780 -5778 5781 0
-5780 5778 5781 0
-5780 -5778 5782 0
5780 -5782 0
5778 -5782 0
-5597 -5779 5783 0
5597 -5783 0
5779 -5783 0
5782 5783 -5784 0
-5782 5784 0
-5783 5784 0
-26 -5763 5785 0
26 -5785 0
5763 -5785 0
-5603 -5785 -5786 0
5603 5785 -5786 0
5603 -5785 5786 0
-5603 5785 5786 0
-5786 -5784 -5787 0
5786 5784 -5787 0
5786 -5784 5787 0
-5786 5784 5787 0
-5786 -5784 5788 0
5786 -5788 0
5784 -5788 0
-5603 -5785 5789 0
5603 -5789 0
5785 -5789 0
5788 5789 -5790 0
-5788 5790 0
-5789 5790 0
-34 -5763 5791 0
34 -5791 0
5763 -5791 0
-5609 -5791 -5792 0
5609 5791 -5792 0
5609 -5791 5792 0
-5609 5791 5792 0
-5792 -5790 -5793 0
5792 5790 -5793 0
5792 -5790 5793 0
-5792 5790 5793 0
-5792 -5790 5794 0
5792 -5794 0
5790 -5794 0
-5609 -5791 5795 0
5609 -5795 0
5791 -5795 0
5794 5795 -5796 0
-5794 5796 0
-5795 5796 0
-42 -5763 5797 0
42 -5797 0
5763 -5797 0
-5615 -5797 -5798 0
5615 5797 -5798 0
5615 -5797 5798 0
-5615 5797 5798 0
-5798 -5796 -5799 0
5798 5796 -5799 0
5798 -5796 5799 0
-5798 5796 5799 0
-5798 -5796 5800 0
5798 -5800 0
5796 -5800 0
-5615 -5797 5801 0
5615 -5801 0
5797 -5801 0
5800 5801 -5802 0
-5800 5802 0
-5801 5802 0
-50 -5763 5803 0
50 -5803 0
5763 -5803 0
-5621 -5803 -5804 0
5621 5803 -5804 0
5621 -5803 5804 0
-5621 5803 5804 0
-5804 -5802 -5805 0
5804 5802 -5805 0
5804 -5802 5805 0
-5804 5802 5805 0
-5804 -5802 5806 0
5804 -5806 0
5802 -5806 0
-5621 -5803 5807 0
5621 -5807 0
5803 -5807 0
5806 5807 -5808 0
-5806 5808 0
-5807 5808 0
-58 -5763 5809 0
58 -5809 0
5763 -5809 0
-5627 -5809 -5810 0
5627 5809 -5810 0
5627 -5809 5810 0
-5627 5809 5810 0
-5810 -5808 -5811 0
5810 5808 -5811 0
5810 -5808 5811 0
-5810 5808 5811 0
-5810 -5808 5812 0
5810 -5812 0
5808 -5812 0
-5627 -5809 5813 0
5627 -5813 0
5809 -5813 0
5812 5813 -5814 0
-5812 5814 0
-5813 5814 0
-66 -5763 5815 0
66 -5815 0
5763 -5815 0
-5633 -5815 -5816 0
5633 5815 -5816 0
5633 -5815 5816 0
-5633 5815 5816 0
-5816 -5814 -5817 0
5816 5814 -5817 0
5816 -5814 5817 0
-5816 5814 5817 0
-5816 -5814 5818 0
5816 -5818 0
5814 -5818 0
-5633 -5815 5819 0
5633 -5819 0
5815 -5819 0
5818 5819 -5820 0
-5818 5820 0
-5819 5820 0
-74 -5763 5821 0
74 -5821 0
5763 -5821 0
-5639 -5821 -5822 0
5639 5821 -5822 0
5639 -5821 5822 0
-5639 5821 5822 0
-5822 -5820 -5823 0
5822 5820 -5823 0
5822 -5820 5823 0
-5822 5820 5823 0
-5822 -5820 5824 0
5822 -5824 0
5820 -5824 0
-5639 -5821 5825 0
5639 -5825 0
5821 -5825 0
5824 5825 -5826 0
-5824 5826 0
-5825 5826 0
-82 -5763 5827 0
82 -5827 0
5763 -5827 0
-5645 -5827 -5828 0
5645 5827 -5828 0
5645 -5827 5828 0
-5645 5827 5828 0
-5828 -5826 -5829 0
5828 5826 -5829 0
5828 -5826 5829 0
-5828 5826 5829 0
-5828 -5826 5830 0
5828 -5830 0
5826 -5830 0
-5645 -5827 5831 0
5645 -5831 0
5827 -5831 0
5830 5831 -5832 0
-5830 5832 0
-5831 5832 0
-90 -5763 5833 0
90 -5833 0
5763 -5833 0
-5651 -5833 -5834 0
5651 5833 -5834 0
5651 -5833 5834 0
-5651 5833 5834 0
-5834 -5832 -5835 0
5834 5832 -5835 0
5834 -5832 5835 0
-5834 5832 5835 0
-5834 -5832 5836 0
5834 -5836 0
5832 -5836 0
-5651 -5833 5837 0
5651 -5837 0
5833 -5837 0
5836 5837 -5838 0
-5836 5838 0
-5837 5838 0
-98 -5763 5839 0
98 -5839 0
5763 -5839 0
-5657 -5839 -5840 0
5657 5839 -5840 0
5657 -5839 5840 0
-5657 5839 5840 0
-5840 -5838 -5841 0
5840 5838 -5841 0
5840 -5838 5841 0
-5840 5838 5841 0
-5840 -5838 5842 0
5840 -5842 0
5838 -5842 0
-5657 -5839 5843 0
5657 -5843 0
5839 -5843 0
5842 5843 -5844 0
-5842 5844 0
-5843 5844 0
-106 -5763 5845 0
106 -5845 0
5763 -5845 0
-5663 -5845 -5846 0
5663 5845 -5846 0
5663 -5845 5846 0
-5663 5845 5846 0
-5846 -5844 -5847 0
5846 5844 -5847 0
5846 -5844 5847 0
-5846 5844 5847 0
-5846 -5844 5848 0
5846 -5848 0
5844 -5848 0
-5663 -5845 5849 0
5663 -5849 0
5845 -5849 0
5848 5849 -5850 0
-5848 5850 0
-5849 5850 0
-114 -5763 5851 0
114 -5851 0
5763 -5851 0
-5669 -5851 -5852 0
5669 5851 -5852 0
5669 -5851 5852 0
-5669 5851 5852 0
-5852 -5850 -5853 0
5852 5850 -5853 0
5852 -5850 5853 0
-5852 5850 5853 0
-5852 -5850 5854 0
5852 -5854 0
5850 -5854 0
-5669 -5851 5855 0
5669 -5855 0
5851 -5855 0
5854 5855 -5856 0
-5854 5856 0
-5855 5856 0
-122 -5763 5857 0
122 -5857 0
5763 -5857 0
-5675 -5857 -5858 0
5675 5857 -5858 0
5675 -5857 5858 0
-5675 5857 5858 0
-5858 -5856 -5859 0
5858 5856 -5859 0
5858 -5856 5859 0
-5858 5856 5859 0
-5858 -5856 5860 0
5858 -5860 0
5856 -5860 0
-5675 -5857 5861 0
5675 -5861 0
5857 -5861 0
5860 5861 -5862 0
-5860 5862 0
-5861 5862 0
-130 -5763 5863 0
130 -5863 0
5763 -5863 0
-5681 -5863 -5864 0
5681 5863 -5864 0
5681 -5863 5864 0
-5681 5863 5864 0
-5864 -5862 -5865 0
5864 5862 -5865 0
5864 -5862 5865 0
-5864 5862 5865 0
-5864 -5862 5866 0
5864 -5866 0
5862 -5866 0
-5681 -5863 5867 0
5681 -5867 0
5863 -5867 0
5866 5867 -5868 0
-5866 5868 0
-5867 5868 0
-138 -5763 5869 0
138 -5869 0
5763 -5869 0
-5687 -5869 -5870 0
5687 5869 -5870 0
5687 -5869 5870 0
-5687 5869 5870 0
-5870 -5868 -5871 0
5870 5868 -5871 0
5870 -5868 5871 0
-5870 5868 5871 0
-5870 -5868 5872 0
5870 -5872 0
5868 -5872 0
-5687 -5869 5873 0
5687 -5873 0
5869 -5873 0
5872 5873 -5874 0
-5872 5874 0
-5873 5874 0
-146 -5763 5875 0
146 -5875 0
5763 -5875 0
-5693 -5875 -5876 0
5693 5875 -5876 0
5693 -5875 5876 0
-5693 5875 5876 0
-5876 -5874 -5877 0
5876 5874 -5877 0
5876 -5874 5877 0
-5876 5874 5877 0
-5876 -5874 5878 0
5876 -5878 0
5874 -5878 0
-5693 -5875 5879 0
5693 -5879 0
5875 -5879 0
5878 5879 -5880 0
-5878 5880 0
-5879 5880 0
-154 -5763 5881 0
154 -5881 0
5763 -5881 0
-5699 -5881 -5882 0
5699 5881 -5882 0
5699 -5881 5882 0
-5699 5881 5882 0
-5882 -5880 -5883 0
5882 5880 -5883 0
5882 -5880 5883 0
-5882 5880 5883 0
-5882 -5880 5884 0
5882 -5884 0
5880 -5884 0
-5699 -5881 5885 0
5699 -5885 0
5881 -5885 0
5884 5885 -5886 0
-5884 5886 0
-5885 5886 0
-162 -5763 5887 0
162 -5887 0
5763 -5887 0
-5705 -5887 -5888 0
5705 5887 -5888 0
5705 -5887 5888 0
-5705 5887 5888 0
-5888 -5886 -5889 0
5888 5886 -5889 0
5888 -5886 5889 0
-5888 5886 5889 0
-5888 -5886 5890 0
5888 -5890 0
5886 -5890 0
-5705 -5887 5891 0
5705 -5891 0
5887 -5891 0
5890 5891 -5892 0
-5890 5892 0
-5891 5892 0
-170 -5763 5893 0
170 -5893 0
5763 -5893 0
-5711 -5893 -5894 0
5711 5893 -5894 0
5711 -5893 5894 0
-5711 5893 5894 0
-5894 -5892 -5895 0
5894 5892 -5895 0
5894 -5892 5895 0
-5894 5892 5895 0
-5894 -5892 5896 0
5894 -5896 0
5892 -5896 0
-5711 -5893 5897 0
5711 -5897 0
5893 -5897 0
5896 5897 -5898 0
-5896 5898 0
-5897 5898 0
-178 -5763 5899 0
178 -5899 0
5763 -5899 0
-5717 -5899 -5900 0
5717 5899 -5900 0
5717 -5899 5900 0
-5717 5899 5900 0
-5900 -5898 -5901 0
5900 5898 -5901 0
5900 -5898 5901 0
-5900 5898 5901 0
-5900 -5898 5902 0
5900 -5902 0
5898 -5902 0
-5717 -5899 5903 0
5717 -5903 0
5899 -5903 0
5902 5903 -5904 0
-5902 5904 0
-5903 5904 0
-186 -5763 5905 0
186 -5905 0
5763 -5905 0
-5723 -5905 -5906 0
5723 5905 -5906 0
5723 -5905 5906 0
-5723 5905 5906 0
-5906 -5904 -5907 0
5906 5904 -5907 0
5906 -5904 5907 0
-5906 5904 5907 0
-5906 -5904 5908 0
5906 -5908 0
5904 -5908 0
-5723 -5905 5909 0
5723 -5909 0
5905 -5909 0
5908 5909 -5910 0
-5908 5910 0
-5909 5910 0
-194 -5763 5911 0
194 -5911 0
5763 -5911 0
-5729 -5911 -5912 0
5729 5911 -5912 0
5729 -5911 5912 0
-5729 5911 5912 0
-5912 -5910 -5913 0
5912 5910 -5913 0
5912 -5910 5913 0
-5912 5910 5913 0
-5912 -5910 5914 0
5912 -5914 0
5910 -5914 0
-5729 -5911 5915 0
5729 -5915 0
5911 -5915 0
5914 5915 -5916 0
-5914 5916 0
-5915 5916 0
-202 -5763 5917 0
202 -5917 0
5763 -5917 0
-5735 -5917 -5918 0
5735 5917 -5918 0
5735 -5917 5918 0
-5735 5917 5918 0
-5918 -5916 -5919 0
5918 5916 -5919 0
5918 -5916 5919 0
-5918 5916 5919 0
-5918 -5916 5920 0
5918 -5920 0
5916 -5920 0
-5735 -5917 5921 0
5735 -5921 0
5917 -5921 0
5920 5921 -5922 0
-5920 5922 0
-5921 5922 0
-210 -5763 5923 0
210 -5923 0
5763 -5923 0
-5741 -5923 -5924 0
5741 5923 -5924 0
5741 -5923 5924 0
-5741 5923 5924 0
-5924 -5922 -5925 0
5924 5922 -5925 0
5924 -5922 5925 0
-5924 5922 5925 0
-5924 -5922 5926 0
5924 -5926 0
5922 -5926 0
-5741 -5923 5927 0
5741 -5927 0
5923 -5927 0
5926 5927 -5928 0
-5926 5928 0
-5927 5928 0
-218 -5763 5929 0
218 -5929 0
5763 -5929 0
-5747 -5929 -5930 0
5747 5929 -5930 0
5747 -5929 5930 0
-5747 5929 5930 0
-5930 -5928 -5931 0
5930 5928 -5931 0
5930 -5928 5931 0
-5930 5928 5931 0
-5930 -5928 5932 0
5930 -5932 0
5928 -5932 0
-5747 -5929 5933 0
5747 -5933 0
5929 -5933 0
5932 5933 -5934 0
-5932 5934 0
-5933 5934 0
-226 -5763 5935 0
226 -5935 0
5763 -5935 0
-5753 -5935 -5936 0
5753 5935 -5936 0
5753 -5935 5936 0
-5753 5935 5936 0
-5936 -5934 -5937 0
5936 5934 -5937 0
5936 -5934 5937 0
-5936 5934 5937 0
-5936 -5934 5938 0
5936 -5938 0
5934 -5938 0
-5753 -5935 5939 0
5753 -5939 0
5935 -5939 0
5938 5939 -5940 0
-5938 5940 0
-5939 5940 0
-234 -5763 5941 0
234 -5941 0
5763 -5941 0
-5759 -5941 -5942 0
5759 5941 -5942 0
5759 -5941 5942 0
-5759 5941 5942 0
-5942 -5940 -5943 0
5942 5940 -5943 0
5942 -5940 5943 0
-5942 5940 5943 0
-5942 -5940 5944 0
5942 -5944 0
5940 -5944 0
-5759 -5941 5945 0
5759 -5945 0
5941 -5945 0
5944 5945 -5946 0
-5944 5946 0
-5945 5946 0
-242 -5763 5947 0
242 -5947 0
5763 -5947 0
-5762 -5947 -5948 0
5762 5947 -5948 0
5762 -5947 5948 0
-5762 5947 5948 0
-5948 -5946 -5949 0
5948 5946 -5949 0
5948 -5946 5949 0
-5948 5946 5949 0
-5948 -5946 5950 0
5948 -5950 0
5946 -5950 0
-5762 -5947 5951 0
5762 -5951 0
5947 -5951 0
5950 5951 -5952 0
-5950 5952 0
-5951 5952 0
3 0
-8 0
-255 0
-445 0
-635 0
825 0
-1015 0
-1205 0
-1395 0
-1585 0
-1775 0
-1965 0
-2155 0
-2345 0
-2535 0
-2725 0
2915 0
3105 0
3295 0
-3485 0
-3675 0
-3865 0
-4055 0
-4245 0
-4435 0
-4625 0
-4815 0
-5005 0
-5195 0
-5385 0
5575 0
-5765 0
-5769 0
-5775 0
-5781 0
-5787 0
-5793 0
-5799 0
-5805 0
-5811 0
-5817 0
-5823 0
-5829 0
-5835 0
-5841 0
-5847 0
-5853 0
-5859 0
-5865 0
-5871 0
-5877 0
-5883 0
-5889 0
-5895 0
-5901 0
-5907 0
-5913 0
-5919 0
-5925 0
-5931 0
-5937 0
-5943 0
-5949 0
-5952 0
