p cnf 6732 22270
-2 -1 3 0
-3 1 0
-3 2 0
5 -2 -4 0
-5 4 0
2 -5 0
7 -1 -6 0
-7 1 0
6 -7 0
-8 -7 -5 0
5 7 -8 0
5 8 -7 0
7 8 -5 0
9 -7 -5 0
5 -9 0
7 -9 0
-2 11 -10 0
10 -11 0
2 -11 0
-4 12 -6 0
-12 4 0
6 -12 0
-13 -11 -12 0
11 12 -13 0
11 13 -12 0
13 12 -11 0
-9 -14 -13 0
9 13 -14 0
14 13 -9 0
9 14 -13 0
-9 15 -13 0
13 -15 0
9 -15 0
16 -11 -12 0
-16 11 0
-16 12 0
16 -17 15 0
17 -15 0
-16 17 0
-2 19 -18 0
-19 18 0
-19 2 0
20 -10 -6 0
-20 10 0
-20 6 0
-19 -21 -20 0
20 -21 19 0
-20 21 19 0
-19 20 21 0
-17 -22 -21 0
-22 21 17 0
-17 21 22 0
-21 17 22 0
-17 -21 23 0
-23 21 0
-23 17 0
-19 24 -20 0
-24 19 0
20 -24 0
24 23 -25 0
-23 25 0
25 -24 0
-2 27 -26 0
-27 26 0
-27 2 0
28 -6 -18 0
-28 18 0
-28 6 0
-28 -27 -29 0
28 27 -29 0
-28 27 29 0
-27 28 29 0
-25 -29 -30 0
25 -30 29 0
30 -25 29 0
30 25 -29 0
-25 31 -29 0
-31 29 0
25 -31 0
-28 -27 32 0
-32 27 0
-32 28 0
-33 31 32 0
-31 33 0
-32 33 0
-34 -2 35 0
-35 34 0
-35 2 0
-6 -26 0
-36 26 0
-36 6 0
-36 -35 -37 0
36 -37 35 0
-36 37 35 0
37 -35 36 0
-33 -38 -37 0
37 -38 33 0
37 -33 38 0
38 -37 33 0
-33 39 -37 0
37 -39 0
-39 33 0
-36 40 -35 0
-40 35 0
36 -40 0
39 40 -41 0
41 -39 0
41 -40 0
-2 43 -42 0
42 -43 0
2 -43 0
-34 44 -6 0
-44 34 0
-44 6 0
-44 -43 -45 0
44 43 -45 0
-44 43 45 0
44 -43 45 0
-41 -46 -45 0
41 -46 45 0
-41 46 45 0
41 46 -45 0
-41 47 -45 0
-47 45 0
41 -47 0
-44 48 -43 0
43 -48 0
44 -48 0
48 47 -49 0
49 -47 0
49 -48 0
-50 51 -2 0
50 -51 0
2 -51 0
52 -6 -42 0
42 -52 0
-52 6 0
-52 -53 -51 0
-53 51 52 0
-52 51 53 0
52 -51 53 0
-53 -49 -54 0
49 -54 53 0
-49 53 54 0
-53 49 54 0
-53 -49 55 0
-55 53 0
49 -55 0
-52 56 -51 0
51 -56 0
-56 52 0
55 56 -57 0
-55 57 0
57 -56 0
-2 59 -58 0
-59 58 0
-59 2 0
-50 60 -6 0
50 -60 0
-60 6 0
-61 -59 -60 0
59 60 -61 0
59 61 -60 0
60 61 -59 0
-61 -62 -57 0
61 57 -62 0
61 62 -57 0
-61 62 57 0
-61 63 -57 0
61 -63 0
-63 57 0
-59 -60 64 0
59 -64 0
-64 60 0
-65 63 64 0
65 -63 0
65 -64 0
-2 -66 67 0
66 -67 0
2 -67 0
68 -6 -58 0
58 -68 0
6 -68 0
-69 -68 -67 0
-69 68 67 0
69 67 -68 0
69 68 -67 0
-65 -70 -69 0
65 69 -70 0
-65 69 70 0
65 -69 70 0
-65 -69 71 0
69 -71 0
65 -71 0
72 -68 -67 0
-72 67 0
-72 68 0
72 -73 71 0
73 -71 0
-72 73 0
-2 75 -74 0
-75 74 0
-75 2 0
-66 -6 0
-76 66 0
-76 6 0
-76 -75 -77 0
75 -77 76 0
-76 75 77 0
-75 77 76 0
-78 -73 -77 0
-78 73 77 0
78 -73 77 0
78 73 -77 0
79 -73 -77 0
-79 77 0
73 -79 0
-76 -75 80 0
75 -80 0
-80 76 0
79 -81 80 0
-79 81 0
81 -80 0
83 -82 -2 0
82 -83 0
2 -83 0
84 -6 -74 0
-84 74 0
-84 6 0
-84 -85 -83 0
83 -85 84 0
83 -84 85 0
84 85 -83 0
-81 -86 -85 0
81 -86 85 0
86 -81 85 0
86 81 -85 0
87 -81 -85 0
-87 85 0
-87 81 0
-84 88 -83 0
83 -88 0
84 -88 0
-89 87 88 0
89 -87 0
89 -88 0
-2 -90 91 0
90 -91 0
2 -91 0
-82 92 -6 0
-92 82 0
-92 6 0
-92 -91 -93 0
91 92 -93 0
-92 91 93 0
92 -91 93 0
-89 -94 -93 0
89 -94 93 0
-89 93 94 0
89 94 -93 0
-89 95 -93 0
-95 93 0
89 -95 0
-92 96 -91 0
-96 91 0
-96 92 0
-97 95 96 0
-95 97 0
-96 97 0
-98 -2 99 0
-99 98 0
-99 2 0
-90 100 -6 0
90 -100 0
-100 6 0
-101 -99 -100 0
99 -101 100 0
99 -100 101 0
-99 101 100 0
-97 -101 -102 0
-102 97 101 0
-97 101 102 0
-101 97 102 0
-97 -101 103 0
-103 101 0
-103 97 0
-99 -100 104 0
99 -104 0
-104 100 0
103 -105 104 0
-103 105 0
-104 105 0
-106 -2 107 0
106 -107 0
2 -107 0
-98 108 -6 0
-108 98 0
6 -108 0
-108 -109 -107 0
-109 107 108 0
107 109 -108 0
109 108 -107 0
-105 -109 -110 0
105 109 -110 0
-105 110 109 0
110 -109 105 0
-105 -109 111 0
-111 109 0
-111 105 0
112 -108 -107 0
107 -112 0
-112 108 0
112 -113 111 0
-111 113 0
-112 113 0
-2 115 -114 0
114 -115 0
-115 2 0
-106 116 -6 0
-116 106 0
-116 6 0
-115 -117 -116 0
116 -117 115 0
-116 117 115 0
-115 116 117 0
-117 -113 -118 0
113 117 -118 0
-113 118 117 0
-117 118 113 0
-117 119 -113 0
-119 117 0
-119 113 0
-115 -116 120 0
-120 115 0
116 -120 0
120 119 -121 0
-119 121 0
-120 121 0
-2 -122 123 0
122 -123 0
-123 2 0
-6 -114 124 0
114 -124 0
-124 6 0
-123 -124 -125 0
123 -125 124 0
-124 123 125 0
-123 125 124 0
-121 -126 -125 0
121 125 -126 0
-121 125 126 0
126 121 -125 0
127 -121 -125 0
125 -127 0
121 -127 0
-123 -124 128 0
-128 123 0
-128 124 0
127 -129 128 0
129 -127 0
-128 129 0
-2 131 -130 0
-131 130 0
-131 2 0
-122 132 -6 0
122 -132 0
6 -132 0
-131 -133 -132 0
-133 131 132 0
133 131 -132 0
-131 133 132 0
-133 -129 -134 0
133 129 -134 0
133 134 -129 0
-133 134 129 0
135 -133 -129 0
133 -135 0
-135 129 0
-131 136 -132 0
131 -136 0
-136 132 0
135 136 -137 0
137 -135 0
-136 137 0
-2 -138 139 0
-139 138 0
-139 2 0
140 -6 -130 0
130 -140 0
6 -140 0
-139 -140 -141 0
140 139 -141 0
139 -140 141 0
140 -139 141 0
-137 -142 -141 0
137 -142 141 0
-137 142 141 0
142 137 -141 0
143 -137 -141 0
-143 141 0
-143 137 0
-139 144 -140 0
-144 139 0
140 -144 0
143 144 -145 0
-143 145 0
-144 145 0
-2 147 -146 0
146 -147 0
2 -147 0
-138 148 -6 0
-148 138 0
6 -148 0
-148 -149 -147 0
-149 147 148 0
149 147 -148 0
148 -147 149 0
-150 -149 -145 0
-150 149 145 0
150 149 -145 0
150 -149 145 0
-149 151 -145 0
-151 149 0
-151 145 0
-148 152 -147 0
147 -152 0
-152 148 0
-153 152 151 0
-151 153 0
153 -152 0
-2 155 -154 0
-155 154 0
-155 2 0
156 -6 -146 0
146 -156 0
6 -156 0
-155 -157 -156 0
-157 156 155 0
157 155 -156 0
157 -155 156 0
-153 -157 -158 0
-158 157 153 0
-153 157 158 0
158 -157 153 0
-153 -157 159 0
157 -159 0
153 -159 0
-155 160 -156 0
-160 155 0
-160 156 0
160 -161 159 0
-159 161 0
-160 161 0
163 -2 -162 0
162 -163 0
2 -163 0
164 -6 -154 0
154 -164 0
-164 6 0
-164 -163 -165 0
163 -165 164 0
163 165 -164 0
165 -163 164 0
-165 -161 -166 0
165 -166 161 0
-161 165 166 0
-165 166 161 0
-165 -161 167 0
165 -167 0
-167 161 0
-164 168 -163 0
163 -168 0
164 -168 0
168 167 -169 0
-167 169 0
169 -168 0
-2 171 -170 0
170 -171 0
2 -171 0
-6 -162 172 0
162 -172 0
6 -172 0
-173 -171 -172 0
171 172 -173 0
173 171 -172 0
173 172 -171 0
-174 -169 -173 0
173 -174 169 0
173 -169 174 0
174 169 -173 0
-169 175 -173 0
173 -175 0
-175 169 0
176 -171 -172 0
171 -176 0
-176 172 0
176 175 -177 0
-175 177 0
-176 177 0
-2 179 -178 0
-179 178 0
-179 2 0
180 -170 -6 0
170 -180 0
6 -180 0
-179 -181 -180 0
180 -181 179 0
181 179 -180 0
-179 181 180 0
-182 -181 -177 0
-182 181 177 0
181 182 -177 0
182 -181 177 0
-181 183 -177 0
-183 181 0
-183 177 0
-179 184 -180 0
-184 179 0
180 -184 0
184 183 -185 0
-183 185 0
-184 185 0
-2 -186 187 0
186 -187 0
-187 2 0
188 -6 -178 0
-188 178 0
6 -188 0
-187 -189 -188 0
188 187 -189 0
187 189 -188 0
188 -187 189 0
-190 -189 -185 0
-190 185 189 0
-185 190 189 0
185 -189 190 0
191 -189 -185 0
-191 189 0
-191 185 0
-187 192 -188 0
187 -192 0
188 -192 0
-193 191 192 0
-191 193 0
193 -192 0
-194 -2 195 0
194 -195 0
-195 2 0
196 -186 -6 0
186 -196 0
-196 6 0
-195 -196 -197 0
196 195 -197 0
-196 195 197 0
196 -195 197 0
-193 -198 -197 0
-198 197 193 0
-193 198 197 0
198 -197 193 0
-193 199 -197 0
197 -199 0
-199 193 0
200 -195 -196 0
195 -200 0
196 -200 0
200 199 -201 0
201 -199 0
201 -200 0
203 -2 -202 0
-203 202 0
-203 2 0
-194 -6 204 0
194 -204 0
-204 6 0
-203 -205 -204 0
203 -205 204 0
203 205 -204 0
205 -203 204 0
-205 -201 -206 0
205 201 -206 0
206 205 -201 0
206 201 -205 0
207 -205 -201 0
205 -207 0
201 -207 0
208 -203 -204 0
203 -208 0
-208 204 0
207 208 -209 0
209 -207 0
209 -208 0
-2 -210 211 0
-211 210 0
-211 2 0
-202 212 -6 0
202 -212 0
6 -212 0
-211 -213 -212 0
-213 212 211 0
213 -212 211 0
-211 213 212 0
-209 -213 -214 0
209 213 -214 0
-209 213 214 0
-213 209 214 0
-209 215 -213 0
-215 213 0
-215 209 0
-211 216 -212 0
-216 211 0
-216 212 0
215 216 -217 0
-215 217 0
-216 217 0
-2 -218 219 0
-219 218 0
-219 2 0
220 -210 -6 0
210 -220 0
6 -220 0
-221 -219 -220 0
-221 220 219 0
221 -220 219 0
220 -219 221 0
-221 -217 -222 0
-222 217 221 0
222 -217 221 0
-221 222 217 0
-221 -217 223 0
-223 221 0
-223 217 0
-219 224 -220 0
-224 219 0
220 -224 0
-225 224 223 0
-223 225 0
225 -224 0
-226 227 -2 0
-227 226 0
-227 2 0
-218 228 -6 0
-228 218 0
-228 6 0
-227 -228 -229 0
228 227 -229 0
-228 229 227 0
-227 228 229 0
-230 -225 -229 0
-230 225 229 0
-225 229 230 0
230 225 -229 0
-225 231 -229 0
229 -231 0
225 -231 0
-227 -228 232 0
-232 227 0
-232 228 0
-233 232 231 0
-231 233 0
-232 233 0
-2 235 -234 0
234 -235 0
2 -235 0
-226 236 -6 0
-236 226 0
-236 6 0
-236 -237 -235 0
235 -237 236 0
237 235 -236 0
236 237 -235 0
-233 -237 -238 0
237 -238 233 0
237 -233 238 0
238 -237 233 0
-233 -237 239 0
237 -239 0
-239 233 0
-236 240 -235 0
235 -240 0
236 -240 0
-241 239 240 0
241 -239 0
241 -240 0
-2 243 -242 0
-243 242 0
-243 2 0
244 -6 -234 0
234 -244 0
6 -244 0
-243 -245 -244 0
244 243 -245 0
243 245 -244 0
-243 245 244 0
-246 -241 -245 0
-246 245 241 0
246 -241 245 0
246 -245 241 0
-241 -245 247 0
-247 245 0
-247 241 0
248 -243 -244 0
243 -248 0
244 -248 0
248 247 -249 0
-247 249 0
249 -248 0
-2 -250 251 0
250 -251 0
2 -251 0
-242 252 -6 0
-252 242 0
-252 6 0
-252 -253 -251 0
252 251 -253 0
253 -252 251 0
253 252 -251 0
-254 -253 -249 0
253 249 -254 0
253 254 -249 0
249 254 -253 0
255 -253 -249 0
253 -255 0
249 -255 0
-252 256 -251 0
-256 251 0
-256 252 0
256 -257 255 0
257 -255 0
-256 257 0
-2 259 -258 0
258 -259 0
2 -259 0
260 -250 -6 0
250 -260 0
6 -260 0
-261 -259 -260 0
260 259 -261 0
259 261 -260 0
260 261 -259 0
-262 -261 -257 0
257 261 -262 0
261 -257 262 0
257 -261 262 0
263 -261 -257 0
-263 261 0
-263 257 0
264 -259 -260 0
259 -264 0
260 -264 0
-265 263 264 0
-263 265 0
265 -264 0
266 -258 -6 0
-266 258 0
-266 6 0
-266 -265 -267 0
265 -267 266 0
-266 267 265 0
267 -265 266 0
-266 -265 268 0
265 -268 0
266 -268 0
270 -269 -1 0
-270 1 0
269 -270 0
-271 -14 -270 0
-271 14 270 0
14 -270 271 0
-14 270 271 0
-14 -270 272 0
14 -272 0
270 -272 0
273 -4 -269 0
-273 4 0
269 -273 0
-273 -274 -22 0
273 -274 22 0
-273 274 22 0
273 -22 274 0
-274 -275 -272 0
272 -275 274 0
275 -272 274 0
275 -274 272 0
-274 276 -272 0
-276 274 0
-276 272 0
-273 -22 277 0
-277 22 0
273 -277 0
276 277 -278 0
278 -276 0
278 -277 0
279 -269 -10 0
10 -279 0
269 -279 0
-279 -280 -30 0
279 30 -280 0
280 30 -279 0
280 279 -30 0
-281 -280 -278 0
278 280 -281 0
280 281 -278 0
278 281 -280 0
282 -280 -278 0
-282 280 0
278 -282 0
283 -279 -30 0
-283 30 0
-283 279 0
283 282 -284 0
-282 284 0
-283 284 0
-269 285 -18 0
-285 18 0
269 -285 0
-38 -286 -285 0
38 -286 285 0
286 38 -285 0
-38 286 285 0
-287 -286 -284 0
-287 284 286 0
287 286 -284 0
287 284 -286 0
288 -286 -284 0
-288 286 0
-288 284 0
-38 -285 289 0
38 -289 0
-289 285 0
288 -290 289 0
-288 290 0
290 -289 0
-269 291 -26 0
-291 26 0
269 -291 0
-291 -46 -292 0
291 46 -292 0
292 -291 46 0
292 291 -46 0
-293 -290 -292 0
-293 290 292 0
293 292 -290 0
293 290 -292 0
294 -290 -292 0
292 -294 0
290 -294 0
-291 -46 295 0
-295 46 0
-295 291 0
-296 295 294 0
296 -294 0
-295 296 0
-34 -269 297 0
-297 34 0
-297 269 0
-297 -298 -54 0
297 -298 54 0
-297 298 54 0
297 -54 298 0
-296 -298 -299 0
296 298 -299 0
-296 299 298 0
296 -298 299 0
-296 -298 300 0
298 -300 0
296 -300 0
-297 301 -54 0
54 -301 0
297 -301 0
301 300 -302 0
302 -300 0
302 -301 0
-269 303 -42 0
42 -303 0
-303 269 0
-303 -62 -304 0
-304 62 303 0
-303 62 304 0
-62 303 304 0
-304 -302 -305 0
302 304 -305 0
305 -302 304 0
305 302 -304 0
-304 -302 306 0
-306 304 0
302 -306 0
-303 -62 307 0
62 -307 0
-307 303 0
-308 306 307 0
-306 308 0
-307 308 0
-50 309 -269 0
50 -309 0
269 -309 0
-70 -309 -310 0
309 70 -310 0
310 70 -309 0
310 309 -70 0
-311 -308 -310 0
310 -311 308 0
310 -308 311 0
308 -310 311 0
312 -308 -310 0
310 -312 0
308 -312 0
313 -70 -309 0
-313 70 0
-313 309 0
312 313 -314 0
314 -312 0
-313 314 0
-269 315 -58 0
-315 58 0
-315 269 0
-315 -316 -78 0
78 -316 315 0
78 -315 316 0
315 -78 316 0
-317 -316 -314 0
-317 314 316 0
-314 317 316 0
314 -316 317 0
-316 318 -314 0
-318 316 0
314 -318 0
-315 319 -78 0
78 -319 0
315 -319 0
319 318 -320 0
-318 320 0
320 -319 0
321 -269 -66 0
66 -321 0
269 -321 0
-322 -86 -321 0
86 -322 321 0
86 322 -321 0
321 -86 322 0
-322 -320 -323 0
320 -323 322 0
323 -320 322 0
-322 323 320 0
324 -322 -320 0
-324 322 0
-324 320 0
-86 325 -321 0
86 -325 0
-325 321 0
324 -326 325 0
-324 326 0
326 -325 0
-269 327 -74 0
-327 74 0
269 -327 0
-327 -94 -328 0
327 -328 94 0
328 -327 94 0
327 -94 328 0
-326 -328 -329 0
326 -329 328 0
-326 329 328 0
326 329 -328 0
330 -326 -328 0
-330 328 0
-330 326 0
-327 -94 331 0
-331 94 0
-331 327 0
330 -332 331 0
-330 332 0
-331 332 0
-82 -269 333 0
-333 82 0
269 -333 0
-102 -333 -334 0
-334 333 102 0
334 -333 102 0
-102 334 333 0
-335 -334 -332 0
332 334 -335 0
335 334 -332 0
-334 335 332 0
336 -334 -332 0
334 -336 0
332 -336 0
-102 -333 337 0
-337 102 0
-337 333 0
336 337 -338 0
338 -336 0
-337 338 0
-90 -269 339 0
90 -339 0
-339 269 0
-339 -340 -110 0
-340 110 339 0
-339 110 340 0
339 340 -110 0
-340 -341 -338 0
-341 338 340 0
341 340 -338 0
-340 341 338 0
342 -340 -338 0
-342 340 0
-342 338 0
-339 343 -110 0
-343 110 0
-343 339 0
342 -344 343 0
-342 344 0
-343 344 0
-98 -269 345 0
-345 98 0
269 -345 0
-345 -346 -118 0
-346 118 345 0
346 -345 118 0
346 345 -118 0
-344 -347 -346 0
346 -347 344 0
-344 346 347 0
-346 347 344 0
-344 348 -346 0
346 -348 0
-348 344 0
-345 349 -118 0
-349 118 0
-349 345 0
-350 348 349 0
-348 350 0
-349 350 0
-106 351 -269 0
-351 106 0
-351 269 0
-351 -352 -126 0
351 -352 126 0
-351 352 126 0
351 352 -126 0
-353 -352 -350 0
-353 352 350 0
352 353 -350 0
353 -352 350 0
-352 354 -350 0
-354 352 0
-354 350 0
-351 355 -126 0
-355 126 0
-355 351 0
-356 355 354 0
-354 356 0
-355 356 0
357 -269 -114 0
114 -357 0
269 -357 0
-358 -357 -134 0
-358 134 357 0
134 358 -357 0
358 357 -134 0
-356 -358 -359 0
-359 358 356 0
-356 358 359 0
-358 359 356 0
-356 -358 360 0
358 -360 0
-360 356 0
361 -357 -134 0
134 -361 0
-361 357 0
-362 360 361 0
362 -360 0
-361 362 0
-122 363 -269 0
122 -363 0
-363 269 0
-363 -142 -364 0
-364 142 363 0
364 -363 142 0
364 -142 363 0
-362 -365 -364 0
364 -365 362 0
-362 364 365 0
362 365 -364 0
-362 366 -364 0
364 -366 0
-366 362 0
-363 -142 367 0
142 -367 0
363 -367 0
366 -368 367 0
-366 368 0
-367 368 0
369 -269 -130 0
130 -369 0
269 -369 0
-150 -369 -370 0
150 369 -370 0
150 370 -369 0
370 -150 369 0
-368 -371 -370 0
370 -371 368 0
370 -368 371 0
371 368 -370 0
372 -368 -370 0
370 -372 0
-372 368 0
373 -150 -369 0
150 -373 0
369 -373 0
373 -374 372 0
374 -372 0
374 -373 0
375 -138 -269 0
-375 138 0
-375 269 0
-375 -158 -376 0
158 375 -376 0
158 -375 376 0
375 -158 376 0
-377 -374 -376 0
374 -377 376 0
-374 377 376 0
374 -376 377 0
-374 378 -376 0
-378 376 0
374 -378 0
-375 -158 379 0
158 -379 0
375 -379 0
-380 378 379 0
-378 380 0
-379 380 0
-269 381 -146 0
146 -381 0
-381 269 0
-381 -166 -382 0
166 381 -382 0
-381 382 166 0
382 -166 381 0
-383 -380 -382 0
382 380 -383 0
382 383 -380 0
383 380 -382 0
384 -380 -382 0
-384 382 0
-384 380 0
385 -381 -166 0
-385 166 0
-385 381 0
385 384 -386 0
-384 386 0
-385 386 0
-269 -154 387 0
-387 154 0
-387 269 0
-174 -387 -388 0
174 -388 387 0
-387 174 388 0
-174 388 387 0
-389 -388 -386 0
-389 386 388 0
388 389 -386 0
386 389 -388 0
390 -388 -386 0
-390 388 0
386 -390 0
-174 -387 391 0
174 -391 0
-391 387 0
390 391 -392 0
392 -390 0
392 -391 0
-269 -162 393 0
162 -393 0
269 -393 0
-182 -394 -393 0
-394 182 393 0
394 -393 182 0
-182 394 393 0
-394 -395 -392 0
392 394 -395 0
394 395 -392 0
392 -394 395 0
-394 396 -392 0
394 -396 0
392 -396 0
-182 397 -393 0
-397 182 0
-397 393 0
-398 396 397 0
398 -396 0
-397 398 0
-269 -170 399 0
170 -399 0
269 -399 0
-400 -190 -399 0
-400 190 399 0
400 190 -399 0
400 -190 399 0
-398 -400 -401 0
400 398 -401 0
-398 400 401 0
401 -400 398 0
-398 -400 402 0
400 -402 0
398 -402 0
403 -190 -399 0
-403 190 0
-403 399 0
403 -404 402 0
404 -402 0
404 -403 0
-269 405 -178 0
-405 178 0
-405 269 0
-198 -406 -405 0
-406 405 198 0
-405 198 406 0
-198 405 406 0
-407 -406 -404 0
-407 404 406 0
407 -404 406 0
-406 407 404 0
-406 408 -404 0
-408 406 0
-408 404 0
-198 409 -405 0
-409 198 0
-409 405 0
408 409 -410 0
-408 410 0
-409 410 0
411 -269 -186 0
186 -411 0
269 -411 0
-412 -411 -206 0
411 -412 206 0
412 -411 206 0
411 412 -206 0
-412 -413 -410 0
412 -413 410 0
412 413 -410 0
-412 410 413 0
414 -412 -410 0
412 -414 0
-414 410 0
415 -411 -206 0
-415 206 0
411 -415 0
414 415 -416 0
416 -414 0
416 -415 0
-194 -269 417 0
194 -417 0
269 -417 0
-418 -417 -214 0
-418 417 214 0
-417 214 418 0
417 418 -214 0
-418 -419 -416 0
416 -419 418 0
419 418 -416 0
416 -418 419 0
-418 420 -416 0
-420 418 0
416 -420 0
421 -417 -214 0
-421 214 0
-421 417 0
421 -422 420 0
-420 422 0
-421 422 0
423 -269 -202 0
-423 202 0
269 -423 0
-423 -222 -424 0
423 222 -424 0
424 222 -423 0
423 424 -222 0
-422 -425 -424 0
424 422 -425 0
424 -422 425 0
422 425 -424 0
426 -422 -424 0
424 -426 0
-426 422 0
427 -423 -222 0
222 -427 0
423 -427 0
426 -428 427 0
-426 428 0
428 -427 0
429 -210 -269 0
-429 210 0
-429 269 0
-429 -230 -430 0
-430 429 230 0
-429 430 230 0
430 -230 429 0
-428 -431 -430 0
430 -431 428 0
430 -428 431 0
-430 428 431 0
-428 -430 432 0
430 -432 0
-432 428 0
-429 -230 433 0
-433 230 0
-433 429 0
-434 433 432 0
-432 434 0
434 -433 0
-218 -269 435 0
-435 218 0
269 -435 0
-436 -238 -435 0
-436 238 435 0
238 -435 436 0
436 -238 435 0
-436 -434 -437 0
-437 434 436 0
437 -434 436 0
434 -436 437 0
438 -436 -434 0
-438 436 0
434 -438 0
439 -238 -435 0
238 -439 0
-439 435 0
438 -440 439 0
-438 440 0
-439 440 0
-226 -269 441 0
226 -441 0
269 -441 0
-246 -442 -441 0
246 -442 441 0
246 442 -441 0
-246 442 441 0
-442 -443 -440 0
442 -443 440 0
442 -440 443 0
-442 440 443 0
-442 444 -440 0
442 -444 0
-444 440 0
-246 -441 445 0
-445 246 0
-445 441 0
-446 444 445 0
446 -444 0
-445 446 0
447 -269 -234 0
234 -447 0
269 -447 0
-254 -448 -447 0
447 -448 254 0
448 -447 254 0
447 -254 448 0
-446 -449 -448 0
446 -449 448 0
-446 449 448 0
446 449 -448 0
-446 450 -448 0
448 -450 0
446 -450 0
451 -254 -447 0
-451 254 0
447 -451 0
450 451 -452 0
452 -450 0
-451 452 0
-269 -242 453 0
-453 242 0
269 -453 0
-453 -262 -454 0
453 -454 262 0
454 -453 262 0
454 453 -262 0
-455 -454 -452 0
454 -455 452 0
454 -452 455 0
455 452 -454 0
-454 -452 456 0
454 -456 0
452 -456 0
-453 -262 457 0
-457 262 0
-457 453 0
-458 457 456 0
-456 458 0
-457 458 0
-250 459 -269 0
-459 250 0
-459 269 0
-459 -460 -267 0
-460 267 459 0
-459 267 460 0
460 -267 459 0
-460 -458 -461 0
460 458 -461 0
460 -458 461 0
-460 458 461 0
-460 -458 462 0
-462 460 0
-462 458 0
-459 -267 463 0
267 -463 0
459 -463 0
463 -464 462 0
-462 464 0
-463 464 0
-269 -258 465 0
-465 258 0
269 -465 0
-465 -466 -268 0
-466 268 465 0
466 -465 268 0
466 465 -268 0
-467 -464 -466 0
-467 466 464 0
467 466 -464 0
467 464 -466 0
-464 -466 468 0
-468 466 0
-468 464 0
-465 469 -268 0
-469 268 0
-469 465 0
-470 469 468 0
-468 470 0
-469 470 0
-471 -1 472 0
-472 1 0
471 -472 0
-472 -275 -473 0
275 -473 472 0
275 -472 473 0
473 -275 472 0
-472 -275 474 0
275 -474 0
-474 472 0
-471 475 -4 0
-475 4 0
-475 471 0
-475 -476 -281 0
475 281 -476 0
-475 476 281 0
475 476 -281 0
-474 -476 -477 0
476 474 -477 0
476 477 -474 0
477 474 -476 0
478 -474 -476 0
476 -478 0
474 -478 0
-475 479 -281 0
281 -479 0
475 -479 0
478 -480 479 0
480 -478 0
480 -479 0
-471 -10 481 0
-481 10 0
471 -481 0
-287 -481 -482 0
481 287 -482 0
287 -481 482 0
-287 482 481 0
-483 -480 -482 0
480 482 -483 0
-480 482 483 0
483 480 -482 0
484 -480 -482 0
-484 482 0
-484 480 0
-287 -481 485 0
287 -485 0
481 -485 0
484 485 -486 0
-484 486 0
486 -485 0
-471 487 -18 0
-487 18 0
471 -487 0
-293 -487 -488 0
487 293 -488 0
488 293 -487 0
-293 487 488 0
-488 -489 -486 0
488 486 -489 0
488 489 -486 0
-488 489 486 0
-488 490 -486 0
488 -490 0
-490 486 0
491 -293 -487 0
293 -491 0
487 -491 0
491 490 -492 0
-490 492 0
-491 492 0
-471 493 -26 0
-493 26 0
471 -493 0
-494 -493 -299 0
-494 493 299 0
494 299 -493 0
493 494 -299 0
-494 -492 -495 0
494 492 -495 0
494 -492 495 0
-494 492 495 0
-494 496 -492 0
-496 494 0
-496 492 0
497 -493 -299 0
-497 299 0
493 -497 0
496 497 -498 0
-496 498 0
-497 498 0
-34 499 -471 0
34 -499 0
471 -499 0
-500 -305 -499 0
-500 499 305 0
305 500 -499 0
499 500 -305 0
-500 -498 -501 0
500 -501 498 0
-498 501 500 0
-500 501 498 0
-500 -498 502 0
-502 500 0
-502 498 0
503 -305 -499 0
305 -503 0
499 -503 0
-504 503 502 0
-502 504 0
504 -503 0
-471 505 -42 0
42 -505 0
471 -505 0
-506 -311 -505 0
505 -506 311 0
506 -505 311 0
506 505 -311 0
-506 -504 -507 0
506 504 -507 0
506 507 -504 0
507 -506 504 0
-506 -504 508 0
506 -508 0
504 -508 0
509 -311 -505 0
-509 311 0
-509 505 0
509 -510 508 0
510 -508 0
-509 510 0
-471 -50 511 0
50 -511 0
471 -511 0
-317 -512 -511 0
-512 317 511 0
512 -511 317 0
-317 512 511 0
-512 -510 -513 0
512 510 -513 0
512 -510 513 0
-512 510 513 0
-512 514 -510 0
512 -514 0
-514 510 0
-317 -511 515 0
-515 317 0
-515 511 0
514 515 -516 0
-514 516 0
-515 516 0
-471 -58 517 0
-517 58 0
-517 471 0
-517 -518 -323 0
323 -518 517 0
-517 323 518 0
518 517 -323 0
-516 -519 -518 0
516 -519 518 0
519 -516 518 0
519 516 -518 0
520 -516 -518 0
-520 518 0
516 -520 0
-517 521 -323 0
323 -521 0
-521 517 0
-522 521 520 0
-520 522 0
522 -521 0
-471 523 -66 0
-523 66 0
-523 471 0
-523 -524 -329 0
523 -524 329 0
-523 524 329 0
524 523 -329 0
-522 -524 -525 0
524 -525 522 0
524 -522 525 0
-524 525 522 0
526 -522 -524 0
524 -526 0
-526 522 0
-523 527 -329 0
-527 329 0
523 -527 0
526 527 -528 0
528 -526 0
528 -527 0
-471 529 -74 0
-529 74 0
471 -529 0
-335 -530 -529 0
335 -530 529 0
335 530 -529 0
-335 530 529 0
-528 -530 -531 0
528 530 -531 0
531 530 -528 0
528 531 -530 0
532 -528 -530 0
-532 530 0
528 -532 0
533 -335 -529 0
-533 335 0
-533 529 0
533 532 -534 0
-532 534 0
-533 534 0
-471 -82 535 0
82 -535 0
471 -535 0
-341 -536 -535 0
341 535 -536 0
341 536 -535 0
-341 535 536 0
-536 -534 -537 0
536 -537 534 0
537 536 -534 0
-536 537 534 0
538 -536 -534 0
-538 536 0
-538 534 0
-341 -535 539 0
-539 341 0
-539 535 0
-540 538 539 0
540 -538 0
-539 540 0
-471 -90 541 0
90 -541 0
471 -541 0
-541 -347 -542 0
541 347 -542 0
542 -541 347 0
542 -347 541 0
-540 -543 -542 0
542 540 -543 0
542 543 -540 0
540 543 -542 0
-540 544 -542 0
542 -544 0
540 -544 0
-541 -347 545 0
-545 347 0
-545 541 0
-546 544 545 0
546 -544 0
-545 546 0
-98 -471 547 0
98 -547 0
471 -547 0
-353 -548 -547 0
547 -548 353 0
548 353 -547 0
547 -353 548 0
-548 -549 -546 0
-549 546 548 0
549 -546 548 0
-548 549 546 0
-548 -546 550 0
548 -550 0
546 -550 0
-353 551 -547 0
353 -551 0
547 -551 0
-552 551 550 0
552 -550 0
552 -551 0
-106 -471 553 0
106 -553 0
471 -553 0
-359 -554 -553 0
553 -554 359 0
554 359 -553 0
553 -359 554 0
-552 -555 -554 0
-555 554 552 0
-552 555 554 0
555 552 -554 0
-552 556 -554 0
-556 554 0
-556 552 0
-359 557 -553 0
359 -557 0
553 -557 0
556 557 -558 0
558 -556 0
558 -557 0
-471 559 -114 0
114 -559 0
471 -559 0
-560 -559 -365 0
-560 559 365 0
560 -559 365 0
560 559 -365 0
-560 -561 -558 0
560 -561 558 0
560 561 -558 0
558 -560 561 0
562 -560 -558 0
560 -562 0
558 -562 0
563 -559 -365 0
-563 365 0
-563 559 0
562 563 -564 0
-562 564 0
564 -563 0
-471 565 -122 0
122 -565 0
471 -565 0
-565 -566 -371 0
371 565 -566 0
-565 371 566 0
565 566 -371 0
-567 -566 -564 0
-567 564 566 0
567 566 -564 0
567 564 -566 0
568 -566 -564 0
-568 566 0
564 -568 0
-565 569 -371 0
371 -569 0
565 -569 0
568 569 -570 0
-568 570 0
570 -569 0
-471 571 -130 0
-571 130 0
471 -571 0
-572 -571 -377 0
-572 571 377 0
-571 572 377 0
-377 572 571 0
-572 -573 -570 0
572 -573 570 0
573 572 -570 0
-572 573 570 0
-572 574 -570 0
-574 572 0
-574 570 0
575 -571 -377 0
377 -575 0
571 -575 0
575 574 -576 0
-574 576 0
576 -575 0
-471 -138 577 0
138 -577 0
471 -577 0
-383 -578 -577 0
-578 383 577 0
578 383 -577 0
578 -383 577 0
-578 -576 -579 0
578 576 -579 0
578 579 -576 0
-578 579 576 0
580 -578 -576 0
578 -580 0
576 -580 0
581 -383 -577 0
383 -581 0
577 -581 0
580 -582 581 0
582 -580 0
582 -581 0
-471 -146 583 0
146 -583 0
-583 471 0
-583 -389 -584 0
583 -584 389 0
-583 584 389 0
583 -389 584 0
-582 -585 -584 0
582 -585 584 0
585 -582 584 0
582 -584 585 0
-582 -584 586 0
-586 584 0
582 -586 0
-583 587 -389 0
-587 389 0
583 -587 0
587 586 -588 0
-586 588 0
-587 588 0
-471 589 -154 0
-589 154 0
471 -589 0
-395 -589 -590 0
589 395 -590 0
-589 395 590 0
-395 589 590 0
-591 -590 -588 0
588 590 -591 0
591 590 -588 0
588 591 -590 0
592 -590 -588 0
-592 590 0
-592 588 0
-395 -589 593 0
-593 395 0
-593 589 0
592 -594 593 0
594 -592 0
-593 594 0
-471 595 -162 0
162 -595 0
471 -595 0
-401 -596 -595 0
595 401 -596 0
596 401 -595 0
596 595 -401 0
-597 -594 -596 0
596 -597 594 0
596 597 -594 0
594 597 -596 0
598 -594 -596 0
596 -598 0
594 -598 0
599 -401 -595 0
401 -599 0
595 -599 0
598 599 -600 0
600 -598 0
600 -599 0
-471 601 -170 0
170 -601 0
-601 471 0
-407 -602 -601 0
407 601 -602 0
-601 407 602 0
-407 601 602 0
-603 -602 -600 0
600 -603 602 0
-600 603 602 0
600 -602 603 0
-602 -600 604 0
-604 602 0
600 -604 0
-407 605 -601 0
407 -605 0
601 -605 0
605 604 -606 0
606 -604 0
606 -605 0
-471 607 -178 0
-607 178 0
471 -607 0
-608 -413 -607 0
-608 607 413 0
608 -607 413 0
608 -413 607 0
-608 -609 -606 0
608 606 -609 0
608 609 -606 0
-608 609 606 0
-608 610 -606 0
608 -610 0
606 -610 0
-413 -607 611 0
413 -611 0
607 -611 0
-612 610 611 0
612 -610 0
-611 612 0
-471 613 -186 0
186 -613 0
471 -613 0
-613 -419 -614 0
613 -614 419 0
614 -613 419 0
614 613 -419 0
-612 -614 -615 0
-615 614 612 0
-612 614 615 0
615 -614 612 0
-612 616 -614 0
614 -616 0
-616 612 0
-613 617 -419 0
-617 419 0
613 -617 0
-618 617 616 0
618 -616 0
618 -617 0
-194 -471 619 0
194 -619 0
471 -619 0
-620 -619 -425 0
619 -620 425 0
620 -619 425 0
620 -425 619 0
-618 -621 -620 0
-621 620 618 0
-618 620 621 0
621 -620 618 0
-618 622 -620 0
620 -622 0
-622 618 0
623 -619 -425 0
-623 425 0
-623 619 0
623 -624 622 0
-622 624 0
-623 624 0
-471 -202 625 0
202 -625 0
471 -625 0
-431 -626 -625 0
-626 625 431 0
626 431 -625 0
626 -431 625 0
-624 -626 -627 0
626 -627 624 0
626 -624 627 0
627 -626 624 0
-624 -626 628 0
626 -628 0
-628 624 0
-431 629 -625 0
-629 431 0
-629 625 0
629 -630 628 0
-628 630 0
-629 630 0
-471 -210 631 0
210 -631 0
471 -631 0
-632 -631 -437 0
-632 437 631 0
437 632 -631 0
632 631 -437 0
-630 -632 -633 0
-633 632 630 0
-630 632 633 0
633 -632 630 0
-630 -632 634 0
632 -634 0
630 -634 0
635 -631 -437 0
-635 437 0
-635 631 0
-636 635 634 0
636 -634 0
-635 636 0
-471 -218 637 0
-637 218 0
471 -637 0
-637 -443 -638 0
-638 637 443 0
-637 638 443 0
-443 638 637 0
-639 -638 -636 0
636 -639 638 0
639 638 -636 0
639 -638 636 0
-638 -636 640 0
-640 638 0
-640 636 0
-637 -443 641 0
443 -641 0
637 -641 0
640 641 -642 0
-640 642 0
642 -641 0
-471 -226 643 0
226 -643 0
471 -643 0
-644 -449 -643 0
-644 643 449 0
449 -643 644 0
-449 644 643 0
-644 -642 -645 0
644 -645 642 0
644 -642 645 0
-644 645 642 0
646 -644 -642 0
644 -646 0
-646 642 0
-449 647 -643 0
449 -647 0
643 -647 0
646 -648 647 0
-646 648 0
-647 648 0
-471 649 -234 0
234 -649 0
471 -649 0
-455 -649 -650 0
455 649 -650 0
455 650 -649 0
650 -455 649 0
-648 -651 -650 0
650 -651 648 0
-648 651 650 0
648 651 -650 0
-648 652 -650 0
-652 650 0
-652 648 0
-455 653 -649 0
455 -653 0
-653 649 0
-654 653 652 0
654 -652 0
654 -653 0
-471 -242 655 0
-655 242 0
471 -655 0
-655 -656 -461 0
-656 655 461 0
-655 656 461 0
656 655 -461 0
-654 -656 -657 0
654 656 -657 0
657 -654 656 0
654 -656 657 0
-654 658 -656 0
656 -658 0
654 -658 0
-655 659 -461 0
-659 461 0
-659 655 0
658 -660 659 0
-658 660 0
-659 660 0
-471 -250 661 0
250 -661 0
471 -661 0
-662 -467 -661 0
-662 467 661 0
662 467 -661 0
-467 662 661 0
-662 -663 -660 0
662 -663 660 0
663 662 -660 0
-662 660 663 0
-662 -660 664 0
662 -664 0
660 -664 0
-467 665 -661 0
467 -665 0
-665 661 0
664 665 -666 0
666 -664 0
666 -665 0
-471 667 -258 0
-667 258 0
471 -667 0
-667 -668 -470 0
470 667 -668 0
-667 470 668 0
667 -470 668 0
-668 -666 -669 0
-669 666 668 0
-666 669 668 0
-668 666 669 0
-668 -666 670 0
-670 668 0
-670 666 0
-667 -470 671 0
-671 470 0
-671 667 0
-672 670 671 0
-670 672 0
-671 672 0
-673 -1 674 0
-674 1 0
-674 673 0
-674 -477 -675 0
477 674 -675 0
477 -674 675 0
674 -477 675 0
-674 676 -477 0
-676 477 0
-676 674 0
-4 -673 677 0
-677 4 0
-677 673 0
-677 -678 -483 0
-678 677 483 0
-677 678 483 0
678 677 -483 0
-676 -679 -678 0
-679 678 676 0
-676 678 679 0
679 -678 676 0
-676 680 -678 0
678 -680 0
-680 676 0
681 -677 -483 0
-681 483 0
-681 677 0
681 -682 680 0
-680 682 0
-681 682 0
683 -673 -10 0
10 -683 0
-683 673 0
-684 -489 -683 0
683 -684 489 0
684 489 -683 0
683 -489 684 0
-684 -682 -685 0
682 -685 684 0
685 -682 684 0
-684 685 682 0
-684 -682 686 0
-686 684 0
-686 682 0
687 -489 -683 0
-687 489 0
683 -687 0
687 686 -688 0
-686 688 0
-687 688 0
689 -673 -18 0
-689 18 0
-689 673 0
-690 -689 -495 0
689 495 -690 0
-689 495 690 0
689 -495 690 0
-690 -688 -691 0
-691 688 690 0
691 -688 690 0
691 688 -690 0
692 -690 -688 0
-692 690 0
688 -692 0
-689 693 -495 0
-693 495 0
689 -693 0
-694 693 692 0
694 -692 0
694 -693 0
695 -673 -26 0
-695 26 0
-695 673 0
-696 -695 -501 0
501 695 -696 0
501 -695 696 0
695 696 -501 0
-694 -696 -697 0
696 -697 694 0
-694 696 697 0
-696 694 697 0
-694 -696 698 0
-698 696 0
-698 694 0
-695 699 -501 0
-699 501 0
-699 695 0
698 -700 699 0
-698 700 0
-699 700 0
-34 701 -673 0
34 -701 0
-701 673 0
-702 -701 -507 0
507 -702 701 0
507 -701 702 0
701 -507 702 0
-702 -703 -700 0
700 702 -703 0
-700 702 703 0
-702 700 703 0
-702 704 -700 0
-704 702 0
-704 700 0
705 -701 -507 0
507 -705 0
701 -705 0
705 -706 704 0
-704 706 0
706 -705 0
-673 707 -42 0
42 -707 0
-707 673 0
-707 -708 -513 0
-708 707 513 0
-707 708 513 0
708 707 -513 0
-706 -708 -709 0
706 -709 708 0
-706 708 709 0
706 -708 709 0
710 -706 -708 0
-710 708 0
706 -710 0
-707 -513 711 0
-711 513 0
-711 707 0
710 -712 711 0
712 -710 0
-711 712 0
713 -50 -673 0
50 -713 0
-713 673 0
-714 -519 -713 0
713 -714 519 0
519 714 -713 0
713 -519 714 0
-714 -712 -715 0
712 714 -715 0
-712 715 714 0
-714 712 715 0
716 -714 -712 0
-716 714 0
-716 712 0
717 -519 -713 0
519 -717 0
713 -717 0
717 716 -718 0
718 -716 0
718 -717 0
719 -673 -58 0
-719 58 0
-719 673 0
-719 -720 -525 0
-720 719 525 0
-719 525 720 0
719 -525 720 0
-720 -718 -721 0
718 720 -721 0
721 -718 720 0
-720 718 721 0
-720 -718 722 0
720 -722 0
718 -722 0
-719 -525 723 0
525 -723 0
719 -723 0
-724 723 722 0
724 -722 0
-723 724 0
725 -673 -66 0
66 -725 0
-725 673 0
-725 -726 -531 0
725 531 -726 0
-725 531 726 0
725 726 -531 0
-724 -727 -726 0
-727 724 726 0
-724 727 726 0
727 -726 724 0
-724 728 -726 0
-728 726 0
724 -728 0
-725 729 -531 0
531 -729 0
725 -729 0
728 -730 729 0
730 -728 0
730 -729 0
731 -673 -74 0
-731 74 0
-731 673 0
-731 -537 -732 0
731 537 -732 0
-731 537 732 0
731 -537 732 0
-733 -732 -730 0
-733 730 732 0
733 -730 732 0
730 733 -732 0
734 -732 -730 0
-734 732 0
730 -734 0
-731 -537 735 0
-735 537 0
731 -735 0
735 734 -736 0
-734 736 0
-735 736 0
-82 -673 737 0
82 -737 0
-737 673 0
-738 -737 -543 0
-738 543 737 0
543 738 -737 0
737 738 -543 0
-738 -739 -736 0
-739 736 738 0
739 738 -736 0
-738 736 739 0
-738 740 -736 0
-740 738 0
-740 736 0
741 -737 -543 0
543 -741 0
-741 737 0
740 741 -742 0
742 -740 0
742 -741 0
-90 743 -673 0
90 -743 0
-743 673 0
-744 -743 -549 0
-744 549 743 0
744 -743 549 0
744 -549 743 0
-744 -742 -745 0
742 744 -745 0
-742 744 745 0
-744 745 742 0
-744 -742 746 0
744 -746 0
742 -746 0
-743 -549 747 0
549 -747 0
-747 743 0
-748 746 747 0
748 -746 0
-747 748 0
-98 -673 749 0
-749 98 0
-749 673 0
-555 -749 -750 0
555 -750 749 0
555 750 -749 0
750 -555 749 0
-748 -751 -750 0
-751 750 748 0
-748 750 751 0
751 748 -750 0
752 -748 -750 0
750 -752 0
748 -752 0
-555 753 -749 0
555 -753 0
-753 749 0
-754 753 752 0
754 -752 0
754 -753 0
-106 -673 755 0
106 -755 0
-755 673 0
-756 -755 -561 0
-756 755 561 0
756 -755 561 0
756 -561 755 0
-756 -754 -757 0
-757 756 754 0
757 -754 756 0
-756 757 754 0
-756 -754 758 0
-758 756 0
-758 754 0
-755 -561 759 0
-759 561 0
-759 755 0
-760 758 759 0
-758 760 0
-759 760 0
761 -673 -114 0
114 -761 0
-761 673 0
-761 -567 -762 0
567 761 -762 0
567 -761 762 0
-567 761 762 0
-760 -762 -763 0
762 -763 760 0
-760 763 762 0
-762 763 760 0
-760 -762 764 0
-764 762 0
-764 760 0
-761 -567 765 0
567 -765 0
761 -765 0
-766 764 765 0
-764 766 0
766 -765 0
767 -122 -673 0
122 -767 0
-767 673 0
-767 -573 -768 0
573 767 -768 0
573 768 -767 0
768 767 -573 0
-769 -766 -768 0
-769 766 768 0
-766 769 768 0
769 766 -768 0
770 -766 -768 0
-770 768 0
-770 766 0
771 -767 -573 0
-771 573 0
-771 767 0
770 771 -772 0
772 -770 0
-771 772 0
773 -673 -130 0
130 -773 0
673 -773 0
-774 -579 -773 0
-774 773 579 0
774 579 -773 0
774 773 -579 0
-772 -774 -775 0
774 772 -775 0
774 -772 775 0
772 -774 775 0
-772 -774 776 0
774 -776 0
-776 772 0
777 -579 -773 0
-777 579 0
773 -777 0
777 -778 776 0
-776 778 0
-777 778 0
-138 -673 779 0
-779 138 0
-779 673 0
-780 -585 -779 0
585 -780 779 0
585 780 -779 0
-585 780 779 0
-780 -778 -781 0
780 -781 778 0
780 -778 781 0
-780 781 778 0
-780 782 -778 0
-782 780 0
-782 778 0
-585 783 -779 0
585 -783 0
-783 779 0
-784 782 783 0
-782 784 0
784 -783 0
785 -673 -146 0
146 -785 0
-785 673 0
-785 -786 -591 0
-786 591 785 0
-785 786 591 0
786 785 -591 0
-784 -786 -787 0
-787 786 784 0
-784 786 787 0
-786 784 787 0
-784 -786 788 0
786 -788 0
784 -788 0
-785 789 -591 0
-789 591 0
-789 785 0
789 788 -790 0
790 -788 0
790 -789 0
-673 791 -154 0
154 -791 0
-791 673 0
-792 -597 -791 0
597 -792 791 0
597 792 -791 0
792 -597 791 0
-792 -793 -790 0
790 792 -793 0
792 793 -790 0
790 -792 793 0
-792 -790 794 0
792 -794 0
790 -794 0
795 -597 -791 0
597 -795 0
791 -795 0
795 -796 794 0
796 -794 0
796 -795 0
797 -673 -162 0
162 -797 0
-797 673 0
-798 -603 -797 0
-798 603 797 0
798 -797 603 0
798 -603 797 0
-798 -799 -796 0
796 798 -799 0
799 798 -796 0
796 -798 799 0
-798 800 -796 0
798 -800 0
796 -800 0
-603 -797 801 0
-801 603 0
-801 797 0
800 801 -802 0
-800 802 0
-801 802 0
803 -673 -170 0
170 -803 0
-803 673 0
-803 -804 -609 0
-804 803 609 0
-803 804 609 0
803 804 -609 0
-804 -805 -802 0
-805 804 802 0
804 805 -802 0
-804 805 802 0
-804 806 -802 0
-806 804 0
-806 802 0
-803 807 -609 0
609 -807 0
803 -807 0
-808 806 807 0
808 -806 0
808 -807 0
809 -673 -178 0
-809 178 0
-809 673 0
-810 -809 -615 0
809 615 -810 0
615 810 -809 0
809 810 -615 0
-810 -811 -808 0
808 810 -811 0
811 810 -808 0
808 -810 811 0
812 -810 -808 0
-812 810 0
808 -812 0
-809 813 -615 0
-813 615 0
-813 809 0
812 -814 813 0
-812 814 0
-813 814 0
-673 815 -186 0
186 -815 0
-815 673 0
-816 -621 -815 0
621 815 -816 0
621 -815 816 0
-621 815 816 0
-816 -817 -814 0
814 -817 816 0
-814 817 816 0
-816 814 817 0
-816 818 -814 0
-818 816 0
-818 814 0
-621 -815 819 0
621 -819 0
815 -819 0
-820 818 819 0
820 -818 0
820 -819 0
-194 -673 821 0
194 -821 0
-821 673 0
-822 -821 -627 0
821 -822 627 0
822 -821 627 0
821 822 -627 0
-822 -823 -820 0
820 -823 822 0
-820 822 823 0
-822 823 820 0
-822 824 -820 0
822 -824 0
820 -824 0
-821 -627 825 0
-825 627 0
821 -825 0
824 825 -826 0
-824 826 0
-825 826 0
-673 827 -202 0
-827 202 0
-827 673 0
-827 -633 -828 0
633 827 -828 0
633 -827 828 0
827 -633 828 0
-829 -826 -828 0
-829 828 826 0
829 -826 828 0
829 -828 826 0
830 -826 -828 0
-830 828 0
-830 826 0
-827 -633 831 0
633 -831 0
827 -831 0
830 -832 831 0
-830 832 0
-831 832 0
-210 -673 833 0
-833 210 0
-833 673 0
-639 -833 -834 0
639 833 -834 0
-833 639 834 0
-639 833 834 0
-835 -832 -834 0
832 -835 834 0
835 -832 834 0
835 832 -834 0
836 -832 -834 0
-836 834 0
-836 832 0
-639 -833 837 0
639 -837 0
833 -837 0
-838 837 836 0
838 -836 0
-837 838 0
-218 -673 839 0
-839 218 0
-839 673 0
-839 -645 -840 0
645 -840 839 0
-839 645 840 0
840 -645 839 0
-838 -841 -840 0
-841 840 838 0
-838 840 841 0
841 838 -840 0
-838 -840 842 0
840 -842 0
-842 838 0
-839 -645 843 0
-843 645 0
-843 839 0
843 -844 842 0
-842 844 0
-843 844 0
-226 -673 845 0
226 -845 0
673 -845 0
-846 -651 -845 0
651 -846 845 0
651 846 -845 0
846 -651 845 0
-847 -844 -846 0
-847 846 844 0
846 -844 847 0
844 847 -846 0
848 -844 -846 0
-848 846 0
-848 844 0
849 -651 -845 0
651 -849 0
-849 845 0
848 849 -850 0
850 -848 0
850 -849 0
851 -673 -234 0
-851 234 0
-851 673 0
-851 -852 -657 0
657 -852 851 0
657 852 -851 0
851 852 -657 0
-852 -850 -853 0
850 -853 852 0
-850 852 853 0
850 -852 853 0
-852 -850 854 0
852 -854 0
850 -854 0
-851 855 -657 0
657 -855 0
851 -855 0
855 -856 854 0
856 -854 0
856 -855 0
-673 -242 857 0
-857 242 0
-857 673 0
-857 -663 -858 0
663 857 -858 0
663 -857 858 0
-663 858 857 0
-859 -856 -858 0
-859 856 858 0
-856 858 859 0
856 859 -858 0
-856 860 -858 0
-860 858 0
856 -860 0
-857 861 -663 0
663 -861 0
-861 857 0
861 -862 860 0
862 -860 0
862 -861 0
-250 -673 863 0
250 -863 0
-863 673 0
-864 -863 -669 0
863 669 -864 0
864 -863 669 0
863 864 -669 0
-862 -865 -864 0
862 864 -865 0
-862 864 865 0
862 865 -864 0
866 -862 -864 0
-866 864 0
862 -866 0
867 -863 -669 0
-867 669 0
-867 863 0
866 867 -868 0
-866 868 0
-867 868 0
-673 -258 869 0
-869 258 0
-869 673 0
-672 -870 -869 0
869 -870 672 0
-869 870 672 0
-672 869 870 0
-868 -870 -871 0
-871 870 868 0
-868 871 870 0
871 -870 868 0
872 -868 -870 0
-872 870 0
-872 868 0
873 -672 -869 0
-873 672 0
-873 869 0
873 -874 872 0
-872 874 0
-873 874 0
876 -1 -875 0
-876 1 0
875 -876 0
-877 -679 -876 0
876 -877 679 0
877 -876 679 0
876 -679 877 0
878 -679 -876 0
-878 679 0
876 -878 0
-4 879 -875 0
-879 4 0
875 -879 0
-685 -879 -880 0
685 -880 879 0
880 685 -879 0
880 -685 879 0
-881 -878 -880 0
878 880 -881 0
881 880 -878 0
878 881 -880 0
-878 -880 882 0
880 -882 0
878 -882 0
883 -685 -879 0
685 -883 0
-883 879 0
883 -884 882 0
884 -882 0
-883 884 0
885 -10 -875 0
-885 10 0
875 -885 0
-885 -886 -691 0
691 -886 885 0
691 -885 886 0
886 885 -691 0
-887 -886 -884 0
886 -887 884 0
886 887 -884 0
-886 887 884 0
888 -886 -884 0
886 -888 0
884 -888 0
-885 889 -691 0
691 -889 0
-889 885 0
-890 889 888 0
890 -888 0
-889 890 0
-875 891 -18 0
-891 18 0
875 -891 0
-891 -697 -892 0
891 -892 697 0
-891 892 697 0
892 -697 891 0
-890 -893 -892 0
892 -893 890 0
893 892 -890 0
893 890 -892 0
-890 894 -892 0
892 -894 0
890 -894 0
-891 -697 895 0
-895 697 0
-895 891 0
895 -896 894 0
-894 896 0
-895 896 0
-875 897 -26 0
-897 26 0
875 -897 0
-897 -898 -703 0
-898 897 703 0
-897 898 703 0
898 -703 897 0
-898 -896 -899 0
898 -899 896 0
898 899 -896 0
-898 899 896 0
-898 -896 900 0
898 -900 0
-900 896 0
-897 901 -703 0
-901 703 0
897 -901 0
-902 901 900 0
-900 902 0
-901 902 0
-34 903 -875 0
34 -903 0
875 -903 0
-904 -709 -903 0
903 709 -904 0
904 709 -903 0
-709 903 904 0
-902 -905 -904 0
-905 902 904 0
-902 905 904 0
902 905 -904 0
-902 906 -904 0
-906 904 0
-906 902 0
907 -709 -903 0
-907 709 0
-907 903 0
-908 907 906 0
908 -906 0
908 -907 0
-875 909 -42 0
42 -909 0
875 -909 0
-910 -909 -715 0
715 -910 909 0
910 715 -909 0
910 909 -715 0
-908 -910 -911 0
910 -911 908 0
911 910 -908 0
911 908 -910 0
-908 -910 912 0
910 -912 0
908 -912 0
913 -909 -715 0
-913 715 0
-913 909 0
913 -914 912 0
914 -912 0
-913 914 0
-50 915 -875 0
50 -915 0
875 -915 0
-721 -916 -915 0
721 -916 915 0
721 916 -915 0
-721 916 915 0
-916 -917 -914 0
916 914 -917 0
917 916 -914 0
917 914 -916 0
918 -916 -914 0
916 -918 0
914 -918 0
-721 919 -915 0
721 -919 0
-919 915 0
919 918 -920 0
-918 920 0
920 -919 0
921 -58 -875 0
-921 58 0
875 -921 0
-922 -921 -727 0
-922 727 921 0
-921 727 922 0
922 -727 921 0
-922 -923 -920 0
-923 920 922 0
923 -920 922 0
-922 923 920 0
-922 924 -920 0
-924 922 0
-924 920 0
925 -921 -727 0
-925 727 0
-925 921 0
924 -926 925 0
926 -924 0
-925 926 0
927 -66 -875 0
66 -927 0
875 -927 0
-733 -927 -928 0
927 733 -928 0
928 -927 733 0
-733 927 928 0
-926 -929 -928 0
928 926 -929 0
928 -926 929 0
926 929 -928 0
-926 930 -928 0
-930 928 0
-930 926 0
-733 -927 931 0
-931 733 0
927 -931 0
-932 931 930 0
-930 932 0
-931 932 0
933 -74 -875 0
-933 74 0
875 -933 0
-933 -739 -934 0
933 -934 739 0
-933 934 739 0
933 -739 934 0
-935 -934 -932 0
-935 934 932 0
934 -932 935 0
-934 935 932 0
936 -934 -932 0
-936 934 0
-936 932 0
-933 -739 937 0
-937 739 0
933 -937 0
936 -938 937 0
-936 938 0
938 -937 0
-82 939 -875 0
-939 82 0
875 -939 0
-745 -939 -940 0
-940 939 745 0
-939 745 940 0
-745 939 940 0
-940 -938 -941 0
-941 938 940 0
-938 941 940 0
-940 938 941 0
-940 -938 942 0
-942 940 0
-942 938 0
-745 -939 943 0
745 -943 0
939 -943 0
942 -944 943 0
-942 944 0
-943 944 0
945 -90 -875 0
90 -945 0
875 -945 0
-945 -751 -946 0
751 -946 945 0
946 -945 751 0
946 -751 945 0
-947 -946 -944 0
946 -947 944 0
946 -944 947 0
-946 944 947 0
-946 -944 948 0
946 -948 0
-948 944 0
-945 -751 949 0
751 -949 0
-949 945 0
949 -950 948 0
950 -948 0
-949 950 0
-98 951 -875 0
-951 98 0
875 -951 0
-951 -952 -757 0
757 951 -952 0
757 -951 952 0
951 -757 952 0
-952 -950 -953 0
950 -953 952 0
953 -950 952 0
953 -952 950 0
-952 -950 954 0
-954 952 0
950 -954 0
-951 955 -757 0
757 -955 0
951 -955 0
-956 955 954 0
-954 956 0
956 -955 0
-106 957 -875 0
-957 106 0
875 -957 0
-957 -958 -763 0
957 -958 763 0
-957 763 958 0
957 -763 958 0
-959 -958 -956 0
-959 958 956 0
-956 958 959 0
-958 959 956 0
-958 -956 960 0
958 -960 0
-960 956 0
-957 -763 961 0
763 -961 0
957 -961 0
961 960 -962 0
962 -960 0
-961 962 0
963 -114 -875 0
114 -963 0
875 -963 0
-769 -964 -963 0
769 -964 963 0
769 964 -963 0
-769 964 963 0
-964 -965 -962 0
964 -965 962 0
964 965 -962 0
965 -964 962 0
-964 966 -962 0
-966 964 0
-966 962 0
-769 967 -963 0
769 -967 0
963 -967 0
967 966 -968 0
-966 968 0
-967 968 0
969 -122 -875 0
122 -969 0
875 -969 0
-970 -775 -969 0
969 -970 775 0
970 775 -969 0
969 970 -775 0
-970 -971 -968 0
-971 970 968 0
971 970 -968 0
971 -970 968 0
-970 -968 972 0
-972 970 0
-972 968 0
973 -775 -969 0
-973 775 0
969 -973 0
973 -974 972 0
-972 974 0
-973 974 0
-875 975 -130 0
-975 130 0
875 -975 0
-975 -976 -781 0
-976 781 975 0
-975 976 781 0
976 -781 975 0
-977 -976 -974 0
-977 976 974 0
-974 976 977 0
-976 977 974 0
978 -976 -974 0
-978 976 0
-978 974 0
-975 -781 979 0
-979 781 0
-979 975 0
978 -980 979 0
980 -978 0
980 -979 0
981 -138 -875 0
-981 138 0
875 -981 0
-787 -981 -982 0
981 787 -982 0
-981 787 982 0
-787 981 982 0
-980 -983 -982 0
980 -983 982 0
-980 983 982 0
980 983 -982 0
984 -980 -982 0
982 -984 0
980 -984 0
-787 -981 985 0
-985 787 0
-985 981 0
984 985 -986 0
986 -984 0
-985 986 0
987 -146 -875 0
146 -987 0
875 -987 0
-988 -987 -793 0
-988 987 793 0
988 -987 793 0
988 987 -793 0
-988 -989 -986 0
988 -989 986 0
988 989 -986 0
-988 989 986 0
-988 990 -986 0
988 -990 0
986 -990 0
-987 991 -793 0
-991 793 0
-991 987 0
991 990 -992 0
992 -990 0
-991 992 0
993 -154 -875 0
154 -993 0
875 -993 0
-994 -799 -993 0
799 -994 993 0
799 994 -993 0
994 -799 993 0
-995 -994 -992 0
-995 992 994 0
994 995 -992 0
-994 992 995 0
996 -994 -992 0
-996 994 0
-996 992 0
997 -799 -993 0
799 -997 0
-997 993 0
997 996 -998 0
-996 998 0
-997 998 0
999 -162 -875 0
162 -999 0
875 -999 0
-1000 -805 -999 0
-1000 999 805 0
1000 805 -999 0
-805 1000 999 0
-1000 -1001 -998 0
998 1000 -1001 0
1000 -998 1001 0
-1000 998 1001 0
-1000 1002 -998 0
1000 -1002 0
998 -1002 0
-805 1003 -999 0
-1003 805 0
999 -1003 0
1002 1003 -1004 0
1004 -1002 0
1004 -1003 0
1005 -170 -875 0
170 -1005 0
875 -1005 0
-811 -1005 -1006 0
1005 811 -1006 0
1006 811 -1005 0
1006 1005 -811 0
-1007 -1004 -1006 0
1006 -1007 1004 0
1007 1006 -1004 0
1007 1004 -1006 0
1008 -1004 -1006 0
1006 -1008 0
1004 -1008 0
1009 -811 -1005 0
-1009 811 0
1005 -1009 0
1008 1009 -1010 0
1010 -1008 0
-1009 1010 0
1011 -875 -178 0
-1011 178 0
875 -1011 0
-817 -1012 -1011 0
1011 -1012 817 0
1012 817 -1011 0
1011 -817 1012 0
-1010 -1012 -1013 0
-1013 1012 1010 0
-1010 1012 1013 0
1013 1010 -1012 0
-1010 1014 -1012 0
-1014 1012 0
-1014 1010 0
1015 -817 -1011 0
-1015 817 0
1011 -1015 0
-1016 1014 1015 0
-1014 1016 0
1016 -1015 0
-186 1017 -875 0
186 -1017 0
875 -1017 0
-823 -1017 -1018 0
823 1017 -1018 0
823 -1017 1018 0
-823 1017 1018 0
-1019 -1016 -1018 0
1016 -1019 1018 0
1019 -1016 1018 0
1016 1019 -1018 0
1020 -1016 -1018 0
-1020 1018 0
1016 -1020 0
-823 1021 -1017 0
-1021 823 0
-1021 1017 0
1021 -1022 1020 0
-1020 1022 0
-1021 1022 0
-194 1023 -875 0
194 -1023 0
875 -1023 0
-829 -1024 -1023 0
-1024 1023 829 0
1024 829 -1023 0
-829 1024 1023 0
-1024 -1022 -1025 0
1024 1022 -1025 0
1024 -1022 1025 0
-1024 1022 1025 0
-1024 -1022 1026 0
1024 -1026 0
1022 -1026 0
-829 -1023 1027 0
829 -1027 0
1023 -1027 0
1026 -1028 1027 0
-1026 1028 0
1028 -1027 0
1029 -202 -875 0
202 -1029 0
875 -1029 0
-835 -1030 -1029 0
1029 835 -1030 0
1030 835 -1029 0
1029 1030 -835 0
-1031 -1030 -1028 0
1030 -1031 1028 0
1030 -1028 1031 0
-1030 1031 1028 0
-1030 -1028 1032 0
1030 -1032 0
-1032 1028 0
1033 -835 -1029 0
-1033 835 0
1029 -1033 0
1033 -1034 1032 0
-1032 1034 0
-1033 1034 0
1035 -210 -875 0
-1035 210 0
875 -1035 0
-841 -1036 -1035 0
1035 -1036 841 0
-1035 841 1036 0
-841 1035 1036 0
-1037 -1036 -1034 0
-1037 1034 1036 0
1037 1036 -1034 0
-1036 1037 1034 0
-1036 1038 -1034 0
-1038 1036 0
1034 -1038 0
-841 -1035 1039 0
-1039 841 0
1035 -1039 0
-1040 1039 1038 0
1040 -1038 0
-1039 1040 0
-218 1041 -875 0
-1041 218 0
875 -1041 0
-1041 -847 -1042 0
-1042 1041 847 0
-1041 1042 847 0
-847 1041 1042 0
-1040 -1042 -1043 0
1040 -1043 1042 0
-1040 1042 1043 0
-1042 1040 1043 0
-1040 -1042 1044 0
-1044 1042 0
1040 -1044 0
-1041 -847 1045 0
-1045 847 0
1041 -1045 0
1044 1045 -1046 0
1046 -1044 0
1046 -1045 0
-226 1047 -875 0
-1047 226 0
875 -1047 0
-1048 -1047 -853 0
-1048 1047 853 0
-1047 1048 853 0
-853 1047 1048 0
-1048 -1046 -1049 0
1046 -1049 1048 0
1049 -1046 1048 0
-1048 1046 1049 0
-1048 1050 -1046 0
-1050 1048 0
1046 -1050 0
1051 -1047 -853 0
-1051 853 0
1047 -1051 0
1051 1050 -1052 0
1052 -1050 0
1052 -1051 0
-875 1053 -234 0
234 -1053 0
875 -1053 0
-859 -1053 -1054 0
1053 859 -1054 0
-1053 1054 859 0
-859 1053 1054 0
-1052 -1055 -1054 0
1052 -1055 1054 0
-1052 1055 1054 0
1052 1055 -1054 0
-1052 1056 -1054 0
1054 -1056 0
1052 -1056 0
-859 -1053 1057 0
-1057 859 0
-1057 1053 0
1056 1057 -1058 0
1058 -1056 0
-1057 1058 0
1059 -242 -875 0
-1059 242 0
875 -1059 0
-1060 -1059 -865 0
-1060 1059 865 0
1060 -1059 865 0
1060 1059 -865 0
-1060 -1058 -1061 0
1060 1058 -1061 0
1060 1061 -1058 0
-1060 1058 1061 0
-1060 1062 -1058 0
1060 -1062 0
1058 -1062 0
1063 -1059 -865 0
-1063 865 0
1059 -1063 0
1063 1062 -1064 0
-1062 1064 0
-1063 1064 0
1065 -250 -875 0
250 -1065 0
875 -1065 0
-1066 -871 -1065 0
-1066 1065 871 0
871 1066 -1065 0
1065 1066 -871 0
-1066 -1067 -1064 0
1066 1064 -1067 0
-1064 1066 1067 0
-1066 1064 1067 0
-1066 1068 -1064 0
-1068 1066 0
-1068 1064 0
1069 -871 -1065 0
871 -1069 0
1065 -1069 0
-1070 1069 1068 0
-1068 1070 0
-1069 1070 0
1071 -258 -875 0
-1071 258 0
875 -1071 0
-1071 -874 -1072 0
1071 874 -1072 0
-1071 874 1072 0
1071 1072 -874 0
-1070 -1073 -1072 0
-1073 1072 1070 0
-1070 1073 1072 0
1073 -1072 1070 0
-1070 1074 -1072 0
-1074 1072 0
-1074 1070 0
-1071 1075 -874 0
874 -1075 0
1071 -1075 0
1074 -1076 1075 0
-1074 1076 0
-1075 1076 0
1078 -1077 -1 0
-1078 1 0
-1078 1077 0
-1079 -881 -1078 0
1078 881 -1079 0
881 1079 -1078 0
1078 1079 -881 0
1080 -881 -1078 0
881 -1080 0
1078 -1080 0
-1077 -4 1081 0
-1081 4 0
-1081 1077 0
-887 -1081 -1082 0
-1082 1081 887 0
1082 -1081 887 0
-887 1082 1081 0
-1080 -1083 -1082 0
1080 1082 -1083 0
1082 -1080 1083 0
1080 -1082 1083 0
1084 -1080 -1082 0
1082 -1084 0
1080 -1084 0
-887 -1081 1085 0
-1085 887 0
-1085 1081 0
1084 -1086 1085 0
1086 -1084 0
-1085 1086 0
-1077 -10 1087 0
10 -1087 0
-1087 1077 0
-1087 -893 -1088 0
893 -1088 1087 0
893 1088 -1087 0
1088 -893 1087 0
-1088 -1086 -1089 0
1088 1086 -1089 0
1088 -1086 1089 0
-1088 1086 1089 0
1090 -1088 -1086 0
1088 -1090 0
-1090 1086 0
1091 -1087 -893 0
893 -1091 0
-1091 1087 0
1091 1090 -1092 0
-1090 1092 0
-1091 1092 0
-1077 1093 -18 0
-1093 18 0
-1093 1077 0
-1093 -899 -1094 0
899 -1094 1093 0
1094 -1093 899 0
1094 -899 1093 0
-1092 -1095 -1094 0
1094 1092 -1095 0
-1092 1094 1095 0
1095 1092 -1094 0
-1092 1096 -1094 0
1094 -1096 0
1092 -1096 0
1097 -1093 -899 0
899 -1097 0
-1097 1093 0
1097 -1098 1096 0
-1096 1098 0
-1097 1098 0
-1077 1099 -26 0
-1099 26 0
-1099 1077 0
-1100 -1099 -905 0
1099 905 -1100 0
-1099 1100 905 0
1099 1100 -905 0
-1101 -1098 -1100 0
-1101 1100 1098 0
-1098 1100 1101 0
1101 1098 -1100 0
-1098 1102 -1100 0
-1102 1100 0
-1102 1098 0
-1099 1103 -905 0
905 -1103 0
1099 -1103 0
-1104 1103 1102 0
-1102 1104 0
1104 -1103 0
-34 -1077 1105 0
34 -1105 0
-1105 1077 0
-1106 -911 -1105 0
-1106 911 1105 0
911 1106 -1105 0
-911 1106 1105 0
-1106 -1107 -1104 0
1104 1106 -1107 0
1106 1107 -1104 0
1104 -1106 1107 0
-1106 1108 -1104 0
1106 -1108 0
1104 -1108 0
-911 1109 -1105 0
911 -1109 0
-1109 1105 0
-1110 1108 1109 0
1110 -1108 0
-1109 1110 0
-1077 1111 -42 0
42 -1111 0
-1111 1077 0
-1112 -917 -1111 0
917 1111 -1112 0
917 1112 -1111 0
1111 -917 1112 0
-1113 -1110 -1112 0
1112 1110 -1113 0
1112 -1110 1113 0
1113 1110 -1112 0
1114 -1110 -1112 0
1112 -1114 0
1110 -1114 0
-917 1115 -1111 0
917 -1115 0
1111 -1115 0
-1116 1114 1115 0
-1114 1116 0
-1115 1116 0
-50 1117 -1077 0
50 -1117 0
-1117 1077 0
-923 -1117 -1118 0
923 1117 -1118 0
1118 923 -1117 0
-923 1118 1117 0
-1116 -1118 -1119 0
1118 -1119 1116 0
1118 -1116 1119 0
-1118 1119 1116 0
1120 -1116 -1118 0
-1120 1118 0
-1120 1116 0
-923 1121 -1117 0
923 -1121 0
1117 -1121 0
1121 1120 -1122 0
-1120 1122 0
-1121 1122 0
-1077 -58 1123 0
58 -1123 0
-1123 1077 0
-1124 -929 -1123 0
-1124 929 1123 0
1124 929 -1123 0
1124 -929 1123 0
-1122 -1125 -1124 0
-1125 1124 1122 0
1125 1124 -1122 0
1125 -1124 1122 0
-1122 -1124 1126 0
1124 -1126 0
-1126 1122 0
1127 -929 -1123 0
-1127 929 0
-1127 1123 0
-1128 1127 1126 0
-1126 1128 0
-1127 1128 0
1129 -1077 -66 0
-1129 66 0
-1129 1077 0
-1129 -935 -1130 0
1129 935 -1130 0
-1129 1130 935 0
1130 -935 1129 0
-1131 -1128 -1130 0
-1131 1130 1128 0
1130 -1128 1131 0
1131 1128 -1130 0
-1128 1132 -1130 0
1130 -1132 0
1128 -1132 0
-1129 -935 1133 0
-1133 935 0
-1133 1129 0
-1134 1133 1132 0
1134 -1132 0
-1133 1134 0
1135 -1077 -74 0
-1135 74 0
-1135 1077 0
-1135 -1136 -941 0
1135 -1136 941 0
-1135 1136 941 0
1135 1136 -941 0
-1134 -1136 -1137 0
1136 -1137 1134 0
1137 -1134 1136 0
1137 -1136 1134 0
1138 -1134 -1136 0
-1138 1136 0
-1138 1134 0
-1135 -941 1139 0
-1139 941 0
1135 -1139 0
1138 -1140 1139 0
-1138 1140 0
-1139 1140 0
1141 -82 -1077 0
-1141 82 0
-1141 1077 0
-1141 -947 -1142 0
1141 -1142 947 0
-1141 1142 947 0
1141 -947 1142 0
-1143 -1140 -1142 0
1142 1140 -1143 0
-1140 1142 1143 0
1143 1140 -1142 0
-1140 1144 -1142 0
1142 -1144 0
-1144 1140 0
-1141 1145 -947 0
-1145 947 0
-1145 1141 0
1145 -1146 1144 0
1146 -1144 0
-1145 1146 0
-90 -1077 1147 0
90 -1147 0
-1147 1077 0
-1147 -1148 -953 0
953 -1148 1147 0
953 -1147 1148 0
1148 1147 -953 0
-1149 -1146 -1148 0
1148 1146 -1149 0
1148 -1146 1149 0
1149 -1148 1146 0
1150 -1146 -1148 0
1148 -1150 0
-1150 1146 0
-1147 1151 -953 0
953 -1151 0
1147 -1151 0
1150 1151 -1152 0
-1150 1152 0
1152 -1151 0
-98 -1077 1153 0
98 -1153 0
-1153 1077 0
-959 -1154 -1153 0
-1154 959 1153 0
1154 959 -1153 0
-959 1154 1153 0
-1154 -1155 -1152 0
1154 -1155 1152 0
1154 1155 -1152 0
1155 -1154 1152 0
-1154 1156 -1152 0
1154 -1156 0
1152 -1156 0
-959 1157 -1153 0
-1157 959 0
-1157 1153 0
-1158 1157 1156 0
-1156 1158 0
-1157 1158 0
-106 -1077 1159 0
106 -1159 0
-1159 1077 0
-1160 -965 -1159 0
-1160 965 1159 0
965 1160 -1159 0
1159 1160 -965 0
-1158 -1160 -1161 0
-1161 1158 1160 0
-1158 1161 1160 0
1161 -1160 1158 0
-1158 -1160 1162 0
-1162 1160 0
-1162 1158 0
1163 -965 -1159 0
-1163 965 0
-1163 1159 0
-1164 1163 1162 0
-1162 1164 0
-1163 1164 0
1165 -1077 -114 0
114 -1165 0
-1165 1077 0
-1165 -971 -1166 0
1165 971 -1166 0
971 -1165 1166 0
1165 -971 1166 0
-1164 -1167 -1166 0
-1167 1166 1164 0
1167 -1164 1166 0
1167 1164 -1166 0
1168 -1164 -1166 0
1166 -1168 0
1164 -1168 0
1169 -1165 -971 0
-1169 971 0
1165 -1169 0
1169 1168 -1170 0
1170 -1168 0
-1169 1170 0
-1077 -122 1171 0
122 -1171 0
-1171 1077 0
-977 -1172 -1171 0
-1172 977 1171 0
1172 -1171 977 0
1172 -977 1171 0
-1172 -1173 -1170 0
1172 1170 -1173 0
1172 1173 -1170 0
1173 -1172 1170 0
-1172 1174 -1170 0
1172 -1174 0
1170 -1174 0
1175 -977 -1171 0
-1175 977 0
-1175 1171 0
1175 1174 -1176 0
1176 -1174 0
-1175 1176 0
1177 -1077 -130 0
130 -1177 0
-1177 1077 0
-1178 -1177 -983 0
1177 983 -1178 0
-1177 983 1178 0
1178 1177 -983 0
-1178 -1179 -1176 0
1178 -1179 1176 0
1178 -1176 1179 0
-1178 1179 1176 0
-1178 1180 -1176 0
1178 -1180 0
-1180 1176 0
1181 -1177 -983 0
-1181 983 0
1177 -1181 0
1180 -1182 1181 0
-1180 1182 0
-1181 1182 0
-1077 -138 1183 0
-1183 138 0
-1183 1077 0
-1183 -1184 -989 0
-1184 989 1183 0
-1183 989 1184 0
1183 -989 1184 0
-1184 -1185 -1182 0
1182 1184 -1185 0
1185 1184 -1182 0
-1184 1185 1182 0
-1184 1186 -1182 0
-1186 1184 0
-1186 1182 0
-1183 1187 -989 0
989 -1187 0
1183 -1187 0
-1188 1187 1186 0
-1186 1188 0
1188 -1187 0
1189 -1077 -146 0
146 -1189 0
-1189 1077 0
-1190 -995 -1189 0
-1190 1189 995 0
-1189 995 1190 0
-995 1189 1190 0
-1190 -1191 -1188 0
-1191 1190 1188 0
1191 1190 -1188 0
-1190 1188 1191 0
-1190 1192 -1188 0
1190 -1192 0
1188 -1192 0
-995 1193 -1189 0
-1193 995 0
1189 -1193 0
1192 -1194 1193 0
-1192 1194 0
-1193 1194 0
-1077 1195 -154 0
154 -1195 0
-1195 1077 0
-1001 -1196 -1195 0
-1196 1195 1001 0
1196 -1195 1001 0
1196 -1001 1195 0
-1194 -1196 -1197 0
1196 -1197 1194 0
1196 1197 -1194 0
1197 -1196 1194 0
-1194 -1196 1198 0
1196 -1198 0
1194 -1198 0
-1001 1199 -1195 0
-1199 1001 0
-1199 1195 0
1199 1198 -1200 0
1200 -1198 0
-1199 1200 0
-1077 1201 -162 0
162 -1201 0
-1201 1077 0
-1007 -1202 -1201 0
1007 1201 -1202 0
1007 1202 -1201 0
1201 -1007 1202 0
-1200 -1203 -1202 0
1200 -1203 1202 0
-1200 1202 1203 0
1200 -1202 1203 0
-1200 1204 -1202 0
1202 -1204 0
1200 -1204 0
1205 -1007 -1201 0
1007 -1205 0
1201 -1205 0
1204 -1206 1205 0
1206 -1204 0
1206 -1205 0
-1077 -170 1207 0
170 -1207 0
-1207 1077 0
-1013 -1208 -1207 0
-1208 1013 1207 0
1208 -1207 1013 0
-1013 1208 1207 0
-1209 -1206 -1208 0
1208 1206 -1209 0
1208 1209 -1206 0
1206 1209 -1208 0
1210 -1206 -1208 0
1208 -1210 0
1206 -1210 0
-1013 -1207 1211 0
-1211 1013 0
-1211 1207 0
1210 -1212 1211 0
1212 -1210 0
1212 -1211 0
-1077 1213 -178 0
-1213 178 0
-1213 1077 0
-1214 -1019 -1213 0
1019 -1214 1213 0
1019 1214 -1213 0
1213 -1019 1214 0
-1215 -1214 -1212 0
-1215 1212 1214 0
-1212 1215 1214 0
1212 -1214 1215 0
1216 -1214 -1212 0
-1216 1214 0
1212 -1216 0
1217 -1019 -1213 0
-1217 1019 0
-1217 1213 0
1216 1217 -1218 0
1218 -1216 0
-1217 1218 0
1219 -1077 -186 0
186 -1219 0
-1219 1077 0
-1220 -1219 -1025 0
1219 -1220 1025 0
1220 -1219 1025 0
1219 1220 -1025 0
-1221 -1218 -1220 0
-1221 1220 1218 0
-1218 1220 1221 0
1221 -1220 1218 0
1222 -1218 -1220 0
1220 -1222 0
-1222 1218 0
-1219 1223 -1025 0
-1223 1025 0
1219 -1223 0
1222 1223 -1224 0
1224 -1222 0
1224 -1223 0
-194 1225 -1077 0
-1225 194 0
-1225 1077 0
-1225 -1226 -1031 0
-1226 1225 1031 0
-1225 1226 1031 0
1225 -1031 1226 0
-1227 -1226 -1224 0
1224 1226 -1227 0
1227 1226 -1224 0
1224 -1226 1227 0
-1226 1228 -1224 0
-1228 1226 0
-1228 1224 0
-1225 -1031 1229 0
-1229 1031 0
-1229 1225 0
-1230 1228 1229 0
-1228 1230 0
1230 -1229 0
1231 -1077 -202 0
202 -1231 0
-1231 1077 0
-1037 -1232 -1231 0
1037 -1232 1231 0
1232 1037 -1231 0
1232 -1037 1231 0
-1230 -1233 -1232 0
1232 1230 -1233 0
1232 1233 -1230 0
1230 1233 -1232 0
-1230 1234 -1232 0
1232 -1234 0
1230 -1234 0
-1037 1235 -1231 0
1037 -1235 0
1231 -1235 0
-1236 1235 1234 0
1236 -1234 0
1236 -1235 0
-1077 -210 1237 0
-1237 210 0
-1237 1077 0
-1238 -1043 -1237 0
-1238 1237 1043 0
-1237 1238 1043 0
1238 -1043 1237 0
-1238 -1239 -1236 0
1236 -1239 1238 0
-1236 1238 1239 0
-1238 1236 1239 0
1240 -1238 -1236 0
-1240 1238 0
-1240 1236 0
-1043 -1237 1241 0
-1241 1043 0
-1241 1237 0
1240 1241 -1242 0
-1240 1242 0
-1241 1242 0
1243 -218 -1077 0
-1243 218 0
-1243 1077 0
-1243 -1244 -1049 0
1049 -1244 1243 0
1049 -1243 1244 0
1243 1244 -1049 0
-1245 -1242 -1244 0
1244 1242 -1245 0
1244 1245 -1242 0
1242 1245 -1244 0
1246 -1242 -1244 0
-1246 1244 0
-1246 1242 0
-1243 1247 -1049 0
1049 -1247 0
1243 -1247 0
1247 1246 -1248 0
-1246 1248 0
-1247 1248 0
-226 -1077 1249 0
226 -1249 0
-1249 1077 0
-1249 -1055 -1250 0
1055 1249 -1250 0
1055 -1249 1250 0
1249 -1055 1250 0
-1248 -1250 -1251 0
1248 -1251 1250 0
-1248 1251 1250 0
1251 -1250 1248 0
-1248 1252 -1250 0
-1252 1250 0
-1252 1248 0
-1249 -1055 1253 0
1055 -1253 0
1249 -1253 0
-1254 1252 1253 0
-1252 1254 0
1254 -1253 0
-1077 1255 -234 0
234 -1255 0
-1255 1077 0
-1061 -1255 -1256 0
1255 1061 -1256 0
1256 -1255 1061 0
-1061 1255 1256 0
-1256 -1257 -1254 0
1256 -1257 1254 0
1256 -1254 1257 0
-1256 1254 1257 0
1258 -1256 -1254 0
1256 -1258 0
-1258 1254 0
-1061 -1255 1259 0
-1259 1061 0
1255 -1259 0
1258 -1260 1259 0
-1258 1260 0
-1259 1260 0
1261 -1077 -242 0
242 -1261 0
-1261 1077 0
-1262 -1067 -1261 0
-1262 1261 1067 0
1262 -1261 1067 0
1261 1262 -1067 0
-1262 -1260 -1263 0
1262 -1263 1260 0
1263 -1260 1262 0
1263 -1262 1260 0
-1262 -1260 1264 0
1262 -1264 0
-1264 1260 0
1265 -1067 -1261 0
-1265 1067 0
1261 -1265 0
1265 -1266 1264 0
1266 -1264 0
1266 -1265 0
-1077 -250 1267 0
250 -1267 0
-1267 1077 0
-1073 -1268 -1267 0
-1268 1073 1267 0
1268 1073 -1267 0
1268 -1073 1267 0
-1269 -1268 -1266 0
1268 1266 -1269 0
1268 -1266 1269 0
1266 -1268 1269 0
-1268 -1266 1270 0
1268 -1270 0
-1270 1266 0
-1073 1271 -1267 0
-1271 1073 0
-1271 1267 0
-1272 1270 1271 0
-1270 1272 0
-1271 1272 0
-1077 1273 -258 0
258 -1273 0
-1273 1077 0
-1076 -1274 -1273 0
1273 -1274 1076 0
1274 -1273 1076 0
1274 -1076 1273 0
-1272 -1274 -1275 0
1274 -1275 1272 0
1274 -1272 1275 0
1275 -1274 1272 0
-1272 1276 -1274 0
1274 -1276 0
-1276 1272 0
-1076 1277 -1273 0
-1277 1076 0
-1277 1273 0
-1278 1276 1277 0
-1276 1278 0
-1277 1278 0
1280 -1 -1279 0
-1280 1 0
-1280 1279 0
-1280 -1281 -1083 0
1280 1083 -1281 0
-1280 1083 1281 0
1280 -1083 1281 0
-1280 1282 -1083 0
-1282 1083 0
-1282 1280 0
1283 -4 -1279 0
-1283 4 0
1279 -1283 0
-1284 -1283 -1089 0
-1284 1283 1089 0
-1283 1284 1089 0
1283 1284 -1089 0
-1282 -1284 -1285 0
-1285 1282 1284 0
-1282 1285 1284 0
-1284 1282 1285 0
-1282 -1284 1286 0
-1286 1284 0
-1286 1282 0
1287 -1283 -1089 0
-1287 1089 0
1283 -1287 0
1287 1286 -1288 0
-1286 1288 0
1288 -1287 0
1289 -10 -1279 0
-1289 10 0
-1289 1279 0
-1289 -1290 -1095 0
1095 -1290 1289 0
1095 1290 -1289 0
1289 1290 -1095 0
-1290 -1288 -1291 0
1288 -1291 1290 0
1291 -1288 1290 0
1291 -1290 1288 0
-1290 -1288 1292 0
-1292 1290 0
-1292 1288 0
-1289 1293 -1095 0
1095 -1293 0
1289 -1293 0
-1294 1293 1292 0
-1292 1294 0
1294 -1293 0
1295 -1279 -18 0
-1295 18 0
-1295 1279 0
-1295 -1101 -1296 0
1295 -1296 1101 0
-1295 1296 1101 0
1295 -1101 1296 0
-1297 -1294 -1296 0
-1297 1294 1296 0
-1294 1296 1297 0
1294 -1296 1297 0
1298 -1294 -1296 0
-1298 1296 0
1294 -1298 0
-1295 1299 -1101 0
-1299 1101 0
1295 -1299 0
1298 1299 -1300 0
1300 -1298 0
1300 -1299 0
1301 -1279 -26 0
-1301 26 0
-1301 1279 0
-1301 -1107 -1302 0
1107 1301 -1302 0
-1301 1302 1107 0
1302 -1107 1301 0
-1302 -1300 -1303 0
-1303 1302 1300 0
1302 -1300 1303 0
1300 -1302 1303 0
1304 -1302 -1300 0
1302 -1304 0
1300 -1304 0
-1301 1305 -1107 0
-1305 1107 0
-1305 1301 0
1305 1304 -1306 0
1306 -1304 0
-1305 1306 0
-34 1307 -1279 0
-1307 34 0
-1307 1279 0
-1308 -1307 -1113 0
-1308 1307 1113 0
-1307 1308 1113 0
1307 1308 -1113 0
-1309 -1308 -1306 0
-1309 1308 1306 0
1308 1309 -1306 0
-1308 1306 1309 0
1310 -1308 -1306 0
-1310 1308 0
-1310 1306 0
1311 -1307 -1113 0
1113 -1311 0
1307 -1311 0
1310 -1312 1311 0
-1310 1312 0
1312 -1311 0
1313 -1279 -42 0
42 -1313 0
1279 -1313 0
-1119 -1313 -1314 0
1313 1119 -1314 0
1314 1119 -1313 0
1313 -1119 1314 0
-1315 -1312 -1314 0
1314 1312 -1315 0
1315 1314 -1312 0
1315 1312 -1314 0
1316 -1312 -1314 0
-1316 1314 0
-1316 1312 0
1317 -1119 -1313 0
-1317 1119 0
-1317 1313 0
1316 1317 -1318 0
-1316 1318 0
1318 -1317 0
-50 -1279 1319 0
50 -1319 0
-1319 1279 0
-1125 -1319 -1320 0
1125 -1320 1319 0
1125 -1319 1320 0
-1125 1320 1319 0
-1320 -1321 -1318 0
1318 -1321 1320 0
1321 1320 -1318 0
1318 -1320 1321 0
1322 -1320 -1318 0
-1322 1320 0
-1322 1318 0
-1125 -1319 1323 0
1125 -1323 0
-1323 1319 0
1322 -1324 1323 0
-1322 1324 0
-1323 1324 0
1325 -1279 -58 0
-1325 58 0
-1325 1279 0
-1131 -1325 -1326 0
-1326 1131 1325 0
-1325 1131 1326 0
-1131 1326 1325 0
-1326 -1327 -1324 0
-1327 1326 1324 0
-1324 1327 1326 0
-1326 1327 1324 0
-1326 -1324 1328 0
1326 -1328 0
1324 -1328 0
-1131 -1325 1329 0
-1329 1131 0
-1329 1325 0
1329 -1330 1328 0
1330 -1328 0
-1329 1330 0
1331 -66 -1279 0
66 -1331 0
1279 -1331 0
-1332 -1137 -1331 0
1137 -1332 1331 0
1137 -1331 1332 0
-1137 1331 1332 0
-1332 -1330 -1333 0
1330 -1333 1332 0
-1330 1333 1332 0
1330 -1332 1333 0
-1332 -1330 1334 0
1332 -1334 0
1330 -1334 0
1335 -1137 -1331 0
1137 -1335 0
-1335 1331 0
1335 -1336 1334 0
-1334 1336 0
-1335 1336 0
-1279 1337 -74 0
-1337 74 0
1279 -1337 0
-1338 -1337 -1143 0
-1338 1337 1143 0
1338 1143 -1337 0
1338 1337 -1143 0
-1338 -1336 -1339 0
1338 1336 -1339 0
1338 1339 -1336 0
-1338 1339 1336 0
-1338 -1336 1340 0
1338 -1340 0
-1340 1336 0
1341 -1337 -1143 0
-1341 1143 0
-1341 1337 0
-1342 1341 1340 0
1342 -1340 0
-1341 1342 0
-82 1343 -1279 0
-1343 82 0
-1343 1279 0
-1149 -1343 -1344 0
1149 1343 -1344 0
1149 1344 -1343 0
-1149 1344 1343 0
-1342 -1344 -1345 0
1344 1342 -1345 0
-1342 1344 1345 0
1342 1345 -1344 0
-1342 1346 -1344 0
1344 -1346 0
-1346 1342 0
-1149 -1343 1347 0
1149 -1347 0
1343 -1347 0
1347 1346 -1348 0
-1346 1348 0
1348 -1347 0
-90 1349 -1279 0
90 -1349 0
-1349 1279 0
-1349 -1155 -1350 0
1155 1349 -1350 0
1155 1350 -1349 0
-1155 1349 1350 0
-1351 -1348 -1350 0
-1351 1348 1350 0
-1348 1351 1350 0
1351 1348 -1350 0
-1348 1352 -1350 0
1350 -1352 0
1348 -1352 0
-1349 -1155 1353 0
1155 -1353 0
1349 -1353 0
1352 -1354 1353 0
1354 -1352 0
1354 -1353 0
-98 1355 -1279 0
-1355 98 0
1279 -1355 0
-1161 -1355 -1356 0
1161 1355 -1356 0
1161 -1355 1356 0
-1161 1355 1356 0
-1357 -1354 -1356 0
-1357 1354 1356 0
-1354 1357 1356 0
1354 1357 -1356 0
-1354 1358 -1356 0
-1358 1356 0
1354 -1358 0
-1161 1359 -1355 0
1161 -1359 0
1355 -1359 0
1359 -1360 1358 0
-1358 1360 0
-1359 1360 0
-106 1361 -1279 0
106 -1361 0
1279 -1361 0
-1362 -1167 -1361 0
1167 -1362 1361 0
1167 1362 -1361 0
1361 1362 -1167 0
-1362 -1360 -1363 0
1362 1360 -1363 0
1363 -1360 1362 0
-1362 1363 1360 0
-1362 -1360 1364 0
-1364 1362 0
-1364 1360 0
1365 -1167 -1361 0
1167 -1365 0
1361 -1365 0
1365 1364 -1366 0
-1364 1366 0
-1365 1366 0
1367 -1279 -114 0
114 -1367 0
-1367 1279 0
-1367 -1173 -1368 0
1173 -1368 1367 0
-1367 1173 1368 0
1368 -1173 1367 0
-1369 -1366 -1368 0
1368 1366 -1369 0
1368 1369 -1366 0
1369 1366 -1368 0
1370 -1366 -1368 0
1368 -1370 0
-1370 1366 0
-1367 -1173 1371 0
1173 -1371 0
-1371 1367 0
1370 -1372 1371 0
-1370 1372 0
1372 -1371 0
-122 -1279 1373 0
122 -1373 0
1279 -1373 0
-1374 -1179 -1373 0
-1374 1179 1373 0
1374 1179 -1373 0
1374 -1179 1373 0
-1374 -1375 -1372 0
1374 1372 -1375 0
1374 1375 -1372 0
-1374 1375 1372 0
-1374 1376 -1372 0
1374 -1376 0
1372 -1376 0
-1179 1377 -1373 0
-1377 1179 0
-1377 1373 0
1376 1377 -1378 0
1378 -1376 0
-1377 1378 0
1379 -1279 -130 0
130 -1379 0
-1379 1279 0
-1380 -1379 -1185 0
-1380 1185 1379 0
-1379 1185 1380 0
1380 1379 -1185 0
-1380 -1378 -1381 0
1378 1380 -1381 0
1381 1380 -1378 0
1381 -1380 1378 0
-1380 1382 -1378 0
1380 -1382 0
1378 -1382 0
1383 -1379 -1185 0
-1383 1185 0
-1383 1379 0
1383 1382 -1384 0
-1382 1384 0
-1383 1384 0
-138 -1279 1385 0
-1385 138 0
1279 -1385 0
-1191 -1386 -1385 0
1191 -1386 1385 0
1191 1386 -1385 0
-1191 1386 1385 0
-1387 -1386 -1384 0
-1387 1386 1384 0
1387 -1384 1386 0
1387 -1386 1384 0
-1386 -1384 1388 0
-1388 1386 0
-1388 1384 0
-1191 1389 -1385 0
1191 -1389 0
-1389 1385 0
-1390 1389 1388 0
-1388 1390 0
-1389 1390 0
1391 -1279 -146 0
146 -1391 0
-1391 1279 0
-1391 -1197 -1392 0
1197 1391 -1392 0
1392 -1391 1197 0
1392 -1197 1391 0
-1390 -1393 -1392 0
1392 1390 -1393 0
1392 -1390 1393 0
1390 1393 -1392 0
-1390 1394 -1392 0
1392 -1394 0
-1394 1390 0
1395 -1391 -1197 0
1197 -1395 0
-1395 1391 0
1395 1394 -1396 0
1396 -1394 0
1396 -1395 0
-1279 -154 1397 0
154 -1397 0
1279 -1397 0
-1398 -1203 -1397 0
-1398 1397 1203 0
1398 -1397 1203 0
1398 -1203 1397 0
-1398 -1399 -1396 0
1398 1396 -1399 0
1398 -1396 1399 0
-1398 1396 1399 0
-1398 1400 -1396 0
1398 -1400 0
-1400 1396 0
1401 -1203 -1397 0
-1401 1203 0
-1401 1397 0
1400 1401 -1402 0
-1400 1402 0
1402 -1401 0
1403 -1279 -162 0
-1403 162 0
-1403 1279 0
-1404 -1403 -1209 0
1403 -1404 1209 0
1404 -1403 1209 0
1404 1403 -1209 0
-1402 -1404 -1405 0
1404 -1405 1402 0
1404 -1402 1405 0
-1404 1405 1402 0
-1402 -1404 1406 0
1404 -1406 0
-1406 1402 0
1407 -1403 -1209 0
-1407 1209 0
-1407 1403 0
1407 1406 -1408 0
1408 -1406 0
-1407 1408 0
1409 -170 -1279 0
170 -1409 0
-1409 1279 0
-1410 -1215 -1409 0
-1410 1409 1215 0
-1409 1410 1215 0
-1215 1409 1410 0
-1410 -1411 -1408 0
1408 1410 -1411 0
1410 1411 -1408 0
-1410 1408 1411 0
-1410 1412 -1408 0
1410 -1412 0
1408 -1412 0
1413 -1215 -1409 0
-1413 1215 0
1409 -1413 0
1413 1412 -1414 0
1414 -1412 0
-1413 1414 0
1415 -1279 -178 0
-1415 178 0
1279 -1415 0
-1416 -1221 -1415 0
-1416 1221 1415 0
1416 1221 -1415 0
1416 -1221 1415 0
-1416 -1417 -1414 0
1416 -1417 1414 0
1416 1417 -1414 0
-1416 1414 1417 0
-1416 1418 -1414 0
1416 -1418 0
-1418 1414 0
1419 -1221 -1415 0
1221 -1419 0
-1419 1415 0
1418 -1420 1419 0
-1418 1420 0
1420 -1419 0
-186 1421 -1279 0
186 -1421 0
1279 -1421 0
-1421 -1422 -1227 0
-1422 1421 1227 0
-1421 1422 1227 0
1422 1421 -1227 0
-1423 -1420 -1422 0
1420 1422 -1423 0
1422 -1420 1423 0
1420 -1422 1423 0
1424 -1420 -1422 0
1422 -1424 0
1420 -1424 0
1425 -1421 -1227 0
-1425 1227 0
-1425 1421 0
1425 1424 -1426 0
1426 -1424 0
-1425 1426 0
-194 1427 -1279 0
194 -1427 0
-1427 1279 0
-1233 -1427 -1428 0
-1428 1233 1427 0
1233 -1427 1428 0
-1233 1428 1427 0
-1428 -1429 -1426 0
-1429 1426 1428 0
1428 1429 -1426 0
-1428 1426 1429 0
-1428 1430 -1426 0
1428 -1430 0
1426 -1430 0
-1233 -1427 1431 0
-1431 1233 0
-1431 1427 0
1430 1431 -1432 0
1432 -1430 0
-1431 1432 0
-202 -1279 1433 0
202 -1433 0
1279 -1433 0
-1434 -1239 -1433 0
-1434 1433 1239 0
1434 -1433 1239 0
1434 -1239 1433 0
-1434 -1435 -1432 0
1434 -1435 1432 0
1434 1435 -1432 0
-1434 1435 1432 0
-1434 1436 -1432 0
-1436 1434 0
-1436 1432 0
-1239 1437 -1433 0
-1437 1239 0
-1437 1433 0
1437 -1438 1436 0
-1436 1438 0
1438 -1437 0
-210 1439 -1279 0
210 -1439 0
1279 -1439 0
-1440 -1245 -1439 0
-1440 1245 1439 0
1245 -1439 1440 0
1440 -1245 1439 0
-1440 -1441 -1438 0
-1441 1438 1440 0
-1438 1441 1440 0
-1440 1438 1441 0
-1440 1442 -1438 0
-1442 1440 0
1438 -1442 0
1443 -1245 -1439 0
1245 -1443 0
-1443 1439 0
-1444 1443 1442 0
1444 -1442 0
1444 -1443 0
-218 1445 -1279 0
-1445 218 0
1279 -1445 0
-1251 -1445 -1446 0
-1446 1251 1445 0
1446 1251 -1445 0
-1251 1446 1445 0
-1444 -1446 -1447 0
1444 1446 -1447 0
-1444 1447 1446 0
-1446 1447 1444 0
-1444 -1446 1448 0
-1448 1446 0
-1448 1444 0
-1251 -1445 1449 0
1251 -1449 0
1445 -1449 0
1449 1448 -1450 0
1450 -1448 0
1450 -1449 0
-226 -1279 1451 0
-1451 226 0
-1451 1279 0
-1451 -1257 -1452 0
-1452 1257 1451 0
-1451 1257 1452 0
-1257 1451 1452 0
-1450 -1453 -1452 0
1450 -1453 1452 0
-1450 1453 1452 0
1450 -1452 1453 0
-1450 -1452 1454 0
-1454 1452 0
1450 -1454 0
-1451 -1257 1455 0
-1455 1257 0
-1455 1451 0
-1456 1454 1455 0
1456 -1454 0
-1455 1456 0
1457 -1279 -234 0
234 -1457 0
1279 -1457 0
-1458 -1457 -1263 0
1263 1457 -1458 0
1263 1458 -1457 0
1457 1458 -1263 0
-1458 -1459 -1456 0
1456 1458 -1459 0
1458 1459 -1456 0
1456 -1458 1459 0
-1458 1460 -1456 0
1458 -1460 0
1456 -1460 0
1461 -1457 -1263 0
1263 -1461 0
1457 -1461 0
1461 1460 -1462 0
1462 -1460 0
-1461 1462 0
-242 -1279 1463 0
-1463 242 0
-1463 1279 0
-1463 -1269 -1464 0
-1464 1269 1463 0
-1463 1464 1269 0
1464 -1269 1463 0
-1465 -1464 -1462 0
-1465 1464 1462 0
1464 -1462 1465 0
1462 -1464 1465 0
1466 -1464 -1462 0
-1466 1464 0
-1466 1462 0
-1463 -1269 1467 0
-1467 1269 0
-1467 1463 0
1466 -1468 1467 0
-1466 1468 0
-1467 1468 0
-250 1469 -1279 0
-1469 250 0
-1469 1279 0
-1469 -1470 -1275 0
1275 1469 -1470 0
-1469 1470 1275 0
1470 1469 -1275 0
-1468 -1470 -1471 0
1470 -1471 1468 0
1471 -1468 1470 0
1471 -1470 1468 0
-1468 -1470 1472 0
1470 -1472 0
-1472 1468 0
-1469 1473 -1275 0
1275 -1473 0
1469 -1473 0
-1474 1473 1472 0
1474 -1472 0
1474 -1473 0
1475 -258 -1279 0
-1475 258 0
1279 -1475 0
-1278 -1475 -1476 0
-1476 1475 1278 0
1476 -1475 1278 0
-1278 1476 1475 0
-1477 -1474 -1476 0
1474 1476 -1477 0
1477 1476 -1474 0
1474 1477 -1476 0
-1474 1478 -1476 0
1476 -1478 0
1474 -1478 0
-1278 -1475 1479 0
-1479 1278 0
-1479 1475 0
1479 1478 -1480 0
-1478 1480 0
-1479 1480 0
1482 -1 -1481 0
-1482 1 0
-1482 1481 0
-1285 -1482 -1483 0
1482 1285 -1483 0
-1482 1483 1285 0
-1285 1482 1483 0
-1285 -1482 1484 0
-1484 1285 0
1482 -1484 0
1485 -4 -1481 0
-1485 4 0
-1485 1481 0
-1485 -1486 -1291 0
1291 1485 -1486 0
1486 1291 -1485 0
1486 1485 -1291 0
-1484 -1486 -1487 0
1486 -1487 1484 0
1486 -1484 1487 0
-1486 1487 1484 0
1488 -1484 -1486 0
1486 -1488 0
-1488 1484 0
-1485 1489 -1291 0
1291 -1489 0
1485 -1489 0
1488 1489 -1490 0
-1488 1490 0
-1489 1490 0
-10 -1481 1491 0
-1491 10 0
-1491 1481 0
-1297 -1492 -1491 0
-1492 1297 1491 0
-1491 1492 1297 0
-1297 1492 1491 0
-1490 -1492 -1493 0
1492 -1493 1490 0
-1490 1492 1493 0
-1492 1490 1493 0
-1490 1494 -1492 0
1492 -1494 0
1490 -1494 0
-1297 -1491 1495 0
-1495 1297 0
-1495 1491 0
-1496 1494 1495 0
1496 -1494 0
-1495 1496 0
1497 -1481 -18 0
-1497 18 0
-1497 1481 0
-1498 -1497 -1303 0
-1498 1497 1303 0
1498 -1497 1303 0
1498 1497 -1303 0
-1498 -1496 -1499 0
1498 1496 -1499 0
-1496 1498 1499 0
-1498 1496 1499 0
-1498 1500 -1496 0
-1500 1498 0
-1500 1496 0
1501 -1497 -1303 0
-1501 1303 0
-1501 1497 0
1500 1501 -1502 0
-1500 1502 0
1502 -1501 0
1503 -1481 -26 0
-1503 26 0
-1503 1481 0
-1309 -1503 -1504 0
1503 1309 -1504 0
1504 -1503 1309 0
-1309 1503 1504 0
-1502 -1505 -1504 0
1504 -1505 1502 0
1504 1505 -1502 0
1502 1505 -1504 0
-1502 1506 -1504 0
1504 -1506 0
1502 -1506 0
-1309 -1503 1507 0
1309 -1507 0
1503 -1507 0
1506 1507 -1508 0
-1506 1508 0
1508 -1507 0
-34 1509 -1481 0
-1509 34 0
-1509 1481 0
-1509 -1510 -1315 0
1315 -1510 1509 0
-1509 1315 1510 0
1510 1509 -1315 0
-1510 -1508 -1511 0
1510 1508 -1511 0
1510 -1508 1511 0
-1510 1508 1511 0
-1510 -1508 1512 0
-1512 1510 0
-1512 1508 0
-1509 1513 -1315 0
1315 -1513 0
-1513 1509 0
-1514 1513 1512 0
-1512 1514 0
-1513 1514 0
1515 -1481 -42 0
42 -1515 0
1481 -1515 0
-1321 -1516 -1515 0
1515 -1516 1321 0
-1515 1516 1321 0
1516 -1321 1515 0
-1517 -1514 -1516 0
-1517 1516 1514 0
1517 1516 -1514 0
1517 1514 -1516 0
1518 -1514 -1516 0
-1518 1516 0
-1518 1514 0
-1321 1519 -1515 0
-1519 1321 0
-1519 1515 0
1518 -1520 1519 0
-1518 1520 0
-1519 1520 0
-50 -1481 1521 0
50 -1521 0
-1521 1481 0
-1522 -1327 -1521 0
-1522 1327 1521 0
1522 1327 -1521 0
1522 -1327 1521 0
-1522 -1520 -1523 0
1522 -1523 1520 0
1522 1523 -1520 0
1523 -1522 1520 0
-1522 -1520 1524 0
1522 -1524 0
-1524 1520 0
1525 -1327 -1521 0
-1525 1327 0
-1525 1521 0
1525 -1526 1524 0
1526 -1524 0
-1525 1526 0
1527 -58 -1481 0
-1527 58 0
-1527 1481 0
-1527 -1333 -1528 0
-1528 1527 1333 0
-1527 1333 1528 0
1527 -1333 1528 0
-1528 -1529 -1526 0
-1529 1528 1526 0
1529 1528 -1526 0
-1528 1526 1529 0
-1528 1530 -1526 0
1528 -1530 0
1526 -1530 0
-1527 -1333 1531 0
-1531 1333 0
1527 -1531 0
1530 1531 -1532 0
1532 -1530 0
1532 -1531 0
1533 -66 -1481 0
66 -1533 0
-1533 1481 0
-1534 -1533 -1339 0
1533 -1534 1339 0
1534 1339 -1533 0
1533 1534 -1339 0
-1534 -1535 -1532 0
1534 1532 -1535 0
1534 1535 -1532 0
-1534 1532 1535 0
-1534 1536 -1532 0
1534 -1536 0
1532 -1536 0
-1533 -1339 1537 0
1339 -1537 0
1533 -1537 0
-1538 1536 1537 0
1538 -1536 0
-1537 1538 0
1539 -74 -1481 0
-1539 74 0
-1539 1481 0
-1540 -1539 -1345 0
1539 -1540 1345 0
1540 1345 -1539 0
1540 1539 -1345 0
-1538 -1540 -1541 0
1540 1538 -1541 0
-1538 1540 1541 0
-1540 1538 1541 0
-1538 -1540 1542 0
-1542 1540 0
-1542 1538 0
1543 -1539 -1345 0
1345 -1543 0
1539 -1543 0
1542 1543 -1544 0
-1542 1544 0
1544 -1543 0
1545 -82 -1481 0
82 -1545 0
-1545 1481 0
-1351 -1546 -1545 0
1545 -1546 1351 0
1351 1546 -1545 0
-1351 1545 1546 0
-1546 -1547 -1544 0
1544 1546 -1547 0
1547 1546 -1544 0
1547 -1546 1544 0
-1546 1548 -1544 0
1546 -1548 0
1544 -1548 0
-1351 1549 -1545 0
-1549 1351 0
1545 -1549 0
1549 1548 -1550 0
-1548 1550 0
-1549 1550 0
-90 -1481 1551 0
90 -1551 0
-1551 1481 0
-1357 -1551 -1552 0
-1552 1357 1551 0
-1551 1552 1357 0
-1357 1552 1551 0
-1553 -1552 -1550 0
-1553 1552 1550 0
1553 1552 -1550 0
-1552 1553 1550 0
1554 -1552 -1550 0
-1554 1552 0
-1554 1550 0
1555 -1357 -1551 0
-1555 1357 0
-1555 1551 0
1555 1554 -1556 0
1556 -1554 0
1556 -1555 0
-98 1557 -1481 0
-1557 98 0
-1557 1481 0
-1557 -1558 -1363 0
1557 -1558 1363 0
1558 -1557 1363 0
1558 1557 -1363 0
-1559 -1558 -1556 0
-1559 1558 1556 0
1559 1558 -1556 0
1559 1556 -1558 0
1560 -1558 -1556 0
1558 -1560 0
1556 -1560 0
1561 -1557 -1363 0
1363 -1561 0
1557 -1561 0
1560 -1562 1561 0
-1560 1562 0
1562 -1561 0
-106 1563 -1481 0
106 -1563 0
-1563 1481 0
-1563 -1564 -1369 0
1369 1563 -1564 0
1564 1369 -1563 0
1564 1563 -1369 0
-1565 -1564 -1562 0
1564 -1565 1562 0
1564 1565 -1562 0
1565 -1564 1562 0
1566 -1564 -1562 0
1564 -1566 0
-1566 1562 0
1567 -1563 -1369 0
1369 -1567 0
-1567 1563 0
1566 -1568 1567 0
-1566 1568 0
-1567 1568 0
1569 -114 -1481 0
114 -1569 0
-1569 1481 0
-1569 -1375 -1570 0
-1570 1569 1375 0
-1569 1375 1570 0
1569 -1375 1570 0
-1570 -1568 -1571 0
1568 -1571 1570 0
1571 -1568 1570 0
-1570 1571 1568 0
-1570 -1568 1572 0
-1572 1570 0
-1572 1568 0
-1569 1573 -1375 0
-1573 1375 0
-1573 1569 0
1573 1572 -1574 0
-1572 1574 0
-1573 1574 0
1575 -122 -1481 0
122 -1575 0
-1575 1481 0
-1576 -1575 -1381 0
1381 -1576 1575 0
1576 1381 -1575 0
1576 1575 -1381 0
-1577 -1576 -1574 0
1576 1574 -1577 0
1576 1577 -1574 0
-1576 1577 1574 0
1578 -1576 -1574 0
1576 -1578 0
-1578 1574 0
1579 -1575 -1381 0
1381 -1579 0
-1579 1575 0
-1580 1578 1579 0
-1578 1580 0
1580 -1579 0
1581 -1481 -130 0
130 -1581 0
-1581 1481 0
-1582 -1387 -1581 0
-1582 1387 1581 0
1387 -1581 1582 0
-1387 1581 1582 0
-1582 -1583 -1580 0
1580 -1583 1582 0
1583 -1580 1582 0
-1582 1583 1580 0
-1582 1584 -1580 0
-1584 1582 0
1580 -1584 0
-1387 -1581 1585 0
1387 -1585 0
1581 -1585 0
1584 -1586 1585 0
-1584 1586 0
-1585 1586 0
-138 -1481 1587 0
-1587 138 0
-1587 1481 0
-1587 -1588 -1393 0
-1588 1393 1587 0
-1587 1393 1588 0
1588 -1393 1587 0
-1589 -1586 -1588 0
-1589 1586 1588 0
-1586 1589 1588 0
1589 -1588 1586 0
-1586 -1588 1590 0
-1590 1588 0
-1590 1586 0
-1587 1591 -1393 0
-1591 1393 0
-1591 1587 0
-1592 1591 1590 0
-1590 1592 0
1592 -1591 0
1593 -146 -1481 0
146 -1593 0
1481 -1593 0
-1594 -1399 -1593 0
1593 -1594 1399 0
1594 -1593 1399 0
1594 -1399 1593 0
-1594 -1592 -1595 0
-1595 1592 1594 0
-1592 1594 1595 0
-1594 1592 1595 0
-1594 -1592 1596 0
-1596 1594 0
1592 -1596 0
1597 -1399 -1593 0
-1597 1399 0
-1597 1593 0
-1598 1597 1596 0
-1596 1598 0
1598 -1597 0
1599 -154 -1481 0
154 -1599 0
-1599 1481 0
-1600 -1405 -1599 0
1405 -1600 1599 0
1600 1405 -1599 0
1600 -1405 1599 0
-1598 -1601 -1600 0
1600 1598 -1601 0
1600 1601 -1598 0
1601 1598 -1600 0
-1598 1602 -1600 0
1600 -1602 0
1598 -1602 0
1603 -1405 -1599 0
1405 -1603 0
-1603 1599 0
1602 1603 -1604 0
-1602 1604 0
-1603 1604 0
1605 -162 -1481 0
162 -1605 0
-1605 1481 0
-1606 -1605 -1411 0
1605 -1606 1411 0
1606 1411 -1605 0
1605 -1411 1606 0
-1607 -1606 -1604 0
1606 -1607 1604 0
1606 -1604 1607 0
1607 -1606 1604 0
-1606 -1604 1608 0
1606 -1608 0
-1608 1604 0
1609 -1605 -1411 0
-1609 1411 0
1605 -1609 0
1609 -1610 1608 0
-1608 1610 0
1610 -1609 0
1611 -170 -1481 0
170 -1611 0
-1611 1481 0
-1417 -1611 -1612 0
1417 1611 -1612 0
1417 1612 -1611 0
-1417 1611 1612 0
-1612 -1610 -1613 0
1610 1612 -1613 0
1612 -1610 1613 0
1610 1613 -1612 0
-1612 -1610 1614 0
1612 -1614 0
1610 -1614 0
-1417 -1611 1615 0
1417 -1615 0
1611 -1615 0
1615 -1616 1614 0
1616 -1614 0
1616 -1615 0
1617 -1481 -178 0
-1617 178 0
-1617 1481 0
-1617 -1423 -1618 0
1617 -1618 1423 0
-1617 1618 1423 0
1618 -1423 1617 0
-1616 -1619 -1618 0
1616 1618 -1619 0
1618 1619 -1616 0
1616 1619 -1618 0
-1616 1620 -1618 0
1618 -1620 0
1616 -1620 0
-1617 -1423 1621 0
-1621 1423 0
-1621 1617 0
-1622 1620 1621 0
1622 -1620 0
-1621 1622 0
-186 1623 -1481 0
186 -1623 0
1481 -1623 0
-1624 -1429 -1623 0
-1624 1623 1429 0
1624 1429 -1623 0
1624 -1429 1623 0
-1624 -1625 -1622 0
1624 1622 -1625 0
1624 -1622 1625 0
-1624 1625 1622 0
1626 -1624 -1622 0
1624 -1626 0
1622 -1626 0
1627 -1429 -1623 0
-1627 1429 0
-1627 1623 0
1626 1627 -1628 0
-1626 1628 0
-1627 1628 0
-194 1629 -1481 0
194 -1629 0
-1629 1481 0
-1435 -1629 -1630 0
1435 1629 -1630 0
1435 1630 -1629 0
1630 -1435 1629 0
-1628 -1630 -1631 0
1630 1628 -1631 0
1631 1630 -1628 0
1631 1628 -1630 0
-1628 1632 -1630 0
1630 -1632 0
-1632 1628 0
-1435 -1629 1633 0
1435 -1633 0
-1633 1629 0
-1634 1632 1633 0
-1632 1634 0
-1633 1634 0
1635 -202 -1481 0
-1635 202 0
-1635 1481 0
-1636 -1441 -1635 0
-1636 1441 1635 0
1636 -1635 1441 0
1636 -1441 1635 0
-1636 -1634 -1637 0
1636 1634 -1637 0
1636 1637 -1634 0
-1636 1637 1634 0
-1636 -1634 1638 0
1636 -1638 0
1634 -1638 0
-1441 -1635 1639 0
-1639 1441 0
-1639 1635 0
-1640 1638 1639 0
1640 -1638 0
-1639 1640 0
1641 -210 -1481 0
-1641 210 0
-1641 1481 0
-1642 -1641 -1447 0
1641 1447 -1642 0
1642 1447 -1641 0
1641 1642 -1447 0
-1640 -1642 -1643 0
1642 1640 -1643 0
1642 -1640 1643 0
1640 -1642 1643 0
-1640 -1642 1644 0
1642 -1644 0
1640 -1644 0
1645 -1641 -1447 0
-1645 1447 0
1641 -1645 0
1645 1644 -1646 0
1646 -1644 0
-1645 1646 0
-218 1647 -1481 0
-1647 218 0
-1647 1481 0
-1453 -1647 -1648 0
1647 1453 -1648 0
1648 -1647 1453 0
1648 -1453 1647 0
-1646 -1648 -1649 0
1646 1648 -1649 0
1649 1648 -1646 0
1646 1649 -1648 0
1650 -1646 -1648 0
1648 -1650 0
1646 -1650 0
1651 -1453 -1647 0
-1651 1453 0
1647 -1651 0
1650 1651 -1652 0
-1650 1652 0
1652 -1651 0
-226 1653 -1481 0
226 -1653 0
-1653 1481 0
-1654 -1459 -1653 0
-1654 1459 1653 0
1654 1459 -1653 0
1654 -1459 1653 0
-1654 -1655 -1652 0
1654 -1655 1652 0
1655 1654 -1652 0
-1654 1652 1655 0
1656 -1654 -1652 0
1654 -1656 0
1652 -1656 0
1657 -1459 -1653 0
1459 -1657 0
1653 -1657 0
1656 1657 -1658 0
1658 -1656 0
1658 -1657 0
1659 -1481 -234 0
234 -1659 0
-1659 1481 0
-1660 -1465 -1659 0
-1660 1465 1659 0
-1659 1660 1465 0
-1465 1660 1659 0
-1660 -1658 -1661 0
1658 1660 -1661 0
1660 -1658 1661 0
-1660 1658 1661 0
-1660 1662 -1658 0
-1662 1660 0
1658 -1662 0
-1465 -1659 1663 0
-1663 1465 0
-1663 1659 0
1662 1663 -1664 0
-1662 1664 0
-1663 1664 0
1665 -242 -1481 0
-1665 242 0
-1665 1481 0
-1665 -1666 -1471 0
1665 1471 -1666 0
1471 -1665 1666 0
1665 -1471 1666 0
-1666 -1664 -1667 0
1664 -1667 1666 0
1667 -1664 1666 0
1667 -1666 1664 0
-1666 1668 -1664 0
-1668 1666 0
-1668 1664 0
1669 -1665 -1471 0
-1669 1471 0
1665 -1669 0
-1670 1669 1668 0
-1668 1670 0
-1669 1670 0
-250 -1481 1671 0
-1671 250 0
-1671 1481 0
-1671 -1477 -1672 0
1477 -1672 1671 0
1477 1672 -1671 0
-1477 1672 1671 0
-1670 -1673 -1672 0
1672 -1673 1670 0
-1670 1672 1673 0
1673 -1672 1670 0
-1670 1674 -1672 0
1672 -1674 0
-1674 1670 0
-1671 -1477 1675 0
1477 -1675 0
-1675 1671 0
-1676 1674 1675 0
1676 -1674 0
1676 -1675 0
-258 -1481 1677 0
-1677 258 0
-1677 1481 0
-1677 -1678 -1480 0
-1678 1480 1677 0
1678 -1677 1480 0
1678 -1480 1677 0
-1676 -1679 -1678 0
1678 1676 -1679 0
1678 1679 -1676 0
1679 1676 -1678 0
-1676 1680 -1678 0
1678 -1680 0
1676 -1680 0
-1677 -1480 1681 0
-1681 1480 0
-1681 1677 0
1680 -1682 1681 0
1682 -1680 0
1682 -1681 0
-1683 -1 1684 0
-1684 1 0
1683 -1684 0
-1685 -1684 -1487 0
-1685 1487 1684 0
-1684 1685 1487 0
1685 -1487 1684 0
1686 -1684 -1487 0
-1686 1487 0
-1686 1684 0
-1683 -4 1687 0
-1687 4 0
1683 -1687 0
-1493 -1688 -1687 0
1687 -1688 1493 0
1688 -1687 1493 0
1687 -1493 1688 0
-1686 -1689 -1688 0
1686 1688 -1689 0
-1686 1688 1689 0
1686 1689 -1688 0
1690 -1686 -1688 0
-1690 1688 0
-1690 1686 0
1691 -1493 -1687 0
-1691 1493 0
-1691 1687 0
1690 -1692 1691 0
-1690 1692 0
1692 -1691 0
-1683 1693 -10 0
10 -1693 0
1683 -1693 0
-1694 -1693 -1499 0
1693 -1694 1499 0
1694 -1693 1499 0
1694 1693 -1499 0
-1692 -1694 -1695 0
1692 1694 -1695 0
-1692 1694 1695 0
1692 1695 -1694 0
-1692 1696 -1694 0
1694 -1696 0
1692 -1696 0
-1693 1697 -1499 0
-1697 1499 0
1693 -1697 0
1696 1697 -1698 0
-1696 1698 0
-1697 1698 0
-1683 1699 -18 0
18 -1699 0
1683 -1699 0
-1505 -1700 -1699 0
1699 -1700 1505 0
1700 -1699 1505 0
-1505 1700 1699 0
-1700 -1701 -1698 0
-1701 1700 1698 0
1701 1700 -1698 0
-1700 1701 1698 0
1702 -1700 -1698 0
-1702 1700 0
-1702 1698 0
1703 -1505 -1699 0
-1703 1505 0
1699 -1703 0
1703 -1704 1702 0
-1702 1704 0
-1703 1704 0
-1683 1705 -26 0
-1705 26 0
1683 -1705 0
-1705 -1706 -1511 0
1511 -1706 1705 0
-1705 1511 1706 0
1705 1706 -1511 0
-1704 -1706 -1707 0
-1707 1706 1704 0
-1704 1707 1706 0
1707 -1706 1704 0
1708 -1704 -1706 0
1706 -1708 0
-1708 1704 0
-1705 -1511 1709 0
1511 -1709 0
1705 -1709 0
1708 -1710 1709 0
1710 -1708 0
1710 -1709 0
-34 -1683 1711 0
34 -1711 0
1683 -1711 0
-1517 -1712 -1711 0
1517 -1712 1711 0
1517 -1711 1712 0
1712 -1517 1711 0
-1713 -1712 -1710 0
-1713 1710 1712 0
-1710 1713 1712 0
1710 -1712 1713 0
-1712 1714 -1710 0
-1714 1712 0
1710 -1714 0
1715 -1517 -1711 0
1517 -1715 0
-1715 1711 0
-1716 1715 1714 0
-1714 1716 0
-1715 1716 0
-1683 1717 -42 0
42 -1717 0
1683 -1717 0
-1717 -1718 -1523 0
1523 1717 -1718 0
1523 1718 -1717 0
1718 1717 -1523 0
-1716 -1718 -1719 0
-1719 1716 1718 0
-1716 1719 1718 0
1716 1719 -1718 0
-1716 1720 -1718 0
-1720 1718 0
-1720 1716 0
-1717 1721 -1523 0
1523 -1721 0
-1721 1717 0
1720 1721 -1722 0
-1720 1722 0
-1721 1722 0
1723 -50 -1683 0
50 -1723 0
1683 -1723 0
-1529 -1723 -1724 0
1723 -1724 1529 0
-1723 1724 1529 0
-1529 1723 1724 0
-1725 -1722 -1724 0
-1725 1722 1724 0
-1722 1725 1724 0
1725 -1724 1722 0
-1722 -1724 1726 0
-1726 1724 0
-1726 1722 0
-1529 1727 -1723 0
-1727 1529 0
1723 -1727 0
1727 -1728 1726 0
1728 -1726 0
-1727 1728 0
-1683 1729 -58 0
-1729 58 0
1683 -1729 0
-1729 -1535 -1730 0
-1730 1535 1729 0
-1729 1535 1730 0
1730 -1535 1729 0
-1730 -1731 -1728 0
-1731 1728 1730 0
1731 -1728 1730 0
-1730 1731 1728 0
-1730 -1728 1732 0
1730 -1732 0
1728 -1732 0
-1729 1733 -1535 0
-1733 1535 0
-1733 1729 0
1733 -1734 1732 0
1734 -1732 0
-1733 1734 0
-1683 1735 -66 0
66 -1735 0
1683 -1735 0
-1735 -1541 -1736 0
1735 -1736 1541 0
-1735 1736 1541 0
1736 1735 -1541 0
-1737 -1736 -1734 0
-1737 1734 1736 0
-1734 1736 1737 0
-1736 1737 1734 0
1738 -1736 -1734 0
-1738 1736 0
-1738 1734 0
1739 -1735 -1541 0
-1739 1541 0
-1739 1735 0
1738 1739 -1740 0
-1738 1740 0
-1739 1740 0
1741 -1683 -74 0
-1741 74 0
1683 -1741 0
-1742 -1741 -1547 0
1547 -1742 1741 0
1547 1742 -1741 0
1741 1742 -1547 0
-1743 -1740 -1742 0
1742 -1743 1740 0
1742 -1740 1743 0
1743 -1742 1740 0
-1740 1744 -1742 0
1742 -1744 0
-1744 1740 0
1745 -1741 -1547 0
1547 -1745 0
-1745 1741 0
1745 1744 -1746 0
1746 -1744 0
1746 -1745 0
-82 1747 -1683 0
82 -1747 0
1683 -1747 0
-1553 -1748 -1747 0
1747 -1748 1553 0
1553 -1747 1748 0
-1553 1747 1748 0
-1748 -1749 -1746 0
1746 -1749 1748 0
-1746 1749 1748 0
1746 -1748 1749 0
1750 -1748 -1746 0
-1750 1748 0
1746 -1750 0
-1553 -1747 1751 0
-1751 1553 0
-1751 1747 0
-1752 1750 1751 0
1752 -1750 0
1752 -1751 0
-1683 -90 1753 0
90 -1753 0
1683 -1753 0
-1559 -1754 -1753 0
1559 -1754 1753 0
1559 1754 -1753 0
-1559 1754 1753 0
-1752 -1754 -1755 0
1752 1754 -1755 0
-1752 1754 1755 0
1752 -1754 1755 0
-1752 1756 -1754 0
1754 -1756 0
1752 -1756 0
-1559 -1753 1757 0
1559 -1757 0
-1757 1753 0
-1758 1756 1757 0
-1756 1758 0
-1757 1758 0
-98 -1683 1759 0
-1759 98 0
1683 -1759 0
-1760 -1565 -1759 0
1565 -1760 1759 0
1565 -1759 1760 0
1759 -1565 1760 0
-1758 -1760 -1761 0
-1761 1760 1758 0
-1758 1761 1760 0
-1760 1761 1758 0
-1758 -1760 1762 0
1760 -1762 0
-1762 1758 0
1763 -1565 -1759 0
1565 -1763 0
1759 -1763 0
1762 1763 -1764 0
1764 -1762 0
-1763 1764 0
-106 -1683 1765 0
-1765 106 0
1683 -1765 0
-1765 -1766 -1571 0
1571 -1766 1765 0
1571 -1765 1766 0
1765 -1571 1766 0
-1767 -1766 -1764 0
1764 -1767 1766 0
1767 -1764 1766 0
1767 -1766 1764 0
1768 -1766 -1764 0
-1768 1766 0
-1768 1764 0
1769 -1765 -1571 0
1571 -1769 0
-1769 1765 0
1768 -1770 1769 0
-1768 1770 0
-1769 1770 0
-1683 1771 -114 0
114 -1771 0
1683 -1771 0
-1577 -1772 -1771 0
1771 1577 -1772 0
-1771 1577 1772 0
-1577 1771 1772 0
-1770 -1772 -1773 0
1772 -1773 1770 0
1772 1773 -1770 0
1773 -1772 1770 0
-1770 1774 -1772 0
1772 -1774 0
-1774 1770 0
-1577 1775 -1771 0
1577 -1775 0
1771 -1775 0
-1776 1775 1774 0
-1774 1776 0
1776 -1775 0
-1683 1777 -122 0
122 -1777 0
1683 -1777 0
-1777 -1778 -1583 0
1583 1777 -1778 0
1583 -1777 1778 0
1778 1777 -1583 0
-1776 -1779 -1778 0
1778 -1779 1776 0
-1776 1778 1779 0
1779 1776 -1778 0
-1776 -1778 1780 0
-1780 1778 0
-1780 1776 0
-1777 1781 -1583 0
-1781 1583 0
-1781 1777 0
1781 1780 -1782 0
-1780 1782 0
-1781 1782 0
-1683 1783 -130 0
130 -1783 0
1683 -1783 0
-1589 -1784 -1783 0
1783 -1784 1589 0
1784 -1783 1589 0
-1589 1783 1784 0
-1782 -1785 -1784 0
1784 1782 -1785 0
1784 -1782 1785 0
1782 1785 -1784 0
-1782 -1784 1786 0
1784 -1786 0
-1786 1782 0
-1589 1787 -1783 0
-1787 1589 0
-1787 1783 0
-1788 1787 1786 0
-1786 1788 0
-1787 1788 0
-1683 1789 -138 0
138 -1789 0
1683 -1789 0
-1595 -1790 -1789 0
1789 1595 -1790 0
1790 1595 -1789 0
-1595 1789 1790 0
-1791 -1788 -1790 0
1790 1788 -1791 0
1790 -1788 1791 0
1791 1788 -1790 0
-1788 1792 -1790 0
-1792 1790 0
-1792 1788 0
-1595 1793 -1789 0
-1793 1595 0
1789 -1793 0
-1794 1793 1792 0
-1792 1794 0
1794 -1793 0
-1683 1795 -146 0
146 -1795 0
1683 -1795 0
-1795 -1796 -1601 0
1601 1795 -1796 0
-1795 1601 1796 0
1795 -1601 1796 0
-1794 -1796 -1797 0
1794 1796 -1797 0
-1794 1797 1796 0
1794 1797 -1796 0
-1794 1798 -1796 0
-1798 1796 0
-1798 1794 0
-1795 1799 -1601 0
-1799 1601 0
-1799 1795 0
-1800 1798 1799 0
-1798 1800 0
-1799 1800 0
-1683 1801 -154 0
-1801 154 0
1683 -1801 0
-1607 -1801 -1802 0
1607 -1802 1801 0
1607 -1801 1802 0
-1607 1802 1801 0
-1803 -1800 -1802 0
1802 -1803 1800 0
1802 -1800 1803 0
1800 -1802 1803 0
-1800 -1802 1804 0
1802 -1804 0
1800 -1804 0
-1607 -1801 1805 0
1607 -1805 0
1801 -1805 0
-1806 1805 1804 0
1806 -1804 0
1806 -1805 0
-1683 1807 -162 0
162 -1807 0
1683 -1807 0
-1808 -1807 -1613 0
1613 1807 -1808 0
1613 1808 -1807 0
1807 1808 -1613 0
-1808 -1806 -1809 0
1806 1808 -1809 0
1809 -1806 1808 0
-1808 1806 1809 0
-1808 1810 -1806 0
-1810 1808 0
-1810 1806 0
1811 -1807 -1613 0
1613 -1811 0
1807 -1811 0
-1812 1810 1811 0
-1810 1812 0
1812 -1811 0
-1683 1813 -170 0
170 -1813 0
1683 -1813 0
-1814 -1813 -1619 0
1813 -1814 1619 0
-1813 1619 1814 0
1814 1813 -1619 0
-1814 -1812 -1815 0
1812 -1815 1814 0
1815 -1812 1814 0
-1814 1812 1815 0
-1814 -1812 1816 0
-1816 1814 0
-1816 1812 0
1817 -1813 -1619 0
-1817 1619 0
1813 -1817 0
-1818 1817 1816 0
-1816 1818 0
-1817 1818 0
-1683 1819 -178 0
-1819 178 0
1683 -1819 0
-1820 -1625 -1819 0
-1820 1625 1819 0
1625 -1819 1820 0
1819 1820 -1625 0
-1818 -1820 -1821 0
1820 1818 -1821 0
1821 -1818 1820 0
1821 -1820 1818 0
-1818 -1820 1822 0
1820 -1822 0
1818 -1822 0
-1625 -1819 1823 0
1625 -1823 0
1819 -1823 0
-1824 1823 1822 0
1824 -1822 0
1824 -1823 0
-1683 -186 1825 0
186 -1825 0
1683 -1825 0
-1826 -1825 -1631 0
1631 -1826 1825 0
1631 1826 -1825 0
1826 1825 -1631 0
-1824 -1827 -1826 0
-1827 1824 1826 0
-1824 1826 1827 0
1824 -1826 1827 0
-1824 -1826 1828 0
1826 -1828 0
1824 -1828 0
1829 -1825 -1631 0
1631 -1829 0
1825 -1829 0
-1830 1829 1828 0
1830 -1828 0
1830 -1829 0
-194 -1683 1831 0
194 -1831 0
1683 -1831 0
-1832 -1831 -1637 0
1831 1637 -1832 0
1637 -1831 1832 0
1831 1832 -1637 0
-1832 -1833 -1830 0
-1833 1830 1832 0
-1830 1832 1833 0
-1832 1830 1833 0
-1832 1834 -1830 0
-1834 1832 0
1830 -1834 0
-1831 1835 -1637 0
1637 -1835 0
1831 -1835 0
-1836 1834 1835 0
1836 -1834 0
1836 -1835 0
-1683 -202 1837 0
-1837 202 0
1683 -1837 0
-1837 -1643 -1838 0
-1838 1837 1643 0
1838 -1837 1643 0
1838 1837 -1643 0
-1836 -1839 -1838 0
1838 1836 -1839 0
1838 1839 -1836 0
1839 1836 -1838 0
-1836 1840 -1838 0
1838 -1840 0
-1840 1836 0
1841 -1837 -1643 0
-1841 1643 0
-1841 1837 0
-1842 1841 1840 0
-1840 1842 0
-1841 1842 0
-1683 -210 1843 0
-1843 210 0
1683 -1843 0
-1843 -1649 -1844 0
1649 1843 -1844 0
1649 1844 -1843 0
-1649 1843 1844 0
-1842 -1844 -1845 0
1844 1842 -1845 0
-1842 1845 1844 0
1845 -1844 1842 0
1846 -1842 -1844 0
1844 -1846 0
1842 -1846 0
-1843 -1649 1847 0
1649 -1847 0
1843 -1847 0
-1848 1846 1847 0
1848 -1846 0
1848 -1847 0
-1683 -218 1849 0
-1849 218 0
1683 -1849 0
-1849 -1850 -1655 0
-1850 1849 1655 0
-1849 1850 1655 0
1850 -1655 1849 0
-1848 -1850 -1851 0
-1851 1848 1850 0
-1848 1850 1851 0
1848 -1850 1851 0
-1848 -1850 1852 0
-1852 1850 0
1848 -1852 0
-1849 1853 -1655 0
-1853 1655 0
-1853 1849 0
-1854 1852 1853 0
-1852 1854 0
1854 -1853 0
-226 -1683 1855 0
-1855 226 0
1683 -1855 0
-1855 -1856 -1661 0
-1856 1855 1661 0
-1855 1856 1661 0
1856 1855 -1661 0
-1856 -1857 -1854 0
-1857 1856 1854 0
1857 -1854 1856 0
-1856 1857 1854 0
-1856 -1854 1858 0
-1858 1856 0
-1858 1854 0
-1855 1859 -1661 0
-1859 1661 0
-1859 1855 0
-1860 1859 1858 0
1860 -1858 0
1860 -1859 0
1861 -1683 -234 0
234 -1861 0
1683 -1861 0
-1861 -1862 -1667 0
1861 1667 -1862 0
1667 -1861 1862 0
1861 1862 -1667 0
-1860 -1862 -1863 0
1860 -1863 1862 0
1863 -1860 1862 0
1860 1863 -1862 0
1864 -1860 -1862 0
-1864 1862 0
1860 -1864 0
-1861 1865 -1667 0
1667 -1865 0
1861 -1865 0
1864 -1866 1865 0
1866 -1864 0
-1865 1866 0
-1683 -242 1867 0
242 -1867 0
1683 -1867 0
-1868 -1673 -1867 0
-1868 1673 1867 0
1868 1673 -1867 0
1868 -1673 1867 0
-1866 -1868 -1869 0
1868 1866 -1869 0
1869 1868 -1866 0
1869 -1868 1866 0
-1866 -1868 1870 0
1868 -1870 0
1866 -1870 0
1871 -1673 -1867 0
1673 -1871 0
-1871 1867 0
1871 -1872 1870 0
1872 -1870 0
1872 -1871 0
1873 -1683 -250 0
-1873 250 0
1683 -1873 0
-1873 -1874 -1679 0
1679 -1874 1873 0
1679 -1873 1874 0
1873 1874 -1679 0
-1874 -1872 -1875 0
1874 1872 -1875 0
1874 1875 -1872 0
-1874 1872 1875 0
1876 -1874 -1872 0
1874 -1876 0
1872 -1876 0
-1873 -1679 1877 0
1679 -1877 0
1873 -1877 0
1876 -1878 1877 0
1878 -1876 0
-1877 1878 0
-1683 1879 -258 0
258 -1879 0
1683 -1879 0
-1682 -1879 -1880 0
1879 1682 -1880 0
1880 1682 -1879 0
1880 -1682 1879 0
-1878 -1881 -1880 0
1880 1878 -1881 0
1880 -1878 1881 0
1878 -1880 1881 0
1882 -1878 -1880 0
1880 -1882 0
-1882 1878 0
1883 -1682 -1879 0
1682 -1883 0
1879 -1883 0
1882 -1884 1883 0
1884 -1882 0
1884 -1883 0
-1885 -1 1886 0
-1886 1 0
-1886 1885 0
-1689 -1887 -1886 0
-1887 1689 1886 0
-1886 1689 1887 0
-1689 1886 1887 0
-1689 1888 -1886 0
-1888 1689 0
-1888 1886 0
-4 1889 -1885 0
-1889 4 0
1885 -1889 0
-1890 -1889 -1695 0
1695 -1890 1889 0
1695 1890 -1889 0
1890 1889 -1695 0
-1888 -1890 -1891 0
1890 1888 -1891 0
1891 1890 -1888 0
1891 -1890 1888 0
1892 -1888 -1890 0
1890 -1892 0
-1892 1888 0
1893 -1889 -1695 0
1695 -1893 0
-1893 1889 0
1893 1892 -1894 0
-1892 1894 0
-1893 1894 0
1895 -1885 -10 0
10 -1895 0
-1895 1885 0
-1896 -1701 -1895 0
1895 -1896 1701 0
-1895 1896 1701 0
1895 -1701 1896 0
-1896 -1894 -1897 0
1896 1894 -1897 0
-1894 1897 1896 0
-1896 1897 1894 0
-1896 1898 -1894 0
1896 -1898 0
-1898 1894 0
1899 -1701 -1895 0
-1899 1701 0
1895 -1899 0
1899 -1900 1898 0
1900 -1898 0
-1899 1900 0
1901 -1885 -18 0
-1901 18 0
-1901 1885 0
-1901 -1707 -1902 0
1901 1707 -1902 0
1707 -1901 1902 0
1901 1902 -1707 0
-1900 -1903 -1902 0
-1903 1900 1902 0
-1900 1902 1903 0
1900 1903 -1902 0
-1900 1904 -1902 0
-1904 1902 0
-1904 1900 0
-1901 1905 -1707 0
1707 -1905 0
1901 -1905 0
1905 1904 -1906 0
-1904 1906 0
-1905 1906 0
1907 -1885 -26 0
26 -1907 0
1885 -1907 0
-1713 -1908 -1907 0
1907 -1908 1713 0
1908 1713 -1907 0
-1713 1907 1908 0
-1908 -1909 -1906 0
1908 -1909 1906 0
1909 1908 -1906 0
1909 -1908 1906 0
1910 -1908 -1906 0
1908 -1910 0
-1910 1906 0
-1713 1911 -1907 0
1713 -1911 0
1907 -1911 0
1910 1911 -1912 0
1912 -1910 0
1912 -1911 0
-34 -1885 1913 0
-1913 34 0
-1913 1885 0
-1913 -1914 -1719 0
1719 -1914 1913 0
-1913 1914 1719 0
1914 1913 -1719 0
-1915 -1914 -1912 0
1912 1914 -1915 0
1914 1915 -1912 0
1912 -1914 1915 0
1916 -1914 -1912 0
1914 -1916 0
1912 -1916 0
-1913 1917 -1719 0
1719 -1917 0
1913 -1917 0
1916 1917 -1918 0
-1916 1918 0
-1917 1918 0
1919 -1885 -42 0
42 -1919 0
1885 -1919 0
-1725 -1920 -1919 0
1919 1725 -1920 0
1920 1725 -1919 0
1920 -1725 1919 0
-1918 -1921 -1920 0
-1921 1920 1918 0
-1918 1920 1921 0
1921 -1920 1918 0
-1918 1922 -1920 0
1920 -1922 0
-1922 1918 0
1923 -1725 -1919 0
-1923 1725 0
1919 -1923 0
1923 1922 -1924 0
1924 -1922 0
1924 -1923 0
-50 -1885 1925 0
50 -1925 0
1885 -1925 0
-1731 -1926 -1925 0
1731 -1926 1925 0
1926 1731 -1925 0
1926 -1731 1925 0
-1927 -1924 -1926 0
1926 1924 -1927 0
1926 -1924 1927 0
1924 -1926 1927 0
-1924 -1926 1928 0
1926 -1928 0
1924 -1928 0
-1731 1929 -1925 0
1731 -1929 0
1925 -1929 0
-1930 1928 1929 0
1930 -1928 0
1930 -1929 0
-1885 1931 -58 0
-1931 58 0
-1931 1885 0
-1737 -1932 -1931 0
-1932 1931 1737 0
1932 -1931 1737 0
-1737 1932 1931 0
-1930 -1932 -1933 0
1930 -1933 1932 0
-1930 1932 1933 0
1930 -1932 1933 0
-1930 -1932 1934 0
-1934 1932 0
-1934 1930 0
1935 -1737 -1931 0
-1935 1737 0
-1935 1931 0
-1936 1934 1935 0
-1934 1936 0
-1935 1936 0
-1885 1937 -66 0
66 -1937 0
-1937 1885 0
-1743 -1937 -1938 0
-1938 1937 1743 0
-1937 1938 1743 0
-1743 1938 1937 0
-1938 -1939 -1936 0
1938 -1939 1936 0
1938 -1936 1939 0
-1938 1936 1939 0
1940 -1938 -1936 0
1938 -1940 0
1936 -1940 0
-1743 -1937 1941 0
1743 -1941 0
1937 -1941 0
1940 1941 -1942 0
1942 -1940 0
1942 -1941 0
1943 -1885 -74 0
-1943 74 0
-1943 1885 0
-1944 -1749 -1943 0
1943 -1944 1749 0
1944 -1943 1749 0
1943 -1749 1944 0
-1945 -1944 -1942 0
-1945 1942 1944 0
1945 1944 -1942 0
1942 1945 -1944 0
-1944 -1942 1946 0
-1946 1944 0
-1946 1942 0
1947 -1749 -1943 0
-1947 1749 0
1943 -1947 0
1947 -1948 1946 0
-1946 1948 0
1948 -1947 0
-82 -1885 1949 0
-1949 82 0
-1949 1885 0
-1755 -1949 -1950 0
-1950 1755 1949 0
1950 -1949 1755 0
-1755 1950 1949 0
-1948 -1951 -1950 0
1950 1948 -1951 0
1950 1951 -1948 0
1951 1948 -1950 0
1952 -1948 -1950 0
-1952 1950 0
-1952 1948 0
-1755 -1949 1953 0
-1953 1755 0
-1953 1949 0
-1954 1953 1952 0
-1952 1954 0
1954 -1953 0
-90 -1885 1955 0
90 -1955 0
1885 -1955 0
-1956 -1761 -1955 0
-1956 1761 1955 0
1956 1761 -1955 0
-1761 1956 1955 0
-1956 -1954 -1957 0
-1957 1956 1954 0
1956 -1954 1957 0
-1956 1954 1957 0
-1956 -1954 1958 0
1956 -1958 0
1954 -1958 0
-1761 1959 -1955 0
1761 -1959 0
1955 -1959 0
1958 1959 -1960 0
1960 -1958 0
1960 -1959 0
-98 1961 -1885 0
-1961 98 0
-1961 1885 0
-1767 -1961 -1962 0
1767 1961 -1962 0
1767 1962 -1961 0
1961 -1767 1962 0
-1963 -1962 -1960 0
-1963 1960 1962 0
1963 1962 -1960 0
1960 -1962 1963 0
1964 -1962 -1960 0
1962 -1964 0
1960 -1964 0
-1767 -1961 1965 0
1767 -1965 0
1961 -1965 0
-1966 1964 1965 0
-1964 1966 0
-1965 1966 0
-106 -1885 1967 0
106 -1967 0
1885 -1967 0
-1968 -1773 -1967 0
1773 -1968 1967 0
1968 1773 -1967 0
1968 1967 -1773 0
-1966 -1968 -1969 0
1968 -1969 1966 0
1968 -1966 1969 0
-1968 1969 1966 0
-1966 -1968 1970 0
1968 -1970 0
1966 -1970 0
1971 -1773 -1967 0
-1971 1773 0
-1971 1967 0
-1972 1971 1970 0
1972 -1970 0
-1971 1972 0
-1885 -114 1973 0
114 -1973 0
-1973 1885 0
-1973 -1779 -1974 0
1779 -1974 1973 0
1779 1974 -1973 0
1974 -1779 1973 0
-1975 -1974 -1972 0
-1975 1974 1972 0
1974 -1972 1975 0
-1974 1972 1975 0
-1974 -1972 1976 0
1974 -1976 0
-1976 1972 0
-1973 -1779 1977 0
1779 -1977 0
-1977 1973 0
-1978 1976 1977 0
1978 -1976 0
1978 -1977 0
-122 1979 -1885 0
122 -1979 0
-1979 1885 0
-1980 -1785 -1979 0
1785 -1980 1979 0
1785 -1979 1980 0
-1785 1979 1980 0
-1981 -1978 -1980 0
1978 -1981 1980 0
1981 -1978 1980 0
1978 1981 -1980 0
1982 -1978 -1980 0
-1982 1980 0
1978 -1982 0
1983 -1785 -1979 0
-1983 1785 0
-1983 1979 0
-1984 1983 1982 0
-1982 1984 0
-1983 1984 0
1985 -1885 -130 0
130 -1985 0
-1985 1885 0
-1986 -1985 -1791 0
1791 1985 -1986 0
1791 1986 -1985 0
1985 1986 -1791 0
-1984 -1987 -1986 0
1984 1986 -1987 0
-1984 1987 1986 0
1987 1984 -1986 0
-1984 1988 -1986 0
1986 -1988 0
1984 -1988 0
1989 -1985 -1791 0
1791 -1989 0
-1989 1985 0
-1990 1989 1988 0
1990 -1988 0
-1989 1990 0
-138 1991 -1885 0
-1991 138 0
-1991 1885 0
-1992 -1991 -1797 0
1797 1991 -1992 0
1797 -1991 1992 0
1992 1991 -1797 0
-1990 -1993 -1992 0
1990 -1993 1992 0
1993 -1990 1992 0
1993 1990 -1992 0
-1990 1994 -1992 0
-1994 1992 0
1990 -1994 0
-1991 1995 -1797 0
1797 -1995 0
1991 -1995 0
1994 1995 -1996 0
-1994 1996 0
-1995 1996 0
1997 -1885 -146 0
146 -1997 0
-1997 1885 0
-1803 -1997 -1998 0
1803 1997 -1998 0
1998 1803 -1997 0
-1803 1998 1997 0
-1999 -1996 -1998 0
-1999 1998 1996 0
1998 1999 -1996 0
1996 1999 -1998 0
2000 -1996 -1998 0
1998 -2000 0
-2000 1996 0
-1803 2001 -1997 0
1803 -2001 0
-2001 1997 0
2001 -2002 2000 0
-2000 2002 0
2002 -2001 0
2003 -1885 -154 0
154 -2003 0
-2003 1885 0
-2004 -2003 -1809 0
-2004 1809 2003 0
1809 -2003 2004 0
2003 2004 -1809 0
-2004 -2002 -2005 0
-2005 2002 2004 0
-2002 2004 2005 0
-2004 2002 2005 0
-2004 2006 -2002 0
2004 -2006 0
2002 -2006 0
-2003 2007 -1809 0
1809 -2007 0
2003 -2007 0
-2008 2006 2007 0
2008 -2006 0
-2007 2008 0
2009 -1885 -162 0
-2009 162 0
-2009 1885 0
-2009 -1815 -2010 0
2009 1815 -2010 0
2010 -2009 1815 0
2010 2009 -1815 0
-2008 -2011 -2010 0
-2011 2010 2008 0
-2008 2010 2011 0
2011 2008 -2010 0
-2008 2012 -2010 0
2010 -2012 0
-2012 2008 0
2013 -2009 -1815 0
-2013 1815 0
2009 -2013 0
-2014 2013 2012 0
2014 -2012 0
2014 -2013 0
2015 -1885 -170 0
170 -2015 0
-2015 1885 0
-2016 -1821 -2015 0
1821 2015 -2016 0
1821 2016 -2015 0
2016 2015 -1821 0
-2014 -2016 -2017 0
2016 2014 -2017 0
-2014 2016 2017 0
2014 -2016 2017 0
-2014 -2016 2018 0
-2018 2016 0
-2018 2014 0
2019 -1821 -2015 0
1821 -2019 0
2015 -2019 0
2019 -2020 2018 0
-2018 2020 0
-2019 2020 0
2021 -1885 -178 0
-2021 178 0
-2021 1885 0
-1827 -2022 -2021 0
2021 -2022 1827 0
2022 -2021 1827 0
-1827 2021 2022 0
-2022 -2020 -2023 0
2022 2020 -2023 0
2022 2023 -2020 0
2023 -2022 2020 0
-2022 -2020 2024 0
2022 -2024 0
-2024 2020 0
-1827 -2021 2025 0
-2025 1827 0
-2025 2021 0
2025 2024 -2026 0
-2024 2026 0
-2025 2026 0
-1885 -186 2027 0
186 -2027 0
-2027 1885 0
-1833 -2027 -2028 0
-2028 2027 1833 0
-2027 2028 1833 0
-1833 2028 2027 0
-2029 -2028 -2026 0
-2029 2028 2026 0
2029 2028 -2026 0
2029 -2028 2026 0
2030 -2028 -2026 0
-2030 2028 0
-2030 2026 0
-1833 -2027 2031 0
-2031 1833 0
2027 -2031 0
2030 2031 -2032 0
-2030 2032 0
2032 -2031 0
-194 -1885 2033 0
194 -2033 0
-2033 1885 0
-2034 -1839 -2033 0
1839 -2034 2033 0
2034 1839 -2033 0
2034 -1839 2033 0
-2032 -2034 -2035 0
2034 -2035 2032 0
2034 2035 -2032 0
2035 -2034 2032 0
2036 -2032 -2034 0
2034 -2036 0
-2036 2032 0
2037 -1839 -2033 0
-2037 1839 0
-2037 2033 0
2036 2037 -2038 0
-2036 2038 0
-2037 2038 0
2039 -1885 -202 0
-2039 202 0
-2039 1885 0
-2039 -2040 -1845 0
2039 -2040 1845 0
-2039 1845 2040 0
2039 2040 -1845 0
-2041 -2040 -2038 0
2040 -2041 2038 0
2040 2041 -2038 0
-2040 2041 2038 0
-2040 2042 -2038 0
2040 -2042 0
2038 -2042 0
-2039 2043 -1845 0
-2043 1845 0
2039 -2043 0
2043 -2044 2042 0
2044 -2042 0
-2043 2044 0
-210 2045 -1885 0
-2045 210 0
-2045 1885 0
-1851 -2045 -2046 0
2045 -2046 1851 0
-2045 1851 2046 0
-1851 2045 2046 0
-2046 -2047 -2044 0
2044 2046 -2047 0
2047 -2044 2046 0
2047 -2046 2044 0
2048 -2046 -2044 0
-2048 2046 0
-2048 2044 0
-1851 -2045 2049 0
1851 -2049 0
2045 -2049 0
2048 2049 -2050 0
-2048 2050 0
2050 -2049 0
-218 -1885 2051 0
-2051 218 0
-2051 1885 0
-2051 -1857 -2052 0
2051 -2052 1857 0
-2051 2052 1857 0
-1857 2052 2051 0
-2052 -2050 -2053 0
2050 2052 -2053 0
2053 2052 -2050 0
2050 2053 -2052 0
2054 -2052 -2050 0
-2054 2052 0
2050 -2054 0
-2051 -1857 2055 0
1857 -2055 0
2051 -2055 0
-2056 2054 2055 0
2056 -2054 0
2056 -2055 0
-226 -1885 2057 0
-2057 226 0
-2057 1885 0
-2057 -1863 -2058 0
1863 2057 -2058 0
-2057 1863 2058 0
-1863 2057 2058 0
-2059 -2056 -2058 0
2056 -2059 2058 0
2059 -2056 2058 0
2059 2056 -2058 0
2060 -2056 -2058 0
-2060 2058 0
2056 -2060 0
-2057 -1863 2061 0
1863 -2061 0
2057 -2061 0
2060 -2062 2061 0
-2060 2062 0
2062 -2061 0
2063 -1885 -234 0
-2063 234 0
-2063 1885 0
-2063 -2064 -1869 0
1869 2063 -2064 0
1869 2064 -2063 0
2063 2064 -1869 0
-2064 -2062 -2065 0
2064 2062 -2065 0
2064 2065 -2062 0
2065 -2064 2062 0
2066 -2064 -2062 0
2064 -2066 0
2062 -2066 0
-2063 -1869 2067 0
1869 -2067 0
2063 -2067 0
2067 -2068 2066 0
2068 -2066 0
-2067 2068 0
2069 -1885 -242 0
-2069 242 0
-2069 1885 0
-2070 -2069 -1875 0
-2070 2069 1875 0
-2069 1875 2070 0
2069 2070 -1875 0
-2070 -2071 -2068 0
-2071 2068 2070 0
2071 -2068 2070 0
-2070 2071 2068 0
-2070 2072 -2068 0
-2072 2070 0
-2072 2068 0
2073 -2069 -1875 0
-2073 1875 0
2069 -2073 0
2073 -2074 2072 0
-2072 2074 0
-2073 2074 0
-250 2075 -1885 0
-2075 250 0
-2075 1885 0
-2075 -1881 -2076 0
-2076 2075 1881 0
-2075 2076 1881 0
2076 -1881 2075 0
-2074 -2076 -2077 0
2076 2074 -2077 0
2077 -2074 2076 0
2077 -2076 2074 0
-2074 -2076 2078 0
-2078 2076 0
-2078 2074 0
2079 -2075 -1881 0
-2079 1881 0
-2079 2075 0
2079 2078 -2080 0
-2078 2080 0
-2079 2080 0
-1885 -258 2081 0
258 -2081 0
1885 -2081 0
-1884 -2082 -2081 0
1884 -2082 2081 0
1884 2082 -2081 0
2082 -1884 2081 0
-2083 -2082 -2080 0
-2083 2080 2082 0
-2080 2083 2082 0
2083 -2082 2080 0
2084 -2082 -2080 0
-2084 2082 0
-2084 2080 0
2085 -1884 -2081 0
1884 -2085 0
-2085 2081 0
2085 2084 -2086 0
-2084 2086 0
2086 -2085 0
-2087 -1 2088 0
-2088 1 0
2087 -2088 0
-2089 -1891 -2088 0
-2089 1891 2088 0
1891 2089 -2088 0
2088 2089 -1891 0
2090 -1891 -2088 0
1891 -2090 0
-2090 2088 0
2091 -2087 -4 0
-2091 4 0
-2091 2087 0
-2091 -2092 -1897 0
2091 -2092 1897 0
2092 -2091 1897 0
2092 2091 -1897 0
-2093 -2092 -2090 0
2092 2090 -2093 0
2092 -2090 2093 0
2090 -2092 2093 0
-2092 -2090 2094 0
2092 -2094 0
-2094 2090 0
-2091 2095 -1897 0
1897 -2095 0
2091 -2095 0
2095 -2096 2094 0
-2094 2096 0
-2095 2096 0
-2087 2097 -10 0
10 -2097 0
2087 -2097 0
-2098 -1903 -2097 0
-2098 2097 1903 0
-2097 1903 2098 0
-1903 2098 2097 0
-2098 -2096 -2099 0
2098 -2099 2096 0
2098 -2096 2099 0
-2098 2099 2096 0
-2098 -2096 2100 0
2098 -2100 0
-2100 2096 0
-1903 -2097 2101 0
-2101 1903 0
2097 -2101 0
-2102 2100 2101 0
2102 -2100 0
2102 -2101 0
2103 -2087 -18 0
-2103 18 0
-2103 2087 0
-2103 -1909 -2104 0
1909 -2104 2103 0
1909 -2103 2104 0
-1909 2104 2103 0
-2102 -2105 -2104 0
-2105 2102 2104 0
-2102 2104 2105 0
2105 2102 -2104 0
2106 -2102 -2104 0
2104 -2106 0
2102 -2106 0
-2103 -1909 2107 0
1909 -2107 0
-2107 2103 0
2106 2107 -2108 0
2108 -2106 0
-2107 2108 0
-2087 2109 -26 0
-2109 26 0
2087 -2109 0
-1915 -2109 -2110 0
2109 -2110 1915 0
2110 -2109 1915 0
-1915 2109 2110 0
-2110 -2108 -2111 0
2110 2108 -2111 0
2110 2111 -2108 0
2108 -2110 2111 0
2112 -2110 -2108 0
2110 -2112 0
-2112 2108 0
-1915 -2109 2113 0
-2113 1915 0
2109 -2113 0
2112 -2114 2113 0
-2112 2114 0
2114 -2113 0
-34 -2087 2115 0
34 -2115 0
2087 -2115 0
-1921 -2116 -2115 0
2115 -2116 1921 0
2116 -2115 1921 0
2115 -1921 2116 0
-2116 -2114 -2117 0
2114 -2117 2116 0
-2114 2116 2117 0
-2116 2114 2117 0
-2116 -2114 2118 0
2116 -2118 0
2114 -2118 0
2119 -1921 -2115 0
-2119 1921 0
2115 -2119 0
2119 -2120 2118 0
2120 -2118 0
2120 -2119 0
2121 -2087 -42 0
42 -2121 0
2087 -2121 0
-1927 -2122 -2121 0
2121 1927 -2122 0
2122 1927 -2121 0
-1927 2122 2121 0
-2120 -2122 -2123 0
2122 2120 -2123 0
2122 2123 -2120 0
2123 2120 -2122 0
2124 -2120 -2122 0
2122 -2124 0
2120 -2124 0
-1927 2125 -2121 0
-2125 1927 0
-2125 2121 0
2124 -2126 2125 0
2126 -2124 0
-2125 2126 0
-50 -2087 2127 0
50 -2127 0
2087 -2127 0
-2128 -1933 -2127 0
-2128 2127 1933 0
2128 -2127 1933 0
-1933 2127 2128 0
-2128 -2126 -2129 0
-2129 2126 2128 0
2129 -2126 2128 0
-2128 2126 2129 0
-2128 -2126 2130 0
-2130 2128 0
2126 -2130 0
-1933 2131 -2127 0
-2131 1933 0
2127 -2131 0
2131 -2132 2130 0
-2130 2132 0
2132 -2131 0
-2087 2133 -58 0
-2133 58 0
-2133 2087 0
-2133 -1939 -2134 0
2133 -2134 1939 0
-2133 2134 1939 0
2134 2133 -1939 0
-2132 -2134 -2135 0
2134 -2135 2132 0
2134 2135 -2132 0
2135 -2134 2132 0
-2132 2136 -2134 0
2134 -2136 0
-2136 2132 0
-2133 -1939 2137 0
-2137 1939 0
2133 -2137 0
-2138 2136 2137 0
-2136 2138 0
-2137 2138 0
-2087 -66 2139 0
-2139 66 0
-2139 2087 0
-1945 -2139 -2140 0
1945 -2140 2139 0
-2139 1945 2140 0
-1945 2140 2139 0
-2138 -2140 -2141 0
-2141 2140 2138 0
-2138 2141 2140 0
2141 -2140 2138 0
-2138 -2140 2142 0
2140 -2142 0
-2142 2138 0
-1945 -2139 2143 0
-2143 1945 0
-2143 2139 0
2143 -2144 2142 0
-2142 2144 0
-2143 2144 0
2145 -2087 -74 0
-2145 74 0
2087 -2145 0
-2145 -2146 -1951 0
2145 1951 -2146 0
2146 1951 -2145 0
2145 2146 -1951 0
-2147 -2144 -2146 0
2146 -2147 2144 0
2146 2147 -2144 0
2147 -2146 2144 0
-2144 -2146 2148 0
2146 -2148 0
-2148 2144 0
2149 -2145 -1951 0
1951 -2149 0
2145 -2149 0
2149 2148 -2150 0
-2148 2150 0
2150 -2149 0
2151 -82 -2087 0
82 -2151 0
2087 -2151 0
-1957 -2152 -2151 0
2151 -2152 1957 0
2152 -2151 1957 0
-1957 2152 2151 0
-2152 -2153 -2150 0
2152 -2153 2150 0
2152 2153 -2150 0
2153 -2152 2150 0
2154 -2152 -2150 0
2152 -2154 0
2150 -2154 0
-1957 2155 -2151 0
-2155 1957 0
2151 -2155 0
-2156 2154 2155 0
2156 -2154 0
2156 -2155 0
2157 -90 -2087 0
90 -2157 0
2087 -2157 0
-1963 -2158 -2157 0
2157 -2158 1963 0
-2157 1963 2158 0
-1963 2157 2158 0
-2159 -2158 -2156 0
-2159 2156 2158 0
2159 -2156 2158 0
2159 -2158 2156 0
2160 -2158 -2156 0
-2160 2158 0
2156 -2160 0
-1963 -2157 2161 0
-2161 1963 0
2157 -2161 0
2161 2160 -2162 0
-2160 2162 0
-2161 2162 0
-98 -2087 2163 0
-2163 98 0
2087 -2163 0
-2163 -2164 -1969 0
2163 -2164 1969 0
-2163 1969 2164 0
2163 -1969 2164 0
-2162 -2164 -2165 0
-2165 2164 2162 0
-2162 2165 2164 0
2165 -2164 2162 0
-2162 -2164 2166 0
-2166 2164 0
-2166 2162 0
-2163 2167 -1969 0
-2167 1969 0
-2167 2163 0
-2168 2167 2166 0
-2166 2168 0
-2167 2168 0
-106 -2087 2169 0
106 -2169 0
2087 -2169 0
-1975 -2170 -2169 0
-2170 2169 1975 0
2170 -2169 1975 0
-1975 2169 2170 0
-2171 -2168 -2170 0
-2171 2168 2170 0
-2168 2171 2170 0
-2170 2171 2168 0
2172 -2168 -2170 0
-2172 2170 0
-2172 2168 0
-1975 2173 -2169 0
-2173 1975 0
2169 -2173 0
2172 -2174 2173 0
2174 -2172 0
2174 -2173 0
-2087 2175 -114 0
114 -2175 0
2087 -2175 0
-2176 -1981 -2175 0
-2176 1981 2175 0
1981 2176 -2175 0
-1981 2176 2175 0
-2176 -2174 -2177 0
2174 2176 -2177 0
2176 2177 -2174 0
-2176 2177 2174 0
-2176 -2174 2178 0
-2178 2176 0
2174 -2178 0
2179 -1981 -2175 0
1981 -2179 0
-2179 2175 0
2179 -2180 2178 0
-2178 2180 0
2180 -2179 0
-2087 -122 2181 0
-2181 122 0
-2181 2087 0
-2181 -2182 -1987 0
1987 2181 -2182 0
1987 2182 -2181 0
2182 2181 -1987 0
-2182 -2180 -2183 0
2182 2180 -2183 0
2183 2182 -2180 0
-2182 2180 2183 0
-2182 -2180 2184 0
2182 -2184 0
-2184 2180 0
-2181 2185 -1987 0
1987 -2185 0
-2185 2181 0
-2186 2185 2184 0
-2184 2186 0
-2185 2186 0
2187 -2087 -130 0
-2187 130 0
-2187 2087 0
-1993 -2187 -2188 0
1993 -2188 2187 0
1993 -2187 2188 0
-1993 2188 2187 0
-2186 -2189 -2188 0
2188 2186 -2189 0
2188 -2186 2189 0
2186 -2188 2189 0
2190 -2186 -2188 0
2188 -2190 0
2186 -2190 0
2191 -1993 -2187 0
1993 -2191 0
-2191 2187 0
2190 -2192 2191 0
2192 -2190 0
2192 -2191 0
-2087 -138 2193 0
-2193 138 0
-2193 2087 0
-1999 -2193 -2194 0
2193 -2194 1999 0
-2193 2194 1999 0
-1999 2194 2193 0
-2192 -2194 -2195 0
2194 2192 -2195 0
2194 2195 -2192 0
2195 2192 -2194 0
-2192 -2194 2196 0
-2196 2194 0
-2196 2192 0
-1999 -2193 2197 0
-2197 1999 0
-2197 2193 0
-2198 2197 2196 0
-2196 2198 0
-2197 2198 0
-2087 2199 -146 0
146 -2199 0
2087 -2199 0
-2200 -2199 -2005 0
-2200 2199 2005 0
-2199 2200 2005 0
2199 -2005 2200 0
-2200 -2198 -2201 0
2198 -2201 2200 0
-2198 2200 2201 0
-2200 2201 2198 0
-2200 -2198 2202 0
-2202 2200 0
-2202 2198 0
2203 -2199 -2005 0
-2203 2005 0
-2203 2199 0
2203 -2204 2202 0
-2202 2204 0
-2203 2204 0
-2087 2205 -154 0
-2205 154 0
2087 -2205 0
-2011 -2205 -2206 0
2205 2011 -2206 0
2206 -2205 2011 0
-2011 2205 2206 0
-2207 -2206 -2204 0
-2207 2206 2204 0
2206 -2204 2207 0
-2206 2204 2207 0
-2206 -2204 2208 0
2206 -2208 0
-2208 2204 0
-2011 2209 -2205 0
2011 -2209 0
2205 -2209 0
2209 -2210 2208 0
2210 -2208 0
2210 -2209 0
2211 -2087 -162 0
-2211 162 0
-2211 2087 0
-2212 -2211 -2017 0
2211 -2212 2017 0
2212 -2211 2017 0
2211 2212 -2017 0
-2210 -2212 -2213 0
2212 2210 -2213 0
2212 -2210 2213 0
2210 -2212 2213 0
-2210 -2212 2214 0
2212 -2214 0
2210 -2214 0
-2211 -2017 2215 0
-2215 2017 0
2211 -2215 0
-2216 2214 2215 0
2216 -2214 0
2216 -2215 0
-2087 -170 2217 0
170 -2217 0
2087 -2217 0
-2218 -2217 -2023 0
2023 -2218 2217 0
2218 2023 -2217 0
2218 2217 -2023 0
-2218 -2219 -2216 0
2218 2216 -2219 0
2218 2219 -2216 0
-2218 2219 2216 0
-2218 2220 -2216 0
2218 -2220 0
2216 -2220 0
-2217 -2023 2221 0
2023 -2221 0
-2221 2217 0
-2222 2220 2221 0
-2220 2222 0
2222 -2221 0
2223 -2087 -178 0
-2223 178 0
2087 -2223 0
-2029 -2224 -2223 0
2029 2223 -2224 0
2029 2224 -2223 0
2224 -2029 2223 0
-2225 -2222 -2224 0
2224 -2225 2222 0
2224 2225 -2222 0
2225 2222 -2224 0
2226 -2222 -2224 0
2224 -2226 0
2222 -2226 0
-2029 2227 -2223 0
2029 -2227 0
2223 -2227 0
2226 -2228 2227 0
2228 -2226 0
-2227 2228 0
-2087 2229 -186 0
186 -2229 0
2087 -2229 0
-2230 -2035 -2229 0
2035 2229 -2230 0
2035 -2229 2230 0
2229 -2035 2230 0
-2228 -2230 -2231 0
-2231 2228 2230 0
-2228 2231 2230 0
-2230 2228 2231 0
-2228 -2230 2232 0
-2232 2230 0
2228 -2232 0
-2035 -2229 2233 0
2035 -2233 0
2229 -2233 0
-2234 2232 2233 0
2234 -2232 0
2234 -2233 0
-194 -2087 2235 0
194 -2235 0
2087 -2235 0
-2041 -2236 -2235 0
2041 2235 -2236 0
2041 2236 -2235 0
-2041 2235 2236 0
-2237 -2236 -2234 0
-2237 2234 2236 0
2237 2236 -2234 0
2237 -2236 2234 0
2238 -2236 -2234 0
-2238 2236 0
2234 -2238 0
-2041 -2235 2239 0
2041 -2239 0
-2239 2235 0
2238 -2240 2239 0
-2238 2240 0
-2239 2240 0
-2087 -202 2241 0
-2241 202 0
2087 -2241 0
-2241 -2047 -2242 0
2047 2241 -2242 0
2047 -2241 2242 0
2241 -2047 2242 0
-2240 -2243 -2242 0
-2243 2240 2242 0
2243 -2240 2242 0
2240 2243 -2242 0
-2240 2244 -2242 0
-2244 2242 0
-2244 2240 0
2245 -2241 -2047 0
2047 -2245 0
-2245 2241 0
-2246 2245 2244 0
-2244 2246 0
-2245 2246 0
-2087 -210 2247 0
-2247 210 0
2087 -2247 0
-2248 -2247 -2053 0
-2248 2053 2247 0
2248 2053 -2247 0
2248 2247 -2053 0
-2246 -2248 -2249 0
2248 -2249 2246 0
2248 -2246 2249 0
-2248 2249 2246 0
-2246 -2248 2250 0
2248 -2250 0
-2250 2246 0
2251 -2247 -2053 0
-2251 2053 0
-2251 2247 0
-2252 2251 2250 0
-2250 2252 0
2252 -2251 0
2253 -218 -2087 0
-2253 218 0
2087 -2253 0
-2059 -2254 -2253 0
2059 -2254 2253 0
2059 2254 -2253 0
2253 -2059 2254 0
-2252 -2255 -2254 0
2252 -2255 2254 0
-2252 2254 2255 0
2252 -2254 2255 0
-2252 -2254 2256 0
2254 -2256 0
2252 -2256 0
-2059 -2253 2257 0
2059 -2257 0
2253 -2257 0
2256 -2258 2257 0
2258 -2256 0
2258 -2257 0
-226 -2087 2259 0
-2259 226 0
-2259 2087 0
-2259 -2260 -2065 0
-2260 2259 2065 0
-2259 2260 2065 0
2260 2259 -2065 0
-2260 -2261 -2258 0
2258 -2261 2260 0
-2258 2260 2261 0
-2260 2261 2258 0
-2260 -2258 2262 0
2260 -2262 0
2258 -2262 0
-2259 2263 -2065 0
-2263 2065 0
2259 -2263 0
2262 2263 -2264 0
2264 -2262 0
2264 -2263 0
-2087 2265 -234 0
234 -2265 0
2087 -2265 0
-2071 -2266 -2265 0
2071 -2266 2265 0
2266 2071 -2265 0
-2071 2266 2265 0
-2266 -2267 -2264 0
2266 2264 -2267 0
2266 2267 -2264 0
2267 -2266 2264 0
-2266 2268 -2264 0
2266 -2268 0
-2268 2264 0
-2071 2269 -2265 0
2071 -2269 0
-2269 2265 0
2269 2268 -2270 0
-2268 2270 0
2270 -2269 0
-2087 -242 2271 0
-2271 242 0
-2271 2087 0
-2271 -2272 -2077 0
2077 -2272 2271 0
2077 -2271 2272 0
2271 2272 -2077 0
-2272 -2273 -2270 0
-2273 2270 2272 0
2273 -2270 2272 0
2273 -2272 2270 0
2274 -2272 -2270 0
-2274 2272 0
2270 -2274 0
-2271 2275 -2077 0
2077 -2275 0
-2275 2271 0
2274 2275 -2276 0
2276 -2274 0
2276 -2275 0
-2087 -250 2277 0
250 -2277 0
2087 -2277 0
-2278 -2277 -2083 0
-2278 2083 2277 0
2278 2083 -2277 0
2278 2277 -2083 0
-2276 -2278 -2279 0
2276 2278 -2279 0
-2276 2278 2279 0
2276 -2278 2279 0
-2276 -2278 2280 0
2278 -2280 0
2276 -2280 0
-2277 2281 -2083 0
-2281 2083 0
-2281 2277 0
-2282 2280 2281 0
2282 -2280 0
-2281 2282 0
2283 -2087 -258 0
-2283 258 0
-2283 2087 0
-2086 -2283 -2284 0
-2284 2086 2283 0
2284 -2283 2086 0
-2086 2283 2284 0
-2285 -2282 -2284 0
2284 -2285 2282 0
2284 -2282 2285 0
2282 2285 -2284 0
-2282 -2284 2286 0
2284 -2286 0
2282 -2286 0
-2086 -2283 2287 0
2086 -2287 0
2283 -2287 0
-2288 2287 2286 0
-2286 2288 0
2288 -2287 0
2290 -1 -2289 0
-2290 1 0
-2290 2289 0
-2290 -2093 -2291 0
2290 -2291 2093 0
-2290 2291 2093 0
-2093 2291 2290 0
-2290 -2093 2292 0
2093 -2292 0
2290 -2292 0
-4 2293 -2289 0
-2293 4 0
2289 -2293 0
-2294 -2293 -2099 0
2099 -2294 2293 0
2099 -2293 2294 0
2294 2293 -2099 0
-2295 -2294 -2292 0
-2295 2294 2292 0
2295 2294 -2292 0
2295 -2294 2292 0
2296 -2294 -2292 0
2294 -2296 0
-2296 2292 0
2297 -2293 -2099 0
-2297 2099 0
-2297 2293 0
2297 2296 -2298 0
2298 -2296 0
-2297 2298 0
2299 -10 -2289 0
10 -2299 0
2289 -2299 0
-2300 -2105 -2299 0
2105 -2300 2299 0
2300 2105 -2299 0
2300 -2105 2299 0
-2301 -2300 -2298 0
2300 -2301 2298 0
2300 2301 -2298 0
2301 -2300 2298 0
-2300 -2298 2302 0
2300 -2302 0
-2302 2298 0
2303 -2105 -2299 0
2105 -2303 0
-2303 2299 0
-2304 2303 2302 0
-2302 2304 0
-2303 2304 0
2305 -2289 -18 0
-2305 18 0
2289 -2305 0
-2305 -2306 -2111 0
-2306 2111 2305 0
-2305 2306 2111 0
-2111 2305 2306 0
-2306 -2304 -2307 0
2306 2304 -2307 0
-2304 2306 2307 0
-2306 2307 2304 0
-2306 -2304 2308 0
-2308 2306 0
-2308 2304 0
-2305 -2111 2309 0
-2309 2111 0
-2309 2305 0
2309 -2310 2308 0
-2308 2310 0
-2309 2310 0
2311 -2289 -26 0
-2311 26 0
2289 -2311 0
-2312 -2117 -2311 0
2311 -2312 2117 0
-2311 2312 2117 0
2311 2312 -2117 0
-2313 -2312 -2310 0
2310 2312 -2313 0
2313 -2310 2312 0
-2312 2310 2313 0
2314 -2312 -2310 0
-2314 2312 0
-2314 2310 0
2315 -2117 -2311 0
-2315 2117 0
2311 -2315 0
2314 2315 -2316 0
-2314 2316 0
2316 -2315 0
-34 2317 -2289 0
34 -2317 0
2289 -2317 0
-2317 -2318 -2123 0
2317 2123 -2318 0
2318 2123 -2317 0
2318 2317 -2123 0
-2319 -2318 -2316 0
2318 2316 -2319 0
2318 2319 -2316 0
2316 2319 -2318 0
2320 -2318 -2316 0
-2320 2318 0
-2320 2316 0
2321 -2317 -2123 0
2123 -2321 0
2317 -2321 0
2320 -2322 2321 0
-2320 2322 0
2322 -2321 0
2323 -2289 -42 0
42 -2323 0
2289 -2323 0
-2323 -2324 -2129 0
2129 -2324 2323 0
-2323 2129 2324 0
2323 2324 -2129 0
-2325 -2324 -2322 0
-2325 2322 2324 0
-2322 2324 2325 0
2322 -2324 2325 0
-2324 -2322 2326 0
-2326 2324 0
-2326 2322 0
-2323 2327 -2129 0
-2327 2129 0
-2327 2323 0
2327 -2328 2326 0
-2326 2328 0
-2327 2328 0
-50 2329 -2289 0
50 -2329 0
2289 -2329 0
-2330 -2135 -2329 0
-2330 2329 2135 0
2330 2135 -2329 0
2330 2329 -2135 0
-2328 -2330 -2331 0
2330 2328 -2331 0
2330 -2328 2331 0
2328 -2330 2331 0
-2328 -2330 2332 0
2330 -2332 0
2328 -2332 0
2333 -2135 -2329 0
-2333 2135 0
-2333 2329 0
2333 -2334 2332 0
-2332 2334 0
-2333 2334 0
2335 -2289 -58 0
58 -2335 0
2289 -2335 0
-2336 -2335 -2141 0
-2336 2141 2335 0
2141 2336 -2335 0
2335 2336 -2141 0
-2337 -2336 -2334 0
-2337 2336 2334 0
2337 -2334 2336 0
2337 -2336 2334 0
2338 -2336 -2334 0
2336 -2338 0
2334 -2338 0
2339 -2335 -2141 0
2141 -2339 0
-2339 2335 0
2338 2339 -2340 0
2340 -2338 0
-2339 2340 0
2341 -66 -2289 0
66 -2341 0
2289 -2341 0
-2147 -2342 -2341 0
2147 2341 -2342 0
2147 2342 -2341 0
-2147 2341 2342 0
-2342 -2343 -2340 0
2342 -2343 2340 0
2342 2343 -2340 0
-2342 2343 2340 0
2344 -2342 -2340 0
-2344 2342 0
-2344 2340 0
2345 -2147 -2341 0
2147 -2345 0
2341 -2345 0
2344 -2346 2345 0
-2344 2346 0
2346 -2345 0
2347 -2289 -74 0
-2347 74 0
2289 -2347 0
-2347 -2348 -2153 0
2347 2153 -2348 0
-2347 2153 2348 0
2347 2348 -2153 0
-2349 -2346 -2348 0
2346 2348 -2349 0
2349 -2346 2348 0
2349 2346 -2348 0
2350 -2346 -2348 0
-2350 2348 0
-2350 2346 0
2351 -2347 -2153 0
2153 -2351 0
2347 -2351 0
2351 2350 -2352 0
-2350 2352 0
-2351 2352 0
2353 -82 -2289 0
-2353 82 0
2289 -2353 0
-2353 -2159 -2354 0
2159 2353 -2354 0
2159 -2353 2354 0
2353 -2159 2354 0
-2355 -2352 -2354 0
-2355 2352 2354 0
2355 -2352 2354 0
2352 -2354 2355 0
2356 -2352 -2354 0
-2356 2354 0
-2356 2352 0
-2353 -2159 2357 0
2159 -2357 0
2353 -2357 0
-2358 2356 2357 0
2358 -2356 0
2358 -2357 0
-90 2359 -2289 0
90 -2359 0
2289 -2359 0
-2360 -2359 -2165 0
-2360 2165 2359 0
2165 -2359 2360 0
2360 2359 -2165 0
-2360 -2358 -2361 0
2360 -2361 2358 0
2361 2360 -2358 0
-2360 2361 2358 0
-2360 -2358 2362 0
2360 -2362 0
2358 -2362 0
2363 -2359 -2165 0
2165 -2363 0
-2363 2359 0
2363 -2364 2362 0
-2362 2364 0
-2363 2364 0
-98 -2289 2365 0
-2365 98 0
2289 -2365 0
-2171 -2365 -2366 0
-2366 2171 2365 0
-2365 2171 2366 0
-2171 2366 2365 0
-2364 -2367 -2366 0
-2367 2364 2366 0
-2364 2367 2366 0
2364 2367 -2366 0
-2364 2368 -2366 0
-2368 2366 0
-2368 2364 0
-2171 -2365 2369 0
-2369 2171 0
-2369 2365 0
2369 2368 -2370 0
-2368 2370 0
2370 -2369 0
-106 2371 -2289 0
106 -2371 0
2289 -2371 0
-2177 -2371 -2372 0
2177 2371 -2372 0
2177 -2371 2372 0
-2177 2372 2371 0
-2373 -2370 -2372 0
-2373 2372 2370 0
2373 2372 -2370 0
2373 2370 -2372 0
2374 -2370 -2372 0
2372 -2374 0
-2374 2370 0
-2177 -2371 2375 0
2177 -2375 0
-2375 2371 0
2375 -2376 2374 0
2376 -2374 0
2376 -2375 0
2377 -2289 -114 0
114 -2377 0
2289 -2377 0
-2378 -2377 -2183 0
2183 -2378 2377 0
2183 2378 -2377 0
2377 2378 -2183 0
-2378 -2376 -2379 0
2376 2378 -2379 0
-2376 2378 2379 0
2376 -2378 2379 0
2380 -2378 -2376 0
-2380 2378 0
2376 -2380 0
2381 -2377 -2183 0
2183 -2381 0
2377 -2381 0
2380 2381 -2382 0
-2380 2382 0
2382 -2381 0
-122 2383 -2289 0
122 -2383 0
2289 -2383 0
-2384 -2383 -2189 0
-2384 2383 2189 0
-2383 2189 2384 0
-2189 2383 2384 0
-2384 -2385 -2382 0
2382 -2385 2384 0
2385 -2382 2384 0
2382 -2384 2385 0
-2384 -2382 2386 0
-2386 2384 0
2382 -2386 0
-2383 2387 -2189 0
-2387 2189 0
-2387 2383 0
2387 -2388 2386 0
-2386 2388 0
-2387 2388 0
2389 -2289 -130 0
-2389 130 0
-2389 2289 0
-2389 -2390 -2195 0
-2390 2195 2389 0
-2389 2390 2195 0
2390 2389 -2195 0
-2390 -2388 -2391 0
2390 2388 -2391 0
2390 -2388 2391 0
-2390 2388 2391 0
-2390 -2388 2392 0
-2392 2390 0
-2392 2388 0
-2389 2393 -2195 0
-2393 2195 0
-2393 2389 0
2393 -2394 2392 0
-2392 2394 0
-2393 2394 0
-138 -2289 2395 0
-2395 138 0
2289 -2395 0
-2395 -2396 -2201 0
-2396 2201 2395 0
-2395 2201 2396 0
-2201 2396 2395 0
-2396 -2397 -2394 0
-2397 2396 2394 0
2397 2396 -2394 0
-2396 2397 2394 0
-2396 -2394 2398 0
2396 -2398 0
2394 -2398 0
-2395 2399 -2201 0
-2399 2201 0
-2399 2395 0
2399 -2400 2398 0
2400 -2398 0
-2399 2400 0
-2289 -146 2401 0
146 -2401 0
2289 -2401 0
-2402 -2207 -2401 0
-2402 2401 2207 0
-2401 2402 2207 0
2402 -2207 2401 0
-2402 -2400 -2403 0
2402 2400 -2403 0
2402 -2400 2403 0
-2402 2400 2403 0
-2402 -2400 2404 0
2402 -2404 0
-2404 2400 0
-2207 2405 -2401 0
-2405 2207 0
-2405 2401 0
-2406 2405 2404 0
-2404 2406 0
2406 -2405 0
2407 -2289 -154 0
-2407 154 0
2289 -2407 0
-2408 -2407 -2213 0
2407 -2408 2213 0
-2407 2408 2213 0
2407 2408 -2213 0
-2406 -2408 -2409 0
2406 2408 -2409 0
2409 -2406 2408 0
2409 2406 -2408 0
2410 -2406 -2408 0
2408 -2410 0
2406 -2410 0
-2407 2411 -2213 0
-2411 2213 0
2407 -2411 0
2410 2411 -2412 0
2412 -2410 0
2412 -2411 0
2413 -2289 -162 0
162 -2413 0
2289 -2413 0
-2414 -2413 -2219 0
-2414 2219 2413 0
2414 2219 -2413 0
2414 2413 -2219 0
-2415 -2414 -2412 0
2412 2414 -2415 0
2414 2415 -2412 0
2412 -2414 2415 0
-2414 -2412 2416 0
2414 -2416 0
2412 -2416 0
2417 -2413 -2219 0
2219 -2417 0
2413 -2417 0
-2418 2417 2416 0
2418 -2416 0
2418 -2417 0
2419 -170 -2289 0
170 -2419 0
2289 -2419 0
-2419 -2420 -2225 0
2419 2225 -2420 0
-2419 2225 2420 0
2419 -2225 2420 0
-2418 -2420 -2421 0
2418 2420 -2421 0
-2418 2421 2420 0
2418 -2420 2421 0
-2418 -2420 2422 0
-2422 2420 0
2418 -2422 0
-2419 -2225 2423 0
2225 -2423 0
2419 -2423 0
-2424 2422 2423 0
-2422 2424 0
-2423 2424 0
2425 -2289 -178 0
-2425 178 0
2289 -2425 0
-2231 -2426 -2425 0
2231 -2426 2425 0
2231 -2425 2426 0
-2231 2426 2425 0
-2424 -2426 -2427 0
-2427 2424 2426 0
-2424 2427 2426 0
-2426 2427 2424 0
-2424 -2426 2428 0
-2428 2426 0
-2428 2424 0
-2231 -2425 2429 0
2231 -2429 0
-2429 2425 0
-2430 2429 2428 0
-2428 2430 0
-2429 2430 0
-186 2431 -2289 0
186 -2431 0
2289 -2431 0
-2237 -2432 -2431 0
2237 -2432 2431 0
2237 2432 -2431 0
-2237 2432 2431 0
-2430 -2433 -2432 0
2432 -2433 2430 0
-2430 2432 2433 0
2430 -2432 2433 0
-2430 2434 -2432 0
-2434 2432 0
-2434 2430 0
-2237 -2431 2435 0
2237 -2435 0
-2435 2431 0
-2436 2434 2435 0
-2434 2436 0
2436 -2435 0
-194 2437 -2289 0
194 -2437 0
2289 -2437 0
-2438 -2243 -2437 0
2437 2243 -2438 0
2438 2243 -2437 0
2437 2438 -2243 0
-2436 -2439 -2438 0
2436 2438 -2439 0
-2436 2438 2439 0
2436 2439 -2438 0
2440 -2436 -2438 0
2438 -2440 0
2436 -2440 0
2441 -2243 -2437 0
-2441 2243 0
2437 -2441 0
2440 2441 -2442 0
2442 -2440 0
-2441 2442 0
2443 -202 -2289 0
-2443 202 0
2289 -2443 0
-2443 -2249 -2444 0
2443 2249 -2444 0
-2443 2444 2249 0
2444 2443 -2249 0
-2444 -2445 -2442 0
2444 -2445 2442 0
2445 2444 -2442 0
2445 -2444 2442 0
2446 -2444 -2442 0
2444 -2446 0
-2446 2442 0
-2443 -2249 2447 0
-2447 2249 0
-2447 2443 0
2446 -2448 2447 0
-2446 2448 0
-2447 2448 0
-210 -2289 2449 0
-2449 210 0
2289 -2449 0
-2450 -2255 -2449 0
-2450 2449 2255 0
2450 -2449 2255 0
2450 -2255 2449 0
-2448 -2450 -2451 0
2450 -2451 2448 0
-2448 2450 2451 0
-2450 2448 2451 0
-2448 -2450 2452 0
2450 -2452 0
-2452 2448 0
-2255 -2449 2453 0
-2453 2255 0
-2453 2449 0
-2454 2453 2452 0
2454 -2452 0
2454 -2453 0
-218 2455 -2289 0
-2455 218 0
2289 -2455 0
-2456 -2261 -2455 0
-2456 2455 2261 0
2456 2261 -2455 0
2456 -2261 2455 0
-2456 -2457 -2454 0
2456 -2457 2454 0
2456 2457 -2454 0
-2456 2454 2457 0
-2456 2458 -2454 0
2456 -2458 0
2454 -2458 0
-2261 2459 -2455 0
2261 -2459 0
2455 -2459 0
2459 2458 -2460 0
2460 -2458 0
2460 -2459 0
-226 2461 -2289 0
-2461 226 0
2289 -2461 0
-2461 -2267 -2462 0
2267 2461 -2462 0
2267 -2461 2462 0
2461 2462 -2267 0
-2463 -2460 -2462 0
2460 2462 -2463 0
2462 -2460 2463 0
2460 2463 -2462 0
2464 -2460 -2462 0
-2464 2462 0
-2464 2460 0
-2461 -2267 2465 0
2267 -2465 0
-2465 2461 0
2464 -2466 2465 0
-2464 2466 0
-2465 2466 0
2467 -2289 -234 0
-2467 234 0
-2467 2289 0
-2467 -2273 -2468 0
2273 2467 -2468 0
2273 2468 -2467 0
2468 -2273 2467 0
-2469 -2466 -2468 0
2468 -2469 2466 0
2469 2468 -2466 0
2469 2466 -2468 0
2470 -2466 -2468 0
2468 -2470 0
-2470 2466 0
-2467 -2273 2471 0
2273 -2471 0
-2471 2467 0
2470 -2472 2471 0
-2470 2472 0
-2471 2472 0
2473 -242 -2289 0
-2473 242 0
2289 -2473 0
-2473 -2474 -2279 0
2473 2279 -2474 0
-2473 2279 2474 0
2473 2474 -2279 0
-2472 -2474 -2475 0
2474 2472 -2475 0
-2472 2474 2475 0
-2474 2472 2475 0
-2472 2476 -2474 0
2474 -2476 0
2472 -2476 0
-2473 2477 -2279 0
2279 -2477 0
2473 -2477 0
2476 2477 -2478 0
2478 -2476 0
2478 -2477 0
2479 -250 -2289 0
250 -2479 0
2289 -2479 0
-2285 -2479 -2480 0
2479 2285 -2480 0
2480 2285 -2479 0
2479 -2285 2480 0
-2481 -2478 -2480 0
2478 2480 -2481 0
2480 -2478 2481 0
2478 2481 -2480 0
2482 -2478 -2480 0
-2482 2480 0
2478 -2482 0
-2285 2483 -2479 0
-2483 2285 0
2479 -2483 0
-2484 2483 2482 0
-2482 2484 0
-2483 2484 0
-258 -2289 2485 0
-2485 258 0
2289 -2485 0
-2485 -2288 -2486 0
2288 2485 -2486 0
-2485 2288 2486 0
-2288 2485 2486 0
-2484 -2487 -2486 0
2484 2486 -2487 0
2487 -2484 2486 0
2487 2484 -2486 0
-2484 2488 -2486 0
-2488 2486 0
-2488 2484 0
2489 -2485 -2288 0
2288 -2489 0
-2489 2485 0
2489 2488 -2490 0
-2488 2490 0
2490 -2489 0
2492 -1 -2491 0
-2492 1 0
2491 -2492 0
-2493 -2295 -2492 0
-2493 2492 2295 0
2493 2295 -2492 0
2493 -2295 2492 0
-2295 2494 -2492 0
-2494 2295 0
2492 -2494 0
2495 -4 -2491 0
-2495 4 0
2491 -2495 0
-2495 -2301 -2496 0
-2496 2495 2301 0
-2495 2496 2301 0
2496 2495 -2301 0
-2496 -2494 -2497 0
-2497 2496 2494 0
2497 2496 -2494 0
-2496 2497 2494 0
-2496 -2494 2498 0
2496 -2498 0
2494 -2498 0
-2495 2499 -2301 0
-2499 2301 0
-2499 2495 0
2499 -2500 2498 0
2500 -2498 0
-2499 2500 0
2501 -10 -2491 0
10 -2501 0
2491 -2501 0
-2502 -2501 -2307 0
2307 2501 -2502 0
2502 2307 -2501 0
2502 2501 -2307 0
-2503 -2502 -2500 0
2500 2502 -2503 0
2502 2503 -2500 0
2500 2503 -2502 0
2504 -2502 -2500 0
2502 -2504 0
2500 -2504 0
2505 -2501 -2307 0
2307 -2505 0
2501 -2505 0
2505 2504 -2506 0
2506 -2504 0
2506 -2505 0
2507 -2491 -18 0
18 -2507 0
2491 -2507 0
-2313 -2508 -2507 0
2313 -2508 2507 0
2313 2508 -2507 0
-2313 2508 2507 0
-2508 -2506 -2509 0
2506 -2509 2508 0
2509 -2506 2508 0
-2508 2506 2509 0
-2508 2510 -2506 0
-2510 2508 0
-2510 2506 0
-2313 2511 -2507 0
2313 -2511 0
-2511 2507 0
-2512 2510 2511 0
-2510 2512 0
2512 -2511 0
2513 -2491 -26 0
-2513 26 0
2491 -2513 0
-2513 -2514 -2319 0
2513 2319 -2514 0
-2513 2319 2514 0
2513 -2319 2514 0
-2512 -2514 -2515 0
2512 2514 -2515 0
-2512 2514 2515 0
-2514 2512 2515 0
-2512 2516 -2514 0
2514 -2516 0
2512 -2516 0
-2513 2517 -2319 0
-2517 2319 0
2513 -2517 0
2516 -2518 2517 0
2518 -2516 0
-2517 2518 0
-34 2519 -2491 0
34 -2519 0
2491 -2519 0
-2325 -2520 -2519 0
-2520 2519 2325 0
2520 -2519 2325 0
-2325 2520 2519 0
-2520 -2521 -2518 0
2520 -2521 2518 0
2520 2521 -2518 0
-2520 2521 2518 0
-2520 2522 -2518 0
-2522 2520 0
-2522 2518 0
-2325 2523 -2519 0
-2523 2325 0
-2523 2519 0
2523 -2524 2522 0
-2522 2524 0
2524 -2523 0
2525 -2491 -42 0
42 -2525 0
2491 -2525 0
-2526 -2331 -2525 0
-2526 2331 2525 0
2526 2331 -2525 0
2526 -2331 2525 0
-2526 -2524 -2527 0
2526 2524 -2527 0
2526 -2524 2527 0
2527 2524 -2526 0
-2526 -2524 2528 0
2526 -2528 0
2524 -2528 0
-2331 2529 -2525 0
2331 -2529 0
2525 -2529 0
-2530 2528 2529 0
-2528 2530 0
2530 -2529 0
-50 2531 -2491 0
50 -2531 0
2491 -2531 0
-2531 -2337 -2532 0
-2532 2337 2531 0
-2531 2337 2532 0
-2337 2531 2532 0
-2533 -2532 -2530 0
-2533 2532 2530 0
-2530 2533 2532 0
-2532 2533 2530 0
2534 -2532 -2530 0
-2534 2532 0
-2534 2530 0
-2531 -2337 2535 0
2337 -2535 0
2531 -2535 0
2534 2535 -2536 0
-2534 2536 0
-2535 2536 0
-2491 2537 -58 0
-2537 58 0
2491 -2537 0
-2537 -2343 -2538 0
-2538 2537 2343 0
-2537 2343 2538 0
-2343 2537 2538 0
-2539 -2538 -2536 0
-2539 2538 2536 0
2539 2538 -2536 0
2539 -2538 2536 0
2540 -2538 -2536 0
-2540 2538 0
-2540 2536 0
-2537 -2343 2541 0
-2541 2343 0
-2541 2537 0
-2542 2540 2541 0
-2540 2542 0
-2541 2542 0
2543 -66 -2491 0
66 -2543 0
2491 -2543 0
-2543 -2544 -2349 0
2543 2349 -2544 0
-2543 2349 2544 0
2543 2544 -2349 0
-2542 -2545 -2544 0
-2545 2542 2544 0
-2542 2544 2545 0
2542 -2544 2545 0
-2542 -2544 2546 0
2544 -2546 0
2542 -2546 0
2547 -2543 -2349 0
2349 -2547 0
2543 -2547 0
2547 -2548 2546 0
2548 -2546 0
2548 -2547 0
-2491 -74 2549 0
-2549 74 0
2491 -2549 0
-2355 -2549 -2550 0
2549 -2550 2355 0
-2549 2550 2355 0
-2355 2550 2549 0
-2548 -2550 -2551 0
-2551 2548 2550 0
2551 -2548 2550 0
2548 -2550 2551 0
2552 -2548 -2550 0
-2552 2550 0
2548 -2552 0
-2355 -2549 2553 0
-2553 2355 0
-2553 2549 0
2552 -2554 2553 0
2554 -2552 0
2554 -2553 0
-82 -2491 2555 0
-2555 82 0
2491 -2555 0
-2555 -2361 -2556 0
2361 -2556 2555 0
2361 2556 -2555 0
-2361 2556 2555 0
-2557 -2554 -2556 0
2554 -2557 2556 0
-2554 2556 2557 0
2554 -2556 2557 0
2558 -2554 -2556 0
2556 -2558 0
2554 -2558 0
-2555 -2361 2559 0
2361 -2559 0
-2559 2555 0
-2560 2558 2559 0
-2558 2560 0
-2559 2560 0
-90 2561 -2491 0
90 -2561 0
2491 -2561 0
-2561 -2562 -2367 0
-2562 2561 2367 0
-2561 2562 2367 0
2562 2561 -2367 0
-2560 -2562 -2563 0
-2563 2562 2560 0
-2560 2562 2563 0
-2562 2563 2560 0
-2560 -2562 2564 0
2562 -2564 0
-2564 2560 0
-2561 2565 -2367 0
-2565 2367 0
2561 -2565 0
2564 2565 -2566 0
-2564 2566 0
-2565 2566 0
-98 2567 -2491 0
-2567 98 0
2491 -2567 0
-2373 -2567 -2568 0
2373 -2568 2567 0
2373 -2567 2568 0
-2373 2568 2567 0
-2569 -2568 -2566 0
-2569 2568 2566 0
2569 2568 -2566 0
2569 -2568 2566 0
2570 -2568 -2566 0
-2570 2568 0
-2570 2566 0
-2373 2571 -2567 0
2373 -2571 0
-2571 2567 0
2570 2571 -2572 0
-2570 2572 0
-2571 2572 0
-106 2573 -2491 0
-2573 106 0
2491 -2573 0
-2574 -2573 -2379 0
-2574 2573 2379 0
-2573 2574 2379 0
2573 2574 -2379 0
-2574 -2575 -2572 0
-2575 2574 2572 0
2575 2574 -2572 0
-2574 2575 2572 0
-2574 -2572 2576 0
-2576 2574 0
-2576 2572 0
-2573 -2379 2577 0
-2577 2379 0
2573 -2577 0
-2578 2576 2577 0
2578 -2576 0
2578 -2577 0
-2491 2579 -114 0
114 -2579 0
2491 -2579 0
-2579 -2385 -2580 0
2385 2579 -2580 0
2580 2385 -2579 0
2580 -2385 2579 0
-2581 -2580 -2578 0
2578 2580 -2581 0
2580 2581 -2578 0
2578 2581 -2580 0
2582 -2580 -2578 0
-2582 2580 0
-2582 2578 0
-2579 -2385 2583 0
2385 -2583 0
2579 -2583 0
-2584 2582 2583 0
-2582 2584 0
2584 -2583 0
2585 -122 -2491 0
122 -2585 0
2491 -2585 0
-2585 -2586 -2391 0
2585 -2586 2391 0
-2585 2586 2391 0
2585 2586 -2391 0
-2584 -2587 -2586 0
2584 -2587 2586 0
-2584 2587 2586 0
2584 2587 -2586 0
2588 -2584 -2586 0
-2588 2586 0
2584 -2588 0
-2585 2589 -2391 0
-2589 2391 0
-2589 2585 0
2588 -2590 2589 0
2590 -2588 0
-2589 2590 0
2591 -2491 -130 0
-2591 130 0
2491 -2591 0
-2592 -2591 -2397 0
2591 -2592 2397 0
-2591 2592 2397 0
2591 2592 -2397 0
-2592 -2593 -2590 0
2590 2592 -2593 0
2592 -2590 2593 0
-2592 2590 2593 0
-2592 -2590 2594 0
2592 -2594 0
2590 -2594 0
-2591 -2397 2595 0
2397 -2595 0
2591 -2595 0
2595 -2596 2594 0
-2594 2596 0
-2595 2596 0
2597 -138 -2491 0
-2597 138 0
2491 -2597 0
-2598 -2597 -2403 0
2597 -2598 2403 0
2598 -2597 2403 0
2597 2598 -2403 0
-2599 -2596 -2598 0
-2599 2598 2596 0
2599 2598 -2596 0
2599 -2598 2596 0
2600 -2596 -2598 0
2598 -2600 0
2596 -2600 0
2601 -2597 -2403 0
-2601 2403 0
2597 -2601 0
2600 2601 -2602 0
2602 -2600 0
2602 -2601 0
-2491 2603 -146 0
146 -2603 0
2491 -2603 0
-2603 -2604 -2409 0
2409 2603 -2604 0
2409 -2603 2604 0
2603 2604 -2409 0
-2602 -2605 -2604 0
2602 -2605 2604 0
-2602 2604 2605 0
2602 -2604 2605 0
-2602 2606 -2604 0
-2606 2604 0
2602 -2606 0
-2603 2607 -2409 0
2409 -2607 0
2603 -2607 0
-2608 2606 2607 0
-2606 2608 0
-2607 2608 0
-2491 -154 2609 0
-2609 154 0
2491 -2609 0
-2610 -2415 -2609 0
-2610 2609 2415 0
-2609 2415 2610 0
2609 -2415 2610 0
-2610 -2608 -2611 0
-2611 2610 2608 0
-2608 2611 2610 0
-2610 2611 2608 0
-2610 -2608 2612 0
-2612 2610 0
-2612 2608 0
-2415 -2609 2613 0
-2613 2415 0
-2613 2609 0
-2614 2612 2613 0
-2612 2614 0
-2613 2614 0
-2491 -162 2615 0
-2615 162 0
2491 -2615 0
-2615 -2616 -2421 0
2421 -2616 2615 0
2616 -2615 2421 0
2616 -2421 2615 0
-2616 -2617 -2614 0
2616 -2617 2614 0
2616 2617 -2614 0
2617 -2616 2614 0
2618 -2616 -2614 0
2616 -2618 0
-2618 2614 0
2619 -2615 -2421 0
-2619 2421 0
-2619 2615 0
2619 2618 -2620 0
2620 -2618 0
-2619 2620 0
-170 -2491 2621 0
170 -2621 0
2491 -2621 0
-2622 -2427 -2621 0
2427 -2622 2621 0
2427 2622 -2621 0
2622 -2427 2621 0
-2623 -2620 -2622 0
-2623 2620 2622 0
2623 2622 -2620 0
2623 2620 -2622 0
-2620 -2622 2624 0
2622 -2624 0
2620 -2624 0
-2427 2625 -2621 0
2427 -2625 0
-2625 2621 0
-2626 2625 2624 0
2626 -2624 0
-2625 2626 0
2627 -2491 -178 0
-2627 178 0
2491 -2627 0
-2628 -2627 -2433 0
-2628 2627 2433 0
2628 -2627 2433 0
2628 -2433 2627 0
-2629 -2628 -2626 0
2628 2626 -2629 0
2628 -2626 2629 0
-2628 2629 2626 0
-2628 -2626 2630 0
2628 -2630 0
-2630 2626 0
2631 -2627 -2433 0
-2631 2433 0
-2631 2627 0
2631 2630 -2632 0
2632 -2630 0
2632 -2631 0
2633 -186 -2491 0
-2633 186 0
2491 -2633 0
-2633 -2439 -2634 0
-2634 2633 2439 0
-2633 2634 2439 0
2633 2634 -2439 0
-2634 -2635 -2632 0
2632 2634 -2635 0
2634 2635 -2632 0
-2634 2632 2635 0
-2634 2636 -2632 0
2634 -2636 0
2632 -2636 0
-2633 2637 -2439 0
-2637 2439 0
2633 -2637 0
-2638 2637 2636 0
-2636 2638 0
-2637 2638 0
-194 2639 -2491 0
-2639 194 0
2491 -2639 0
-2639 -2640 -2445 0
2639 2445 -2640 0
-2639 2445 2640 0
2639 2640 -2445 0
-2638 -2640 -2641 0
-2641 2640 2638 0
2641 -2638 2640 0
2641 -2640 2638 0
2642 -2638 -2640 0
-2642 2640 0
-2642 2638 0
-2639 2643 -2445 0
2445 -2643 0
2639 -2643 0
-2644 2642 2643 0
-2642 2644 0
-2643 2644 0
-202 2645 -2491 0
-2645 202 0
2491 -2645 0
-2646 -2645 -2451 0
2451 -2646 2645 0
2451 2646 -2645 0
2646 2645 -2451 0
-2647 -2646 -2644 0
-2647 2646 2644 0
2647 2646 -2644 0
-2646 2647 2644 0
-2646 2648 -2644 0
-2648 2646 0
-2648 2644 0
2649 -2645 -2451 0
2451 -2649 0
2645 -2649 0
2649 2648 -2650 0
-2648 2650 0
2650 -2649 0
-210 2651 -2491 0
-2651 210 0
2491 -2651 0
-2651 -2457 -2652 0
2651 -2652 2457 0
-2651 2652 2457 0
2652 2651 -2457 0
-2653 -2652 -2650 0
2652 -2653 2650 0
2652 2653 -2650 0
2653 -2652 2650 0
2654 -2652 -2650 0
2652 -2654 0
-2654 2650 0
-2651 2655 -2457 0
-2655 2457 0
-2655 2651 0
2655 -2656 2654 0
2656 -2654 0
-2655 2656 0
-218 2657 -2491 0
-2657 218 0
2491 -2657 0
-2657 -2658 -2463 0
-2658 2657 2463 0
-2657 2658 2463 0
2658 2657 -2463 0
-2658 -2656 -2659 0
2658 2656 -2659 0
2658 -2656 2659 0
-2658 2656 2659 0
-2658 -2656 2660 0
2658 -2660 0
2656 -2660 0
-2657 -2463 2661 0
-2661 2463 0
2657 -2661 0
2661 -2662 2660 0
-2660 2662 0
-2661 2662 0
-226 2663 -2491 0
226 -2663 0
2491 -2663 0
-2469 -2664 -2663 0
2469 2663 -2664 0
2664 2469 -2663 0
2663 -2469 2664 0
-2664 -2662 -2665 0
-2665 2664 2662 0
2665 -2662 2664 0
2665 -2664 2662 0
2666 -2664 -2662 0
-2666 2664 0
-2666 2662 0
2667 -2469 -2663 0
2469 -2667 0
2663 -2667 0
2667 2666 -2668 0
-2666 2668 0
-2667 2668 0
2669 -2491 -234 0
-2669 234 0
2491 -2669 0
-2669 -2670 -2475 0
2669 -2670 2475 0
-2669 2670 2475 0
2669 2670 -2475 0
-2670 -2668 -2671 0
-2671 2670 2668 0
2671 -2668 2670 0
2671 -2670 2668 0
-2670 -2668 2672 0
2670 -2672 0
-2672 2668 0
-2669 2673 -2475 0
-2673 2475 0
2669 -2673 0
-2674 2672 2673 0
2674 -2672 0
2674 -2673 0
2675 -242 -2491 0
-2675 242 0
2491 -2675 0
-2676 -2481 -2675 0
-2676 2481 2675 0
-2675 2481 2676 0
-2481 2675 2676 0
-2676 -2674 -2677 0
2674 2676 -2677 0
2676 -2674 2677 0
-2676 2674 2677 0
-2676 -2674 2678 0
2676 -2678 0
2674 -2678 0
-2481 -2675 2679 0
-2679 2481 0
-2679 2675 0
-2680 2679 2678 0
-2678 2680 0
-2679 2680 0
-250 2681 -2491 0
250 -2681 0
2491 -2681 0
-2682 -2487 -2681 0
2487 -2682 2681 0
2487 2682 -2681 0
2682 -2487 2681 0
-2680 -2682 -2683 0
-2683 2682 2680 0
-2680 2682 2683 0
-2682 2683 2680 0
-2680 -2682 2684 0
-2684 2682 0
-2684 2680 0
-2487 -2681 2685 0
2487 -2685 0
-2685 2681 0
2684 2685 -2686 0
-2684 2686 0
-2685 2686 0
2687 -258 -2491 0
-2687 258 0
2491 -2687 0
-2687 -2490 -2688 0
2490 2687 -2688 0
-2687 2490 2688 0
2688 2687 -2490 0
-2689 -2688 -2686 0
2688 2686 -2689 0
2688 2689 -2686 0
2686 -2688 2689 0
2690 -2688 -2686 0
2688 -2690 0
-2690 2686 0
-2687 2691 -2490 0
2490 -2691 0
-2691 2687 0
2691 2690 -2692 0
-2690 2692 0
-2691 2692 0
-1 -2693 2694 0
-2694 1 0
2693 -2694 0
-2694 -2695 -2497 0
2497 -2695 2694 0
2497 -2694 2695 0
-2497 2695 2694 0
2696 -2694 -2497 0
2497 -2696 0
-2696 2694 0
2697 -4 -2693 0
-2697 4 0
2693 -2697 0
-2503 -2698 -2697 0
2697 2503 -2698 0
2698 2503 -2697 0
2697 -2503 2698 0
-2696 -2699 -2698 0
2696 2698 -2699 0
-2696 2698 2699 0
2696 2699 -2698 0
-2696 -2698 2700 0
-2700 2698 0
2696 -2700 0
-2503 2701 -2697 0
-2701 2503 0
2697 -2701 0
2701 -2702 2700 0
2702 -2700 0
2702 -2701 0
2703 -10 -2693 0
10 -2703 0
2693 -2703 0
-2704 -2703 -2509 0
-2704 2509 2703 0
-2703 2509 2704 0
2704 2703 -2509 0
-2704 -2702 -2705 0
2702 2704 -2705 0
-2702 2705 2704 0
2702 -2704 2705 0
-2704 -2702 2706 0
-2706 2704 0
2702 -2706 0
2707 -2703 -2509 0
-2707 2509 0
-2707 2703 0
-2708 2707 2706 0
-2706 2708 0
2708 -2707 0
2709 -2693 -18 0
-2709 18 0
-2709 2693 0
-2709 -2515 -2710 0
2709 2515 -2710 0
-2709 2710 2515 0
2709 2710 -2515 0
-2708 -2711 -2710 0
2710 -2711 2708 0
2710 -2708 2711 0
2708 2711 -2710 0
-2708 2712 -2710 0
2710 -2712 0
-2712 2708 0
-2709 2713 -2515 0
-2713 2515 0
2709 -2713 0
-2714 2713 2712 0
-2712 2714 0
-2713 2714 0
2715 -2693 -26 0
-2715 26 0
2693 -2715 0
-2716 -2715 -2521 0
-2716 2715 2521 0
2716 2521 -2715 0
2715 2716 -2521 0
-2717 -2716 -2714 0
-2717 2716 2714 0
2716 -2714 2717 0
-2716 2717 2714 0
2718 -2716 -2714 0
2716 -2718 0
-2718 2714 0
-2715 -2521 2719 0
-2719 2521 0
-2719 2715 0
2718 -2720 2719 0
-2718 2720 0
-2719 2720 0
-34 2721 -2693 0
34 -2721 0
2693 -2721 0
-2527 -2721 -2722 0
2527 2721 -2722 0
2527 2722 -2721 0
2722 -2527 2721 0
-2723 -2720 -2722 0
-2723 2722 2720 0
2723 2722 -2720 0
2723 2720 -2722 0
2724 -2720 -2722 0
-2724 2722 0
-2724 2720 0
2725 -2527 -2721 0
2527 -2725 0
2721 -2725 0
2724 2725 -2726 0
-2724 2726 0
-2725 2726 0
2727 -2693 -42 0
42 -2727 0
2693 -2727 0
-2533 -2727 -2728 0
2727 2533 -2728 0
-2727 2533 2728 0
-2533 2727 2728 0
-2728 -2729 -2726 0
-2729 2728 2726 0
2729 2728 -2726 0
2729 -2728 2726 0
2730 -2728 -2726 0
-2730 2728 0
-2730 2726 0
-2533 2731 -2727 0
-2731 2533 0
-2731 2727 0
2730 2731 -2732 0
2732 -2730 0
-2731 2732 0
-50 -2693 2733 0
50 -2733 0
2693 -2733 0
-2539 -2733 -2734 0
2539 -2734 2733 0
2539 -2733 2734 0
-2539 2734 2733 0
-2732 -2734 -2735 0
-2735 2732 2734 0
-2732 2735 2734 0
2732 -2734 2735 0
-2732 -2734 2736 0
-2736 2734 0
-2736 2732 0
-2539 -2733 2737 0
2539 -2737 0
-2737 2733 0
-2738 2737 2736 0
-2736 2738 0
2738 -2737 0
2739 -2693 -58 0
-2739 58 0
2693 -2739 0
-2740 -2739 -2545 0
-2740 2739 2545 0
2740 -2739 2545 0
2739 -2545 2740 0
-2738 -2740 -2741 0
2738 2740 -2741 0
-2738 2740 2741 0
2738 -2740 2741 0
-2738 -2740 2742 0
-2742 2740 0
2738 -2742 0
2743 -2739 -2545 0
-2743 2545 0
2739 -2743 0
-2744 2742 2743 0
-2742 2744 0
2744 -2743 0
2745 -66 -2693 0
66 -2745 0
2693 -2745 0
-2551 -2746 -2745 0
2551 2745 -2746 0
2551 2746 -2745 0
2745 2746 -2551 0
-2744 -2746 -2747 0
2746 2744 -2747 0
2747 2746 -2744 0
2747 2744 -2746 0
-2744 2748 -2746 0
-2748 2746 0
-2748 2744 0
2749 -2551 -2745 0
2551 -2749 0
2745 -2749 0
2748 2749 -2750 0
-2748 2750 0
2750 -2749 0
2751 -2693 -74 0
-2751 74 0
2693 -2751 0
-2557 -2752 -2751 0
2751 -2752 2557 0
2752 -2751 2557 0
2751 2752 -2557 0
-2753 -2752 -2750 0
2752 2750 -2753 0
2752 -2750 2753 0
2753 2750 -2752 0
2754 -2752 -2750 0
2752 -2754 0
2750 -2754 0
-2557 2755 -2751 0
-2755 2557 0
2751 -2755 0
-2756 2755 2754 0
-2754 2756 0
-2755 2756 0
-82 2757 -2693 0
82 -2757 0
2693 -2757 0
-2563 -2758 -2757 0
-2758 2757 2563 0
2758 2563 -2757 0
2758 -2563 2757 0
-2756 -2758 -2759 0
2758 -2759 2756 0
2758 -2756 2759 0
-2758 2759 2756 0
-2756 -2758 2760 0
2758 -2760 0
-2760 2756 0
-2563 -2757 2761 0
-2761 2563 0
-2761 2757 0
-2762 2760 2761 0
-2760 2762 0
-2761 2762 0
-90 2763 -2693 0
90 -2763 0
2693 -2763 0
-2569 -2764 -2763 0
2569 -2764 2763 0
2764 2569 -2763 0
2764 -2569 2763 0
-2762 -2764 -2765 0
2764 -2765 2762 0
-2762 2764 2765 0
2765 -2764 2762 0
-2762 2766 -2764 0
2764 -2766 0
-2766 2762 0
-2569 2767 -2763 0
-2767 2569 0
-2767 2763 0
2766 -2768 2767 0
-2766 2768 0
-2767 2768 0
-98 2769 -2693 0
-2769 98 0
2693 -2769 0
-2575 -2769 -2770 0
2575 -2770 2769 0
2575 -2769 2770 0
-2575 2769 2770 0
-2771 -2770 -2768 0
-2771 2768 2770 0
-2768 2771 2770 0
-2770 2768 2771 0
2772 -2770 -2768 0
-2772 2770 0
-2772 2768 0
-2575 -2769 2773 0
2575 -2773 0
2769 -2773 0
2772 2773 -2774 0
-2772 2774 0
2774 -2773 0
-106 2775 -2693 0
106 -2775 0
2693 -2775 0
-2776 -2581 -2775 0
-2776 2581 2775 0
2776 2581 -2775 0
2776 -2581 2775 0
-2777 -2776 -2774 0
-2777 2776 2774 0
2776 2777 -2774 0
-2776 2774 2777 0
2778 -2776 -2774 0
2776 -2778 0
-2778 2774 0
-2581 2779 -2775 0
-2779 2581 0
-2779 2775 0
2778 2779 -2780 0
2780 -2778 0
2780 -2779 0
-2693 -114 2781 0
114 -2781 0
2693 -2781 0
-2782 -2587 -2781 0
-2782 2587 2781 0
2782 -2781 2587 0
2782 -2587 2781 0
-2782 -2780 -2783 0
2782 -2783 2780 0
2782 -2780 2783 0
-2782 2783 2780 0
-2782 -2780 2784 0
2782 -2784 0
2780 -2784 0
2785 -2587 -2781 0
-2785 2587 0
-2785 2781 0
2785 2784 -2786 0
2786 -2784 0
2786 -2785 0
2787 -122 -2693 0
122 -2787 0
2693 -2787 0
-2593 -2787 -2788 0
2787 2593 -2788 0
2788 -2787 2593 0
2787 -2593 2788 0
-2789 -2786 -2788 0
2788 2786 -2789 0
2788 2789 -2786 0
2786 2789 -2788 0
2790 -2786 -2788 0
2788 -2790 0
2786 -2790 0
-2593 -2787 2791 0
2593 -2791 0
2787 -2791 0
2790 -2792 2791 0
2792 -2790 0
2792 -2791 0
2793 -2693 -130 0
130 -2793 0
2693 -2793 0
-2794 -2599 -2793 0
2599 2793 -2794 0
2599 -2793 2794 0
2793 -2599 2794 0
-2794 -2795 -2792 0
2792 -2795 2794 0
-2792 2794 2795 0
-2794 2792 2795 0
-2794 2796 -2792 0
-2796 2794 0
2792 -2796 0
-2599 -2793 2797 0
2599 -2797 0
2793 -2797 0
2796 -2798 2797 0
2798 -2796 0
2798 -2797 0
2799 -138 -2693 0
-2799 138 0
2693 -2799 0
-2800 -2799 -2605 0
-2800 2799 2605 0
-2799 2800 2605 0
2799 -2605 2800 0
-2800 -2798 -2801 0
2798 2800 -2801 0
2801 -2798 2800 0
-2800 2798 2801 0
-2800 2802 -2798 0
2800 -2802 0
2798 -2802 0
-2799 -2605 2803 0
-2803 2605 0
2799 -2803 0
2802 -2804 2803 0
-2802 2804 0
-2803 2804 0
-2693 -146 2805 0
146 -2805 0
2693 -2805 0
-2611 -2806 -2805 0
-2806 2611 2805 0
-2805 2611 2806 0
-2611 2806 2805 0
-2807 -2806 -2804 0
2804 -2807 2806 0
2807 -2804 2806 0
2807 -2806 2804 0
2808 -2806 -2804 0
-2808 2806 0
-2808 2804 0
-2611 2809 -2805 0
-2809 2611 0
-2809 2805 0
2808 2809 -2810 0
2810 -2808 0
-2809 2810 0
-2693 -154 2811 0
154 -2811 0
2693 -2811 0
-2812 -2617 -2811 0
2617 -2812 2811 0
2617 2812 -2811 0
2812 -2617 2811 0
-2813 -2810 -2812 0
2812 -2813 2810 0
2812 2813 -2810 0
2813 2810 -2812 0
2814 -2810 -2812 0
-2814 2812 0
-2814 2810 0
2815 -2617 -2811 0
2617 -2815 0
-2815 2811 0
2815 -2816 2814 0
-2814 2816 0
2816 -2815 0
-2693 -162 2817 0
162 -2817 0
2693 -2817 0
-2623 -2818 -2817 0
2623 -2818 2817 0
2623 -2817 2818 0
-2623 2818 2817 0
-2816 -2818 -2819 0
2816 -2819 2818 0
-2816 2819 2818 0
2819 -2818 2816 0
-2816 -2818 2820 0
-2820 2818 0
2816 -2820 0
-2623 2821 -2817 0
2623 -2821 0
-2821 2817 0
2821 2820 -2822 0
2822 -2820 0
2822 -2821 0
2823 -170 -2693 0
170 -2823 0
2693 -2823 0
-2629 -2823 -2824 0
2823 2629 -2824 0
-2823 2629 2824 0
-2629 2823 2824 0
-2824 -2825 -2822 0
-2825 2822 2824 0
-2822 2825 2824 0
-2824 2822 2825 0
2826 -2824 -2822 0
-2826 2824 0
-2826 2822 0
-2629 2827 -2823 0
-2827 2629 0
2823 -2827 0
2827 -2828 2826 0
-2826 2828 0
-2827 2828 0
2829 -2693 -178 0
-2829 178 0
2693 -2829 0
-2829 -2635 -2830 0
2829 2635 -2830 0
2830 -2829 2635 0
2830 2829 -2635 0
-2831 -2828 -2830 0
2830 -2831 2828 0
2830 -2828 2831 0
2828 2831 -2830 0
-2828 2832 -2830 0
2830 -2832 0
2828 -2832 0
2833 -2829 -2635 0
-2833 2635 0
-2833 2829 0
2833 2832 -2834 0
2834 -2832 0
-2833 2834 0
-186 2835 -2693 0
186 -2835 0
2693 -2835 0
-2835 -2641 -2836 0
-2836 2835 2641 0
-2835 2836 2641 0
2836 -2641 2835 0
-2837 -2836 -2834 0
2836 2834 -2837 0
2836 2837 -2834 0
-2836 2834 2837 0
-2836 -2834 2838 0
2836 -2838 0
-2838 2834 0
-2835 -2641 2839 0
-2839 2641 0
-2839 2835 0
-2840 2839 2838 0
-2838 2840 0
-2839 2840 0
-194 2841 -2693 0
194 -2841 0
2693 -2841 0
-2647 -2842 -2841 0
2647 -2842 2841 0
2647 2842 -2841 0
-2647 2842 2841 0
-2840 -2842 -2843 0
2842 -2843 2840 0
-2840 2842 2843 0
-2842 2843 2840 0
-2840 2844 -2842 0
-2844 2842 0
-2844 2840 0
-2647 2845 -2841 0
2647 -2845 0
-2845 2841 0
2844 2845 -2846 0
-2844 2846 0
2846 -2845 0
2847 -202 -2693 0
-2847 202 0
2693 -2847 0
-2848 -2653 -2847 0
-2848 2847 2653 0
2848 2653 -2847 0
2848 2847 -2653 0
-2848 -2849 -2846 0
2848 -2849 2846 0
2848 2849 -2846 0
-2848 2846 2849 0
-2848 2850 -2846 0
2848 -2850 0
2846 -2850 0
2851 -2653 -2847 0
2653 -2851 0
2847 -2851 0
2851 2850 -2852 0
2852 -2850 0
2852 -2851 0
-210 2853 -2693 0
-2853 210 0
-2853 2693 0
-2853 -2854 -2659 0
-2854 2853 2659 0
2854 -2853 2659 0
2854 2853 -2659 0
-2854 -2855 -2852 0
2854 2852 -2855 0
2854 2855 -2852 0
2852 2855 -2854 0
2856 -2854 -2852 0
2854 -2856 0
2852 -2856 0
-2853 2857 -2659 0
-2857 2659 0
-2857 2853 0
-2858 2857 2856 0
2858 -2856 0
2858 -2857 0
2859 -218 -2693 0
-2859 218 0
2693 -2859 0
-2860 -2859 -2665 0
2665 2859 -2860 0
2665 -2859 2860 0
2859 -2665 2860 0
-2858 -2860 -2861 0
2858 -2861 2860 0
-2858 2861 2860 0
2858 -2860 2861 0
-2858 2862 -2860 0
2860 -2862 0
2858 -2862 0
-2859 2863 -2665 0
2665 -2863 0
2859 -2863 0
2862 2863 -2864 0
2864 -2862 0
-2863 2864 0
-226 -2693 2865 0
226 -2865 0
2693 -2865 0
-2866 -2671 -2865 0
2671 -2866 2865 0
2671 2866 -2865 0
-2671 2866 2865 0
-2867 -2866 -2864 0
-2867 2866 2864 0
2867 2866 -2864 0
2867 -2866 2864 0
2868 -2866 -2864 0
2866 -2868 0
-2868 2864 0
-2671 -2865 2869 0
2671 -2869 0
-2869 2865 0
2868 -2870 2869 0
2870 -2868 0
-2869 2870 0
2871 -2693 -234 0
234 -2871 0
2693 -2871 0
-2677 -2872 -2871 0
2871 2677 -2872 0
2677 -2871 2872 0
2871 -2677 2872 0
-2873 -2870 -2872 0
2870 -2873 2872 0
2873 -2870 2872 0
2870 2873 -2872 0
2874 -2870 -2872 0
-2874 2872 0
2870 -2874 0
2875 -2677 -2871 0
2677 -2875 0
2871 -2875 0
2875 2874 -2876 0
-2874 2876 0
-2875 2876 0
2877 -242 -2693 0
242 -2877 0
2693 -2877 0
-2683 -2877 -2878 0
2877 2683 -2878 0
2683 -2877 2878 0
-2683 2877 2878 0
-2879 -2878 -2876 0
-2879 2876 2878 0
-2876 2879 2878 0
2876 -2878 2879 0
2880 -2878 -2876 0
-2880 2878 0
-2880 2876 0
-2683 -2877 2881 0
-2881 2683 0
-2881 2877 0
2880 -2882 2881 0
2882 -2880 0
-2881 2882 0
-250 -2693 2883 0
250 -2883 0
2693 -2883 0
-2884 -2883 -2689 0
-2884 2883 2689 0
-2883 2884 2689 0
2883 -2689 2884 0
-2884 -2885 -2882 0
2884 2882 -2885 0
2885 2884 -2882 0
2885 -2884 2882 0
-2884 2886 -2882 0
2884 -2886 0
2882 -2886 0
2887 -2883 -2689 0
-2887 2689 0
-2887 2883 0
2887 -2888 2886 0
2888 -2886 0
-2887 2888 0
2889 -258 -2693 0
258 -2889 0
2693 -2889 0
-2692 -2890 -2889 0
2889 -2890 2692 0
2890 2692 -2889 0
2889 -2692 2890 0
-2888 -2891 -2890 0
2888 -2891 2890 0
-2888 2890 2891 0
2888 -2890 2891 0
-2888 2892 -2890 0
2890 -2892 0
2888 -2892 0
2893 -2692 -2889 0
2692 -2893 0
2889 -2893 0
2892 -2894 2893 0
-2892 2894 0
2894 -2893 0
-2895 -1 2896 0
-2896 1 0
2895 -2896 0
-2897 -2699 -2896 0
-2897 2699 2896 0
2897 2699 -2896 0
2897 -2699 2896 0
2898 -2699 -2896 0
2699 -2898 0
2896 -2898 0
2899 -2895 -4 0
-2899 4 0
-2899 2895 0
-2899 -2900 -2705 0
2899 2705 -2900 0
-2899 2900 2705 0
2899 2900 -2705 0
-2901 -2900 -2898 0
-2901 2898 2900 0
2901 2900 -2898 0
2898 -2900 2901 0
2902 -2900 -2898 0
-2902 2900 0
-2902 2898 0
-2899 2903 -2705 0
-2903 2705 0
2899 -2903 0
-2904 2903 2902 0
2904 -2902 0
2904 -2903 0
-2895 2905 -10 0
10 -2905 0
-2905 2895 0
-2906 -2711 -2905 0
2905 -2906 2711 0
2906 -2905 2711 0
2905 2906 -2711 0
-2904 -2906 -2907 0
2904 2906 -2907 0
-2904 2906 2907 0
2904 2907 -2906 0
-2904 -2906 2908 0
-2908 2906 0
2904 -2908 0
2909 -2711 -2905 0
-2909 2711 0
2905 -2909 0
2908 2909 -2910 0
-2908 2910 0
-2909 2910 0
-2895 2911 -18 0
-2911 18 0
-2911 2895 0
-2717 -2912 -2911 0
2717 -2912 2911 0
-2911 2912 2717 0
-2717 2912 2911 0
-2913 -2910 -2912 0
2912 2910 -2913 0
2913 2912 -2910 0
2913 2910 -2912 0
2914 -2910 -2912 0
-2914 2912 0
-2914 2910 0
-2717 2915 -2911 0
-2915 2717 0
-2915 2911 0
2914 2915 -2916 0
-2914 2916 0
-2915 2916 0
-2895 2917 -26 0
-2917 26 0
-2917 2895 0
-2723 -2917 -2918 0
2723 2917 -2918 0
2723 -2917 2918 0
-2723 2917 2918 0
-2919 -2918 -2916 0
-2919 2916 2918 0
-2916 2919 2918 0
2916 -2918 2919 0
2920 -2918 -2916 0
-2920 2918 0
2916 -2920 0
2921 -2723 -2917 0
2723 -2921 0
2917 -2921 0
-2922 2921 2920 0
2922 -2920 0
2922 -2921 0
-34 -2895 2923 0
34 -2923 0
2895 -2923 0
-2923 -2924 -2729 0
2729 -2924 2923 0
2729 -2923 2924 0
-2729 2924 2923 0
-2922 -2924 -2925 0
2922 -2925 2924 0
-2922 2924 2925 0
2922 -2924 2925 0
-2922 2926 -2924 0
-2926 2924 0
2922 -2926 0
2927 -2923 -2729 0
2729 -2927 0
-2927 2923 0
2927 2926 -2928 0
2928 -2926 0
2928 -2927 0
-2895 2929 -42 0
42 -2929 0
2895 -2929 0
-2735 -2930 -2929 0
2929 -2930 2735 0
2930 -2929 2735 0
-2735 2929 2930 0
-2931 -2930 -2928 0
-2931 2928 2930 0
2931 2930 -2928 0
2928 -2930 2931 0
2932 -2930 -2928 0
-2932 2930 0
-2932 2928 0
-2735 2933 -2929 0
-2933 2735 0
2929 -2933 0
-2934 2932 2933 0
-2932 2934 0
2934 -2933 0
-50 2935 -2895 0
50 -2935 0
-2935 2895 0
-2936 -2935 -2741 0
2935 -2936 2741 0
-2935 2936 2741 0
2935 2936 -2741 0
-2934 -2936 -2937 0
-2937 2936 2934 0
-2934 2936 2937 0
2934 -2936 2937 0
2938 -2934 -2936 0
-2938 2936 0
-2938 2934 0
-2935 -2741 2939 0
-2939 2741 0
2935 -2939 0
-2940 2938 2939 0
2940 -2938 0
2940 -2939 0
-2895 2941 -58 0
58 -2941 0
2895 -2941 0
-2942 -2747 -2941 0
-2942 2747 2941 0
2747 2942 -2941 0
2942 2941 -2747 0
-2942 -2940 -2943 0
2940 2942 -2943 0
-2940 2942 2943 0
-2942 2943 2940 0
-2942 2944 -2940 0
2942 -2944 0
2940 -2944 0
2945 -2747 -2941 0
2747 -2945 0
2941 -2945 0
2944 -2946 2945 0
2946 -2944 0
2946 -2945 0
-2895 -66 2947 0
66 -2947 0
2895 -2947 0
-2753 -2948 -2947 0
2753 2947 -2948 0
2753 2948 -2947 0
-2753 2947 2948 0
-2948 -2946 -2949 0
2946 2948 -2949 0
2948 2949 -2946 0
-2948 2946 2949 0
-2948 -2946 2950 0
2948 -2950 0
2946 -2950 0
-2753 -2947 2951 0
2753 -2951 0
2947 -2951 0
-2952 2951 2950 0
2952 -2950 0
2952 -2951 0
-2895 2953 -74 0
-2953 74 0
2895 -2953 0
-2954 -2953 -2759 0
-2954 2759 2953 0
-2953 2759 2954 0
2954 2953 -2759 0
-2955 -2954 -2952 0
-2955 2952 2954 0
2955 2954 -2952 0
2955 2952 -2954 0
2956 -2954 -2952 0
2954 -2956 0
2952 -2956 0
2957 -2953 -2759 0
2759 -2957 0
-2957 2953 0
2957 2956 -2958 0
2958 -2956 0
2958 -2957 0
2959 -82 -2895 0
-2959 82 0
-2959 2895 0
-2959 -2765 -2960 0
2959 2765 -2960 0
2765 -2959 2960 0
2959 2960 -2765 0
-2958 -2961 -2960 0
2958 2960 -2961 0
2961 2960 -2958 0
2958 2961 -2960 0
2962 -2958 -2960 0
2960 -2962 0
2958 -2962 0
2963 -2959 -2765 0
-2963 2765 0
2959 -2963 0
2963 2962 -2964 0
2964 -2962 0
-2963 2964 0
-2895 -90 2965 0
90 -2965 0
-2965 2895 0
-2966 -2771 -2965 0
-2966 2965 2771 0
-2965 2771 2966 0
-2771 2965 2966 0
-2966 -2967 -2964 0
2964 -2967 2966 0
2967 -2964 2966 0
-2966 2964 2967 0
-2966 2968 -2964 0
-2968 2966 0
2964 -2968 0
-2771 2969 -2965 0
2771 -2969 0
2965 -2969 0
2969 -2970 2968 0
-2968 2970 0
2970 -2969 0
-98 -2895 2971 0
-2971 98 0
-2971 2895 0
-2777 -2971 -2972 0
2971 2777 -2972 0
2972 2777 -2971 0
-2777 2972 2971 0
-2970 -2972 -2973 0
2972 -2973 2970 0
2972 2973 -2970 0
2973 -2972 2970 0
2974 -2970 -2972 0
2972 -2974 0
-2974 2970 0
-2777 -2971 2975 0
2777 -2975 0
2971 -2975 0
2974 2975 -2976 0
2976 -2974 0
2976 -2975 0
-106 -2895 2977 0
-2977 106 0
-2977 2895 0
-2783 -2978 -2977 0
-2978 2783 2977 0
-2977 2783 2978 0
-2783 2978 2977 0
-2978 -2976 -2979 0
-2979 2978 2976 0
2978 2979 -2976 0
-2978 2979 2976 0
-2978 -2976 2980 0
2978 -2980 0
2976 -2980 0
-2783 -2977 2981 0
-2981 2783 0
-2981 2977 0
-2982 2981 2980 0
2982 -2980 0
2982 -2981 0
-2895 2983 -114 0
114 -2983 0
2895 -2983 0
-2984 -2983 -2789 0
2983 -2984 2789 0
2984 2789 -2983 0
2983 2984 -2789 0
-2982 -2985 -2984 0
2984 -2985 2982 0
2984 -2982 2985 0
2982 -2984 2985 0
-2982 -2984 2986 0
2984 -2986 0
2982 -2986 0
2987 -2983 -2789 0
-2987 2789 0
2983 -2987 0
-2988 2987 2986 0
-2986 2988 0
2988 -2987 0
-2895 -122 2989 0
-2989 122 0
-2989 2895 0
-2989 -2990 -2795 0
-2990 2989 2795 0
-2989 2990 2795 0
2990 -2795 2989 0
-2988 -2991 -2990 0
-2991 2990 2988 0
-2988 2990 2991 0
-2990 2988 2991 0
-2988 -2990 2992 0
-2992 2990 0
-2992 2988 0
2993 -2989 -2795 0
-2993 2795 0
-2993 2989 0
2993 -2994 2992 0
-2992 2994 0
-2993 2994 0
-2895 2995 -130 0
-2995 130 0
-2995 2895 0
-2995 -2996 -2801 0
2801 -2996 2995 0
2801 -2995 2996 0
2996 2995 -2801 0
-2997 -2996 -2994 0
-2997 2996 2994 0
2997 2996 -2994 0
2997 -2996 2994 0
2998 -2996 -2994 0
2996 -2998 0
2994 -2998 0
-2995 2999 -2801 0
2801 -2999 0
-2999 2995 0
2998 2999 -3000 0
-2998 3000 0
3000 -2999 0
-2895 -138 3001 0
-3001 138 0
-3001 2895 0
-3001 -3002 -2807 0
2807 3001 -3002 0
2807 -3001 3002 0
3001 -2807 3002 0
-3003 -3002 -3000 0
-3003 3000 3002 0
3003 -3000 3002 0
3003 -3002 3000 0
3004 -3002 -3000 0
-3004 3002 0
3000 -3004 0
-3001 3005 -2807 0
2807 -3005 0
3001 -3005 0
3004 3005 -3006 0
-3004 3006 0
3006 -3005 0
-2895 -146 3007 0
146 -3007 0
-3007 2895 0
-3007 -2813 -3008 0
-3008 2813 3007 0
3008 2813 -3007 0
3008 -2813 3007 0
-3009 -3006 -3008 0
3008 3006 -3009 0
3009 3008 -3006 0
3009 3006 -3008 0
3010 -3006 -3008 0
3008 -3010 0
-3010 3006 0
-3007 -2813 3011 0
-3011 2813 0
-3011 3007 0
-3012 3011 3010 0
-3010 3012 0
-3011 3012 0
-2895 3013 -154 0
-3013 154 0
-3013 2895 0
-3013 -3014 -2819 0
2819 3013 -3014 0
2819 -3013 3014 0
3013 3014 -2819 0
-3012 -3014 -3015 0
3012 3014 -3015 0
-3012 3015 3014 0
3015 -3014 3012 0
-3012 3016 -3014 0
3014 -3016 0
3012 -3016 0
3017 -3013 -2819 0
2819 -3017 0
3013 -3017 0
3017 -3018 3016 0
-3016 3018 0
-3017 3018 0
-2895 3019 -162 0
162 -3019 0
2895 -3019 0
-3020 -2825 -3019 0
-3020 3019 2825 0
3020 2825 -3019 0
3020 -2825 3019 0
-3021 -3020 -3018 0
-3021 3020 3018 0
3021 -3018 3020 0
3021 -3020 3018 0
-3020 -3018 3022 0
3020 -3022 0
-3022 3018 0
-2825 3023 -3019 0
2825 -3023 0
3019 -3023 0
-3024 3023 3022 0
3024 -3022 0
3024 -3023 0
-2895 3025 -170 0
170 -3025 0
2895 -3025 0
-2831 -3026 -3025 0
-3026 3025 2831 0
3026 -3025 2831 0
-2831 3025 3026 0
-3024 -3026 -3027 0
3026 3024 -3027 0
3026 -3024 3027 0
3027 3024 -3026 0
3028 -3024 -3026 0
-3028 3026 0
-3028 3024 0
-2831 3029 -3025 0
-3029 2831 0
-3029 3025 0
-3030 3028 3029 0
-3028 3030 0
-3029 3030 0
3031 -2895 -178 0
-3031 178 0
2895 -3031 0
-2837 -3032 -3031 0
3031 -3032 2837 0
3032 2837 -3031 0
3031 -2837 3032 0
-3030 -3033 -3032 0
-3033 3032 3030 0
-3030 3033 3032 0
-3032 3033 3030 0
-3030 3034 -3032 0
-3034 3032 0
-3034 3030 0
3035 -2837 -3031 0
2837 -3035 0
3031 -3035 0
3035 3034 -3036 0
-3034 3036 0
-3035 3036 0
-2895 -186 3037 0
186 -3037 0
-3037 2895 0
-3037 -3038 -2843 0
-3038 2843 3037 0
-3037 2843 3038 0
3038 -2843 3037 0
-3038 -3039 -3036 0
-3039 3036 3038 0
-3036 3039 3038 0
3039 -3038 3036 0
3040 -3038 -3036 0
-3040 3038 0
-3040 3036 0
-3037 3041 -2843 0
-3041 2843 0
-3041 3037 0
3040 -3042 3041 0
-3040 3042 0
-3041 3042 0
-194 -2895 3043 0
194 -3043 0
-3043 2895 0
-3043 -2849 -3044 0
-3044 3043 2849 0
-3043 2849 3044 0
3043 -2849 3044 0
-3042 -3044 -3045 0
3044 -3045 3042 0
-3042 3044 3045 0
-3044 3045 3042 0
-3042 -3044 3046 0
3044 -3046 0
-3046 3042 0
-3043 -2849 3047 0
2849 -3047 0
3043 -3047 0
3047 3046 -3048 0
3048 -3046 0
3048 -3047 0
-2895 -202 3049 0
-3049 202 0
-3049 2895 0
-3049 -2855 -3050 0
2855 -3050 3049 0
2855 -3049 3050 0
3050 -2855 3049 0
-3048 -3050 -3051 0
3048 3050 -3051 0
3051 3050 -3048 0
3048 -3050 3051 0
3052 -3048 -3050 0
3050 -3052 0
3048 -3052 0
-3049 -2855 3053 0
2855 -3053 0
-3053 3049 0
-3054 3052 3053 0
-3052 3054 0
-3053 3054 0
-2895 -210 3055 0
-3055 210 0
-3055 2895 0
-3055 -2861 -3056 0
3055 -3056 2861 0
-3055 2861 3056 0
3055 -2861 3056 0
-3057 -3056 -3054 0
-3057 3054 3056 0
3057 -3054 3056 0
3057 -3056 3054 0
3058 -3056 -3054 0
-3058 3056 0
-3058 3054 0
3059 -3055 -2861 0
-3059 2861 0
3055 -3059 0
3059 3058 -3060 0
3060 -3058 0
3060 -3059 0
-2895 -218 3061 0
-3061 218 0
2895 -3061 0
-3062 -3061 -2867 0
-3062 2867 3061 0
2867 -3061 3062 0
3061 3062 -2867 0
-3062 -3063 -3060 0
3060 -3063 3062 0
-3060 3063 3062 0
-3062 3060 3063 0
-3062 -3060 3064 0
-3064 3062 0
3060 -3064 0
3065 -3061 -2867 0
2867 -3065 0
-3065 3061 0
3065 3064 -3066 0
3066 -3064 0
-3065 3066 0
3067 -226 -2895 0
226 -3067 0
2895 -3067 0
-2873 -3068 -3067 0
3067 -3068 2873 0
3068 2873 -3067 0
3067 -2873 3068 0
-3068 -3069 -3066 0
3066 3068 -3069 0
3069 3068 -3066 0
3069 3066 -3068 0
3070 -3068 -3066 0
-3070 3068 0
3066 -3070 0
3071 -2873 -3067 0
2873 -3071 0
3067 -3071 0
3070 3071 -3072 0
-3070 3072 0
3072 -3071 0
3073 -2895 -234 0
234 -3073 0
2895 -3073 0
-3073 -3074 -2879 0
3073 -3074 2879 0
3074 -3073 2879 0
3073 3074 -2879 0
-3072 -3075 -3074 0
-3075 3074 3072 0
-3072 3074 3075 0
3075 3072 -3074 0
-3072 3076 -3074 0
-3076 3074 0
-3076 3072 0
3077 -3073 -2879 0
-3077 2879 0
3073 -3077 0
3076 3077 -3078 0
-3076 3078 0
-3077 3078 0
-2895 -242 3079 0
-3079 242 0
-3079 2895 0
-3080 -3079 -2885 0
-3080 2885 3079 0
2885 3080 -3079 0
3080 3079 -2885 0
-3080 -3081 -3078 0
-3081 3080 3078 0
3080 3081 -3078 0
-3080 3081 3078 0
-3080 3082 -3078 0
3080 -3082 0
-3082 3078 0
-3079 -2885 3083 0
2885 -3083 0
3079 -3083 0
3082 -3084 3083 0
3084 -3082 0
3084 -3083 0
-2895 -250 3085 0
250 -3085 0
2895 -3085 0
-2891 -3085 -3086 0
-3086 2891 3085 0
-3085 2891 3086 0
-2891 3086 3085 0
-3087 -3086 -3084 0
-3087 3084 3086 0
3087 -3084 3086 0
3087 -3086 3084 0
3088 -3086 -3084 0
-3088 3086 0
-3088 3084 0
-2891 3089 -3085 0
-3089 2891 0
-3089 3085 0
3089 -3090 3088 0
3090 -3088 0
-3089 3090 0
-2895 -258 3091 0
258 -3091 0
2895 -3091 0
-3092 -2894 -3091 0
-3092 3091 2894 0
-3091 3092 2894 0
3092 -2894 3091 0
-3090 -3092 -3093 0
-3093 3090 3092 0
3093 -3090 3092 0
-3092 3090 3093 0
3094 -3090 -3092 0
-3094 3092 0
-3094 3090 0
-2894 3095 -3091 0
-3095 2894 0
-3095 3091 0
3094 3095 -3096 0
-3094 3096 0
-3095 3096 0
3098 -1 -3097 0
-3098 1 0
-3098 3097 0
-2901 -3098 -3099 0
-3099 2901 3098 0
-3098 2901 3099 0
-2901 3098 3099 0
-2901 -3098 3100 0
2901 -3100 0
3098 -3100 0
-4 -3097 3101 0
-3101 4 0
-3101 3097 0
-3101 -3102 -2907 0
2907 -3102 3101 0
-3101 2907 3102 0
3102 3101 -2907 0
-3103 -3102 -3100 0
3102 3100 -3103 0
3102 3103 -3100 0
3100 3103 -3102 0
3104 -3102 -3100 0
3102 -3104 0
3100 -3104 0
-3101 3105 -2907 0
2907 -3105 0
-3105 3101 0
3105 -3106 3104 0
3106 -3104 0
3106 -3105 0
3107 -10 -3097 0
10 -3107 0
-3107 3097 0
-3108 -3107 -2913 0
2913 -3108 3107 0
2913 -3107 3108 0
3108 3107 -2913 0
-3109 -3108 -3106 0
3106 -3109 3108 0
3108 -3106 3109 0
-3108 3106 3109 0
3110 -3108 -3106 0
3108 -3110 0
3106 -3110 0
3111 -3107 -2913 0
2913 -3111 0
-3111 3107 0
3111 3110 -3112 0
3112 -3110 0
3112 -3111 0
3113 -3097 -18 0
-3113 18 0
-3113 3097 0
-3113 -2919 -3114 0
3113 -3114 2919 0
-3113 3114 2919 0
3114 -2919 3113 0
-3112 -3114 -3115 0
3114 3112 -3115 0
3114 -3112 3115 0
-3114 3112 3115 0
-3112 3116 -3114 0
3114 -3116 0
3112 -3116 0
-3113 -2919 3117 0
-3117 2919 0
3113 -3117 0
3116 -3118 3117 0
3118 -3116 0
3118 -3117 0
3119 -3097 -26 0
-3119 26 0
-3119 3097 0
-3120 -3119 -2925 0
2925 -3120 3119 0
2925 -3119 3120 0
3120 3119 -2925 0
-3118 -3120 -3121 0
3120 3118 -3121 0
3120 -3118 3121 0
-3120 3118 3121 0
-3118 -3120 3122 0
3120 -3122 0
3118 -3122 0
-3119 -2925 3123 0
2925 -3123 0
-3123 3119 0
3122 3123 -3124 0
3124 -3122 0
-3123 3124 0
-34 3125 -3097 0
-3125 34 0
-3125 3097 0
-3126 -3125 -2931 0
-3126 3125 2931 0
-3125 3126 2931 0
3125 -2931 3126 0
-3126 -3127 -3124 0
-3127 3126 3124 0
3127 3126 -3124 0
-3126 3127 3124 0
-3126 -3124 3128 0
-3128 3126 0
-3128 3124 0
-3125 -2931 3129 0
2931 -3129 0
3125 -3129 0
3128 3129 -3130 0
3130 -3128 0
3130 -3129 0
3131 -3097 -42 0
42 -3131 0
3097 -3131 0
-3132 -2937 -3131 0
-3132 3131 2937 0
3132 2937 -3131 0
3132 3131 -2937 0
-3132 -3133 -3130 0
3130 3132 -3133 0
3132 3133 -3130 0
-3132 3130 3133 0
-3132 -3130 3134 0
3132 -3134 0
3130 -3134 0
3135 -2937 -3131 0
-3135 2937 0
-3135 3131 0
3135 -3136 3134 0
-3134 3136 0
-3135 3136 0
3137 -50 -3097 0
50 -3137 0
-3137 3097 0
-2943 -3137 -3138 0
3137 2943 -3138 0
3138 -3137 2943 0
-2943 3138 3137 0
-3139 -3136 -3138 0
3138 -3139 3136 0
3138 3139 -3136 0
3139 3136 -3138 0
-3136 3140 -3138 0
3138 -3140 0
-3140 3136 0
-2943 -3137 3141 0
-3141 2943 0
3137 -3141 0
-3142 3141 3140 0
-3140 3142 0
-3141 3142 0
-3097 -58 3143 0
-3143 58 0
-3143 3097 0
-3144 -3143 -2949 0
-3144 2949 3143 0
3144 -3143 2949 0
3144 -2949 3143 0
-3142 -3144 -3145 0
3144 -3145 3142 0
-3142 3144 3145 0
-3144 3142 3145 0
-3142 -3144 3146 0
-3146 3144 0
-3146 3142 0
3147 -3143 -2949 0
2949 -3147 0
-3147 3143 0
3147 3146 -3148 0
-3146 3148 0
3148 -3147 0
3149 -66 -3097 0
66 -3149 0
-3149 3097 0
-2955 -3149 -3150 0
2955 3149 -3150 0
2955 -3149 3150 0
-2955 3149 3150 0
-3151 -3150 -3148 0
3150 3148 -3151 0
3150 3151 -3148 0
3151 3148 -3150 0
3152 -3150 -3148 0
3150 -3152 0
-3152 3148 0
-2955 -3149 3153 0
2955 -3153 0
3149 -3153 0
-3154 3152 3153 0
3154 -3152 0
3154 -3153 0
-3097 3155 -74 0
-3155 74 0
-3155 3097 0
-3155 -3156 -2961 0
-3156 3155 2961 0
-3155 3156 2961 0
3156 3155 -2961 0
-3157 -3156 -3154 0
3154 -3157 3156 0
3156 -3154 3157 0
3154 -3156 3157 0
-3156 -3154 3158 0
3156 -3158 0
3154 -3158 0
-3155 3159 -2961 0
-3159 2961 0
-3159 3155 0
3158 3159 -3160 0
-3158 3160 0
-3159 3160 0
-82 -3097 3161 0
82 -3161 0
3097 -3161 0
-2967 -3161 -3162 0
3161 -3162 2967 0
3162 -3161 2967 0
3161 3162 -2967 0
-3163 -3162 -3160 0
3162 3160 -3163 0
3162 3163 -3160 0
3163 3160 -3162 0
3164 -3162 -3160 0
-3164 3162 0
-3164 3160 0
3165 -2967 -3161 0
-3165 2967 0
3161 -3165 0
-3166 3165 3164 0
-3164 3166 0
-3165 3166 0
3167 -90 -3097 0
-3167 90 0
-3167 3097 0
-3167 -3168 -2973 0
3167 2973 -3168 0
-3167 2973 3168 0
3167 3168 -2973 0
-3166 -3168 -3169 0
3168 3166 -3169 0
3169 -3166 3168 0
3169 3166 -3168 0
-3166 -3168 3170 0
-3170 3168 0
-3170 3166 0
-3167 3171 -2973 0
2973 -3171 0
3167 -3171 0
-3172 3171 3170 0
-3170 3172 0
-3171 3172 0
-98 3173 -3097 0
-3173 98 0
-3173 3097 0
-3173 -3174 -2979 0
2979 3173 -3174 0
-3173 2979 3174 0
3174 3173 -2979 0
-3174 -3172 -3175 0
3174 -3175 3172 0
3175 -3172 3174 0
3175 -3174 3172 0
-3174 -3172 3176 0
3174 -3176 0
-3176 3172 0
-3173 3177 -2979 0
-3177 2979 0
-3177 3173 0
3177 3176 -3178 0
3178 -3176 0
-3177 3178 0
-106 3179 -3097 0
-3179 106 0
-3179 3097 0
-3180 -3179 -2985 0
3179 -3180 2985 0
-3179 3180 2985 0
3179 -2985 3180 0
-3181 -3180 -3178 0
-3181 3180 3178 0
3180 -3178 3181 0
-3180 3178 3181 0
3182 -3180 -3178 0
-3182 3180 0
-3182 3178 0
-3179 -2985 3183 0
-3183 2985 0
3179 -3183 0
-3184 3182 3183 0
3184 -3182 0
3184 -3183 0
-3097 3185 -114 0
114 -3185 0
3097 -3185 0
-2991 -3185 -3186 0
2991 3185 -3186 0
2991 3186 -3185 0
-2991 3186 3185 0
-3184 -3187 -3186 0
3184 3186 -3187 0
-3184 3187 3186 0
3187 3184 -3186 0
-3184 3188 -3186 0
3186 -3188 0
3184 -3188 0
-2991 3189 -3185 0
-3189 2991 0
-3189 3185 0
3188 3189 -3190 0
3190 -3188 0
-3189 3190 0
3191 -122 -3097 0
122 -3191 0
-3191 3097 0
-2997 -3192 -3191 0
2997 -3192 3191 0
2997 3192 -3191 0
3192 -2997 3191 0
-3192 -3193 -3190 0
3192 3190 -3193 0
3192 3193 -3190 0
-3192 3193 3190 0
-3192 3194 -3190 0
-3194 3192 0
-3194 3190 0
-2997 3195 -3191 0
2997 -3195 0
3191 -3195 0
-3196 3194 3195 0
-3194 3196 0
-3195 3196 0
3197 -3097 -130 0
130 -3197 0
3097 -3197 0
-3198 -3003 -3197 0
-3198 3003 3197 0
3003 3198 -3197 0
-3003 3198 3197 0
-3198 -3196 -3199 0
-3199 3198 3196 0
-3196 3198 3199 0
-3198 3199 3196 0
-3198 -3196 3200 0
-3200 3198 0
-3200 3196 0
3201 -3003 -3197 0
3003 -3201 0
3197 -3201 0
-3202 3200 3201 0
3202 -3200 0
3202 -3201 0
3203 -138 -3097 0
-3203 138 0
-3203 3097 0
-3009 -3204 -3203 0
3009 3203 -3204 0
3009 3204 -3203 0
3203 -3009 3204 0
-3202 -3204 -3205 0
3202 3204 -3205 0
-3202 3204 3205 0
3202 -3204 3205 0
-3202 -3204 3206 0
3204 -3206 0
3202 -3206 0
-3009 -3203 3207 0
3009 -3207 0
3203 -3207 0
3206 -3208 3207 0
3208 -3206 0
3208 -3207 0
3209 -3097 -146 0
146 -3209 0
-3209 3097 0
-3209 -3210 -3015 0
3209 -3210 3015 0
-3209 3015 3210 0
3209 3210 -3015 0
-3210 -3208 -3211 0
3208 3210 -3211 0
3210 -3208 3211 0
3208 -3210 3211 0
-3210 3212 -3208 0
3210 -3212 0
3208 -3212 0
-3209 3213 -3015 0
3015 -3213 0
3209 -3213 0
-3214 3212 3213 0
3214 -3212 0
3214 -3213 0
3215 -3097 -154 0
154 -3215 0
3097 -3215 0
-3021 -3216 -3215 0
3215 3021 -3216 0
3216 3021 -3215 0
3216 3215 -3021 0
-3214 -3216 -3217 0
3216 -3217 3214 0
3216 -3214 3217 0
3214 -3216 3217 0
-3214 -3216 3218 0
3216 -3218 0
3214 -3218 0
-3021 3219 -3215 0
3021 -3219 0
3215 -3219 0
3218 -3220 3219 0
-3218 3220 0
-3219 3220 0
-3097 -162 3221 0
162 -3221 0
-3221 3097 0
-3222 -3221 -3027 0
3027 -3222 3221 0
3027 3222 -3221 0
3221 3222 -3027 0
-3222 -3223 -3220 0
3222 -3223 3220 0
3222 -3220 3223 0
-3222 3223 3220 0
-3222 -3220 3224 0
-3224 3222 0
-3224 3220 0
-3221 3225 -3027 0
-3225 3027 0
-3225 3221 0
-3226 3224 3225 0
-3224 3226 0
-3225 3226 0
3227 -170 -3097 0
170 -3227 0
-3227 3097 0
-3228 -3227 -3033 0
-3228 3227 3033 0
-3227 3033 3228 0
-3033 3227 3228 0
-3228 -3226 -3229 0
3226 3228 -3229 0
-3226 3228 3229 0
-3228 3226 3229 0
-3228 -3226 3230 0
-3230 3228 0
3226 -3230 0
-3227 -3033 3231 0
-3231 3033 0
-3231 3227 0
-3232 3231 3230 0
3232 -3230 0
-3231 3232 0
3233 -3097 -178 0
-3233 178 0
3097 -3233 0
-3234 -3039 -3233 0
3233 -3234 3039 0
3234 -3233 3039 0
3234 3233 -3039 0
-3232 -3235 -3234 0
3234 -3235 3232 0
3234 -3232 3235 0
3232 3235 -3234 0
3236 -3232 -3234 0
3234 -3236 0
3232 -3236 0
3237 -3039 -3233 0
-3237 3039 0
3233 -3237 0
3236 3237 -3238 0
3238 -3236 0
3238 -3237 0
3239 -186 -3097 0
186 -3239 0
3097 -3239 0
-3045 -3240 -3239 0
3239 3045 -3240 0
3240 3045 -3239 0
3239 3240 -3045 0
-3241 -3240 -3238 0
3240 -3241 3238 0
3240 3241 -3238 0
3238 3241 -3240 0
3242 -3240 -3238 0
3240 -3242 0
3238 -3242 0
-3045 3243 -3239 0
-3243 3045 0
3239 -3243 0
-3244 3242 3243 0
3244 -3242 0
-3243 3244 0
-194 3245 -3097 0
194 -3245 0
-3245 3097 0
-3245 -3051 -3246 0
3051 3245 -3246 0
3051 -3245 3246 0
3245 -3051 3246 0
-3244 -3247 -3246 0
3244 -3247 3246 0
-3244 3247 3246 0
3247 3244 -3246 0
-3244 3248 -3246 0
-3248 3246 0
-3248 3244 0
-3245 -3051 3249 0
3051 -3249 0
3245 -3249 0
-3250 3248 3249 0
3250 -3248 0
3250 -3249 0
3251 -202 -3097 0
202 -3251 0
3097 -3251 0
-3252 -3057 -3251 0
-3252 3057 3251 0
3057 -3251 3252 0
3251 -3057 3252 0
-3252 -3250 -3253 0
-3253 3250 3252 0
-3250 3253 3252 0
-3252 3250 3253 0
-3252 -3250 3254 0
-3254 3252 0
3250 -3254 0
3255 -3057 -3251 0
-3255 3057 0
-3255 3251 0
3255 -3256 3254 0
3256 -3254 0
-3255 3256 0
-210 -3097 3257 0
210 -3257 0
3097 -3257 0
-3258 -3063 -3257 0
3063 -3258 3257 0
3063 3258 -3257 0
-3063 3258 3257 0
-3258 -3259 -3256 0
3256 3258 -3259 0
3258 3259 -3256 0
3256 -3258 3259 0
3260 -3258 -3256 0
-3260 3258 0
3256 -3260 0
-3063 3261 -3257 0
3063 -3261 0
-3261 3257 0
3260 3261 -3262 0
-3260 3262 0
3262 -3261 0
-218 3263 -3097 0
-3263 218 0
3097 -3263 0
-3263 -3264 -3069 0
3069 3263 -3264 0
3069 3264 -3263 0
3264 3263 -3069 0
-3262 -3264 -3265 0
3264 3262 -3265 0
3265 3264 -3262 0
3265 3262 -3264 0
3266 -3262 -3264 0
3264 -3266 0
-3266 3262 0
3267 -3263 -3069 0
-3267 3069 0
-3267 3263 0
3266 -3268 3267 0
3268 -3266 0
-3267 3268 0
3269 -226 -3097 0
226 -3269 0
-3269 3097 0
-3075 -3270 -3269 0
3075 -3270 3269 0
3075 -3269 3270 0
3269 -3075 3270 0
-3270 -3271 -3268 0
3268 3270 -3271 0
-3268 3270 3271 0
-3270 3268 3271 0
-3270 3272 -3268 0
3270 -3272 0
3268 -3272 0
-3075 -3269 3273 0
3075 -3273 0
3269 -3273 0
3272 3273 -3274 0
3274 -3272 0
-3273 3274 0
3275 -3097 -234 0
234 -3275 0
-3275 3097 0
-3081 -3275 -3276 0
-3276 3275 3081 0
-3275 3276 3081 0
-3081 3276 3275 0
-3276 -3277 -3274 0
-3277 3274 3276 0
3277 3276 -3274 0
3277 -3276 3274 0
-3276 3278 -3274 0
3276 -3278 0
3274 -3278 0
-3081 -3275 3279 0
-3279 3081 0
-3279 3275 0
3278 -3280 3279 0
3280 -3278 0
3280 -3279 0
-242 -3097 3281 0
-3281 242 0
-3281 3097 0
-3281 -3087 -3282 0
3087 3281 -3282 0
3087 -3281 3282 0
3282 -3087 3281 0
-3283 -3280 -3282 0
-3283 3280 3282 0
-3280 3282 3283 0
3280 3283 -3282 0
3284 -3280 -3282 0
-3284 3282 0
3280 -3284 0
-3281 3285 -3087 0
3087 -3285 0
-3285 3281 0
-3286 3284 3285 0
3286 -3284 0
3286 -3285 0
3287 -250 -3097 0
-3287 250 0
-3287 3097 0
-3287 -3288 -3093 0
3287 -3288 3093 0
-3287 3288 3093 0
3287 -3093 3288 0
-3286 -3288 -3289 0
3288 -3289 3286 0
3288 3289 -3286 0
3286 3289 -3288 0
-3286 -3288 3290 0
3288 -3290 0
3286 -3290 0
-3287 3291 -3093 0
-3291 3093 0
3287 -3291 0
3291 -3292 3290 0
-3290 3292 0
3292 -3291 0
3293 -258 -3097 0
-3293 258 0
-3293 3097 0
-3294 -3293 -3096 0
-3294 3293 3096 0
3294 -3293 3096 0
-3096 3293 3294 0
-3295 -3294 -3292 0
-3295 3292 3294 0
3295 3294 -3292 0
3292 -3294 3295 0
3296 -3294 -3292 0
-3296 3294 0
3292 -3296 0
-3293 -3096 3297 0
3096 -3297 0
3293 -3297 0
3297 3296 -3298 0
3298 -3296 0
3298 -3297 0
-1 3300 -3299 0
-3300 1 0
3299 -3300 0
-3103 -3300 -3301 0
-3301 3103 3300 0
3301 3103 -3300 0
-3103 3301 3300 0
-3103 3302 -3300 0
3103 -3302 0
-3302 3300 0
3303 -4 -3299 0
-3303 4 0
-3303 3299 0
-3109 -3304 -3303 0
3303 3109 -3304 0
-3303 3109 3304 0
-3109 3303 3304 0
-3305 -3302 -3304 0
3304 -3305 3302 0
3305 3304 -3302 0
3305 3302 -3304 0
3306 -3302 -3304 0
3304 -3306 0
-3306 3302 0
-3109 3307 -3303 0
3109 -3307 0
3303 -3307 0
3306 -3308 3307 0
3308 -3306 0
3308 -3307 0
3309 -10 -3299 0
10 -3309 0
3299 -3309 0
-3310 -3115 -3309 0
-3310 3309 3115 0
3310 -3309 3115 0
3310 3309 -3115 0
-3310 -3311 -3308 0
3308 3310 -3311 0
3310 -3308 3311 0
-3310 3308 3311 0
-3310 3312 -3308 0
3310 -3312 0
3308 -3312 0
-3115 3313 -3309 0
-3313 3115 0
-3313 3309 0
-3314 3312 3313 0
3314 -3312 0
-3313 3314 0
3315 -3299 -18 0
-3315 18 0
-3315 3299 0
-3315 -3121 -3316 0
3315 3121 -3316 0
3316 -3315 3121 0
3316 3315 -3121 0
-3317 -3314 -3316 0
-3317 3316 3314 0
3317 3316 -3314 0
3317 3314 -3316 0
3318 -3314 -3316 0
3316 -3318 0
3314 -3318 0
-3315 3319 -3121 0
-3319 3121 0
-3319 3315 0
3319 -3320 3318 0
3320 -3318 0
-3319 3320 0
3321 -3299 -26 0
-3321 26 0
3299 -3321 0
-3127 -3322 -3321 0
3127 3321 -3322 0
3127 3322 -3321 0
-3127 3322 3321 0
-3320 -3323 -3322 0
3322 -3323 3320 0
3323 -3320 3322 0
3323 3320 -3322 0
-3320 -3322 3324 0
-3324 3322 0
-3324 3320 0
-3127 3325 -3321 0
3127 -3325 0
3321 -3325 0
-3326 3325 3324 0
-3324 3326 0
3326 -3325 0
-34 3327 -3299 0
-3327 34 0
-3327 3299 0
-3327 -3133 -3328 0
3327 3133 -3328 0
-3327 3133 3328 0
3327 -3133 3328 0
-3326 -3329 -3328 0
-3329 3326 3328 0
-3326 3329 3328 0
3329 3326 -3328 0
-3326 3330 -3328 0
-3330 3328 0
-3330 3326 0
-3327 -3133 3331 0
-3331 3133 0
3327 -3331 0
3331 -3332 3330 0
3332 -3330 0
3332 -3331 0
3333 -3299 -42 0
42 -3333 0
3299 -3333 0
-3334 -3139 -3333 0
3139 3333 -3334 0
3334 3139 -3333 0
-3139 3333 3334 0
-3332 -3335 -3334 0
3332 -3335 3334 0
-3332 3335 3334 0
3332 3335 -3334 0
-3332 3336 -3334 0
-3336 3334 0
-3336 3332 0
3337 -3139 -3333 0
3139 -3337 0
-3337 3333 0
3337 3336 -3338 0
-3336 3338 0
3338 -3337 0
-50 3339 -3299 0
50 -3339 0
3299 -3339 0
-3340 -3145 -3339 0
3339 -3340 3145 0
3340 -3339 3145 0
3339 -3145 3340 0
-3341 -3338 -3340 0
-3341 3338 3340 0
3341 3340 -3338 0
3341 3338 -3340 0
-3338 3342 -3340 0
-3342 3340 0
-3342 3338 0
-3145 -3339 3343 0
-3343 3145 0
3339 -3343 0
-3344 3342 3343 0
-3342 3344 0
-3343 3344 0
3345 -58 -3299 0
-3345 58 0
-3345 3299 0
-3151 -3346 -3345 0
-3346 3151 3345 0
-3345 3151 3346 0
-3151 3345 3346 0
-3346 -3344 -3347 0
-3347 3346 3344 0
-3344 3346 3347 0
-3346 3347 3344 0
-3346 -3344 3348 0
3346 -3348 0
-3348 3344 0
-3151 -3345 3349 0
3151 -3349 0
3345 -3349 0
-3350 3349 3348 0
3350 -3348 0
3350 -3349 0
-66 3351 -3299 0
66 -3351 0
-3351 3299 0
-3157 -3351 -3352 0
3157 3351 -3352 0
-3351 3352 3157 0
-3157 3352 3351 0
-3353 -3350 -3352 0
-3353 3350 3352 0
-3350 3352 3353 0
3353 3350 -3352 0
-3350 3354 -3352 0
3352 -3354 0
3350 -3354 0
-3157 -3351 3355 0
-3355 3157 0
-3355 3351 0
-3356 3354 3355 0
3356 -3354 0
-3355 3356 0
3357 -74 -3299 0
-3357 74 0
-3357 3299 0
-3357 -3358 -3163 0
-3358 3163 3357 0
-3357 3163 3358 0
3357 3358 -3163 0
-3359 -3356 -3358 0
-3359 3356 3358 0
3359 -3356 3358 0
3359 -3358 3356 0
3360 -3356 -3358 0
-3360 3358 0
-3360 3356 0
-3357 3361 -3163 0
-3361 3163 0
-3361 3357 0
-3362 3361 3360 0
-3360 3362 0
-3361 3362 0
-82 3363 -3299 0
82 -3363 0
3299 -3363 0
-3364 -3169 -3363 0
3169 3363 -3364 0
3169 3364 -3363 0
3363 3364 -3169 0
-3362 -3364 -3365 0
3364 3362 -3365 0
3365 -3362 3364 0
3365 -3364 3362 0
-3362 -3364 3366 0
-3366 3364 0
-3366 3362 0
3367 -3169 -3363 0
3169 -3367 0
3363 -3367 0
3367 -3368 3366 0
3368 -3366 0
3368 -3367 0
3369 -90 -3299 0
90 -3369 0
3299 -3369 0
-3369 -3175 -3370 0
3175 3369 -3370 0
3175 3370 -3369 0
3370 3369 -3175 0
-3371 -3368 -3370 0
3368 3370 -3371 0
3370 3371 -3368 0
3368 3371 -3370 0
3372 -3368 -3370 0
3370 -3372 0
3368 -3372 0
3373 -3369 -3175 0
3175 -3373 0
3369 -3373 0
3372 3373 -3374 0
3374 -3372 0
3374 -3373 0
-98 3375 -3299 0
-3375 98 0
-3375 3299 0
-3181 -3375 -3376 0
3375 3181 -3376 0
3376 -3375 3181 0
3376 -3181 3375 0
-3377 -3374 -3376 0
3376 -3377 3374 0
3376 3377 -3374 0
3374 3377 -3376 0
-3374 3378 -3376 0
3376 -3378 0
3374 -3378 0
3379 -3181 -3375 0
-3379 3181 0
3375 -3379 0
-3380 3378 3379 0
-3378 3380 0
3380 -3379 0
-106 3381 -3299 0
106 -3381 0
3299 -3381 0
-3382 -3381 -3187 0
3381 3187 -3382 0
3382 3187 -3381 0
3381 3382 -3187 0
-3382 -3380 -3383 0
3382 3380 -3383 0
3382 -3380 3383 0
-3382 3380 3383 0
-3382 -3380 3384 0
3382 -3384 0
-3384 3380 0
3385 -3381 -3187 0
3187 -3385 0
3381 -3385 0
3384 3385 -3386 0
3386 -3384 0
3386 -3385 0
3387 -114 -3299 0
114 -3387 0
-3387 3299 0
-3387 -3193 -3388 0
-3388 3193 3387 0
3388 -3387 3193 0
3388 -3193 3387 0
-3386 -3389 -3388 0
3388 3386 -3389 0
3388 -3386 3389 0
3386 3389 -3388 0
3390 -3386 -3388 0
3388 -3390 0
-3390 3386 0
-3387 3391 -3193 0
-3391 3193 0
-3391 3387 0
3390 -3392 3391 0
-3390 3392 0
3392 -3391 0
3393 -122 -3299 0
122 -3393 0
3299 -3393 0
-3199 -3394 -3393 0
3393 3199 -3394 0
3199 3394 -3393 0
-3199 3394 3393 0
-3392 -3395 -3394 0
3392 -3395 3394 0
-3392 3395 3394 0
3392 -3394 3395 0
-3392 -3394 3396 0
3394 -3396 0
3392 -3396 0
-3199 3397 -3393 0
-3397 3199 0
3393 -3397 0
-3398 3396 3397 0
3398 -3396 0
-3397 3398 0
3399 -3299 -130 0
-3399 130 0
-3399 3299 0
-3400 -3399 -3205 0
-3400 3399 3205 0
-3399 3205 3400 0
3399 -3205 3400 0
-3400 -3401 -3398 0
-3401 3400 3398 0
-3398 3401 3400 0
-3400 3401 3398 0
-3400 3402 -3398 0
-3402 3400 0
-3402 3398 0
3403 -3399 -3205 0
-3403 3205 0
-3403 3399 0
3403 3402 -3404 0
-3402 3404 0
-3403 3404 0
3405 -138 -3299 0
-3405 138 0
-3405 3299 0
-3406 -3405 -3211 0
3405 -3406 3211 0
3406 -3405 3211 0
3405 3406 -3211 0
-3407 -3406 -3404 0
-3407 3406 3404 0
3407 -3404 3406 0
3407 -3406 3404 0
-3406 3408 -3404 0
-3408 3406 0
-3408 3404 0
3409 -3405 -3211 0
-3409 3211 0
-3409 3405 0
3409 -3410 3408 0
-3408 3410 0
3410 -3409 0
3411 -146 -3299 0
146 -3411 0
-3411 3299 0
-3412 -3411 -3217 0
-3412 3411 3217 0
-3411 3412 3217 0
3411 3412 -3217 0
-3412 -3410 -3413 0
3410 3412 -3413 0
3412 -3410 3413 0
-3412 3410 3413 0
-3412 3414 -3410 0
-3414 3412 0
3410 -3414 0
3415 -3411 -3217 0
3217 -3415 0
3411 -3415 0
3415 3414 -3416 0
-3414 3416 0
3416 -3415 0
3417 -154 -3299 0
154 -3417 0
3299 -3417 0
-3223 -3417 -3418 0
3223 3417 -3418 0
3223 -3417 3418 0
-3223 3417 3418 0
-3419 -3418 -3416 0
3416 -3419 3418 0
3419 3418 -3416 0
3419 3416 -3418 0
3420 -3418 -3416 0
3418 -3420 0
3416 -3420 0
-3223 -3417 3421 0
-3421 3223 0
-3421 3417 0
-3422 3420 3421 0
3422 -3420 0
3422 -3421 0
3423 -162 -3299 0
-3423 162 0
-3423 3299 0
-3423 -3424 -3229 0
3423 -3424 3229 0
-3423 3424 3229 0
3424 3423 -3229 0
-3422 -3424 -3425 0
3422 3424 -3425 0
3425 3424 -3422 0
3425 3422 -3424 0
-3422 3426 -3424 0
-3426 3424 0
-3426 3422 0
-3423 3427 -3229 0
-3427 3229 0
-3427 3423 0
-3428 3427 3426 0
-3426 3428 0
-3427 3428 0
3429 -170 -3299 0
170 -3429 0
3299 -3429 0
-3235 -3430 -3429 0
3429 3235 -3430 0
3235 3430 -3429 0
-3235 3429 3430 0
-3430 -3428 -3431 0
-3431 3430 3428 0
3431 -3428 3430 0
3431 -3430 3428 0
3432 -3430 -3428 0
-3432 3430 0
-3432 3428 0
-3235 3433 -3429 0
-3433 3235 0
-3433 3429 0
-3434 3433 3432 0
-3432 3434 0
-3433 3434 0
3435 -3299 -178 0
-3435 178 0
-3435 3299 0
-3435 -3241 -3436 0
3435 3241 -3436 0
-3435 3241 3436 0
3435 -3241 3436 0
-3437 -3434 -3436 0
-3437 3434 3436 0
-3434 3436 3437 0
3434 3437 -3436 0
-3434 3438 -3436 0
-3438 3436 0
-3438 3434 0
-3435 3439 -3241 0
3241 -3439 0
3435 -3439 0
3439 3438 -3440 0
-3438 3440 0
-3439 3440 0
3441 -186 -3299 0
186 -3441 0
3299 -3441 0
-3441 -3247 -3442 0
3247 3441 -3442 0
3247 -3441 3442 0
3441 3442 -3247 0
-3443 -3442 -3440 0
-3443 3442 3440 0
3443 3442 -3440 0
3443 -3442 3440 0
-3442 -3440 3444 0
-3444 3442 0
-3444 3440 0
3445 -3441 -3247 0
3247 -3445 0
3441 -3445 0
3445 -3446 3444 0
-3444 3446 0
-3445 3446 0
-194 3447 -3299 0
194 -3447 0
-3447 3299 0
-3253 -3447 -3448 0
3447 -3448 3253 0
-3447 3448 3253 0
-3253 3447 3448 0
-3446 -3448 -3449 0
3446 3448 -3449 0
3449 -3446 3448 0
3449 3446 -3448 0
3450 -3446 -3448 0
-3450 3448 0
-3450 3446 0
-3253 -3447 3451 0
-3451 3253 0
3447 -3451 0
3450 -3452 3451 0
-3450 3452 0
3452 -3451 0
-202 3453 -3299 0
202 -3453 0
3299 -3453 0
-3259 -3453 -3454 0
3259 3453 -3454 0
3259 -3453 3454 0
-3259 3453 3454 0
-3455 -3452 -3454 0
3452 -3455 3454 0
3455 -3452 3454 0
3455 3452 -3454 0
3456 -3452 -3454 0
-3456 3454 0
-3456 3452 0
3457 -3259 -3453 0
-3457 3259 0
-3457 3453 0
3456 -3458 3457 0
-3456 3458 0
-3457 3458 0
3459 -210 -3299 0
210 -3459 0
3299 -3459 0
-3459 -3460 -3265 0
3265 -3460 3459 0
3265 3460 -3459 0
3459 3460 -3265 0
-3460 -3461 -3458 0
-3461 3460 3458 0
-3458 3461 3460 0
-3460 3461 3458 0
-3460 3462 -3458 0
-3462 3460 0
-3462 3458 0
-3459 3463 -3265 0
3265 -3463 0
3459 -3463 0
-3464 3462 3463 0
-3462 3464 0
-3463 3464 0
-218 3465 -3299 0
-3465 218 0
-3465 3299 0
-3466 -3271 -3465 0
-3466 3465 3271 0
-3465 3466 3271 0
3465 -3271 3466 0
-3466 -3467 -3464 0
-3467 3466 3464 0
-3464 3467 3466 0
-3466 3467 3464 0
-3466 3468 -3464 0
3466 -3468 0
3464 -3468 0
3469 -3271 -3465 0
-3469 3271 0
3465 -3469 0
3468 -3470 3469 0
3470 -3468 0
3470 -3469 0
-226 3471 -3299 0
-3471 226 0
-3471 3299 0
-3471 -3277 -3472 0
3277 3471 -3472 0
3277 -3471 3472 0
3471 -3277 3472 0
-3473 -3470 -3472 0
3470 -3473 3472 0
3473 -3470 3472 0
3470 3473 -3472 0
3474 -3470 -3472 0
-3474 3472 0
3470 -3474 0
-3471 -3277 3475 0
3277 -3475 0
3471 -3475 0
-3476 3475 3474 0
3476 -3474 0
3476 -3475 0
3477 -3299 -234 0
-3477 234 0
-3477 3299 0
-3477 -3283 -3478 0
-3478 3477 3283 0
-3477 3478 3283 0
-3283 3478 3477 0
-3478 -3476 -3479 0
3476 3478 -3479 0
3478 3479 -3476 0
-3478 3479 3476 0
-3478 -3476 3480 0
3478 -3480 0
3476 -3480 0
-3477 -3283 3481 0
-3481 3283 0
-3481 3477 0
3480 -3482 3481 0
3482 -3480 0
-3481 3482 0
3483 -242 -3299 0
-3483 242 0
-3483 3299 0
-3484 -3483 -3289 0
-3484 3289 3483 0
3289 -3483 3484 0
3483 3484 -3289 0
-3484 -3482 -3485 0
-3485 3484 3482 0
3485 -3482 3484 0
-3484 3485 3482 0
-3484 -3482 3486 0
3484 -3486 0
3482 -3486 0
-3483 -3289 3487 0
-3487 3289 0
-3487 3483 0
-3488 3486 3487 0
3488 -3486 0
-3487 3488 0
3489 -250 -3299 0
250 -3489 0
3299 -3489 0
-3295 -3490 -3489 0
3489 -3490 3295 0
3490 3295 -3489 0
3489 -3295 3490 0
-3490 -3488 -3491 0
3490 -3491 3488 0
3490 -3488 3491 0
-3490 3491 3488 0
3492 -3490 -3488 0
3490 -3492 0
3488 -3492 0
-3295 3493 -3489 0
-3493 3295 0
3489 -3493 0
3492 3493 -3494 0
3494 -3492 0
-3493 3494 0
3495 -258 -3299 0
-3495 258 0
-3495 3299 0
-3495 -3496 -3298 0
3298 -3496 3495 0
3298 -3495 3496 0
3495 -3298 3496 0
-3497 -3496 -3494 0
-3497 3494 3496 0
3497 -3494 3496 0
3497 -3496 3494 0
3498 -3496 -3494 0
-3498 3496 0
3494 -3498 0
-3495 3499 -3298 0
-3499 3298 0
-3499 3495 0
3498 -3500 3499 0
3500 -3498 0
-3499 3500 0
-1 3502 -3501 0
-3502 1 0
3501 -3502 0
-3503 -3502 -3305 0
3305 -3503 3502 0
3305 -3502 3503 0
-3305 3503 3502 0
3504 -3502 -3305 0
3305 -3504 0
-3504 3502 0
3505 -4 -3501 0
-3505 4 0
3501 -3505 0
-3506 -3505 -3311 0
3505 -3506 3311 0
3506 -3505 3311 0
3505 -3311 3506 0
-3506 -3504 -3507 0
3504 -3507 3506 0
-3504 3506 3507 0
3504 -3506 3507 0
-3506 -3504 3508 0
-3508 3506 0
3504 -3508 0
-3505 -3311 3509 0
-3509 3311 0
3505 -3509 0
3508 -3510 3509 0
3510 -3508 0
3510 -3509 0
3511 -10 -3501 0
-3511 10 0
3501 -3511 0
-3317 -3512 -3511 0
3511 -3512 3317 0
-3511 3317 3512 0
-3317 3512 3511 0
-3512 -3510 -3513 0
-3513 3512 3510 0
3513 3512 -3510 0
-3512 3513 3510 0
-3512 3514 -3510 0
-3514 3512 0
-3514 3510 0
-3317 -3511 3515 0
3317 -3515 0
3511 -3515 0
3514 -3516 3515 0
3516 -3514 0
3516 -3515 0
-3501 3517 -18 0
-3517 18 0
-3517 3501 0
-3517 -3323 -3518 0
3323 3517 -3518 0
3323 3518 -3517 0
3518 -3323 3517 0
-3519 -3516 -3518 0
3516 3518 -3519 0
3519 3518 -3516 0
3519 3516 -3518 0
3520 -3516 -3518 0
-3520 3518 0
3516 -3520 0
-3517 3521 -3323 0
3323 -3521 0
-3521 3517 0
3520 3521 -3522 0
-3520 3522 0
-3521 3522 0
3523 -3501 -26 0
26 -3523 0
3501 -3523 0
-3329 -3524 -3523 0
3523 3329 -3524 0
3329 3524 -3523 0
3523 -3329 3524 0
-3524 -3525 -3522 0
3522 3524 -3525 0
3525 3524 -3522 0
3525 3522 -3524 0
-3524 3526 -3522 0
-3526 3524 0
-3526 3522 0
-3329 3527 -3523 0
3329 -3527 0
3523 -3527 0
-3528 3526 3527 0
3528 -3526 0
3528 -3527 0
-34 3529 -3501 0
-3529 34 0
3501 -3529 0
-3530 -3529 -3335 0
3529 3335 -3530 0
3530 -3529 3335 0
3529 3530 -3335 0
-3531 -3528 -3530 0
-3531 3530 3528 0
3530 -3528 3531 0
3528 3531 -3530 0
-3528 3532 -3530 0
3530 -3532 0
3528 -3532 0
3533 -3529 -3335 0
3335 -3533 0
3529 -3533 0
-3534 3533 3532 0
3534 -3532 0
3534 -3533 0
-3501 3535 -42 0
42 -3535 0
3501 -3535 0
-3341 -3535 -3536 0
3341 -3536 3535 0
3341 -3535 3536 0
-3341 3535 3536 0
-3534 -3537 -3536 0
-3537 3534 3536 0
-3534 3536 3537 0
3534 -3536 3537 0
3538 -3534 -3536 0
-3538 3536 0
-3538 3534 0
-3341 3539 -3535 0
3341 -3539 0
3535 -3539 0
3538 3539 -3540 0
3540 -3538 0
3540 -3539 0
-50 3541 -3501 0
50 -3541 0
-3541 3501 0
-3541 -3542 -3347 0
3541 3347 -3542 0
-3541 3542 3347 0
3542 3541 -3347 0
-3543 -3540 -3542 0
3542 3540 -3543 0
3542 -3540 3543 0
3543 3540 -3542 0
3544 -3540 -3542 0
3542 -3544 0
3540 -3544 0
-3541 -3347 3545 0
-3545 3347 0
3541 -3545 0
3544 -3546 3545 0
3546 -3544 0
3546 -3545 0
3547 -58 -3501 0
58 -3547 0
3501 -3547 0
-3353 -3548 -3547 0
-3548 3547 3353 0
3548 -3547 3353 0
-3353 3548 3547 0
-3549 -3546 -3548 0
-3549 3546 3548 0
3548 -3546 3549 0
3546 3549 -3548 0
-3546 3550 -3548 0
3548 -3550 0
3546 -3550 0
-3353 3551 -3547 0
-3551 3353 0
-3551 3547 0
-3552 3550 3551 0
3552 -3550 0
-3551 3552 0
3553 -66 -3501 0
66 -3553 0
3501 -3553 0
-3554 -3359 -3553 0
-3554 3359 3553 0
3359 3554 -3553 0
3554 -3359 3553 0
-3554 -3552 -3555 0
3554 3552 -3555 0
3554 -3552 3555 0
-3554 3552 3555 0
-3554 3556 -3552 0
3554 -3556 0
3552 -3556 0
-3359 3557 -3553 0
3359 -3557 0
-3557 3553 0
-3558 3556 3557 0
3558 -3556 0
-3557 3558 0
3559 -74 -3501 0
-3559 74 0
3501 -3559 0
-3560 -3365 -3559 0
3365 -3560 3559 0
3365 -3559 3560 0
3560 -3365 3559 0
-3558 -3561 -3560 0
3560 -3561 3558 0
3560 -3558 3561 0
-3560 3561 3558 0
-3558 3562 -3560 0
3560 -3562 0
-3562 3558 0
-3365 -3559 3563 0
3365 -3563 0
-3563 3559 0
3562 -3564 3563 0
-3562 3564 0
3564 -3563 0
-82 3565 -3501 0
-3565 82 0
3501 -3565 0
-3371 -3565 -3566 0
3565 3371 -3566 0
3566 3371 -3565 0
3565 -3371 3566 0
-3567 -3564 -3566 0
3564 3566 -3567 0
-3564 3567 3566 0
3564 3567 -3566 0
-3564 3568 -3566 0
3566 -3568 0
3564 -3568 0
-3371 -3565 3569 0
3371 -3569 0
3565 -3569 0
-3570 3568 3569 0
3570 -3568 0
3570 -3569 0
-90 3571 -3501 0
90 -3571 0
3501 -3571 0
-3377 -3572 -3571 0
-3572 3571 3377 0
3572 3377 -3571 0
3572 -3377 3571 0
-3573 -3570 -3572 0
3572 3570 -3573 0
3572 -3570 3573 0
-3572 3573 3570 0
-3570 -3572 3574 0
3572 -3574 0
-3574 3570 0
3575 -3377 -3571 0
-3575 3377 0
-3575 3571 0
-3576 3575 3574 0
3576 -3574 0
-3575 3576 0
-98 3577 -3501 0
-3577 98 0
3501 -3577 0
-3577 -3383 -3578 0
3383 3577 -3578 0
3383 -3577 3578 0
3577 -3383 3578 0
-3576 -3578 -3579 0
3576 3578 -3579 0
-3576 3579 3578 0
3579 3576 -3578 0
-3576 3580 -3578 0
-3580 3578 0
-3580 3576 0
-3577 -3383 3581 0
3383 -3581 0
-3581 3577 0
3581 3580 -3582 0
3582 -3580 0
3582 -3581 0
-106 3583 -3501 0
-3583 106 0
-3583 3501 0
-3583 -3389 -3584 0
-3584 3583 3389 0
-3583 3584 3389 0
3583 -3389 3584 0
-3582 -3584 -3585 0
3582 3584 -3585 0
3584 -3582 3585 0
3582 -3584 3585 0
-3582 3586 -3584 0
3584 -3586 0
3582 -3586 0
-3583 3587 -3389 0
-3587 3389 0
-3587 3583 0
3587 -3588 3586 0
3588 -3586 0
-3587 3588 0
3589 -114 -3501 0
114 -3589 0
3501 -3589 0
-3589 -3590 -3395 0
-3590 3395 3589 0
-3589 3395 3590 0
3590 -3395 3589 0
-3591 -3590 -3588 0
-3591 3588 3590 0
-3588 3590 3591 0
-3590 3588 3591 0
-3590 -3588 3592 0
-3592 3590 0
-3592 3588 0
-3589 -3395 3593 0
-3593 3395 0
-3593 3589 0
-3594 3592 3593 0
3594 -3592 0
3594 -3593 0
3595 -122 -3501 0
122 -3595 0
3501 -3595 0
-3401 -3596 -3595 0
3401 -3596 3595 0
3401 3596 -3595 0
-3401 3596 3595 0
-3594 -3596 -3597 0
3596 3594 -3597 0
3596 3597 -3594 0
3594 -3596 3597 0
-3594 -3596 3598 0
3596 -3598 0
3594 -3598 0
-3401 -3595 3599 0
3401 -3599 0
3595 -3599 0
-3600 3598 3599 0
3600 -3598 0
3600 -3599 0
-3501 3601 -130 0
130 -3601 0
3501 -3601 0
-3602 -3407 -3601 0
-3602 3407 3601 0
3602 3407 -3601 0
3602 3601 -3407 0
-3602 -3600 -3603 0
3602 3600 -3603 0
3602 -3600 3603 0
-3602 3600 3603 0
-3602 -3600 3604 0
3602 -3604 0
-3604 3600 0
3605 -3407 -3601 0
3407 -3605 0
3601 -3605 0
3604 3605 -3606 0
-3604 3606 0
3606 -3605 0
-138 3607 -3501 0
-3607 138 0
3501 -3607 0
-3608 -3607 -3413 0
-3608 3607 3413 0
3608 -3607 3413 0
3608 3607 -3413 0
-3606 -3609 -3608 0
3606 3608 -3609 0
3608 -3606 3609 0
3606 3609 -3608 0
3610 -3606 -3608 0
-3610 3608 0
-3610 3606 0
-3607 3611 -3413 0
-3611 3413 0
-3611 3607 0
3610 -3612 3611 0
-3610 3612 0
-3611 3612 0
3613 -146 -3501 0
146 -3613 0
3501 -3613 0
-3613 -3419 -3614 0
3419 3613 -3614 0
3419 -3613 3614 0
3613 3614 -3419 0
-3612 -3615 -3614 0
-3615 3614 3612 0
-3612 3615 3614 0
3615 -3614 3612 0
-3612 3616 -3614 0
3614 -3616 0
-3616 3612 0
-3613 3617 -3419 0
3419 -3617 0
-3617 3613 0
3616 3617 -3618 0
3618 -3616 0
-3617 3618 0
3619 -154 -3501 0
154 -3619 0
3501 -3619 0
-3619 -3620 -3425 0
3425 3619 -3620 0
3425 3620 -3619 0
3619 3620 -3425 0
-3620 -3621 -3618 0
3618 -3621 3620 0
-3618 3620 3621 0
-3620 3618 3621 0
-3620 3622 -3618 0
-3622 3620 0
-3622 3618 0
-3619 3623 -3425 0
3425 -3623 0
3619 -3623 0
3622 -3624 3623 0
-3622 3624 0
-3623 3624 0
3625 -162 -3501 0
162 -3625 0
3501 -3625 0
-3626 -3625 -3431 0
3431 -3626 3625 0
3431 3626 -3625 0
3626 3625 -3431 0
-3627 -3624 -3626 0
-3627 3626 3624 0
3627 3626 -3624 0
3627 -3626 3624 0
-3624 -3626 3628 0
3626 -3628 0
3624 -3628 0
3629 -3625 -3431 0
-3629 3431 0
-3629 3625 0
3629 -3630 3628 0
3630 -3628 0
-3629 3630 0
3631 -170 -3501 0
170 -3631 0
3501 -3631 0
-3437 -3632 -3631 0
-3632 3631 3437 0
3632 -3631 3437 0
3632 -3437 3631 0
-3633 -3632 -3630 0
3632 3630 -3633 0
3632 -3630 3633 0
-3632 3630 3633 0
-3632 3634 -3630 0
3632 -3634 0
3630 -3634 0
-3437 3635 -3631 0
-3635 3437 0
-3635 3631 0
-3636 3635 3634 0
3636 -3634 0
3636 -3635 0
-3501 3637 -178 0
-3637 178 0
3501 -3637 0
-3443 -3638 -3637 0
-3638 3443 3637 0
3443 3638 -3637 0
-3443 3638 3637 0
-3636 -3638 -3639 0
-3639 3636 3638 0
-3636 3638 3639 0
-3638 3636 3639 0
-3636 -3638 3640 0
-3640 3638 0
-3640 3636 0
-3443 3641 -3637 0
-3641 3443 0
-3641 3637 0
3640 3641 -3642 0
-3640 3642 0
-3641 3642 0
3643 -186 -3501 0
186 -3643 0
3501 -3643 0
-3643 -3644 -3449 0
3449 -3644 3643 0
3449 3644 -3643 0
3643 3644 -3449 0
-3645 -3644 -3642 0
-3645 3644 3642 0
3644 3645 -3642 0
-3644 3642 3645 0
-3644 3646 -3642 0
3644 -3646 0
3642 -3646 0
-3643 3647 -3449 0
3449 -3647 0
3643 -3647 0
-3648 3647 3646 0
3648 -3646 0
3648 -3647 0
-194 3649 -3501 0
194 -3649 0
3501 -3649 0
-3650 -3649 -3455 0
-3650 3455 3649 0
3455 3650 -3649 0
3650 -3455 3649 0
-3650 -3648 -3651 0
3650 -3651 3648 0
-3648 3650 3651 0
-3650 3648 3651 0
-3650 -3648 3652 0
3650 -3652 0
-3652 3648 0
-3649 3653 -3455 0
3455 -3653 0
-3653 3649 0
3653 3652 -3654 0
-3652 3654 0
-3653 3654 0
3655 -202 -3501 0
-3655 202 0
3501 -3655 0
-3655 -3461 -3656 0
3655 3461 -3656 0
-3655 3461 3656 0
3655 -3461 3656 0
-3657 -3656 -3654 0
-3657 3656 3654 0
3657 3656 -3654 0
3657 -3656 3654 0
3658 -3656 -3654 0
-3658 3656 0
-3658 3654 0
3659 -3655 -3461 0
3461 -3659 0
3655 -3659 0
3658 3659 -3660 0
-3658 3660 0
-3659 3660 0
-210 3661 -3501 0
210 -3661 0
3501 -3661 0
-3662 -3467 -3661 0
-3662 3467 3661 0
3467 3662 -3661 0
-3467 3662 3661 0
-3662 -3663 -3660 0
-3663 3662 3660 0
3662 -3660 3663 0
-3662 3660 3663 0
-3662 3664 -3660 0
3662 -3664 0
-3664 3660 0
3665 -3467 -3661 0
3467 -3665 0
3661 -3665 0
3664 3665 -3666 0
3666 -3664 0
3666 -3665 0
-218 3667 -3501 0
-3667 218 0
-3667 3501 0
-3667 -3668 -3473 0
-3668 3667 3473 0
-3667 3668 3473 0
-3473 3667 3668 0
-3668 -3666 -3669 0
3666 3668 -3669 0
-3666 3668 3669 0
-3668 3666 3669 0
-3668 -3666 3670 0
3668 -3670 0
3666 -3670 0
-3667 3671 -3473 0
-3671 3473 0
3667 -3671 0
3670 3671 -3672 0
3672 -3670 0
3672 -3671 0
-226 3673 -3501 0
-3673 226 0
-3673 3501 0
-3673 -3479 -3674 0
3673 3479 -3674 0
-3673 3674 3479 0
3673 -3479 3674 0
-3675 -3674 -3672 0
3672 3674 -3675 0
3675 3674 -3672 0
3675 3672 -3674 0
3676 -3674 -3672 0
3674 -3676 0
3672 -3676 0
-3673 -3479 3677 0
-3677 3479 0
3673 -3677 0
-3678 3676 3677 0
-3676 3678 0
-3677 3678 0
-3501 3679 -234 0
234 -3679 0
3501 -3679 0
-3485 -3679 -3680 0
3485 -3680 3679 0
3485 3680 -3679 0
-3485 3680 3679 0
-3678 -3681 -3680 0
-3681 3680 3678 0
-3678 3680 3681 0
-3680 3681 3678 0
-3678 3682 -3680 0
3680 -3682 0
-3682 3678 0
-3485 -3679 3683 0
3485 -3683 0
-3683 3679 0
3682 -3684 3683 0
3684 -3682 0
-3683 3684 0
3685 -242 -3501 0
-3685 242 0
-3685 3501 0
-3685 -3491 -3686 0
3685 3491 -3686 0
-3685 3491 3686 0
3685 -3491 3686 0
-3687 -3684 -3686 0
3686 -3687 3684 0
3686 3687 -3684 0
3684 3687 -3686 0
3688 -3684 -3686 0
3686 -3688 0
3684 -3688 0
-3685 3689 -3491 0
3491 -3689 0
3685 -3689 0
-3690 3689 3688 0
3690 -3688 0
3690 -3689 0
-250 3691 -3501 0
250 -3691 0
3501 -3691 0
-3497 -3692 -3691 0
-3692 3497 3691 0
3497 -3691 3692 0
-3497 3691 3692 0
-3690 -3693 -3692 0
3690 -3693 3692 0
-3690 3693 3692 0
3690 -3692 3693 0
-3690 -3692 3694 0
-3694 3692 0
3690 -3694 0
-3497 -3691 3695 0
-3695 3497 0
-3695 3691 0
-3696 3695 3694 0
3696 -3694 0
-3695 3696 0
3697 -258 -3501 0
-3697 258 0
3501 -3697 0
-3500 -3697 -3698 0
3697 -3698 3500 0
3698 -3697 3500 0
3698 -3500 3697 0
-3698 -3699 -3696 0
3698 3696 -3699 0
3698 3699 -3696 0
-3698 3699 3696 0
-3698 -3696 3700 0
3698 -3700 0
-3700 3696 0
3701 -3500 -3697 0
3500 -3701 0
3697 -3701 0
3701 3700 -3702 0
-3700 3702 0
3702 -3701 0
-3703 -1 3704 0
-3704 1 0
3703 -3704 0
-3704 -3507 -3705 0
3704 3507 -3705 0
3705 -3704 3507 0
3704 3705 -3507 0
-3704 3706 -3507 0
-3706 3507 0
-3706 3704 0
-4 -3703 3707 0
-3707 4 0
3703 -3707 0
-3707 -3513 -3708 0
3513 3707 -3708 0
-3707 3513 3708 0
-3513 3707 3708 0
-3709 -3706 -3708 0
-3709 3706 3708 0
3709 -3706 3708 0
3706 3709 -3708 0
3710 -3706 -3708 0
-3710 3708 0
3706 -3710 0
-3707 -3513 3711 0
3513 -3711 0
-3711 3707 0
3711 3710 -3712 0
-3710 3712 0
-3711 3712 0
3713 -3703 -10 0
10 -3713 0
3703 -3713 0
-3714 -3713 -3519 0
3519 -3714 3713 0
3519 3714 -3713 0
3713 3714 -3519 0
-3714 -3712 -3715 0
3714 3712 -3715 0
3714 -3712 3715 0
-3714 3712 3715 0
3716 -3714 -3712 0
3714 -3716 0
-3716 3712 0
3717 -3713 -3519 0
3519 -3717 0
3713 -3717 0
-3718 3717 3716 0
-3716 3718 0
3718 -3717 0
-3703 3719 -18 0
-3719 18 0
3703 -3719 0
-3719 -3720 -3525 0
3525 3719 -3720 0
3525 -3719 3720 0
3719 3720 -3525 0
-3718 -3720 -3721 0
3718 -3721 3720 0
-3718 3721 3720 0
3721 -3720 3718 0
-3718 3722 -3720 0
-3722 3720 0
3718 -3722 0
-3719 3723 -3525 0
3525 -3723 0
-3723 3719 0
-3724 3722 3723 0
3724 -3722 0
-3723 3724 0
-3703 3725 -26 0
26 -3725 0
3703 -3725 0
-3531 -3726 -3725 0
3531 3725 -3726 0
3726 3531 -3725 0
-3531 3725 3726 0
-3724 -3726 -3727 0
3726 3724 -3727 0
3726 -3724 3727 0
3727 3724 -3726 0
3728 -3724 -3726 0
3726 -3728 0
3724 -3728 0
-3531 3729 -3725 0
-3729 3531 0
-3729 3725 0
3729 3728 -3730 0
-3728 3730 0
-3729 3730 0
-34 -3703 3731 0
34 -3731 0
3703 -3731 0
-3537 -3732 -3731 0
3731 -3732 3537 0
3732 -3731 3537 0
3732 -3537 3731 0
-3733 -3732 -3730 0
3732 -3733 3730 0
3732 -3730 3733 0
-3732 3733 3730 0
-3732 -3730 3734 0
3732 -3734 0
-3734 3730 0
3735 -3537 -3731 0
-3735 3537 0
-3735 3731 0
-3736 3735 3734 0
-3734 3736 0
-3735 3736 0
-3703 3737 -42 0
42 -3737 0
3703 -3737 0
-3738 -3543 -3737 0
3543 -3738 3737 0
3543 -3737 3738 0
-3543 3737 3738 0
-3736 -3739 -3738 0
-3739 3738 3736 0
-3736 3738 3739 0
-3738 3739 3736 0
-3736 -3738 3740 0
-3740 3738 0
-3740 3736 0
3741 -3543 -3737 0
3543 -3741 0
-3741 3737 0
3741 3740 -3742 0
3742 -3740 0
-3741 3742 0
-50 -3703 3743 0
50 -3743 0
3703 -3743 0
-3549 -3744 -3743 0
-3744 3743 3549 0
-3743 3549 3744 0
-3549 3743 3744 0
-3744 -3745 -3742 0
3742 3744 -3745 0
-3742 3744 3745 0
-3744 3742 3745 0
-3744 -3742 3746 0
-3746 3744 0
3742 -3746 0
-3549 -3743 3747 0
-3747 3549 0
3743 -3747 0
-3748 3746 3747 0
3748 -3746 0
3748 -3747 0
3749 -3703 -58 0
58 -3749 0
3703 -3749 0
-3750 -3749 -3555 0
-3750 3749 3555 0
-3749 3750 3555 0
3750 3749 -3555 0
-3748 -3750 -3751 0
-3751 3748 3750 0
-3748 3751 3750 0
-3750 3748 3751 0
-3748 -3750 3752 0
-3752 3750 0
3748 -3752 0
-3749 3753 -3555 0
-3753 3555 0
-3753 3749 0
-3754 3752 3753 0
-3752 3754 0
-3753 3754 0
-3703 -66 3755 0
66 -3755 0
3703 -3755 0
-3756 -3561 -3755 0
-3756 3755 3561 0
-3755 3756 3561 0
-3561 3755 3756 0
-3756 -3754 -3757 0
-3757 3754 3756 0
-3754 3757 3756 0
-3756 3757 3754 0
-3756 -3754 3758 0
-3758 3756 0
-3758 3754 0
3759 -3561 -3755 0
-3759 3561 0
3755 -3759 0
-3760 3759 3758 0
-3758 3760 0
3760 -3759 0
-3703 -74 3761 0
-3761 74 0
3703 -3761 0
-3762 -3761 -3567 0
-3762 3567 3761 0
3762 3567 -3761 0
3761 3762 -3567 0
-3762 -3763 -3760 0
-3763 3760 3762 0
-3760 3763 3762 0
-3762 3763 3760 0
-3762 3764 -3760 0
-3764 3762 0
-3764 3760 0
3765 -3761 -3567 0
-3765 3567 0
-3765 3761 0
3765 3764 -3766 0
-3764 3766 0
3766 -3765 0
3767 -82 -3703 0
82 -3767 0
3703 -3767 0
-3573 -3768 -3767 0
3767 -3768 3573 0
3768 3573 -3767 0
-3573 3768 3767 0
-3768 -3766 -3769 0
3768 3766 -3769 0
3768 3769 -3766 0
-3768 3766 3769 0
-3768 3770 -3766 0
3768 -3770 0
3766 -3770 0
-3573 3771 -3767 0
3573 -3771 0
3767 -3771 0
3770 3771 -3772 0
-3770 3772 0
-3771 3772 0
-90 -3703 3773 0
90 -3773 0
3703 -3773 0
-3773 -3774 -3579 0
3579 -3774 3773 0
3579 3774 -3773 0
3774 3773 -3579 0
-3775 -3774 -3772 0
-3775 3774 3772 0
3775 3774 -3772 0
3775 -3774 3772 0
3776 -3774 -3772 0
3774 -3776 0
3772 -3776 0
3777 -3773 -3579 0
3579 -3777 0
-3777 3773 0
3776 -3778 3777 0
3778 -3776 0
3778 -3777 0
-98 -3703 3779 0
-3779 98 0
3703 -3779 0
-3780 -3779 -3585 0
3779 3585 -3780 0
3780 3585 -3779 0
3780 3779 -3585 0
-3778 -3781 -3780 0
3778 3780 -3781 0
-3778 3780 3781 0
3778 3781 -3780 0
-3778 -3780 3782 0
3780 -3782 0
3778 -3782 0
3783 -3779 -3585 0
-3783 3585 0
-3783 3779 0
-3784 3783 3782 0
-3782 3784 0
-3783 3784 0
-106 -3703 3785 0
106 -3785 0
3703 -3785 0
-3591 -3786 -3785 0
-3786 3785 3591 0
3786 -3785 3591 0
-3591 3786 3785 0
-3784 -3787 -3786 0
3784 -3787 3786 0
-3784 3786 3787 0
3784 -3786 3787 0
3788 -3784 -3786 0
3786 -3788 0
3784 -3788 0
-3591 3789 -3785 0
-3789 3591 0
-3789 3785 0
3788 -3790 3789 0
3790 -3788 0
3790 -3789 0
-3703 3791 -114 0
114 -3791 0
3703 -3791 0
-3791 -3597 -3792 0
-3792 3597 3791 0
-3791 3597 3792 0
-3597 3791 3792 0
-3792 -3790 -3793 0
3790 -3793 3792 0
-3790 3793 3792 0
-3792 3790 3793 0
3794 -3792 -3790 0
-3794 3792 0
3790 -3794 0
-3791 -3597 3795 0
3597 -3795 0
-3795 3791 0
3794 -3796 3795 0
3796 -3794 0
3796 -3795 0
3797 -122 -3703 0
122 -3797 0
3703 -3797 0
-3798 -3797 -3603 0
3797 -3798 3603 0
3798 -3797 3603 0
3797 3798 -3603 0
-3799 -3798 -3796 0
3798 3796 -3799 0
3798 3799 -3796 0
3796 -3798 3799 0
-3798 3800 -3796 0
3798 -3800 0
3796 -3800 0
3801 -3797 -3603 0
-3801 3603 0
3797 -3801 0
-3802 3801 3800 0
3802 -3800 0
3802 -3801 0
-3703 3803 -130 0
130 -3803 0
3703 -3803 0
-3804 -3803 -3609 0
3803 3609 -3804 0
3804 -3803 3609 0
3804 3803 -3609 0
-3804 -3802 -3805 0
3804 3802 -3805 0
3804 -3802 3805 0
-3804 3802 3805 0
-3804 -3802 3806 0
3804 -3806 0
3802 -3806 0
3807 -3803 -3609 0
-3807 3609 0
-3807 3803 0
3806 -3808 3807 0
-3806 3808 0
-3807 3808 0
-138 -3703 3809 0
138 -3809 0
3703 -3809 0
-3810 -3615 -3809 0
-3810 3615 3809 0
3810 3615 -3809 0
3810 -3615 3809 0
-3810 -3808 -3811 0
3810 3808 -3811 0
3810 3811 -3808 0
3811 -3810 3808 0
-3810 -3808 3812 0
3810 -3812 0
-3812 3808 0
3813 -3615 -3809 0
3615 -3813 0
3809 -3813 0
3813 -3814 3812 0
-3812 3814 0
3814 -3813 0
-3703 3815 -146 0
146 -3815 0
3703 -3815 0
-3815 -3621 -3816 0
3815 -3816 3621 0
-3815 3816 3621 0
-3621 3816 3815 0
-3817 -3814 -3816 0
3814 -3817 3816 0
3817 -3814 3816 0
3817 3814 -3816 0
-3814 -3816 3818 0
-3818 3816 0
-3818 3814 0
-3815 -3621 3819 0
-3819 3621 0
3815 -3819 0
-3820 3819 3818 0
-3818 3820 0
3820 -3819 0
-3703 -154 3821 0
154 -3821 0
3703 -3821 0
-3627 -3822 -3821 0
3627 -3822 3821 0
3822 3627 -3821 0
-3627 3822 3821 0
-3823 -3820 -3822 0
3822 3820 -3823 0
3822 -3820 3823 0
3820 3823 -3822 0
3824 -3820 -3822 0
-3824 3822 0
-3824 3820 0
-3627 3825 -3821 0
3627 -3825 0
-3825 3821 0
3825 -3826 3824 0
-3824 3826 0
-3825 3826 0
-3703 3827 -162 0
162 -3827 0
3703 -3827 0
-3827 -3633 -3828 0
-3828 3827 3633 0
3828 -3827 3633 0
3828 3827 -3633 0
-3826 -3829 -3828 0
-3829 3828 3826 0
-3826 3829 3828 0
3829 -3828 3826 0
-3826 -3828 3830 0
-3830 3828 0
-3830 3826 0
-3827 -3633 3831 0
-3831 3633 0
-3831 3827 0
3830 -3832 3831 0
-3830 3832 0
-3831 3832 0
-3703 -170 3833 0
170 -3833 0
3703 -3833 0
-3834 -3639 -3833 0
-3834 3833 3639 0
-3833 3834 3639 0
-3639 3834 3833 0
-3834 -3832 -3835 0
-3835 3834 3832 0
-3832 3835 3834 0
-3834 3835 3832 0
-3834 -3832 3836 0
-3836 3834 0
-3836 3832 0
-3639 3837 -3833 0
-3837 3639 0
-3837 3833 0
3836 -3838 3837 0
3838 -3836 0
3838 -3837 0
3839 -3703 -178 0
-3839 178 0
3703 -3839 0
-3645 -3839 -3840 0
3839 3645 -3840 0
3840 -3839 3645 0
-3645 3839 3840 0
-3838 -3840 -3841 0
3838 3840 -3841 0
3841 3840 -3838 0
3838 3841 -3840 0
-3838 -3840 3842 0
3840 -3842 0
3838 -3842 0
-3645 3843 -3839 0
3645 -3843 0
3839 -3843 0
3843 -3844 3842 0
3844 -3842 0
3844 -3843 0
3845 -3703 -186 0
186 -3845 0
3703 -3845 0
-3845 -3651 -3846 0
3845 3651 -3846 0
3846 -3845 3651 0
3845 -3651 3846 0
-3847 -3844 -3846 0
-3847 3844 3846 0
3846 -3844 3847 0
3844 3847 -3846 0
3848 -3844 -3846 0
3846 -3848 0
3844 -3848 0
-3845 -3651 3849 0
-3849 3651 0
3845 -3849 0
3848 -3850 3849 0
-3848 3850 0
-3849 3850 0
-194 -3703 3851 0
194 -3851 0
3703 -3851 0
-3852 -3851 -3657 0
-3852 3657 3851 0
-3851 3657 3852 0
-3657 3852 3851 0
-3852 -3850 -3853 0
-3853 3850 3852 0
-3850 3853 3852 0
-3852 3853 3850 0
-3852 -3850 3854 0
-3854 3852 0
3850 -3854 0
-3851 -3657 3855 0
-3855 3657 0
-3855 3851 0
-3856 3854 3855 0
-3854 3856 0
-3855 3856 0
3857 -3703 -202 0
-3857 202 0
3703 -3857 0
-3663 -3857 -3858 0
3857 -3858 3663 0
3858 -3857 3663 0
3857 -3663 3858 0
-3859 -3856 -3858 0
-3859 3858 3856 0
-3856 3858 3859 0
-3858 3859 3856 0
3860 -3856 -3858 0
3858 -3860 0
-3860 3856 0
3861 -3663 -3857 0
-3861 3663 0
3857 -3861 0
3860 3861 -3862 0
3862 -3860 0
-3861 3862 0
3863 -210 -3703 0
-3863 210 0
3703 -3863 0
-3864 -3863 -3669 0
-3864 3863 3669 0
-3863 3864 3669 0
3863 3864 -3669 0
-3864 -3865 -3862 0
3862 3864 -3865 0
3864 3865 -3862 0
-3864 3862 3865 0
3866 -3864 -3862 0
3864 -3866 0
3862 -3866 0
-3863 3867 -3669 0
-3867 3669 0
-3867 3863 0
3866 -3868 3867 0
3868 -3866 0
3868 -3867 0
3869 -218 -3703 0
-3869 218 0
3703 -3869 0
-3869 -3675 -3870 0
3675 3869 -3870 0
3675 -3869 3870 0
3869 -3675 3870 0
-3868 -3870 -3871 0
3868 3870 -3871 0
3871 3870 -3868 0
3868 -3870 3871 0
-3868 -3870 3872 0
3870 -3872 0
3868 -3872 0
-3869 -3675 3873 0
3675 -3873 0
3869 -3873 0
3872 -3874 3873 0
3874 -3872 0
3874 -3873 0
-226 -3703 3875 0
226 -3875 0
3703 -3875 0
-3681 -3876 -3875 0
-3876 3681 3875 0
-3875 3681 3876 0
3876 -3681 3875 0
-3876 -3877 -3874 0
3874 -3877 3876 0
3877 3876 -3874 0
3874 3877 -3876 0
-3876 3878 -3874 0
-3878 3876 0
3874 -3878 0
-3681 3879 -3875 0
-3879 3681 0
-3879 3875 0
3879 -3880 3878 0
3880 -3878 0
-3879 3880 0
-3703 3881 -234 0
234 -3881 0
3703 -3881 0
-3687 -3882 -3881 0
3687 3881 -3882 0
3687 3882 -3881 0
-3687 3881 3882 0
-3883 -3882 -3880 0
3880 -3883 3882 0
3883 3882 -3880 0
3880 3883 -3882 0
3884 -3882 -3880 0
-3884 3882 0
3880 -3884 0
3885 -3687 -3881 0
3687 -3885 0
3881 -3885 0
3885 3884 -3886 0
-3884 3886 0
-3885 3886 0
-3703 -242 3887 0
-3887 242 0
3703 -3887 0
-3693 -3888 -3887 0
3887 3693 -3888 0
3888 -3887 3693 0
-3693 3888 3887 0
-3889 -3888 -3886 0
-3889 3888 3886 0
3888 3889 -3886 0
-3888 3886 3889 0
-3888 3890 -3886 0
3888 -3890 0
-3890 3886 0
-3693 -3887 3891 0
3693 -3891 0
3887 -3891 0
-3892 3891 3890 0
3892 -3890 0
3892 -3891 0
-250 -3703 3893 0
250 -3893 0
3703 -3893 0
-3894 -3699 -3893 0
3699 -3894 3893 0
3699 3894 -3893 0
-3699 3893 3894 0
-3895 -3894 -3892 0
-3895 3892 3894 0
3895 -3892 3894 0
-3894 3895 3892 0
-3894 3896 -3892 0
-3896 3894 0
3892 -3896 0
3897 -3699 -3893 0
-3897 3699 0
-3897 3893 0
3897 -3898 3896 0
3898 -3896 0
-3897 3898 0
3899 -3703 -258 0
258 -3899 0
3703 -3899 0
-3899 -3702 -3900 0
3702 -3900 3899 0
3900 3702 -3899 0
3899 3900 -3702 0
-3898 -3900 -3901 0
3898 3900 -3901 0
3901 -3898 3900 0
3898 -3900 3901 0
3902 -3898 -3900 0
-3902 3900 0
3898 -3902 0
3903 -3899 -3702 0
-3903 3702 0
-3903 3899 0
3903 -3904 3902 0
-3902 3904 0
-3903 3904 0
-3905 3906 -1 0
-3906 1 0
3905 -3906 0
-3709 -3907 -3906 0
3906 -3907 3709 0
3907 3709 -3906 0
-3709 3906 3907 0
-3709 3908 -3906 0
-3908 3709 0
3906 -3908 0
-3905 -4 3909 0
-3909 4 0
3905 -3909 0
-3910 -3909 -3715 0
-3910 3909 3715 0
-3909 3715 3910 0
3909 3910 -3715 0
-3908 -3910 -3911 0
-3911 3910 3908 0
-3908 3910 3911 0
-3910 3908 3911 0
-3908 3912 -3910 0
-3912 3910 0
-3912 3908 0
-3909 -3715 3913 0
-3913 3715 0
3909 -3913 0
3912 -3914 3913 0
-3912 3914 0
3914 -3913 0
-3905 3915 -10 0
-3915 10 0
-3915 3905 0
-3916 -3915 -3721 0
-3916 3915 3721 0
-3915 3721 3916 0
3916 3915 -3721 0
-3916 -3917 -3914 0
-3917 3916 3914 0
3916 3917 -3914 0
-3916 3917 3914 0
-3916 -3914 3918 0
3916 -3918 0
3914 -3918 0
-3915 3919 -3721 0
-3919 3721 0
-3919 3915 0
-3920 3919 3918 0
3920 -3918 0
-3919 3920 0
-3905 3921 -18 0
-3921 18 0
-3921 3905 0
-3921 -3922 -3727 0
3727 -3922 3921 0
3727 -3921 3922 0
3922 3921 -3727 0
-3922 -3923 -3920 0
-3923 3920 3922 0
3923 -3920 3922 0
3923 -3922 3920 0
3924 -3922 -3920 0
3922 -3924 0
3920 -3924 0
-3921 3925 -3727 0
3727 -3925 0
3921 -3925 0
3924 3925 -3926 0
3926 -3924 0
3926 -3925 0
-3905 3927 -26 0
-3927 26 0
3905 -3927 0
-3733 -3928 -3927 0
-3928 3927 3733 0
3928 -3927 3733 0
3928 -3733 3927 0
-3929 -3928 -3926 0
3928 -3929 3926 0
3928 3929 -3926 0
3926 -3928 3929 0
3930 -3928 -3926 0
3928 -3930 0
3926 -3930 0
3931 -3733 -3927 0
3733 -3931 0
3927 -3931 0
-3932 3930 3931 0
3932 -3930 0
3932 -3931 0
-34 3933 -3905 0
-3933 34 0
-3933 3905 0
-3933 -3739 -3934 0
3933 -3934 3739 0
3934 -3933 3739 0
3934 -3739 3933 0
-3932 -3935 -3934 0
3934 3932 -3935 0
3934 -3932 3935 0
3932 -3934 3935 0
-3932 -3934 3936 0
3934 -3936 0
3932 -3936 0
-3933 -3739 3937 0
-3937 3739 0
-3937 3933 0
-3938 3937 3936 0
-3936 3938 0
-3937 3938 0
-3905 3939 -42 0
42 -3939 0
3905 -3939 0
-3940 -3745 -3939 0
-3940 3939 3745 0
-3939 3745 3940 0
3939 -3745 3940 0
-3940 -3941 -3938 0
-3941 3938 3940 0
-3938 3941 3940 0
-3940 3941 3938 0
-3940 3942 -3938 0
-3942 3940 0
-3942 3938 0
3943 -3745 -3939 0
3745 -3943 0
3939 -3943 0
3942 3943 -3944 0
3944 -3942 0
3944 -3943 0
-3905 -50 3945 0
50 -3945 0
3905 -3945 0
-3751 -3945 -3946 0
3945 3751 -3946 0
3946 -3945 3751 0
3946 -3751 3945 0
-3944 -3947 -3946 0
3944 3946 -3947 0
3947 3946 -3944 0
3944 3947 -3946 0
-3944 3948 -3946 0
-3948 3946 0
3944 -3948 0
3949 -3751 -3945 0
3751 -3949 0
3945 -3949 0
3949 -3950 3948 0
3950 -3948 0
3950 -3949 0
-3905 3951 -58 0
58 -3951 0
3905 -3951 0
-3952 -3757 -3951 0
-3952 3951 3757 0
3952 -3951 3757 0
3952 -3757 3951 0
-3952 -3950 -3953 0
3952 3950 -3953 0
3952 -3950 3953 0
-3952 3950 3953 0
-3952 -3950 3954 0
3952 -3954 0
3950 -3954 0
-3757 3955 -3951 0
-3955 3757 0
3951 -3955 0
3954 3955 -3956 0
3956 -3954 0
3956 -3955 0
-3905 3957 -66 0
66 -3957 0
3905 -3957 0
-3958 -3957 -3763 0
-3958 3763 3957 0
3958 3763 -3957 0
3958 3957 -3763 0
-3958 -3959 -3956 0
3956 3958 -3959 0
3958 3959 -3956 0
3956 -3958 3959 0
3960 -3958 -3956 0
3958 -3960 0
3956 -3960 0
3961 -3957 -3763 0
3763 -3961 0
3957 -3961 0
3960 3961 -3962 0
3962 -3960 0
3962 -3961 0
-3905 3963 -74 0
-3963 74 0
3905 -3963 0
-3964 -3963 -3769 0
3963 -3964 3769 0
3964 3769 -3963 0
3964 3963 -3769 0
-3962 -3965 -3964 0
3962 3964 -3965 0
3964 3965 -3962 0
3962 -3964 3965 0
-3962 3966 -3964 0
-3966 3964 0
3962 -3966 0
3967 -3963 -3769 0
-3967 3769 0
3963 -3967 0
3966 -3968 3967 0
-3966 3968 0
3968 -3967 0
-3905 -82 3969 0
-3969 82 0
-3969 3905 0
-3969 -3775 -3970 0
3969 3775 -3970 0
-3969 3775 3970 0
3969 -3775 3970 0
-3968 -3971 -3970 0
3968 -3971 3970 0
-3968 3971 3970 0
3971 3968 -3970 0
-3968 -3970 3972 0
-3972 3970 0
-3972 3968 0
-3969 3973 -3775 0
-3973 3775 0
3969 -3973 0
-3974 3973 3972 0
-3972 3974 0
-3973 3974 0
-3905 -90 3975 0
-3975 90 0
-3975 3905 0
-3975 -3781 -3976 0
-3976 3975 3781 0
-3975 3976 3781 0
3976 -3781 3975 0
-3977 -3974 -3976 0
3976 -3977 3974 0
3976 3977 -3974 0
3977 3974 -3976 0
-3974 -3976 3978 0
3976 -3978 0
-3978 3974 0
-3975 -3781 3979 0
-3979 3781 0
3975 -3979 0
3979 -3980 3978 0
-3978 3980 0
3980 -3979 0
-98 3981 -3905 0
-3981 98 0
-3981 3905 0
-3981 -3982 -3787 0
-3982 3981 3787 0
-3981 3982 3787 0
3981 -3787 3982 0
-3982 -3983 -3980 0
-3983 3980 3982 0
3983 3982 -3980 0
-3982 3980 3983 0
-3982 3984 -3980 0
-3984 3982 0
-3984 3980 0
3985 -3981 -3787 0
-3985 3787 0
3981 -3985 0
3985 3984 -3986 0
3986 -3984 0
3986 -3985 0
-106 3987 -3905 0
106 -3987 0
3905 -3987 0
-3988 -3793 -3987 0
3987 -3988 3793 0
3988 3793 -3987 0
3987 3988 -3793 0
-3986 -3988 -3989 0
3986 3988 -3989 0
-3986 3988 3989 0
3986 -3988 3989 0
3990 -3986 -3988 0
-3990 3988 0
3986 -3990 0
3991 -3793 -3987 0
-3991 3793 0
3987 -3991 0
3990 -3992 3991 0
-3990 3992 0
-3991 3992 0
-3905 3993 -114 0
114 -3993 0
-3993 3905 0
-3799 -3993 -3994 0
3993 3799 -3994 0
3994 3799 -3993 0
3993 -3799 3994 0
-3995 -3992 -3994 0
-3995 3994 3992 0
3995 -3992 3994 0
3995 -3994 3992 0
-3992 3996 -3994 0
-3996 3994 0
-3996 3992 0
-3799 -3993 3997 0
3799 -3997 0
3993 -3997 0
-3998 3996 3997 0
-3996 3998 0
-3997 3998 0
-3905 -122 3999 0
122 -3999 0
3905 -3999 0
-4000 -3805 -3999 0
3999 3805 -4000 0
3805 4000 -3999 0
3999 -3805 4000 0
-3998 -4001 -4000 0
3998 -4001 4000 0
-3998 4000 4001 0
3998 -4000 4001 0
-3998 4002 -4000 0
4000 -4002 0
3998 -4002 0
4003 -3805 -3999 0
-4003 3805 0
3999 -4003 0
-4004 4002 4003 0
-4002 4004 0
-4003 4004 0
-3905 4005 -130 0
130 -4005 0
3905 -4005 0
-4006 -4005 -3811 0
3811 -4006 4005 0
3811 4006 -4005 0
4006 4005 -3811 0
-4004 -4006 -4007 0
-4007 4006 4004 0
-4004 4006 4007 0
-4006 4007 4004 0
-4004 -4006 4008 0
-4008 4006 0
-4008 4004 0
-4005 4009 -3811 0
3811 -4009 0
4005 -4009 0
4008 -4010 4009 0
-4008 4010 0
4010 -4009 0
-3905 -138 4011 0
-4011 138 0
-4011 3905 0
-4011 -3817 -4012 0
3817 4011 -4012 0
3817 4012 -4011 0
-3817 4012 4011 0
-4010 -4012 -4013 0
4012 4010 -4013 0
4013 4012 -4010 0
4013 4010 -4012 0
4014 -4010 -4012 0
-4014 4012 0
-4014 4010 0
-4011 -3817 4015 0
3817 -4015 0
4011 -4015 0
4015 4014 -4016 0
-4014 4016 0
4016 -4015 0
-3905 4017 -146 0
146 -4017 0
-4017 3905 0
-4017 -3823 -4018 0
3823 -4018 4017 0
-4017 3823 4018 0
4018 -3823 4017 0
-4019 -4018 -4016 0
4018 4016 -4019 0
4019 4018 -4016 0
4019 4016 -4018 0
4020 -4018 -4016 0
4018 -4020 0
-4020 4016 0
-4017 -3823 4021 0
3823 -4021 0
4017 -4021 0
4020 4021 -4022 0
-4020 4022 0
4022 -4021 0
-3905 4023 -154 0
-4023 154 0
-4023 3905 0
-3829 -4024 -4023 0
3829 4023 -4024 0
3829 4024 -4023 0
-3829 4023 4024 0
-4024 -4022 -4025 0
4022 -4025 4024 0
-4022 4025 4024 0
-4024 4022 4025 0
-4024 4026 -4022 0
-4026 4024 0
-4026 4022 0
-3829 4027 -4023 0
3829 -4027 0
4023 -4027 0
4027 4026 -4028 0
-4026 4028 0
4028 -4027 0
-3905 -162 4029 0
162 -4029 0
3905 -4029 0
-4029 -4030 -3835 0
-4030 3835 4029 0
-4029 3835 4030 0
4030 -3835 4029 0
-4031 -4028 -4030 0
-4031 4028 4030 0
4030 -4028 4031 0
4028 -4030 4031 0
-4028 4032 -4030 0
-4032 4030 0
-4032 4028 0
4033 -4029 -3835 0
-4033 3835 0
-4033 4029 0
4033 4032 -4034 0
-4032 4034 0
-4033 4034 0
-3905 4035 -170 0
170 -4035 0
-4035 3905 0
-4036 -4035 -3841 0
-4036 3841 4035 0
3841 -4035 4036 0
4035 -3841 4036 0
-4036 -4034 -4037 0
-4037 4034 4036 0
4037 -4034 4036 0
-4036 4037 4034 0
-4036 4038 -4034 0
-4038 4036 0
-4038 4034 0
-4035 4039 -3841 0
3841 -4039 0
4035 -4039 0
-4040 4038 4039 0
-4038 4040 0
4040 -4039 0
-3905 4041 -178 0
-4041 178 0
-4041 3905 0
-4041 -3847 -4042 0
4041 -4042 3847 0
-4041 4042 3847 0
4041 -3847 4042 0
-4043 -4040 -4042 0
-4043 4042 4040 0
-4040 4042 4043 0
-4042 4043 4040 0
-4040 -4042 4044 0
4042 -4044 0
-4044 4040 0
-4041 -3847 4045 0
-4045 3847 0
4041 -4045 0
-4046 4045 4044 0
4046 -4044 0
4046 -4045 0
-3905 4047 -186 0
186 -4047 0
-4047 3905 0
-4047 -4048 -3853 0
4047 3853 -4048 0
-4047 3853 4048 0
4047 4048 -3853 0
-4046 -4049 -4048 0
4046 4048 -4049 0
-4046 4048 4049 0
4046 4049 -4048 0
-4046 -4048 4050 0
4048 -4050 0
4046 -4050 0
-4047 -3853 4051 0
3853 -4051 0
4047 -4051 0
-4052 4051 4050 0
-4050 4052 0
-4051 4052 0
-194 4053 -3905 0
194 -4053 0
3905 -4053 0
-4054 -3859 -4053 0
4053 -4054 3859 0
4054 -4053 3859 0
4053 -3859 4054 0
-4052 -4054 -4055 0
-4055 4052 4054 0
-4052 4054 4055 0
4055 -4054 4052 0
-4052 -4054 4056 0
-4056 4054 0
-4056 4052 0
4057 -3859 -4053 0
-4057 3859 0
4053 -4057 0
4057 -4058 4056 0
-4056 4058 0
4058 -4057 0
-3905 -202 4059 0
-4059 202 0
-4059 3905 0
-4059 -3865 -4060 0
-4060 4059 3865 0
-4059 4060 3865 0
4060 -3865 4059 0
-4061 -4058 -4060 0
-4061 4058 4060 0
4061 -4058 4060 0
4061 -4060 4058 0
-4058 -4060 4062 0
-4062 4060 0
-4062 4058 0
-4059 -3865 4063 0
3865 -4063 0
4059 -4063 0
4062 4063 -4064 0
-4062 4064 0
4064 -4063 0
-3905 -210 4065 0
210 -4065 0
3905 -4065 0
-4066 -3871 -4065 0
-4066 4065 3871 0
4066 -4065 3871 0
4066 -3871 4065 0
-4067 -4064 -4066 0
-4067 4066 4064 0
4067 4066 -4064 0
4067 -4066 4064 0
4068 -4064 -4066 0
4066 -4068 0
-4068 4064 0
-3871 4069 -4065 0
-4069 3871 0
-4069 4065 0
4068 4069 -4070 0
4070 -4068 0
-4069 4070 0
-3905 4071 -218 0
-4071 218 0
3905 -4071 0
-4072 -3877 -4071 0
3877 4071 -4072 0
3877 4072 -4071 0
4071 -3877 4072 0
-4073 -4072 -4070 0
-4073 4072 4070 0
4072 4073 -4070 0
4073 4070 -4072 0
4074 -4072 -4070 0
4072 -4074 0
4070 -4074 0
4075 -3877 -4071 0
3877 -4075 0
4071 -4075 0
4075 4074 -4076 0
4076 -4074 0
4076 -4075 0
-3905 -226 4077 0
226 -4077 0
3905 -4077 0
-4078 -3883 -4077 0
3883 4077 -4078 0
3883 4078 -4077 0
4077 -3883 4078 0
-4076 -4078 -4079 0
4076 -4079 4078 0
4079 -4076 4078 0
4076 4079 -4078 0
-4076 -4078 4080 0
-4080 4078 0
4076 -4080 0
-3883 4081 -4077 0
3883 -4081 0
4077 -4081 0
-4082 4081 4080 0
-4080 4082 0
-4081 4082 0
-3905 4083 -234 0
234 -4083 0
-4083 3905 0
-3889 -4083 -4084 0
-4084 4083 3889 0
-4083 4084 3889 0
-3889 4083 4084 0
-4084 -4082 -4085 0
4084 -4085 4082 0
-4082 4084 4085 0
-4084 4085 4082 0
-4084 -4082 4086 0
-4086 4084 0
-4086 4082 0
-3889 4087 -4083 0
-4087 3889 0
4083 -4087 0
4086 4087 -4088 0
-4086 4088 0
4088 -4087 0
-3905 -242 4089 0
-4089 242 0
3905 -4089 0
-3895 -4090 -4089 0
4089 -4090 3895 0
4090 -4089 3895 0
-3895 4090 4089 0
-4090 -4091 -4088 0
4090 4088 -4091 0
4090 4091 -4088 0
-4090 4088 4091 0
-4090 4092 -4088 0
4090 -4092 0
4088 -4092 0
-3895 4093 -4089 0
3895 -4093 0
4089 -4093 0
-4094 4093 4092 0
4094 -4092 0
-4093 4094 0
-3905 -250 4095 0
250 -4095 0
3905 -4095 0
-4096 -4095 -3901 0
3901 -4096 4095 0
3901 4096 -4095 0
4096 4095 -3901 0
-4094 -4096 -4097 0
4096 4094 -4097 0
4096 -4094 4097 0
4097 -4096 4094 0
-4094 -4096 4098 0
4096 -4098 0
-4098 4094 0
-4095 -3901 4099 0
3901 -4099 0
-4099 4095 0
4099 4098 -4100 0
4100 -4098 0
4100 -4099 0
-3905 4101 -258 0
-4101 258 0
-4101 3905 0
-4102 -4101 -3904 0
4101 -4102 3904 0
4102 -4101 3904 0
4102 4101 -3904 0
-4102 -4100 -4103 0
4102 4100 -4103 0
4102 -4100 4103 0
-4102 4100 4103 0
-4102 -4100 4104 0
4102 -4104 0
-4104 4100 0
4105 -4101 -3904 0
3904 -4105 0
4101 -4105 0
-4106 4105 4104 0
-4104 4106 0
4106 -4105 0
-4107 4108 -1 0
-4108 1 0
-4108 4107 0
-4108 -4109 -3911 0
4108 -4109 3911 0
-4108 3911 4109 0
4108 4109 -3911 0
4110 -4108 -3911 0
-4110 3911 0
4108 -4110 0
4111 -4107 -4 0
-4111 4 0
-4111 4107 0
-3917 -4112 -4111 0
4111 3917 -4112 0
-4111 3917 4112 0
-3917 4111 4112 0
-4112 -4110 -4113 0
4110 4112 -4113 0
4113 4112 -4110 0
-4112 4110 4113 0
-4112 4114 -4110 0
-4114 4112 0
-4114 4110 0
-3917 4115 -4111 0
3917 -4115 0
4111 -4115 0
4115 -4116 4114 0
-4114 4116 0
4116 -4115 0
-4107 -10 4117 0
-4117 10 0
-4117 4107 0
-4117 -3923 -4118 0
3923 -4118 4117 0
3923 -4117 4118 0
4118 -3923 4117 0
-4116 -4118 -4119 0
4118 4116 -4119 0
4118 -4116 4119 0
4116 4119 -4118 0
-4116 4120 -4118 0
4118 -4120 0
4116 -4120 0
-4117 4121 -3923 0
3923 -4121 0
-4121 4117 0
4120 4121 -4122 0
4122 -4120 0
4122 -4121 0
-4107 4123 -18 0
-4123 18 0
-4123 4107 0
-3929 -4123 -4124 0
4123 -4124 3929 0
4124 -4123 3929 0
4124 -3929 4123 0
-4124 -4122 -4125 0
4122 -4125 4124 0
-4122 4125 4124 0
4122 -4124 4125 0
4126 -4124 -4122 0
-4126 4124 0
4122 -4126 0
-3929 -4123 4127 0
-4127 3929 0
4123 -4127 0
-4128 4127 4126 0
4128 -4126 0
4128 -4127 0
-4107 4129 -26 0
26 -4129 0
-4129 4107 0
-3935 -4130 -4129 0
-4130 4129 3935 0
-4129 4130 3935 0
-3935 4130 4129 0
-4128 -4131 -4130 0
4128 -4131 4130 0
-4128 4131 4130 0
4128 -4130 4131 0
-4128 -4130 4132 0
-4132 4130 0
4128 -4132 0
4133 -3935 -4129 0
-4133 3935 0
-4133 4129 0
4133 -4134 4132 0
4134 -4132 0
4134 -4133 0
-34 -4107 4135 0
34 -4135 0
-4135 4107 0
-3941 -4136 -4135 0
-4136 4135 3941 0
4136 -4135 3941 0
-3941 4135 4136 0
-4136 -4134 -4137 0
4134 4136 -4137 0
4136 -4134 4137 0
4134 -4136 4137 0
-4136 -4134 4138 0
4136 -4138 0
4134 -4138 0
-3941 4139 -4135 0
-4139 3941 0
4135 -4139 0
-4140 4138 4139 0
-4138 4140 0
-4139 4140 0
-4107 4141 -42 0
42 -4141 0
-4141 4107 0
-4142 -3947 -4141 0
4141 3947 -4142 0
4142 3947 -4141 0
4142 4141 -3947 0
-4140 -4143 -4142 0
4142 -4143 4140 0
4142 -4140 4143 0
4143 -4142 4140 0
4144 -4140 -4142 0
-4144 4142 0
-4144 4140 0
-3947 4145 -4141 0
-4145 3947 0
-4145 4141 0
4144 4145 -4146 0
-4144 4146 0
-4145 4146 0
-4107 -50 4147 0
50 -4147 0
-4147 4107 0
-4147 -4148 -3953 0
4147 -4148 3953 0
4148 3953 -4147 0
4147 4148 -3953 0
-4148 -4146 -4149 0
4146 4148 -4149 0
4149 4148 -4146 0
4146 -4148 4149 0
-4148 -4146 4150 0
-4150 4148 0
4146 -4150 0
-4147 4151 -3953 0
-4151 3953 0
4147 -4151 0
4151 -4152 4150 0
-4150 4152 0
-4151 4152 0
-4107 4153 -58 0
-4153 58 0
-4153 4107 0
-4154 -4153 -3959 0
-4154 4153 3959 0
-4153 4154 3959 0
4153 4154 -3959 0
-4154 -4155 -4152 0
-4155 4152 4154 0
4155 -4152 4154 0
-4154 4155 4152 0
-4154 4156 -4152 0
-4156 4154 0
-4156 4152 0
4157 -4153 -3959 0
3959 -4157 0
4153 -4157 0
4157 4156 -4158 0
-4156 4158 0
4158 -4157 0
-4107 4159 -66 0
66 -4159 0
-4159 4107 0
-3965 -4160 -4159 0
4159 3965 -4160 0
4160 -4159 3965 0
4160 -3965 4159 0
-4161 -4160 -4158 0
4160 -4161 4158 0
4160 4161 -4158 0
4161 4158 -4160 0
-4160 -4158 4162 0
4160 -4162 0
-4162 4158 0
4163 -3965 -4159 0
-4163 3965 0
-4163 4159 0
4163 -4164 4162 0
-4162 4164 0
-4163 4164 0
4165 -4107 -74 0
-4165 74 0
-4165 4107 0
-4165 -4166 -3971 0
4165 3971 -4166 0
-4165 3971 4166 0
4165 -3971 4166 0
-4166 -4164 -4167 0
-4167 4164 4166 0
4167 -4164 4166 0
-4166 4167 4164 0
-4166 -4164 4168 0
-4168 4166 0
-4168 4164 0
-4165 4169 -3971 0
-4169 3971 0
4165 -4169 0
-4170 4169 4168 0
-4168 4170 0
-4169 4170 0
-4107 -82 4171 0
-4171 82 0
-4171 4107 0
-4171 -4172 -3977 0
3977 4171 -4172 0
3977 -4171 4172 0
4172 4171 -3977 0
-4173 -4170 -4172 0
-4173 4170 4172 0
4173 -4170 4172 0
4173 4170 -4172 0
-4170 -4172 4174 0
-4174 4172 0
-4174 4170 0
-4171 -3977 4175 0
-4175 3977 0
-4175 4171 0
4175 -4176 4174 0
4176 -4174 0
4176 -4175 0
-4107 -90 4177 0
90 -4177 0
-4177 4107 0
-4178 -3983 -4177 0
4177 -4178 3983 0
4178 3983 -4177 0
4177 4178 -3983 0
-4179 -4178 -4176 0
4176 -4179 4178 0
4179 -4176 4178 0
4176 4179 -4178 0
-4178 4180 -4176 0
-4180 4178 0
4176 -4180 0
4181 -3983 -4177 0
-4181 3983 0
-4181 4177 0
-4182 4180 4181 0
-4180 4182 0
-4181 4182 0
-98 -4107 4183 0
98 -4183 0
-4183 4107 0
-3989 -4183 -4184 0
4183 3989 -4184 0
3989 -4183 4184 0
4183 -3989 4184 0
-4182 -4185 -4184 0
-4185 4182 4184 0
-4182 4185 4184 0
4185 4182 -4184 0
-4182 4186 -4184 0
-4186 4184 0
-4186 4182 0
4187 -3989 -4183 0
-4187 3989 0
4183 -4187 0
-4188 4186 4187 0
-4186 4188 0
-4187 4188 0
-106 -4107 4189 0
-4189 106 0
-4189 4107 0
-3995 -4189 -4190 0
3995 -4190 4189 0
3995 -4189 4190 0
-3995 4189 4190 0
-4188 -4190 -4191 0
-4191 4188 4190 0
-4188 4191 4190 0
-4190 4191 4188 0
-4188 -4190 4192 0
-4192 4190 0
-4192 4188 0
-3995 -4189 4193 0
3995 -4193 0
-4193 4189 0
4193 -4194 4192 0
-4192 4194 0
-4193 4194 0
4195 -4107 -114 0
114 -4195 0
-4195 4107 0
-4196 -4001 -4195 0
4195 -4196 4001 0
-4195 4196 4001 0
4195 4196 -4001 0
-4194 -4196 -4197 0
4196 4194 -4197 0
4196 -4194 4197 0
4197 -4196 4194 0
-4194 -4196 4198 0
4196 -4198 0
-4198 4194 0
-4001 4199 -4195 0
-4199 4001 0
4195 -4199 0
-4200 4198 4199 0
-4198 4200 0
-4199 4200 0
4201 -4107 -122 0
122 -4201 0
-4201 4107 0
-4201 -4202 -4007 0
4201 -4202 4007 0
-4201 4202 4007 0
4201 4202 -4007 0
-4200 -4202 -4203 0
4200 4202 -4203 0
-4200 4203 4202 0
4200 -4202 4203 0
-4200 -4202 4204 0
-4204 4202 0
4200 -4204 0
-4201 4205 -4007 0
-4205 4007 0
4201 -4205 0
-4206 4204 4205 0
-4204 4206 0
-4205 4206 0
-4107 4207 -130 0
-4207 130 0
-4207 4107 0
-4207 -4208 -4013 0
4013 -4208 4207 0
-4207 4013 4208 0
4207 4208 -4013 0
-4206 -4208 -4209 0
4208 4206 -4209 0
-4206 4208 4209 0
4209 -4208 4206 0
-4206 -4208 4210 0
4208 -4210 0
-4210 4206 0
-4207 4211 -4013 0
4013 -4211 0
4207 -4211 0
-4212 4211 4210 0
-4210 4212 0
-4211 4212 0
-4107 4213 -138 0
-4213 138 0
-4213 4107 0
-4214 -4213 -4019 0
4019 4213 -4214 0
4019 4214 -4213 0
4213 4214 -4019 0
-4214 -4212 -4215 0
4214 -4215 4212 0
4215 -4212 4214 0
-4214 4215 4212 0
-4214 4216 -4212 0
-4216 4214 0
-4216 4212 0
4217 -4213 -4019 0
4019 -4217 0
-4217 4213 0
-4218 4216 4217 0
-4216 4218 0
-4217 4218 0
-4107 4219 -146 0
146 -4219 0
-4219 4107 0
-4220 -4025 -4219 0
-4220 4219 4025 0
-4219 4220 4025 0
4220 4219 -4025 0
-4218 -4220 -4221 0
4220 -4221 4218 0
-4218 4220 4221 0
-4220 4218 4221 0
-4218 -4220 4222 0
4220 -4222 0
4218 -4222 0
4223 -4025 -4219 0
-4223 4025 0
-4223 4219 0
4223 -4224 4222 0
-4222 4224 0
-4223 4224 0
-4107 4225 -154 0
-4225 154 0
-4225 4107 0
-4031 -4225 -4226 0
4225 -4226 4031 0
4226 -4225 4031 0
-4031 4225 4226 0
-4226 -4224 -4227 0
4226 4224 -4227 0
4227 4226 -4224 0
4227 -4226 4224 0
-4226 -4224 4228 0
-4228 4226 0
-4228 4224 0
-4031 -4225 4229 0
-4229 4031 0
4225 -4229 0
4229 4228 -4230 0
-4228 4230 0
-4229 4230 0
-4107 -162 4231 0
162 -4231 0
-4231 4107 0
-4232 -4231 -4037 0
-4232 4231 4037 0
4232 -4231 4037 0
4232 4231 -4037 0
-4230 -4233 -4232 0
4230 -4233 4232 0
4233 -4230 4232 0
4233 4230 -4232 0
-4230 4234 -4232 0
-4234 4232 0
-4234 4230 0
4235 -4231 -4037 0
-4235 4037 0
4231 -4235 0
-4236 4234 4235 0
4236 -4234 0
4236 -4235 0
-4107 4237 -170 0
170 -4237 0
-4237 4107 0
-4043 -4238 -4237 0
4237 -4238 4043 0
4238 -4237 4043 0
-4043 4237 4238 0
-4236 -4238 -4239 0
4238 4236 -4239 0
-4236 4238 4239 0
4239 -4238 4236 0
-4236 -4238 4240 0
4238 -4240 0
4236 -4240 0
-4043 4241 -4237 0
-4241 4043 0
4237 -4241 0
4241 -4242 4240 0
4242 -4240 0
4242 -4241 0
-4107 4243 -178 0
-4243 178 0
-4243 4107 0
-4049 -4244 -4243 0
-4244 4049 4243 0
4244 4049 -4243 0
4244 -4049 4243 0
-4242 -4244 -4245 0
4244 4242 -4245 0
4244 4245 -4242 0
4242 -4244 4245 0
-4242 -4244 4246 0
4244 -4246 0
4242 -4246 0
-4049 4247 -4243 0
-4247 4049 0
-4247 4243 0
-4248 4247 4246 0
4248 -4246 0
-4247 4248 0
-4107 4249 -186 0
186 -4249 0
-4249 4107 0
-4250 -4249 -4055 0
4055 4249 -4250 0
4055 -4249 4250 0
4249 -4055 4250 0
-4250 -4248 -4251 0
4248 -4251 4250 0
-4248 4251 4250 0
-4250 4248 4251 0
-4250 -4248 4252 0
-4252 4250 0
4248 -4252 0
4253 -4249 -4055 0
4055 -4253 0
-4253 4249 0
4253 -4254 4252 0
-4252 4254 0
-4253 4254 0
-194 -4107 4255 0
194 -4255 0
-4255 4107 0
-4061 -4256 -4255 0
4061 4255 -4256 0
4061 4256 -4255 0
-4061 4255 4256 0
-4254 -4256 -4257 0
4256 -4257 4254 0
4257 4256 -4254 0
4257 -4256 4254 0
4258 -4254 -4256 0
4256 -4258 0
-4258 4254 0
-4061 -4255 4259 0
4061 -4259 0
4255 -4259 0
4258 -4260 4259 0
-4258 4260 0
-4259 4260 0
-4107 4261 -202 0
-4261 202 0
-4261 4107 0
-4067 -4261 -4262 0
4067 4261 -4262 0
4067 4262 -4261 0
4262 -4067 4261 0
-4263 -4260 -4262 0
4262 -4263 4260 0
4263 4262 -4260 0
4263 4260 -4262 0
4264 -4260 -4262 0
4262 -4264 0
-4264 4260 0
-4067 -4261 4265 0
4067 -4265 0
-4265 4261 0
-4266 4264 4265 0
-4264 4266 0
-4265 4266 0
-4107 -210 4267 0
-4267 210 0
-4267 4107 0
-4073 -4268 -4267 0
-4268 4073 4267 0
4073 -4267 4268 0
-4073 4268 4267 0
-4268 -4269 -4266 0
-4269 4268 4266 0
4269 -4266 4268 0
4269 -4268 4266 0
4270 -4268 -4266 0
-4270 4268 0
-4270 4266 0
-4073 4271 -4267 0
4073 -4271 0
-4271 4267 0
4270 -4272 4271 0
-4270 4272 0
4272 -4271 0
-4107 -218 4273 0
-4273 218 0
-4273 4107 0
-4274 -4273 -4079 0
4079 -4274 4273 0
4079 -4273 4274 0
4274 -4079 4273 0
-4275 -4272 -4274 0
4274 -4275 4272 0
4274 4275 -4272 0
-4274 4275 4272 0
-4272 -4274 4276 0
4274 -4276 0
4272 -4276 0
4277 -4273 -4079 0
4079 -4277 0
-4277 4273 0
4276 4277 -4278 0
4278 -4276 0
-4277 4278 0
-4107 -226 4279 0
-4279 226 0
-4279 4107 0
-4280 -4279 -4085 0
-4280 4279 4085 0
4280 -4279 4085 0
4280 4279 -4085 0
-4280 -4278 -4281 0
4280 -4281 4278 0
-4278 4280 4281 0
-4280 4278 4281 0
-4280 -4278 4282 0
-4282 4280 0
-4282 4278 0
-4279 4283 -4085 0
-4283 4085 0
-4283 4279 0
4282 4283 -4284 0
-4282 4284 0
-4283 4284 0
-4107 4285 -234 0
234 -4285 0
-4285 4107 0
-4285 -4286 -4091 0
4091 -4286 4285 0
4286 4091 -4285 0
4286 4285 -4091 0
-4284 -4287 -4286 0
4286 4284 -4287 0
4286 -4284 4287 0
4287 4284 -4286 0
4288 -4284 -4286 0
-4288 4286 0
-4288 4284 0
-4285 4289 -4091 0
-4289 4091 0
-4289 4285 0
4288 4289 -4290 0
4290 -4288 0
4290 -4289 0
-4107 -242 4291 0
-4291 242 0
-4291 4107 0
-4292 -4291 -4097 0
4097 -4292 4291 0
4097 -4291 4292 0
4291 -4097 4292 0
-4293 -4290 -4292 0
4290 -4293 4292 0
4293 -4290 4292 0
4290 4293 -4292 0
4294 -4290 -4292 0
4292 -4294 0
4290 -4294 0
4295 -4291 -4097 0
4097 -4295 0
4291 -4295 0
4294 -4296 4295 0
4296 -4294 0
-4295 4296 0
-4107 -250 4297 0
-4297 250 0
-4297 4107 0
-4298 -4297 -4103 0
-4298 4297 4103 0
-4297 4298 4103 0
4298 -4103 4297 0
-4298 -4296 -4299 0
4298 -4299 4296 0
4299 4298 -4296 0
4299 -4298 4296 0
-4298 -4296 4300 0
4298 -4300 0
-4300 4296 0
-4297 4301 -4103 0
-4301 4103 0
-4301 4297 0
4300 4301 -4302 0
-4300 4302 0
-4301 4302 0
-4107 4303 -258 0
-4303 258 0
-4303 4107 0
-4303 -4106 -4304 0
4303 -4304 4106 0
-4303 4106 4304 0
-4106 4303 4304 0
-4305 -4302 -4304 0
-4305 4304 4302 0
4305 -4302 4304 0
4305 -4304 4302 0
-4302 -4304 4306 0
-4306 4304 0
-4306 4302 0
-4303 -4106 4307 0
-4307 4106 0
-4307 4303 0
4307 -4308 4306 0
-4306 4308 0
-4307 4308 0
4310 -1 -4309 0
-4310 1 0
4309 -4310 0
-4311 -4310 -4113 0
4310 4113 -4311 0
4311 4113 -4310 0
4311 4310 -4113 0
-4310 4312 -4113 0
-4312 4113 0
-4312 4310 0
4313 -4 -4309 0
-4313 4 0
4309 -4313 0
-4314 -4313 -4119 0
4313 -4314 4119 0
4314 -4313 4119 0
4313 4314 -4119 0
-4314 -4312 -4315 0
4314 -4315 4312 0
4314 -4312 4315 0
-4314 4315 4312 0
-4314 -4312 4316 0
4314 -4316 0
-4316 4312 0
-4313 4317 -4119 0
-4317 4119 0
4313 -4317 0
-4318 4316 4317 0
-4316 4318 0
4318 -4317 0
4319 -10 -4309 0
10 -4319 0
4309 -4319 0
-4319 -4125 -4320 0
4319 4125 -4320 0
4320 -4319 4125 0
4320 4319 -4125 0
-4318 -4321 -4320 0
4320 -4321 4318 0
4320 -4318 4321 0
4318 4321 -4320 0
-4318 4322 -4320 0
4320 -4322 0
4318 -4322 0
-4319 4323 -4125 0
-4323 4125 0
-4323 4319 0
4323 -4324 4322 0
-4322 4324 0
-4323 4324 0
4325 -4309 -18 0
-4325 18 0
4309 -4325 0
-4326 -4325 -4131 0
4325 -4326 4131 0
-4325 4131 4326 0
4325 -4131 4326 0
-4326 -4324 -4327 0
-4327 4326 4324 0
4327 -4324 4326 0
-4326 4327 4324 0
-4326 -4324 4328 0
4326 -4328 0
-4328 4324 0
-4325 -4131 4329 0
-4329 4131 0
4325 -4329 0
-4330 4329 4328 0
4330 -4328 0
-4329 4330 0
4331 -4309 -26 0
-4331 26 0
4309 -4331 0
-4331 -4137 -4332 0
4137 -4332 4331 0
4332 -4331 4137 0
4332 -4137 4331 0
-4330 -4332 -4333 0
4332 4330 -4333 0
4332 -4330 4333 0
4333 4330 -4332 0
-4330 -4332 4334 0
4332 -4334 0
-4334 4330 0
-4331 -4137 4335 0
4137 -4335 0
4331 -4335 0
4334 -4336 4335 0
-4334 4336 0
4336 -4335 0
-34 4337 -4309 0
34 -4337 0
4309 -4337 0
-4338 -4143 -4337 0
-4338 4337 4143 0
4338 4143 -4337 0
4338 4337 -4143 0
-4338 -4336 -4339 0
4338 4336 -4339 0
-4336 4338 4339 0
-4338 4339 4336 0
-4338 4340 -4336 0
-4340 4338 0
-4340 4336 0
-4143 -4337 4341 0
-4341 4143 0
-4341 4337 0
-4342 4340 4341 0
-4340 4342 0
-4341 4342 0
4343 -4309 -42 0
42 -4343 0
4309 -4343 0
-4149 -4343 -4344 0
4149 4343 -4344 0
4149 4344 -4343 0
4344 -4149 4343 0
-4342 -4345 -4344 0
4344 -4345 4342 0
4344 4345 -4342 0
4342 -4344 4345 0
-4342 -4344 4346 0
4344 -4346 0
-4346 4342 0
4347 -4149 -4343 0
4149 -4347 0
-4347 4343 0
4347 -4348 4346 0
-4346 4348 0
-4347 4348 0
-50 4349 -4309 0
50 -4349 0
-4349 4309 0
-4349 -4350 -4155 0
4155 4349 -4350 0
-4349 4155 4350 0
4350 -4155 4349 0
-4350 -4351 -4348 0
4350 -4351 4348 0
4351 4350 -4348 0
4351 -4350 4348 0
4352 -4350 -4348 0
4350 -4352 0
4348 -4352 0
-4349 -4155 4353 0
-4353 4155 0
-4353 4349 0
-4354 4353 4352 0
-4352 4354 0
-4353 4354 0
-4309 4355 -58 0
58 -4355 0
4309 -4355 0
-4356 -4161 -4355 0
-4356 4161 4355 0
4161 4356 -4355 0
-4161 4355 4356 0
-4356 -4357 -4354 0
-4357 4356 4354 0
-4354 4357 4356 0
-4356 4357 4354 0
-4356 4358 -4354 0
-4358 4356 0
-4358 4354 0
-4161 4359 -4355 0
4161 -4359 0
-4359 4355 0
4358 -4360 4359 0
-4358 4360 0
-4359 4360 0
4361 -66 -4309 0
66 -4361 0
4309 -4361 0
-4362 -4167 -4361 0
4361 4167 -4362 0
4167 -4361 4362 0
4361 -4167 4362 0
-4363 -4360 -4362 0
-4363 4362 4360 0
4363 -4360 4362 0
-4362 4363 4360 0
4364 -4360 -4362 0
-4364 4362 0
-4364 4360 0
4365 -4167 -4361 0
4167 -4365 0
4361 -4365 0
4364 4365 -4366 0
-4364 4366 0
-4365 4366 0
4367 -4309 -74 0
-4367 74 0
4309 -4367 0
-4173 -4368 -4367 0
4173 4367 -4368 0
4173 4368 -4367 0
-4173 4367 4368 0
-4366 -4369 -4368 0
4368 -4369 4366 0
-4366 4368 4369 0
4369 -4368 4366 0
-4366 -4368 4370 0
4368 -4370 0
-4370 4366 0
-4173 4371 -4367 0
4173 -4371 0
4367 -4371 0
4371 -4372 4370 0
4372 -4370 0
4372 -4371 0
-82 4373 -4309 0
-4373 82 0
-4373 4309 0
-4373 -4179 -4374 0
4179 4373 -4374 0
-4373 4179 4374 0
4373 -4179 4374 0
-4375 -4372 -4374 0
-4375 4372 4374 0
4375 4374 -4372 0
4372 4375 -4374 0
4376 -4372 -4374 0
4374 -4376 0
4372 -4376 0
-4373 4377 -4179 0
-4377 4179 0
-4377 4373 0
4377 4376 -4378 0
4378 -4376 0
-4377 4378 0
4379 -90 -4309 0
90 -4379 0
4309 -4379 0
-4185 -4380 -4379 0
4185 4379 -4380 0
4380 4185 -4379 0
-4185 4380 4379 0
-4380 -4381 -4378 0
4380 4378 -4381 0
4380 4381 -4378 0
-4380 4378 4381 0
4382 -4380 -4378 0
4380 -4382 0
-4382 4378 0
-4185 4383 -4379 0
4185 -4383 0
4379 -4383 0
4382 4383 -4384 0
4384 -4382 0
4384 -4383 0
-98 4385 -4309 0
98 -4385 0
4309 -4385 0
-4386 -4191 -4385 0
-4386 4385 4191 0
4386 4191 -4385 0
4385 -4191 4386 0
-4386 -4387 -4384 0
4384 4386 -4387 0
4386 4387 -4384 0
-4386 4384 4387 0
-4386 4388 -4384 0
-4388 4386 0
4384 -4388 0
4389 -4191 -4385 0
-4389 4191 0
-4389 4385 0
4388 4389 -4390 0
4390 -4388 0
4390 -4389 0
-106 4391 -4309 0
106 -4391 0
4309 -4391 0
-4392 -4391 -4197 0
-4392 4197 4391 0
4197 -4391 4392 0
4392 -4197 4391 0
-4393 -4392 -4390 0
4390 4392 -4393 0
4392 4393 -4390 0
4390 -4392 4393 0
-4392 4394 -4390 0
4392 -4394 0
4390 -4394 0
4395 -4391 -4197 0
4197 -4395 0
4391 -4395 0
4395 -4396 4394 0
-4394 4396 0
4396 -4395 0
4397 -4309 -114 0
114 -4397 0
4309 -4397 0
-4397 -4398 -4203 0
4397 4203 -4398 0
4398 -4397 4203 0
4398 4397 -4203 0
-4399 -4396 -4398 0
-4399 4398 4396 0
4398 -4396 4399 0
4399 4396 -4398 0
4400 -4396 -4398 0
4398 -4400 0
-4400 4396 0
4401 -4397 -4203 0
4203 -4401 0
4397 -4401 0
4400 4401 -4402 0
4402 -4400 0
4402 -4401 0
-122 -4309 4403 0
122 -4403 0
4309 -4403 0
-4404 -4403 -4209 0
4209 -4404 4403 0
4209 -4403 4404 0
4403 4404 -4209 0
-4402 -4404 -4405 0
4402 4404 -4405 0
-4402 4404 4405 0
4402 -4404 4405 0
-4402 -4404 4406 0
-4406 4404 0
4402 -4406 0
-4403 4407 -4209 0
4209 -4407 0
-4407 4403 0
-4408 4406 4407 0
-4406 4408 0
4408 -4407 0
4409 -4309 -130 0
-4409 130 0
-4409 4309 0
-4409 -4410 -4215 0
-4410 4409 4215 0
-4409 4215 4410 0
4409 -4215 4410 0
-4410 -4408 -4411 0
4408 -4411 4410 0
4411 -4408 4410 0
4411 -4410 4408 0
-4410 -4408 4412 0
-4412 4410 0
4408 -4412 0
4413 -4409 -4215 0
-4413 4215 0
-4413 4409 0
4413 -4414 4412 0
4414 -4412 0
-4413 4414 0
4415 -138 -4309 0
-4415 138 0
4309 -4415 0
-4221 -4415 -4416 0
4415 -4416 4221 0
-4415 4221 4416 0
4415 -4221 4416 0
-4417 -4414 -4416 0
-4417 4414 4416 0
-4414 4417 4416 0
-4416 4417 4414 0
-4414 -4416 4418 0
4416 -4418 0
4414 -4418 0
4419 -4221 -4415 0
-4419 4221 0
-4419 4415 0
4419 4418 -4420 0
4420 -4418 0
-4419 4420 0
-4309 -146 4421 0
146 -4421 0
4309 -4421 0
-4422 -4421 -4227 0
4227 -4422 4421 0
4227 4422 -4421 0
4422 4421 -4227 0
-4423 -4422 -4420 0
4422 4420 -4423 0
4422 4423 -4420 0
4420 -4422 4423 0
4424 -4422 -4420 0
4422 -4424 0
-4424 4420 0
4425 -4421 -4227 0
4227 -4425 0
4421 -4425 0
4424 4425 -4426 0
-4424 4426 0
4426 -4425 0
4427 -4309 -154 0
-4427 154 0
-4427 4309 0
-4427 -4233 -4428 0
-4428 4427 4233 0
-4427 4233 4428 0
4427 -4233 4428 0
-4428 -4426 -4429 0
4426 -4429 4428 0
-4426 4428 4429 0
-4428 4426 4429 0
-4428 -4426 4430 0
-4430 4428 0
4426 -4430 0
-4427 -4233 4431 0
4233 -4431 0
4427 -4431 0
-4432 4430 4431 0
-4430 4432 0
-4431 4432 0
4433 -4309 -162 0
162 -4433 0
4309 -4433 0
-4434 -4239 -4433 0
4239 -4434 4433 0
4239 4434 -4433 0
4433 -4239 4434 0
-4434 -4432 -4435 0
4434 4432 -4435 0
4435 -4432 4434 0
-4434 4432 4435 0
-4434 -4432 4436 0
4434 -4436 0
-4436 4432 0
4437 -4239 -4433 0
4239 -4437 0
4433 -4437 0
4436 -4438 4437 0
4438 -4436 0
-4437 4438 0
4439 -170 -4309 0
170 -4439 0
4309 -4439 0
-4245 -4439 -4440 0
4245 4439 -4440 0
4440 4245 -4439 0
4440 -4245 4439 0
-4438 -4440 -4441 0
4440 4438 -4441 0
4440 -4438 4441 0
4441 4438 -4440 0
-4438 -4440 4442 0
4440 -4442 0
-4442 4438 0
-4245 -4439 4443 0
4245 -4443 0
4439 -4443 0
-4444 4443 4442 0
-4442 4444 0
4444 -4443 0
4445 -4309 -178 0
-4445 178 0
4309 -4445 0
-4251 -4445 -4446 0
4445 4251 -4446 0
4446 4251 -4445 0
4446 4445 -4251 0
-4447 -4444 -4446 0
4446 4444 -4447 0
4446 -4444 4447 0
4447 4444 -4446 0
4448 -4444 -4446 0
4446 -4448 0
4444 -4448 0
-4251 -4445 4449 0
-4449 4251 0
4445 -4449 0
-4450 4448 4449 0
-4448 4450 0
-4449 4450 0
4451 -186 -4309 0
186 -4451 0
-4451 4309 0
-4452 -4451 -4257 0
4451 4257 -4452 0
4257 4452 -4451 0
4451 4452 -4257 0
-4452 -4453 -4450 0
-4453 4452 4450 0
-4450 4452 4453 0
-4452 4453 4450 0
-4452 -4450 4454 0
-4454 4452 0
-4454 4450 0
-4451 -4257 4455 0
4257 -4455 0
4451 -4455 0
4455 4454 -4456 0
-4454 4456 0
-4455 4456 0
-194 -4309 4457 0
194 -4457 0
4309 -4457 0
-4458 -4457 -4263 0
4263 -4458 4457 0
4263 4458 -4457 0
4458 -4263 4457 0
-4458 -4459 -4456 0
4458 -4459 4456 0
4458 4459 -4456 0
-4458 4459 4456 0
-4458 4460 -4456 0
-4460 4458 0
-4460 4456 0
-4457 -4263 4461 0
4263 -4461 0
-4461 4457 0
-4462 4461 4460 0
4462 -4460 0
4462 -4461 0
-202 -4309 4463 0
202 -4463 0
4309 -4463 0
-4269 -4463 -4464 0
4269 -4464 4463 0
4269 4464 -4463 0
-4269 4464 4463 0
-4464 -4462 -4465 0
4462 4464 -4465 0
-4462 4464 4465 0
4462 -4464 4465 0
-4464 -4462 4466 0
-4466 4464 0
4462 -4466 0
-4269 4467 -4463 0
4269 -4467 0
-4467 4463 0
-4468 4466 4467 0
-4466 4468 0
-4467 4468 0
4469 -210 -4309 0
-4469 210 0
-4469 4309 0
-4469 -4275 -4470 0
-4470 4469 4275 0
-4469 4275 4470 0
-4275 4469 4470 0
-4468 -4470 -4471 0
4468 -4471 4470 0
4471 -4468 4470 0
4471 -4470 4468 0
4472 -4468 -4470 0
4470 -4472 0
4468 -4472 0
-4469 -4275 4473 0
4275 -4473 0
4469 -4473 0
4472 -4474 4473 0
4474 -4472 0
4474 -4473 0
4475 -218 -4309 0
-4475 218 0
4309 -4475 0
-4475 -4281 -4476 0
4475 -4476 4281 0
4476 -4475 4281 0
4475 -4281 4476 0
-4474 -4476 -4477 0
4474 4476 -4477 0
-4474 4477 4476 0
4474 4477 -4476 0
-4474 -4476 4478 0
-4478 4476 0
4474 -4478 0
4479 -4475 -4281 0
-4479 4281 0
4475 -4479 0
-4480 4479 4478 0
4480 -4478 0
-4479 4480 0
4481 -226 -4309 0
226 -4481 0
4309 -4481 0
-4482 -4287 -4481 0
4481 -4482 4287 0
4482 -4481 4287 0
4481 -4287 4482 0
-4482 -4483 -4480 0
-4483 4480 4482 0
-4480 4482 4483 0
-4482 4480 4483 0
-4482 -4480 4484 0
4482 -4484 0
4480 -4484 0
4485 -4287 -4481 0
4287 -4485 0
4481 -4485 0
4484 -4486 4485 0
4486 -4484 0
4486 -4485 0
4487 -4309 -234 0
234 -4487 0
4309 -4487 0
-4293 -4487 -4488 0
4293 -4488 4487 0
4293 -4487 4488 0
-4293 4487 4488 0
-4489 -4488 -4486 0
-4489 4486 4488 0
4489 -4486 4488 0
4489 -4488 4486 0
4490 -4488 -4486 0
-4490 4488 0
-4490 4486 0
4491 -4293 -4487 0
-4491 4293 0
-4491 4487 0
4491 -4492 4490 0
-4490 4492 0
-4491 4492 0
4493 -242 -4309 0
-4493 242 0
-4493 4309 0
-4493 -4494 -4299 0
4299 4493 -4494 0
4299 4494 -4493 0
4493 4494 -4299 0
-4494 -4495 -4492 0
4494 -4495 4492 0
4494 4495 -4492 0
4495 -4494 4492 0
-4494 4496 -4492 0
4494 -4496 0
-4496 4492 0
-4493 4497 -4299 0
4299 -4497 0
4493 -4497 0
4497 4496 -4498 0
4498 -4496 0
4498 -4497 0
4499 -250 -4309 0
-4499 250 0
4309 -4499 0
-4305 -4499 -4500 0
4499 4305 -4500 0
4305 -4499 4500 0
-4305 4499 4500 0
-4501 -4500 -4498 0
4498 -4501 4500 0
4501 4500 -4498 0
4498 4501 -4500 0
-4500 4502 -4498 0
-4502 4500 0
4498 -4502 0
-4305 4503 -4499 0
4305 -4503 0
4499 -4503 0
4503 -4504 4502 0
-4502 4504 0
4504 -4503 0
4505 -258 -4309 0
258 -4505 0
4309 -4505 0
-4506 -4308 -4505 0
4505 -4506 4308 0
4506 -4505 4308 0
4505 -4308 4506 0
-4506 -4507 -4504 0
4504 4506 -4507 0
4507 -4504 4506 0
4504 -4506 4507 0
-4506 4508 -4504 0
4506 -4508 0
4504 -4508 0
4509 -4308 -4505 0
-4509 4308 0
4505 -4509 0
4509 -4510 4508 0
4510 -4508 0
-4509 4510 0
-4511 -1 4512 0
-4512 1 0
4511 -4512 0
-4512 -4315 -4513 0
-4513 4512 4315 0
-4512 4513 4315 0
4513 -4315 4512 0
-4512 -4315 4514 0
-4514 4315 0
4512 -4514 0
-4511 4515 -4 0
-4515 4 0
4511 -4515 0
-4515 -4321 -4516 0
-4516 4515 4321 0
-4515 4516 4321 0
-4321 4515 4516 0
-4516 -4517 -4514 0
4516 4514 -4517 0
4517 4516 -4514 0
-4516 4517 4514 0
-4516 4518 -4514 0
4516 -4518 0
4514 -4518 0
-4515 -4321 4519 0
4321 -4519 0
4515 -4519 0
-4520 4518 4519 0
4520 -4518 0
4520 -4519 0
-4511 -10 4521 0
-4521 10 0
4511 -4521 0
-4522 -4521 -4327 0
4327 -4522 4521 0
4327 -4521 4522 0
4522 -4327 4521 0
-4522 -4520 -4523 0
4522 4520 -4523 0
4522 -4520 4523 0
-4522 4520 4523 0
-4522 -4520 4524 0
-4524 4522 0
-4524 4520 0
-4521 -4327 4525 0
4327 -4525 0
-4525 4521 0
4524 -4526 4525 0
-4524 4526 0
4526 -4525 0
-4511 4527 -18 0
-4527 18 0
4511 -4527 0
-4527 -4528 -4333 0
4527 4333 -4528 0
-4527 4528 4333 0
4527 4528 -4333 0
-4529 -4526 -4528 0
-4529 4526 4528 0
4529 4528 -4526 0
4526 4529 -4528 0
4530 -4526 -4528 0
4528 -4530 0
4526 -4530 0
-4527 4531 -4333 0
-4531 4333 0
-4531 4527 0
4531 -4532 4530 0
4532 -4530 0
-4531 4532 0
-4511 4533 -26 0
-4533 26 0
4511 -4533 0
-4533 -4534 -4339 0
4339 -4534 4533 0
4534 -4533 4339 0
4534 -4339 4533 0
-4534 -4532 -4535 0
4532 4534 -4535 0
4534 4535 -4532 0
4532 4535 -4534 0
4536 -4534 -4532 0
4534 -4536 0
4532 -4536 0
4537 -4533 -4339 0
-4537 4339 0
-4537 4533 0
4536 4537 -4538 0
-4536 4538 0
-4537 4538 0
-34 -4511 4539 0
-4539 34 0
4511 -4539 0
-4345 -4539 -4540 0
4345 -4540 4539 0
-4539 4345 4540 0
-4345 4540 4539 0
-4541 -4538 -4540 0
-4541 4540 4538 0
4540 4541 -4538 0
4541 4538 -4540 0
4542 -4538 -4540 0
4540 -4542 0
4538 -4542 0
-4345 -4539 4543 0
-4543 4345 0
-4543 4539 0
-4544 4542 4543 0
4544 -4542 0
-4543 4544 0
-4511 4545 -42 0
42 -4545 0
4511 -4545 0
-4351 -4546 -4545 0
4351 4545 -4546 0
4351 4546 -4545 0
-4351 4546 4545 0
-4547 -4546 -4544 0
-4547 4546 4544 0
4547 4546 -4544 0
4547 -4546 4544 0
4548 -4546 -4544 0
-4548 4546 0
-4548 4544 0
-4351 -4545 4549 0
4351 -4549 0
-4549 4545 0
-4550 4548 4549 0
4550 -4548 0
4550 -4549 0
-50 -4511 4551 0
50 -4551 0
4511 -4551 0
-4551 -4357 -4552 0
4357 4551 -4552 0
4357 -4551 4552 0
4551 4552 -4357 0
-4550 -4553 -4552 0
4552 4550 -4553 0
4553 4552 -4550 0
4553 4550 -4552 0
-4550 -4552 4554 0
4552 -4554 0
4550 -4554 0
-4551 -4357 4555 0
-4555 4357 0
-4555 4551 0
-4556 4554 4555 0
4556 -4554 0
-4555 4556 0
4557 -4511 -58 0
-4557 58 0
4511 -4557 0
-4557 -4558 -4363 0
4557 -4558 4363 0
-4557 4558 4363 0
4557 4558 -4363 0
-4556 -4558 -4559 0
4556 4558 -4559 0
4559 -4556 4558 0
4556 4559 -4558 0
-4556 -4558 4560 0
4558 -4560 0
4556 -4560 0
-4557 4561 -4363 0
-4561 4363 0
4557 -4561 0
4560 4561 -4562 0
4562 -4560 0
-4561 4562 0
4563 -4511 -66 0
66 -4563 0
4511 -4563 0
-4564 -4369 -4563 0
4563 -4564 4369 0
4564 4369 -4563 0
4563 4564 -4369 0
-4565 -4564 -4562 0
-4565 4564 4562 0
4565 4564 -4562 0
4565 -4564 4562 0
-4564 -4562 4566 0
4564 -4566 0
4562 -4566 0
4567 -4369 -4563 0
-4567 4369 0
4563 -4567 0
4567 -4568 4566 0
4568 -4566 0
4568 -4567 0
-4511 4569 -74 0
-4569 74 0
4511 -4569 0
-4375 -4570 -4569 0
4569 4375 -4570 0
4570 -4569 4375 0
-4375 4569 4570 0
-4570 -4568 -4571 0
4568 4570 -4571 0
4571 -4568 4570 0
4568 -4570 4571 0
-4570 -4568 4572 0
-4572 4570 0
4568 -4572 0
-4375 4573 -4569 0
-4573 4375 0
4569 -4573 0
-4574 4573 4572 0
4574 -4572 0
4574 -4573 0
-82 -4511 4575 0
-4575 82 0
4511 -4575 0
-4576 -4575 -4381 0
-4576 4381 4575 0
-4575 4381 4576 0
4576 -4381 4575 0
-4576 -4574 -4577 0
4574 4576 -4577 0
-4574 4577 4576 0
-4576 4577 4574 0
-4576 4578 -4574 0
4576 -4578 0
4574 -4578 0
-4575 4579 -4381 0
4381 -4579 0
-4579 4575 0
4578 4579 -4580 0
4580 -4578 0
4580 -4579 0
4581 -4511 -90 0
90 -4581 0
4511 -4581 0
-4581 -4387 -4582 0
4581 -4582 4387 0
4582 -4581 4387 0
4581 4582 -4387 0
-4582 -4580 -4583 0
4582 4580 -4583 0
4583 4582 -4580 0
4583 -4582 4580 0
-4582 -4580 4584 0
4582 -4584 0
-4584 4580 0
-4581 -4387 4585 0
-4585 4387 0
4581 -4585 0
-4586 4585 4584 0
-4584 4586 0
-4585 4586 0
-98 -4511 4587 0
98 -4587 0
4511 -4587 0
-4393 -4588 -4587 0
-4588 4587 4393 0
4393 4588 -4587 0
-4393 4587 4588 0
-4588 -4586 -4589 0
4586 4588 -4589 0
4589 -4586 4588 0
-4588 4589 4586 0
-4588 4590 -4586 0
-4590 4588 0
-4590 4586 0
-4393 4591 -4587 0
-4591 4393 0
-4591 4587 0
4591 4590 -4592 0
-4590 4592 0
-4591 4592 0
-106 -4511 4593 0
106 -4593 0
4511 -4593 0
-4399 -4593 -4594 0
4593 4399 -4594 0
4594 4399 -4593 0
-4399 4593 4594 0
-4595 -4592 -4594 0
4594 4592 -4595 0
4595 4594 -4592 0
4595 4592 -4594 0
-4592 4596 -4594 0
4594 -4596 0
4592 -4596 0
-4399 4597 -4593 0
4399 -4597 0
4593 -4597 0
-4598 4597 4596 0
4598 -4596 0
4598 -4597 0
-4511 4599 -114 0
114 -4599 0
4511 -4599 0
-4599 -4600 -4405 0
4599 4405 -4600 0
-4599 4405 4600 0
4599 4600 -4405 0
-4598 -4601 -4600 0
4598 4600 -4601 0
-4598 4601 4600 0
4601 4598 -4600 0
-4598 -4600 4602 0
4600 -4602 0
4598 -4602 0
4603 -4599 -4405 0
-4603 4405 0
4599 -4603 0
4603 -4604 4602 0
4604 -4602 0
4604 -4603 0
-4511 -122 4605 0
122 -4605 0
4511 -4605 0
-4606 -4605 -4411 0
4411 -4606 4605 0
4411 -4605 4606 0
4606 4605 -4411 0
-4606 -4604 -4607 0
4606 -4607 4604 0
4606 -4604 4607 0
-4606 4604 4607 0
-4606 -4604 4608 0
4606 -4608 0
4604 -4608 0
4609 -4605 -4411 0
4411 -4609 0
-4609 4605 0
4609 4608 -4610 0
-4608 4610 0
-4609 4610 0
-4511 4611 -130 0
130 -4611 0
4511 -4611 0
-4417 -4612 -4611 0
-4612 4417 4611 0
4417 -4611 4612 0
-4417 4611 4612 0
-4613 -4610 -4612 0
-4613 4610 4612 0
4613 -4610 4612 0
4613 4610 -4612 0
4614 -4610 -4612 0
-4614 4612 0
4610 -4614 0
-4417 4615 -4611 0
-4615 4417 0
-4615 4611 0
-4616 4615 4614 0
4616 -4614 0
4616 -4615 0
4617 -4511 -138 0
-4617 138 0
4511 -4617 0
-4423 -4618 -4617 0
4617 -4618 4423 0
4618 -4617 4423 0
-4423 4617 4618 0
-4616 -4618 -4619 0
4616 -4619 4618 0
-4616 4619 4618 0
4619 4616 -4618 0
-4616 -4618 4620 0
-4620 4618 0
4616 -4620 0
-4423 4621 -4617 0
-4621 4423 0
4617 -4621 0
4621 -4622 4620 0
4622 -4620 0
4622 -4621 0
-4511 4623 -146 0
146 -4623 0
4511 -4623 0
-4624 -4623 -4429 0
4429 4623 -4624 0
4429 -4623 4624 0
4623 -4429 4624 0
-4624 -4625 -4622 0
4622 4624 -4625 0
4625 4624 -4622 0
-4624 4622 4625 0
-4624 4626 -4622 0
-4626 4624 0
-4626 4622 0
-4623 -4429 4627 0
4429 -4627 0
4623 -4627 0
4626 -4628 4627 0
4628 -4626 0
4628 -4627 0
4629 -4511 -154 0
-4629 154 0
4511 -4629 0
-4629 -4630 -4435 0
4629 4435 -4630 0
4435 -4629 4630 0
4629 4630 -4435 0
-4631 -4630 -4628 0
4628 -4631 4630 0
4631 4630 -4628 0
4628 4631 -4630 0
4632 -4630 -4628 0
4630 -4632 0
4628 -4632 0
4633 -4629 -4435 0
4435 -4633 0
4629 -4633 0
4633 4632 -4634 0
4634 -4632 0
4634 -4633 0
-4511 4635 -162 0
162 -4635 0
4511 -4635 0
-4441 -4636 -4635 0
4441 -4636 4635 0
4441 -4635 4636 0
-4441 4635 4636 0
-4637 -4636 -4634 0
-4637 4634 4636 0
4637 -4634 4636 0
4637 4634 -4636 0
4638 -4636 -4634 0
-4638 4636 0
4634 -4638 0
-4441 -4635 4639 0
4441 -4639 0
-4639 4635 0
4638 -4640 4639 0
4640 -4638 0
-4639 4640 0
-4511 -170 4641 0
170 -4641 0
4511 -4641 0
-4447 -4641 -4642 0
4447 4641 -4642 0
4447 -4641 4642 0
-4447 4642 4641 0
-4643 -4640 -4642 0
-4643 4640 4642 0
4643 -4640 4642 0
4643 4640 -4642 0
4644 -4640 -4642 0
4642 -4644 0
4640 -4644 0
-4447 -4641 4645 0
4447 -4645 0
-4645 4641 0
4644 -4646 4645 0
4646 -4644 0
4646 -4645 0
-4511 4647 -178 0
-4647 178 0
4511 -4647 0
-4647 -4453 -4648 0
-4648 4647 4453 0
-4647 4648 4453 0
-4453 4648 4647 0
-4646 -4648 -4649 0
4646 4648 -4649 0
-4646 4649 4648 0
4646 4649 -4648 0
-4646 -4648 4650 0
-4650 4648 0
4646 -4650 0
-4647 -4453 4651 0
-4651 4453 0
-4651 4647 0
4651 -4652 4650 0
-4650 4652 0
-4651 4652 0
-4511 -186 4653 0
186 -4653 0
4511 -4653 0
-4654 -4459 -4653 0
-4654 4653 4459 0
4654 -4653 4459 0
4654 -4459 4653 0
-4654 -4652 -4655 0
4654 -4655 4652 0
4654 -4652 4655 0
-4654 4655 4652 0
-4654 -4652 4656 0
4654 -4656 0
4652 -4656 0
4657 -4459 -4653 0
-4657 4459 0
-4657 4653 0
4657 -4658 4656 0
4658 -4656 0
4658 -4657 0
-194 -4511 4659 0
194 -4659 0
4511 -4659 0
-4660 -4465 -4659 0
-4660 4465 4659 0
4660 4465 -4659 0
4659 -4465 4660 0
-4660 -4658 -4661 0
4658 -4661 4660 0
4661 -4658 4660 0
-4660 4661 4658 0
-4660 -4658 4662 0
-4662 4660 0
-4662 4658 0
-4465 4663 -4659 0
4465 -4663 0
4659 -4663 0
4663 4662 -4664 0
-4662 4664 0
4664 -4663 0
-4511 4665 -202 0
-4665 202 0
4511 -4665 0
-4666 -4665 -4471 0
-4666 4471 4665 0
4471 -4665 4666 0
4666 4665 -4471 0
-4666 -4667 -4664 0
4664 4666 -4667 0
4666 4667 -4664 0
-4666 4664 4667 0
-4666 4668 -4664 0
-4668 4666 0
4664 -4668 0
4669 -4665 -4471 0
-4669 4471 0
-4669 4665 0
4668 4669 -4670 0
4670 -4668 0
-4669 4670 0
-4511 -210 4671 0
-4671 210 0
4511 -4671 0
-4672 -4671 -4477 0
-4672 4671 4477 0
4672 -4671 4477 0
4672 4671 -4477 0
-4670 -4672 -4673 0
4670 4672 -4673 0
-4670 4672 4673 0
4670 -4672 4673 0
-4670 -4672 4674 0
4672 -4674 0
4670 -4674 0
4675 -4671 -4477 0
-4675 4477 0
4671 -4675 0
4675 4674 -4676 0
-4674 4676 0
-4675 4676 0
-4511 -218 4677 0
-4677 218 0
4511 -4677 0
-4678 -4483 -4677 0
-4678 4677 4483 0
-4677 4678 4483 0
-4483 4677 4678 0
-4678 -4679 -4676 0
4676 -4679 4678 0
4679 4678 -4676 0
-4678 4676 4679 0
-4678 4680 -4676 0
-4680 4678 0
-4680 4676 0
4681 -4483 -4677 0
-4681 4483 0
-4681 4677 0
4681 4680 -4682 0
-4680 4682 0
-4681 4682 0
-226 4683 -4511 0
-4683 226 0
4511 -4683 0
-4683 -4489 -4684 0
4489 -4684 4683 0
-4683 4489 4684 0
-4489 4683 4684 0
-4685 -4684 -4682 0
4682 -4685 4684 0
4685 -4682 4684 0
4685 -4684 4682 0
4686 -4684 -4682 0
-4686 4684 0
-4686 4682 0
-4683 -4489 4687 0
4489 -4687 0
4683 -4687 0
-4688 4687 4686 0
4688 -4686 0
4688 -4687 0
-4511 4689 -234 0
-4689 234 0
4511 -4689 0
-4689 -4495 -4690 0
4495 -4690 4689 0
-4689 4495 4690 0
-4495 4690 4689 0
-4688 -4691 -4690 0
-4691 4688 4690 0
-4688 4690 4691 0
4688 4691 -4690 0
-4688 4692 -4690 0
4690 -4692 0
4688 -4692 0
-4689 -4495 4693 0
-4693 4495 0
-4693 4689 0
4692 -4694 4693 0
4694 -4692 0
4694 -4693 0
4695 -4511 -242 0
-4695 242 0
4511 -4695 0
-4501 -4695 -4696 0
4501 4695 -4696 0
4501 -4695 4696 0
-4501 4695 4696 0
-4694 -4697 -4696 0
4694 4696 -4697 0
-4694 4697 4696 0
4694 4697 -4696 0
4698 -4694 -4696 0
4696 -4698 0
4694 -4698 0
-4501 -4695 4699 0
4501 -4699 0
4695 -4699 0
4698 -4700 4699 0
4700 -4698 0
4700 -4699 0
-4511 -250 4701 0
250 -4701 0
4511 -4701 0
-4701 -4507 -4702 0
-4702 4507 4701 0
4507 4702 -4701 0
4702 -4507 4701 0
-4702 -4703 -4700 0
-4703 4702 4700 0
4702 4703 -4700 0
-4702 4703 4700 0
-4702 4704 -4700 0
-4704 4702 0
-4704 4700 0
-4701 4705 -4507 0
4507 -4705 0
-4705 4701 0
4704 -4706 4705 0
-4704 4706 0
-4705 4706 0
4707 -4511 -258 0
-4707 258 0
4511 -4707 0
-4707 -4510 -4708 0
4707 4510 -4708 0
-4707 4510 4708 0
4707 -4510 4708 0
-4706 -4709 -4708 0
4706 -4709 4708 0
4709 -4706 4708 0
4706 -4708 4709 0
-4706 4710 -4708 0
-4710 4708 0
4706 -4710 0
-4707 -4510 4711 0
-4711 4510 0
4707 -4711 0
-4712 4710 4711 0
4712 -4710 0
-4711 4712 0
4714 -1 -4713 0
-4714 1 0
4713 -4714 0
-4714 -4715 -4517 0
-4715 4517 4714 0
-4714 4517 4715 0
4714 4715 -4517 0
4716 -4714 -4517 0
4517 -4716 0
-4716 4714 0
4717 -4 -4713 0
-4717 4 0
4713 -4717 0
-4718 -4717 -4523 0
-4718 4717 4523 0
4718 -4717 4523 0
4718 4717 -4523 0
-4718 -4719 -4716 0
4718 4716 -4719 0
4718 4719 -4716 0
-4718 4716 4719 0
-4718 4720 -4716 0
4718 -4720 0
4716 -4720 0
-4717 4721 -4523 0
-4721 4523 0
4717 -4721 0
4721 4720 -4722 0
4722 -4720 0
4722 -4721 0
4723 -4713 -10 0
-4723 10 0
-4723 4713 0
-4723 -4529 -4724 0
4723 4529 -4724 0
-4723 4724 4529 0
4723 -4529 4724 0
-4725 -4724 -4722 0
4724 -4725 4722 0
4724 -4722 4725 0
-4724 4722 4725 0
4726 -4724 -4722 0
-4726 4724 0
-4726 4722 0
-4723 -4529 4727 0
4529 -4727 0
4723 -4727 0
4727 4726 -4728 0
-4726 4728 0
4728 -4727 0
-4713 4729 -18 0
-4729 18 0
-4729 4713 0
-4729 -4730 -4535 0
-4730 4535 4729 0
-4729 4535 4730 0
4729 4730 -4535 0
-4730 -4731 -4728 0
-4731 4730 4728 0
4731 4730 -4728 0
-4730 4731 4728 0
4732 -4730 -4728 0
4730 -4732 0
-4732 4728 0
-4729 4733 -4535 0
-4733 4535 0
-4733 4729 0
4732 -4734 4733 0
4734 -4732 0
-4733 4734 0
-4713 4735 -26 0
-4735 26 0
4713 -4735 0
-4541 -4736 -4735 0
-4736 4541 4735 0
-4735 4541 4736 0
-4541 4736 4735 0
-4736 -4734 -4737 0
4734 4736 -4737 0
4737 -4734 4736 0
4737 -4736 4734 0
4738 -4736 -4734 0
4736 -4738 0
4734 -4738 0
-4541 -4735 4739 0
4541 -4739 0
-4739 4735 0
-4740 4738 4739 0
-4738 4740 0
-4739 4740 0
-34 4741 -4713 0
-4741 34 0
-4741 4713 0
-4741 -4742 -4547 0
-4742 4741 4547 0
-4741 4742 4547 0
-4547 4742 4741 0
-4742 -4740 -4743 0
-4743 4742 4740 0
-4740 4742 4743 0
4743 -4742 4740 0
-4742 4744 -4740 0
-4744 4742 0
-4744 4740 0
-4741 -4547 4745 0
-4745 4547 0
4741 -4745 0
4744 4745 -4746 0
-4744 4746 0
4746 -4745 0
-4713 4747 -42 0
42 -4747 0
4713 -4747 0
-4747 -4748 -4553 0
4553 -4748 4747 0
4553 4748 -4747 0
4748 -4553 4747 0
-4749 -4748 -4746 0
4748 -4749 4746 0
4749 4748 -4746 0
4749 4746 -4748 0
4750 -4748 -4746 0
4748 -4750 0
4746 -4750 0
-4747 4751 -4553 0
4553 -4751 0
-4751 4747 0
4750 4751 -4752 0
-4750 4752 0
-4751 4752 0
-50 -4713 4753 0
50 -4753 0
4713 -4753 0
-4754 -4753 -4559 0
4559 -4754 4753 0
4559 4754 -4753 0
4754 -4559 4753 0
-4754 -4752 -4755 0
4754 4752 -4755 0
4755 4754 -4752 0
4755 -4754 4752 0
-4754 4756 -4752 0
4754 -4756 0
-4756 4752 0
4757 -4753 -4559 0
4559 -4757 0
-4757 4753 0
-4758 4757 4756 0
4758 -4756 0
-4757 4758 0
-4713 4759 -58 0
-4759 58 0
4713 -4759 0
-4760 -4565 -4759 0
4565 -4760 4759 0
4565 4760 -4759 0
4760 -4565 4759 0
-4758 -4760 -4761 0
4758 4760 -4761 0
4760 -4758 4761 0
4758 4761 -4760 0
4762 -4758 -4760 0
4760 -4762 0
4758 -4762 0
-4565 -4759 4763 0
4565 -4763 0
4759 -4763 0
4762 -4764 4763 0
4764 -4762 0
4764 -4763 0
4765 -4713 -66 0
66 -4765 0
4713 -4765 0
-4765 -4766 -4571 0
-4766 4765 4571 0
-4765 4571 4766 0
4765 4766 -4571 0
-4764 -4767 -4766 0
4764 -4767 4766 0
-4764 4767 4766 0
4764 4767 -4766 0
4768 -4764 -4766 0
-4768 4766 0
4764 -4768 0
4769 -4765 -4571 0
-4769 4571 0
4765 -4769 0
4769 4768 -4770 0
-4768 4770 0
-4769 4770 0
4771 -4713 -74 0
-4771 74 0
-4771 4713 0
-4771 -4772 -4577 0
-4772 4577 4771 0
-4771 4577 4772 0
4771 4772 -4577 0
-4772 -4773 -4770 0
-4773 4772 4770 0
-4770 4773 4772 0
-4772 4773 4770 0
-4772 -4770 4774 0
4772 -4774 0
4770 -4774 0
-4771 4775 -4577 0
-4775 4577 0
-4775 4771 0
4775 -4776 4774 0
4776 -4774 0
4776 -4775 0
-82 -4713 4777 0
-4777 82 0
4713 -4777 0
-4777 -4778 -4583 0
4583 4777 -4778 0
4583 4778 -4777 0
4778 4777 -4583 0
-4779 -4778 -4776 0
4776 -4779 4778 0
4779 4778 -4776 0
4776 4779 -4778 0
4780 -4778 -4776 0
-4780 4778 0
4776 -4780 0
-4777 4781 -4583 0
4583 -4781 0
-4781 4777 0
4780 -4782 4781 0
-4780 4782 0
-4781 4782 0
-90 4783 -4713 0
-4783 90 0
-4783 4713 0
-4783 -4784 -4589 0
4589 4783 -4784 0
-4783 4589 4784 0
4783 -4589 4784 0
-4785 -4784 -4782 0
-4785 4782 4784 0
4785 4784 -4782 0
-4784 4785 4782 0
-4784 4786 -4782 0
4784 -4786 0
4782 -4786 0
-4783 -4589 4787 0
4589 -4787 0
4783 -4787 0
-4788 4786 4787 0
4788 -4786 0
4788 -4787 0
-98 -4713 4789 0
-4789 98 0
4713 -4789 0
-4790 -4789 -4595 0
-4790 4595 4789 0
4595 -4789 4790 0
-4595 4789 4790 0
-4790 -4788 -4791 0
4788 -4791 4790 0
-4788 4791 4790 0
-4790 4788 4791 0
-4790 -4788 4792 0
-4792 4790 0
-4792 4788 0
4793 -4789 -4595 0
4595 -4793 0
-4793 4789 0
4792 -4794 4793 0
-4792 4794 0
4794 -4793 0
-106 4795 -4713 0
106 -4795 0
4713 -4795 0
-4796 -4795 -4601 0
4795 4601 -4796 0
4601 4796 -4795 0
4795 4796 -4601 0
-4796 -4797 -4794 0
4794 -4797 4796 0
4797 -4794 4796 0
4797 4794 -4796 0
4798 -4796 -4794 0
-4798 4796 0
-4798 4794 0
-4795 -4601 4799 0
-4799 4601 0
4795 -4799 0
4798 4799 -4800 0
-4798 4800 0
-4799 4800 0
4801 -4713 -114 0
114 -4801 0
4713 -4801 0
-4802 -4607 -4801 0
-4802 4801 4607 0
4802 4607 -4801 0
-4607 4802 4801 0
-4802 -4800 -4803 0
4802 -4803 4800 0
4802 -4800 4803 0
-4802 4803 4800 0
-4802 -4800 4804 0
-4804 4802 0
-4804 4800 0
-4607 -4801 4805 0
4607 -4805 0
4801 -4805 0
-4806 4804 4805 0
-4804 4806 0
4806 -4805 0
-122 -4713 4807 0
122 -4807 0
4713 -4807 0
-4807 -4808 -4613 0
4613 -4808 4807 0
-4807 4613 4808 0
4808 -4613 4807 0
-4806 -4809 -4808 0
-4809 4806 4808 0
-4806 4808 4809 0
-4808 4809 4806 0
-4806 -4808 4810 0
-4810 4808 0
-4810 4806 0
-4807 4811 -4613 0
4613 -4811 0
-4811 4807 0
-4812 4811 4810 0
-4810 4812 0
-4811 4812 0
4813 -4713 -130 0
130 -4813 0
4713 -4813 0
-4813 -4619 -4814 0
4619 -4814 4813 0
-4813 4619 4814 0
-4619 4814 4813 0
-4815 -4814 -4812 0
-4815 4812 4814 0
4815 -4812 4814 0
4815 -4814 4812 0
-4814 -4812 4816 0
-4816 4814 0
-4816 4812 0
-4813 -4619 4817 0
-4817 4619 0
-4817 4813 0
-4818 4816 4817 0
-4816 4818 0
-4817 4818 0
4819 -138 -4713 0
-4819 138 0
4713 -4819 0
-4820 -4819 -4625 0
4819 4625 -4820 0
-4819 4820 4625 0
4819 4820 -4625 0
-4820 -4818 -4821 0
4820 -4821 4818 0
4821 4820 -4818 0
-4820 4821 4818 0
-4820 4822 -4818 0
4820 -4822 0
-4822 4818 0
4823 -4819 -4625 0
-4823 4625 0
4819 -4823 0
4823 4822 -4824 0
4824 -4822 0
4824 -4823 0
-4713 4825 -146 0
146 -4825 0
4713 -4825 0
-4826 -4631 -4825 0
-4826 4631 4825 0
4631 4826 -4825 0
-4631 4826 4825 0
-4826 -4824 -4827 0
4824 4826 -4827 0
-4824 4826 4827 0
-4826 4824 4827 0
-4826 -4824 4828 0
4826 -4828 0
4824 -4828 0
-4631 4829 -4825 0
4631 -4829 0
-4829 4825 0
4829 4828 -4830 0
4830 -4828 0
4830 -4829 0
-4713 4831 -154 0
-4831 154 0
4713 -4831 0
-4637 -4831 -4832 0
4637 4831 -4832 0
4637 -4831 4832 0
-4637 4832 4831 0
-4833 -4830 -4832 0
-4833 4830 4832 0
4833 4832 -4830 0
4833 4830 -4832 0
4834 -4830 -4832 0
4832 -4834 0
4830 -4834 0
-4637 -4831 4835 0
4637 -4835 0
4831 -4835 0
4834 4835 -4836 0
4836 -4834 0
4836 -4835 0
4837 -4713 -162 0
162 -4837 0
4713 -4837 0
-4643 -4837 -4838 0
4837 4643 -4838 0
4643 -4837 4838 0
-4643 4837 4838 0
-4839 -4838 -4836 0
4836 -4839 4838 0
4839 -4836 4838 0
4839 4836 -4838 0
4840 -4838 -4836 0
4838 -4840 0
4836 -4840 0
-4643 4841 -4837 0
4643 -4841 0
4837 -4841 0
4841 4840 -4842 0
4842 -4840 0
4842 -4841 0
4843 -4713 -170 0
170 -4843 0
4713 -4843 0
-4843 -4844 -4649 0
4843 4649 -4844 0
4649 -4843 4844 0
4843 4844 -4649 0
-4845 -4844 -4842 0
-4845 4842 4844 0
4845 4844 -4842 0
4842 4845 -4844 0
4846 -4844 -4842 0
-4846 4844 0
-4846 4842 0
4847 -4843 -4649 0
4649 -4847 0
4843 -4847 0
4847 4846 -4848 0
-4846 4848 0
-4847 4848 0
4849 -4713 -178 0
-4849 178 0
-4849 4713 0
-4849 -4655 -4850 0
4655 -4850 4849 0
-4849 4850 4655 0
4850 -4655 4849 0
-4851 -4848 -4850 0
4850 -4851 4848 0
4851 4850 -4848 0
4851 4848 -4850 0
4852 -4848 -4850 0
4850 -4852 0
-4852 4848 0
-4849 -4655 4853 0
4655 -4853 0
-4853 4849 0
-4854 4852 4853 0
-4852 4854 0
-4853 4854 0
-186 -4713 4855 0
186 -4855 0
4713 -4855 0
-4661 -4855 -4856 0
4661 4855 -4856 0
4661 -4855 4856 0
-4661 4855 4856 0
-4857 -4854 -4856 0
-4857 4854 4856 0
4857 4856 -4854 0
4857 4854 -4856 0
-4854 4858 -4856 0
-4858 4856 0
-4858 4854 0
-4661 4859 -4855 0
4661 -4859 0
4855 -4859 0
-4860 4858 4859 0
4860 -4858 0
4860 -4859 0
-194 4861 -4713 0
194 -4861 0
4713 -4861 0
-4667 -4862 -4861 0
4861 4667 -4862 0
4862 4667 -4861 0
-4667 4861 4862 0
-4860 -4863 -4862 0
4860 4862 -4863 0
-4860 4862 4863 0
4860 4863 -4862 0
-4860 4864 -4862 0
-4864 4862 0
4860 -4864 0
4865 -4667 -4861 0
4667 -4865 0
4861 -4865 0
4865 4864 -4866 0
-4864 4866 0
4866 -4865 0
4867 -202 -4713 0
-4867 202 0
4713 -4867 0
-4868 -4867 -4673 0
-4868 4867 4673 0
-4867 4673 4868 0
4867 -4673 4868 0
-4868 -4866 -4869 0
4866 -4869 4868 0
-4866 4869 4868 0
-4868 4866 4869 0
-4868 -4866 4870 0
-4870 4868 0
4866 -4870 0
4871 -4867 -4673 0
-4871 4673 0
-4871 4867 0
4871 4870 -4872 0
4872 -4870 0
-4871 4872 0
-210 -4713 4873 0
-4873 210 0
4713 -4873 0
-4873 -4874 -4679 0
4679 -4874 4873 0
4874 4679 -4873 0
4873 4874 -4679 0
-4874 -4875 -4872 0
4872 -4875 4874 0
4875 4874 -4872 0
4872 -4874 4875 0
4876 -4874 -4872 0
4874 -4876 0
4872 -4876 0
-4873 4877 -4679 0
4679 -4877 0
4873 -4877 0
4876 4877 -4878 0
4878 -4876 0
4878 -4877 0
-218 -4713 4879 0
-4879 218 0
4713 -4879 0
-4685 -4879 -4880 0
4685 -4880 4879 0
4685 4880 -4879 0
-4685 4880 4879 0
-4878 -4881 -4880 0
-4881 4878 4880 0
-4878 4881 4880 0
4878 -4880 4881 0
-4878 4882 -4880 0
4880 -4882 0
4878 -4882 0
4883 -4685 -4879 0
4685 -4883 0
4879 -4883 0
4882 4883 -4884 0
4884 -4882 0
4884 -4883 0
-226 4885 -4713 0
-4885 226 0
-4885 4713 0
-4691 -4885 -4886 0
-4886 4885 4691 0
-4885 4886 4691 0
-4691 4885 4886 0
-4886 -4887 -4884 0
-4887 4886 4884 0
4887 4886 -4884 0
-4886 4887 4884 0
-4886 -4884 4888 0
4886 -4888 0
4884 -4888 0
-4691 -4885 4889 0
-4889 4691 0
-4889 4885 0
4889 -4890 4888 0
4890 -4888 0
-4889 4890 0
-4713 4891 -234 0
234 -4891 0
4713 -4891 0
-4892 -4891 -4697 0
4697 -4892 4891 0
4697 4892 -4891 0
4892 -4697 4891 0
-4890 -4892 -4893 0
4890 4892 -4893 0
-4890 4892 4893 0
4890 -4892 4893 0
-4890 -4892 4894 0
4892 -4894 0
4890 -4894 0
4895 -4891 -4697 0
4697 -4895 0
-4895 4891 0
4894 4895 -4896 0
4896 -4894 0
-4895 4896 0
4897 -242 -4713 0
-4897 242 0
-4897 4713 0
-4897 -4703 -4898 0
4897 4703 -4898 0
-4897 4703 4898 0
-4703 4897 4898 0
-4899 -4898 -4896 0
-4899 4898 4896 0
4899 4898 -4896 0
4899 -4898 4896 0
4900 -4898 -4896 0
4898 -4900 0
-4900 4896 0
-4897 -4703 4901 0
4703 -4901 0
4897 -4901 0
4900 -4902 4901 0
4902 -4900 0
4902 -4901 0
4903 -250 -4713 0
250 -4903 0
4713 -4903 0
-4904 -4709 -4903 0
-4904 4903 4709 0
4709 -4903 4904 0
4903 -4709 4904 0
-4905 -4904 -4902 0
4902 -4905 4904 0
-4902 4905 4904 0
4902 -4904 4905 0
4906 -4904 -4902 0
-4906 4904 0
4902 -4906 0
4907 -4709 -4903 0
-4907 4709 0
-4907 4903 0
4906 4907 -4908 0
4908 -4906 0
-4907 4908 0
4909 -4713 -258 0
258 -4909 0
4713 -4909 0
-4712 -4910 -4909 0
4909 -4910 4712 0
4712 4910 -4909 0
-4712 4909 4910 0
-4911 -4910 -4908 0
-4911 4908 4910 0
4911 4910 -4908 0
-4910 4911 4908 0
4912 -4910 -4908 0
-4912 4910 0
4908 -4912 0
-4712 4913 -4909 0
4712 -4913 0
4909 -4913 0
4912 -4914 4913 0
4914 -4912 0
4914 -4913 0
-1 -4915 4916 0
-4916 1 0
-4916 4915 0
-4719 -4916 -4917 0
4719 -4917 4916 0
4719 -4916 4917 0
4917 -4719 4916 0
-4719 -4916 4918 0
4719 -4918 0
-4918 4916 0
-4 -4915 4919 0
-4919 4 0
4915 -4919 0
-4725 -4920 -4919 0
4919 -4920 4725 0
4920 -4919 4725 0
4920 -4725 4919 0
-4921 -4918 -4920 0
4920 -4921 4918 0
4921 4920 -4918 0
4921 -4920 4918 0
4922 -4918 -4920 0
-4922 4920 0
-4922 4918 0
-4725 4923 -4919 0
-4923 4725 0
-4923 4919 0
-4924 4922 4923 0
-4922 4924 0
-4923 4924 0
4925 -10 -4915 0
10 -4925 0
-4925 4915 0
-4926 -4925 -4731 0
-4926 4925 4731 0
4926 -4925 4731 0
4926 -4731 4925 0
-4924 -4926 -4927 0
4926 -4927 4924 0
4926 -4924 4927 0
4927 -4926 4924 0
-4924 -4926 4928 0
4926 -4928 0
-4928 4924 0
-4925 -4731 4929 0
-4929 4731 0
-4929 4925 0
4929 -4930 4928 0
4930 -4928 0
4930 -4929 0
4931 -4915 -18 0
-4931 18 0
-4931 4915 0
-4931 -4932 -4737 0
4931 4737 -4932 0
-4931 4737 4932 0
4931 4932 -4737 0
-4933 -4930 -4932 0
4930 -4933 4932 0
4933 -4930 4932 0
4930 4933 -4932 0
4934 -4930 -4932 0
-4934 4932 0
4930 -4934 0
-4931 4935 -4737 0
4737 -4935 0
4931 -4935 0
-4936 4934 4935 0
4936 -4934 0
4936 -4935 0
4937 -4915 -26 0
-4937 26 0
-4937 4915 0
-4743 -4937 -4938 0
4937 -4938 4743 0
4938 -4937 4743 0
4937 -4743 4938 0
-4936 -4938 -4939 0
4936 -4939 4938 0
-4936 4939 4938 0
4936 -4938 4939 0
4940 -4936 -4938 0
-4940 4938 0
4936 -4940 0
-4743 -4937 4941 0
-4941 4743 0
4937 -4941 0
4940 -4942 4941 0
4942 -4940 0
4942 -4941 0
-34 4943 -4915 0
34 -4943 0
-4943 4915 0
-4749 -4943 -4944 0
4749 4943 -4944 0
4944 4749 -4943 0
4944 -4749 4943 0
-4942 -4945 -4944 0
4944 -4945 4942 0
4944 -4942 4945 0
4942 4945 -4944 0
-4942 -4944 4946 0
4944 -4946 0
-4946 4942 0
-4749 -4943 4947 0
4749 -4947 0
-4947 4943 0
-4948 4946 4947 0
-4946 4948 0
-4947 4948 0
4949 -4915 -42 0
42 -4949 0
-4949 4915 0
-4950 -4949 -4755 0
4755 -4950 4949 0
4755 4950 -4949 0
4950 4949 -4755 0
-4951 -4950 -4948 0
-4951 4950 4948 0
4951 4950 -4948 0
4951 4948 -4950 0
4952 -4950 -4948 0
4950 -4952 0
4948 -4952 0
4953 -4949 -4755 0
4755 -4953 0
-4953 4949 0
4952 4953 -4954 0
4954 -4952 0
-4953 4954 0
-50 4955 -4915 0
50 -4955 0
-4955 4915 0
-4956 -4955 -4761 0
4955 4761 -4956 0
4761 4956 -4955 0
4955 4956 -4761 0
-4956 -4954 -4957 0
4954 4956 -4957 0
4957 4956 -4954 0
-4956 4954 4957 0
-4956 4958 -4954 0
4956 -4958 0
4954 -4958 0
4959 -4955 -4761 0
4761 -4959 0
4955 -4959 0
4958 4959 -4960 0
4960 -4958 0
4960 -4959 0
-4915 -58 4961 0
-4961 58 0
-4961 4915 0
-4962 -4961 -4767 0
-4962 4767 4961 0
-4961 4962 4767 0
4962 -4767 4961 0
-4962 -4960 -4963 0
-4963 4962 4960 0
-4960 4962 4963 0
-4962 4960 4963 0
-4962 -4960 4964 0
-4964 4962 0
-4964 4960 0
-4961 4965 -4767 0
-4965 4767 0
-4965 4961 0
4965 4964 -4966 0
4966 -4964 0
-4965 4966 0
-66 -4915 4967 0
-4967 66 0
-4967 4915 0
-4967 -4773 -4968 0
4773 -4968 4967 0
-4967 4773 4968 0
-4773 4968 4967 0
-4969 -4966 -4968 0
4966 4968 -4969 0
4969 4968 -4966 0
4966 4969 -4968 0
-4966 4970 -4968 0
-4970 4968 0
4966 -4970 0
-4967 -4773 4971 0
4773 -4971 0
-4971 4967 0
4971 -4972 4970 0
-4970 4972 0
-4971 4972 0
4973 -4915 -74 0
-4973 74 0
-4973 4915 0
-4973 -4779 -4974 0
4973 4779 -4974 0
-4973 4779 4974 0
4974 4973 -4779 0
-4972 -4974 -4975 0
4974 -4975 4972 0
4974 4975 -4972 0
4975 -4974 4972 0
-4972 -4974 4976 0
4974 -4976 0
-4976 4972 0
-4973 -4779 4977 0
4779 -4977 0
4973 -4977 0
4977 4976 -4978 0
-4976 4978 0
-4977 4978 0
-82 4979 -4915 0
-4979 82 0
-4979 4915 0
-4785 -4979 -4980 0
4979 4785 -4980 0
-4979 4785 4980 0
-4785 4979 4980 0
-4978 -4981 -4980 0
-4981 4978 4980 0
-4978 4981 4980 0
4978 4981 -4980 0
-4978 4982 -4980 0
4980 -4982 0
4978 -4982 0
-4785 4983 -4979 0
-4983 4785 0
4979 -4983 0
4982 4983 -4984 0
4984 -4982 0
-4983 4984 0
-90 -4915 4985 0
90 -4985 0
-4985 4915 0
-4985 -4791 -4986 0
4985 4791 -4986 0
4791 -4985 4986 0
4985 -4791 4986 0
-4987 -4984 -4986 0
-4987 4986 4984 0
-4984 4987 4986 0
4984 4987 -4986 0
-4984 4988 -4986 0
4986 -4988 0
-4988 4984 0
4989 -4985 -4791 0
-4989 4791 0
-4989 4985 0
4989 4988 -4990 0
4990 -4988 0
-4989 4990 0
-98 4991 -4915 0
-4991 98 0
-4991 4915 0
-4992 -4991 -4797 0
-4992 4797 4991 0
4797 -4991 4992 0
4991 -4797 4992 0
-4992 -4993 -4990 0
4990 4992 -4993 0
4992 -4990 4993 0
-4992 4990 4993 0
-4992 4994 -4990 0
-4994 4992 0
4990 -4994 0
-4991 -4797 4995 0
4797 -4995 0
4991 -4995 0
-4996 4994 4995 0
-4994 4996 0
-4995 4996 0
-106 4997 -4915 0
-4997 106 0
-4997 4915 0
-4997 -4998 -4803 0
-4998 4997 4803 0
-4997 4998 4803 0
4997 4998 -4803 0
-4998 -4996 -4999 0
4998 -4999 4996 0
4998 -4996 4999 0
-4998 4999 4996 0
-4998 -4996 5000 0
4998 -5000 0
-5000 4996 0
-4997 5001 -4803 0
-5001 4803 0
-5001 4997 0
5001 -5002 5000 0
5002 -5000 0
-5001 5002 0
5003 -4915 -114 0
114 -5003 0
-5003 4915 0
-5004 -4809 -5003 0
-5004 5003 4809 0
5004 -5003 4809 0
-4809 5004 5003 0
-5004 -5005 -5002 0
-5005 5002 5004 0
5005 5004 -5002 0
-5004 5005 5002 0
-5004 5006 -5002 0
-5006 5004 0
-5006 5002 0
5007 -4809 -5003 0
-5007 4809 0
-5007 5003 0
5007 -5008 5006 0
-5006 5008 0
-5007 5008 0
-122 -4915 5009 0
122 -5009 0
-5009 4915 0
-5010 -4815 -5009 0
-5010 4815 5009 0
5010 -5009 4815 0
-4815 5010 5009 0
-5010 -5008 -5011 0
5010 -5011 5008 0
5011 5010 -5008 0
-5010 5011 5008 0
-5010 -5008 5012 0
-5012 5010 0
-5012 5008 0
5013 -4815 -5009 0
-5013 4815 0
-5013 5009 0
5013 5012 -5014 0
-5012 5014 0
5014 -5013 0
5015 -4915 -130 0
-5015 130 0
-5015 4915 0
-5015 -5016 -4821 0
5015 -5016 4821 0
-5015 4821 5016 0
5015 -4821 5016 0
-5017 -5016 -5014 0
-5017 5014 5016 0
5017 5016 -5014 0
5017 5014 -5016 0
-5016 5018 -5014 0
-5018 5016 0
5014 -5018 0
-5015 5019 -4821 0
-5019 4821 0
5015 -5019 0
5019 5018 -5020 0
5020 -5018 0
5020 -5019 0
-138 5021 -4915 0
-5021 138 0
-5021 4915 0
-5021 -5022 -4827 0
5021 -5022 4827 0
5022 -5021 4827 0
5022 5021 -4827 0
-5022 -5023 -5020 0
5022 5020 -5023 0
5022 5023 -5020 0
5020 5023 -5022 0
-5022 5024 -5020 0
5022 -5024 0
5020 -5024 0
5025 -5021 -4827 0
4827 -5025 0
5021 -5025 0
5025 -5026 5024 0
5026 -5024 0
5026 -5025 0
5027 -4915 -146 0
146 -5027 0
-5027 4915 0
-4833 -5028 -5027 0
-5028 4833 5027 0
4833 5028 -5027 0
-4833 5028 5027 0
-5026 -5029 -5028 0
5028 5026 -5029 0
-5026 5028 5029 0
5026 -5028 5029 0
-5026 -5028 5030 0
5028 -5030 0
5026 -5030 0
-4833 5031 -5027 0
-5031 4833 0
-5031 5027 0
5030 -5032 5031 0
5032 -5030 0
-5031 5032 0
-4915 -154 5033 0
-5033 154 0
-5033 4915 0
-5033 -5034 -4839 0
4839 -5034 5033 0
4839 -5033 5034 0
5034 -4839 5033 0
-5034 -5032 -5035 0
-5035 5032 5034 0
-5032 5035 5034 0
-5034 5035 5032 0
-5034 -5032 5036 0
-5036 5034 0
-5036 5032 0
-5033 5037 -4839 0
4839 -5037 0
-5037 5033 0
-5038 5037 5036 0
-5036 5038 0
-5037 5038 0
5039 -4915 -162 0
162 -5039 0
-5039 4915 0
-4845 -5039 -5040 0
-5040 5039 4845 0
-5039 5040 4845 0
-4845 5039 5040 0
-5040 -5038 -5041 0
-5041 5040 5038 0
5041 5040 -5038 0
-5040 5041 5038 0
-5040 5042 -5038 0
-5042 5040 0
-5042 5038 0
5043 -4845 -5039 0
-5043 4845 0
5039 -5043 0
5043 5042 -5044 0
-5042 5044 0
5044 -5043 0
5045 -170 -4915 0
170 -5045 0
-5045 4915 0
-5045 -4851 -5046 0
4851 5045 -5046 0
4851 -5045 5046 0
5045 -4851 5046 0
-5047 -5044 -5046 0
-5047 5044 5046 0
-5044 5047 5046 0
5047 5044 -5046 0
5048 -5044 -5046 0
-5048 5046 0
5044 -5048 0
-5045 5049 -4851 0
4851 -5049 0
5045 -5049 0
-5050 5049 5048 0
5050 -5048 0
5050 -5049 0
5051 -4915 -178 0
-5051 178 0
-5051 4915 0
-5051 -4857 -5052 0
4857 5051 -5052 0
4857 -5051 5052 0
5051 -4857 5052 0
-5050 -5053 -5052 0
5050 -5053 5052 0
-5050 5053 5052 0
5053 -5052 5050 0
-5050 5054 -5052 0
-5054 5052 0
-5054 5050 0
5055 -5051 -4857 0
4857 -5055 0
5051 -5055 0
5055 5054 -5056 0
-5054 5056 0
-5055 5056 0
5057 -186 -4915 0
186 -5057 0
-5057 4915 0
-4863 -5058 -5057 0
4863 5057 -5058 0
5058 4863 -5057 0
5058 -4863 5057 0
-5056 -5058 -5059 0
5058 -5059 5056 0
5058 5059 -5056 0
5059 -5058 5056 0
-5056 -5058 5060 0
5058 -5060 0
-5060 5056 0
5061 -4863 -5057 0
4863 -5061 0
-5061 5057 0
5061 -5062 5060 0
5062 -5060 0
5062 -5061 0
-194 -4915 5063 0
194 -5063 0
-5063 4915 0
-5064 -5063 -4869 0
-5064 4869 5063 0
-5063 5064 4869 0
5064 5063 -4869 0
-5064 -5065 -5062 0
5062 -5065 5064 0
5064 5065 -5062 0
-5064 5062 5065 0
-5064 5066 -5062 0
5064 -5066 0
5062 -5066 0
-5063 5067 -4869 0
-5067 4869 0
-5067 5063 0
-5068 5067 5066 0
5068 -5066 0
5068 -5067 0
-202 -4915 5069 0
-5069 202 0
-5069 4915 0
-5069 -4875 -5070 0
-5070 4875 5069 0
-5069 5070 4875 0
5070 -4875 5069 0
-5070 -5068 -5071 0
5068 -5071 5070 0
-5068 5070 5071 0
-5070 5068 5071 0
-5070 -5068 5072 0
-5072 5070 0
5068 -5072 0
-5069 5073 -4875 0
-5073 4875 0
-5073 5069 0
5073 -5074 5072 0
-5072 5074 0
5074 -5073 0
-210 -4915 5075 0
-5075 210 0
-5075 4915 0
-5076 -4881 -5075 0
-5076 4881 5075 0
4881 -5075 5076 0
-4881 5076 5075 0
-5076 -5074 -5077 0
5074 -5077 5076 0
5077 -5074 5076 0
5074 -5076 5077 0
-5076 -5074 5078 0
5076 -5078 0
5074 -5078 0
-4881 -5075 5079 0
4881 -5079 0
-5079 5075 0
-5080 5078 5079 0
5080 -5078 0
5080 -5079 0
-218 5081 -4915 0
-5081 218 0
-5081 4915 0
-5081 -4887 -5082 0
-5082 4887 5081 0
-5081 4887 5082 0
-4887 5081 5082 0
-5082 -5080 -5083 0
-5083 5080 5082 0
5083 -5080 5082 0
-5082 5083 5080 0
-5082 -5080 5084 0
-5084 5082 0
-5084 5080 0
-5081 -4887 5085 0
4887 -5085 0
5081 -5085 0
-5086 5084 5085 0
-5084 5086 0
-5085 5086 0
-226 5087 -4915 0
-5087 226 0
-5087 4915 0
-5087 -4893 -5088 0
5087 -5088 4893 0
-5087 5088 4893 0
5087 -4893 5088 0
-5086 -5089 -5088 0
5088 -5089 5086 0
5088 -5086 5089 0
5089 5086 -5088 0
-5086 5090 -5088 0
5088 -5090 0
5086 -5090 0
-5087 5091 -4893 0
-5091 4893 0
5087 -5091 0
5091 5090 -5092 0
5092 -5090 0
-5091 5092 0
5093 -4915 -234 0
234 -5093 0
-5093 4915 0
-5094 -4899 -5093 0
-5094 4899 5093 0
4899 5094 -5093 0
-4899 5093 5094 0
-5094 -5095 -5092 0
5094 -5095 5092 0
5095 5094 -5092 0
-5094 5095 5092 0
-5094 5096 -5092 0
5094 -5096 0
-5096 5092 0
-4899 5097 -5093 0
-5097 4899 0
-5097 5093 0
5097 5096 -5098 0
5098 -5096 0
-5097 5098 0
5099 -242 -4915 0
-5099 242 0
-5099 4915 0
-5100 -4905 -5099 0
-5100 5099 4905 0
-5099 4905 5100 0
-4905 5099 5100 0
-5100 -5098 -5101 0
-5101 5098 5100 0
5101 -5098 5100 0
-5100 5098 5101 0
-5100 5102 -5098 0
-5102 5100 0
5098 -5102 0
-4905 -5099 5103 0
-5103 4905 0
-5103 5099 0
5102 -5104 5103 0
5104 -5102 0
-5103 5104 0
5105 -250 -4915 0
-5105 250 0
-5105 4915 0
-4911 -5105 -5106 0
5105 4911 -5106 0
-5105 4911 5106 0
-4911 5106 5105 0
-5106 -5104 -5107 0
5106 5104 -5107 0
5107 5106 -5104 0
5107 5104 -5106 0
5108 -5106 -5104 0
5106 -5108 0
5104 -5108 0
-4911 -5105 5109 0
-5109 4911 0
5105 -5109 0
5109 5108 -5110 0
5110 -5108 0
-5109 5110 0
5111 -258 -4915 0
-5111 258 0
-5111 4915 0
-5112 -4914 -5111 0
5111 -5112 4914 0
-5111 4914 5112 0
5112 -4914 5111 0
-5112 -5113 -5110 0
5110 5112 -5113 0
5112 5113 -5110 0
5110 -5112 5113 0
-5112 5114 -5110 0
5112 -5114 0
5110 -5114 0
5115 -4914 -5111 0
-5115 4914 0
-5115 5111 0
5115 -5116 5114 0
5116 -5114 0
-5115 5116 0
5118 -1 -5117 0
-5118 1 0
-5118 5117 0
-5118 -4921 -5119 0
4921 5118 -5119 0
4921 -5118 5119 0
5119 5118 -4921 0
-5118 5120 -4921 0
4921 -5120 0
5118 -5120 0
-4 5121 -5117 0
-5121 4 0
-5121 5117 0
-4927 -5121 -5122 0
4927 -5122 5121 0
4927 -5121 5122 0
-4927 5122 5121 0
-5123 -5120 -5122 0
-5123 5120 5122 0
-5120 5123 5122 0
5120 5123 -5122 0
-5120 5124 -5122 0
5122 -5124 0
5120 -5124 0
5125 -4927 -5121 0
4927 -5125 0
5121 -5125 0
5125 5124 -5126 0
5126 -5124 0
5126 -5125 0
5127 -10 -5117 0
-5127 10 0
-5127 5117 0
-5127 -4933 -5128 0
-5128 5127 4933 0
-5127 4933 5128 0
-4933 5127 5128 0
-5128 -5129 -5126 0
-5129 5126 5128 0
5129 5128 -5126 0
5129 5126 -5128 0
5130 -5128 -5126 0
-5130 5128 0
-5130 5126 0
-5127 -4933 5131 0
-5131 4933 0
5127 -5131 0
5131 -5132 5130 0
-5130 5132 0
-5131 5132 0
-5117 5133 -18 0
-5133 18 0
-5133 5117 0
-5134 -5133 -4939 0
-5134 5133 4939 0
5134 -5133 4939 0
5134 5133 -4939 0
-5134 -5135 -5132 0
5134 -5135 5132 0
5134 5135 -5132 0
-5134 5135 5132 0
-5134 5136 -5132 0
-5136 5134 0
-5136 5132 0
-5133 5137 -4939 0
-5137 4939 0
5133 -5137 0
-5138 5137 5136 0
-5136 5138 0
5138 -5137 0
5139 -5117 -26 0
26 -5139 0
-5139 5117 0
-5140 -4945 -5139 0
-5140 5139 4945 0
5140 4945 -5139 0
5139 -4945 5140 0
-5140 -5138 -5141 0
5140 -5141 5138 0
5141 5140 -5138 0
5141 -5140 5138 0
-5140 5142 -5138 0
-5142 5140 0
-5142 5138 0
-4945 5143 -5139 0
-5143 4945 0
5139 -5143 0
-5144 5142 5143 0
5144 -5142 0
5144 -5143 0
-34 5145 -5117 0
34 -5145 0
-5145 5117 0
-4951 -5145 -5146 0
4951 5145 -5146 0
5146 4951 -5145 0
5146 -4951 5145 0
-5144 -5147 -5146 0
5146 -5147 5144 0
5146 -5144 5147 0
5144 5147 -5146 0
-5144 5148 -5146 0
5146 -5148 0
5144 -5148 0
5149 -4951 -5145 0
-5149 4951 0
-5149 5145 0
5149 -5150 5148 0
5150 -5148 0
-5149 5150 0
5151 -5117 -42 0
42 -5151 0
-5151 5117 0
-5152 -5151 -4957 0
-5152 4957 5151 0
-5151 5152 4957 0
5151 5152 -4957 0
-5150 -5152 -5153 0
5152 5150 -5153 0
-5150 5152 5153 0
5153 -5152 5150 0
-5150 5154 -5152 0
5152 -5154 0
-5154 5150 0
5155 -5151 -4957 0
-5155 4957 0
-5155 5151 0
5154 5155 -5156 0
-5154 5156 0
-5155 5156 0
-50 5157 -5117 0
50 -5157 0
-5157 5117 0
-5158 -4963 -5157 0
-5158 5157 4963 0
5158 -5157 4963 0
5157 -4963 5158 0
-5158 -5156 -5159 0
-5159 5156 5158 0
5159 -5156 5158 0
-5158 5159 5156 0
-5158 5160 -5156 0
-5160 5158 0
-5160 5156 0
-4963 5161 -5157 0
-5161 4963 0
5157 -5161 0
5161 -5162 5160 0
5162 -5160 0
5162 -5161 0
5163 -58 -5117 0
-5163 58 0
-5163 5117 0
-5164 -5163 -4969 0
-5164 4969 5163 0
5164 -5163 4969 0
5164 5163 -4969 0
-5164 -5162 -5165 0
5162 5164 -5165 0
5164 -5162 5165 0
-5164 5162 5165 0
-5164 -5162 5166 0
5164 -5166 0
5162 -5166 0
5167 -5163 -4969 0
4969 -5167 0
5163 -5167 0
-5168 5166 5167 0
-5166 5168 0
5168 -5167 0
5169 -66 -5117 0
66 -5169 0
-5169 5117 0
-5169 -4975 -5170 0
4975 5169 -5170 0
4975 -5169 5170 0
5169 -4975 5170 0
-5171 -5168 -5170 0
-5171 5168 5170 0
-5168 5170 5171 0
-5170 5168 5171 0
-5168 -5170 5172 0
5170 -5172 0
5168 -5172 0
-5169 5173 -4975 0
4975 -5173 0
5169 -5173 0
-5174 5173 5172 0
5174 -5172 0
-5173 5174 0
5175 -74 -5117 0
-5175 74 0
-5175 5117 0
-4981 -5176 -5175 0
5175 -5176 4981 0
5176 -5175 4981 0
5176 -4981 5175 0
-5174 -5176 -5177 0
-5177 5176 5174 0
-5174 5176 5177 0
-5176 5177 5174 0
-5174 -5176 5178 0
5176 -5178 0
-5178 5174 0
-4981 -5175 5179 0
-5179 4981 0
-5179 5175 0
-5180 5178 5179 0
5180 -5178 0
5180 -5179 0
-82 5181 -5117 0
82 -5181 0
-5181 5117 0
-4987 -5182 -5181 0
-5182 4987 5181 0
4987 -5181 5182 0
-4987 5181 5182 0
-5182 -5180 -5183 0
5180 -5183 5182 0
-5180 5183 5182 0
5180 -5182 5183 0
-5182 -5180 5184 0
-5184 5182 0
5180 -5184 0
5185 -4987 -5181 0
4987 -5185 0
-5185 5181 0
5185 -5186 5184 0
5186 -5184 0
-5185 5186 0
-90 5187 -5117 0
90 -5187 0
-5187 5117 0
-4993 -5188 -5187 0
5187 -5188 4993 0
-5187 5188 4993 0
5187 -4993 5188 0
-5186 -5188 -5189 0
-5189 5186 5188 0
-5186 5188 5189 0
5189 5186 -5188 0
5190 -5186 -5188 0
-5190 5188 0
-5190 5186 0
-4993 5191 -5187 0
-5191 4993 0
5187 -5191 0
5190 5191 -5192 0
-5190 5192 0
-5191 5192 0
-98 5193 -5117 0
-5193 98 0
-5193 5117 0
-5193 -5194 -4999 0
5193 -5194 4999 0
5194 -5193 4999 0
5194 5193 -4999 0
-5194 -5192 -5195 0
5194 -5195 5192 0
5194 5195 -5192 0
5195 -5194 5192 0
-5194 -5192 5196 0
5194 -5196 0
-5196 5192 0
-5193 -4999 5197 0
-5197 4999 0
-5197 5193 0
-5198 5196 5197 0
-5196 5198 0
-5197 5198 0
-106 5199 -5117 0
106 -5199 0
-5199 5117 0
-5200 -5005 -5199 0
5005 -5200 5199 0
5005 5200 -5199 0
-5005 5200 5199 0
-5198 -5200 -5201 0
-5201 5198 5200 0
-5198 5201 5200 0
5201 -5200 5198 0
-5198 -5200 5202 0
5200 -5202 0
5198 -5202 0
5203 -5005 -5199 0
5005 -5203 0
-5203 5199 0
5202 -5204 5203 0
5204 -5202 0
5204 -5203 0
5205 -114 -5117 0
114 -5205 0
-5205 5117 0
-5206 -5011 -5205 0
5011 -5206 5205 0
5011 5206 -5205 0
5206 5205 -5011 0
-5206 -5207 -5204 0
5206 5204 -5207 0
5206 5207 -5204 0
-5206 5204 5207 0
5208 -5206 -5204 0
5206 -5208 0
5204 -5208 0
-5011 -5205 5209 0
5011 -5209 0
-5209 5205 0
-5210 5208 5209 0
5210 -5208 0
-5209 5210 0
5211 -122 -5117 0
122 -5211 0
-5211 5117 0
-5017 -5212 -5211 0
5211 -5212 5017 0
5212 5017 -5211 0
-5017 5211 5212 0
-5210 -5212 -5213 0
5210 5212 -5213 0
-5210 5212 5213 0
5210 -5212 5213 0
-5210 -5212 5214 0
5212 -5214 0
5210 -5214 0
-5017 5215 -5211 0
5017 -5215 0
5211 -5215 0
5215 5214 -5216 0
5216 -5214 0
5216 -5215 0
-5117 5217 -130 0
-5217 130 0
-5217 5117 0
-5217 -5023 -5218 0
5023 5217 -5218 0
-5217 5023 5218 0
5217 -5023 5218 0
-5219 -5216 -5218 0
5216 -5219 5218 0
5219 5218 -5216 0
5216 5219 -5218 0
5220 -5216 -5218 0
5218 -5220 0
5216 -5220 0
-5217 5221 -5023 0
5023 -5221 0
5217 -5221 0
5220 5221 -5222 0
5222 -5220 0
5222 -5221 0
5223 -138 -5117 0
-5223 138 0
-5223 5117 0
-5223 -5224 -5029 0
5223 -5224 5029 0
5224 -5223 5029 0
5224 5223 -5029 0
-5224 -5225 -5222 0
5224 5222 -5225 0
5224 5225 -5222 0
5222 -5224 5225 0
5226 -5224 -5222 0
5224 -5226 0
5222 -5226 0
-5223 -5029 5227 0
-5227 5029 0
5223 -5227 0
5226 -5228 5227 0
-5226 5228 0
-5227 5228 0
5229 -146 -5117 0
146 -5229 0
-5229 5117 0
-5229 -5035 -5230 0
5035 5229 -5230 0
5035 5230 -5229 0
-5035 5230 5229 0
-5231 -5228 -5230 0
-5231 5230 5228 0
-5228 5230 5231 0
5228 -5230 5231 0
5232 -5228 -5230 0
-5232 5230 0
-5232 5228 0
-5229 -5035 5233 0
5035 -5233 0
-5233 5229 0
5232 -5234 5233 0
-5232 5234 0
5234 -5233 0
5235 -154 -5117 0
-5235 154 0
-5235 5117 0
-5235 -5236 -5041 0
5235 5041 -5236 0
5236 5041 -5235 0
5235 5236 -5041 0
-5234 -5237 -5236 0
5236 -5237 5234 0
5236 -5234 5237 0
5234 -5236 5237 0
-5234 5238 -5236 0
5236 -5238 0
5234 -5238 0
-5235 5239 -5041 0
5041 -5239 0
5235 -5239 0
5238 -5240 5239 0
5240 -5238 0
-5239 5240 0
5241 -162 -5117 0
162 -5241 0
-5241 5117 0
-5047 -5241 -5242 0
-5242 5047 5241 0
5242 -5241 5047 0
5242 -5047 5241 0
-5240 -5243 -5242 0
5242 -5243 5240 0
5242 -5240 5243 0
5243 5240 -5242 0
5244 -5240 -5242 0
5242 -5244 0
-5244 5240 0
-5047 -5241 5245 0
-5245 5047 0
-5245 5241 0
5244 -5246 5245 0
-5244 5246 0
-5245 5246 0
5247 -170 -5117 0
170 -5247 0
-5247 5117 0
-5248 -5247 -5053 0
-5248 5053 5247 0
5053 -5247 5248 0
5248 -5053 5247 0
-5248 -5246 -5249 0
5248 -5249 5246 0
5248 -5246 5249 0
-5248 5249 5246 0
-5248 -5246 5250 0
5248 -5250 0
-5250 5246 0
-5247 -5053 5251 0
5053 -5251 0
5247 -5251 0
5251 5250 -5252 0
5252 -5250 0
5252 -5251 0
5253 -5117 -178 0
-5253 178 0
-5253 5117 0
-5253 -5059 -5254 0
5253 -5254 5059 0
-5253 5059 5254 0
5253 -5059 5254 0
-5254 -5252 -5255 0
5252 -5255 5254 0
5255 -5252 5254 0
5255 -5254 5252 0
5256 -5254 -5252 0
-5256 5254 0
5252 -5256 0
-5253 -5059 5257 0
5059 -5257 0
5253 -5257 0
5256 5257 -5258 0
5258 -5256 0
5258 -5257 0
-186 5259 -5117 0
186 -5259 0
-5259 5117 0
-5065 -5259 -5260 0
-5260 5065 5259 0
-5259 5065 5260 0
-5065 5259 5260 0
-5261 -5260 -5258 0
5258 5260 -5261 0
5261 5260 -5258 0
5261 5258 -5260 0
5262 -5260 -5258 0
-5262 5260 0
-5262 5258 0
-5065 -5259 5263 0
5065 -5263 0
5259 -5263 0
-5264 5263 5262 0
-5262 5264 0
5264 -5263 0
-194 5265 -5117 0
194 -5265 0
-5265 5117 0
-5071 -5265 -5266 0
-5266 5265 5071 0
-5265 5266 5071 0
-5071 5265 5266 0
-5266 -5267 -5264 0
-5267 5264 5266 0
5267 5266 -5264 0
-5266 5267 5264 0
-5266 5268 -5264 0
5266 -5268 0
5264 -5268 0
-5071 -5265 5269 0
-5269 5071 0
5265 -5269 0
-5270 5268 5269 0
-5268 5270 0
-5269 5270 0
-202 5271 -5117 0
-5271 202 0
-5271 5117 0
-5077 -5271 -5272 0
5077 5271 -5272 0
5077 -5271 5272 0
-5077 5271 5272 0
-5273 -5272 -5270 0
-5273 5270 5272 0
5273 5272 -5270 0
5273 5270 -5272 0
5274 -5272 -5270 0
-5274 5272 0
-5274 5270 0
5275 -5077 -5271 0
5077 -5275 0
-5275 5271 0
5275 5274 -5276 0
-5274 5276 0
-5275 5276 0
5277 -210 -5117 0
-5277 210 0
-5277 5117 0
-5278 -5277 -5083 0
-5278 5083 5277 0
5083 -5277 5278 0
5277 -5083 5278 0
-5278 -5279 -5276 0
-5279 5276 5278 0
-5276 5278 5279 0
-5278 5276 5279 0
-5278 5280 -5276 0
-5280 5278 0
-5280 5276 0
5281 -5277 -5083 0
5083 -5281 0
5277 -5281 0
5280 5281 -5282 0
-5280 5282 0
5282 -5281 0
-218 5283 -5117 0
-5283 218 0
-5283 5117 0
-5283 -5089 -5284 0
5089 -5284 5283 0
5089 -5283 5284 0
-5089 5283 5284 0
-5284 -5282 -5285 0
5284 5282 -5285 0
5285 5284 -5282 0
-5284 5285 5282 0
-5284 5286 -5282 0
5284 -5286 0
5282 -5286 0
5287 -5283 -5089 0
5089 -5287 0
5283 -5287 0
5287 5286 -5288 0
5288 -5286 0
-5287 5288 0
-226 5289 -5117 0
226 -5289 0
-5289 5117 0
-5290 -5289 -5095 0
-5290 5289 5095 0
5290 -5289 5095 0
5290 -5095 5289 0
-5290 -5288 -5291 0
5290 -5291 5288 0
5290 -5288 5291 0
-5290 5291 5288 0
-5290 -5288 5292 0
5290 -5292 0
-5292 5288 0
-5289 -5095 5293 0
-5293 5095 0
-5293 5289 0
-5294 5292 5293 0
5294 -5292 0
5294 -5293 0
5295 -5117 -234 0
234 -5295 0
-5295 5117 0
-5295 -5296 -5101 0
5295 5101 -5296 0
-5295 5296 5101 0
5295 5296 -5101 0
-5297 -5294 -5296 0
5294 5296 -5297 0
5296 -5294 5297 0
5294 5297 -5296 0
5298 -5294 -5296 0
-5298 5296 0
5294 -5298 0
-5295 5299 -5101 0
-5299 5101 0
-5299 5295 0
5298 -5300 5299 0
-5298 5300 0
-5299 5300 0
5301 -242 -5117 0
-5301 242 0
-5301 5117 0
-5302 -5107 -5301 0
5107 5301 -5302 0
5107 5302 -5301 0
5302 5301 -5107 0
-5300 -5302 -5303 0
5302 -5303 5300 0
5303 5302 -5300 0
5303 -5302 5300 0
-5300 -5302 5304 0
5302 -5304 0
-5304 5300 0
-5107 5305 -5301 0
5107 -5305 0
-5305 5301 0
-5306 5304 5305 0
5306 -5304 0
5306 -5305 0
-250 5307 -5117 0
-5307 250 0
-5307 5117 0
-5307 -5113 -5308 0
5307 5113 -5308 0
-5307 5308 5113 0
5308 5307 -5113 0
-5309 -5306 -5308 0
5306 -5309 5308 0
-5306 5308 5309 0
5306 5309 -5308 0
5310 -5306 -5308 0
-5310 5308 0
5306 -5310 0
5311 -5307 -5113 0
-5311 5113 0
-5311 5307 0
5311 5310 -5312 0
-5310 5312 0
-5311 5312 0
5313 -258 -5117 0
258 -5313 0
-5313 5117 0
-5116 -5313 -5314 0
5116 -5314 5313 0
5314 5116 -5313 0
5314 -5116 5313 0
-5315 -5312 -5314 0
-5315 5312 5314 0
5315 -5312 5314 0
5315 5312 -5314 0
5316 -5312 -5314 0
-5316 5314 0
-5316 5312 0
5317 -5116 -5313 0
-5317 5116 0
-5317 5313 0
-5318 5316 5317 0
5318 -5316 0
5318 -5317 0
-1 -5319 5320 0
-5320 1 0
5319 -5320 0
-5123 -5321 -5320 0
5123 5320 -5321 0
5321 5123 -5320 0
5321 -5123 5320 0
-5123 5322 -5320 0
5123 -5322 0
5320 -5322 0
-4 -5319 5323 0
-5323 4 0
-5323 5319 0
-5323 -5324 -5129 0
5129 -5324 5323 0
5129 -5323 5324 0
5323 5324 -5129 0
-5324 -5325 -5322 0
5322 5324 -5325 0
5325 5324 -5322 0
5325 -5324 5322 0
-5324 5326 -5322 0
5324 -5326 0
5322 -5326 0
-5323 5327 -5129 0
5129 -5327 0
5323 -5327 0
-5328 5327 5326 0
-5326 5328 0
-5327 5328 0
-5319 -10 5329 0
-5329 10 0
-5329 5319 0
-5135 -5330 -5329 0
5135 5329 -5330 0
-5329 5135 5330 0
-5135 5329 5330 0
-5330 -5328 -5331 0
-5331 5330 5328 0
-5328 5331 5330 0
-5330 5331 5328 0
-5330 -5328 5332 0
-5332 5330 0
-5332 5328 0
-5135 -5329 5333 0
5135 -5333 0
5329 -5333 0
5333 5332 -5334 0
5334 -5332 0
5334 -5333 0
5335 -5319 -18 0
-5335 18 0
5319 -5335 0
-5335 -5141 -5336 0
5141 5335 -5336 0
5141 5336 -5335 0
5336 5335 -5141 0
-5337 -5334 -5336 0
5334 5336 -5337 0
5336 5337 -5334 0
5334 5337 -5336 0
5338 -5334 -5336 0
5336 -5338 0
5334 -5338 0
5339 -5335 -5141 0
5141 -5339 0
-5339 5335 0
5339 -5340 5338 0
-5338 5340 0
-5339 5340 0
5341 -5319 -26 0
-5341 26 0
5319 -5341 0
-5147 -5341 -5342 0
5341 -5342 5147 0
5342 -5341 5147 0
5342 -5147 5341 0
-5343 -5342 -5340 0
5342 -5343 5340 0
5342 5343 -5340 0
5343 -5342 5340 0
5344 -5342 -5340 0
5342 -5344 0
-5344 5340 0
-5147 -5341 5345 0
-5345 5147 0
5341 -5345 0
-5346 5345 5344 0
-5344 5346 0
5346 -5345 0
-34 5347 -5319 0
34 -5347 0
5319 -5347 0
-5153 -5348 -5347 0
5153 5347 -5348 0
5153 5348 -5347 0
5347 5348 -5153 0
-5346 -5348 -5349 0
5348 5346 -5349 0
-5346 5348 5349 0
-5348 5346 5349 0
-5346 -5348 5350 0
5348 -5350 0
-5350 5346 0
5351 -5153 -5347 0
5153 -5351 0
5347 -5351 0
5351 5350 -5352 0
-5350 5352 0
5352 -5351 0
5353 -5319 -42 0
42 -5353 0
5319 -5353 0
-5159 -5354 -5353 0
-5354 5353 5159 0
5354 5159 -5353 0
-5159 5353 5354 0
-5354 -5352 -5355 0
-5355 5352 5354 0
5355 -5352 5354 0
-5354 5355 5352 0
-5354 -5352 5356 0
-5356 5354 0
-5356 5352 0
-5159 5357 -5353 0
5159 -5357 0
5353 -5357 0
-5358 5357 5356 0
-5356 5358 0
-5357 5358 0
-50 5359 -5319 0
50 -5359 0
-5359 5319 0
-5165 -5359 -5360 0
5359 5165 -5360 0
-5359 5360 5165 0
-5165 5359 5360 0
-5358 -5361 -5360 0
5360 -5361 5358 0
5361 5360 -5358 0
5361 5358 -5360 0
5362 -5358 -5360 0
-5362 5360 0
-5362 5358 0
-5165 -5359 5363 0
-5363 5165 0
5359 -5363 0
-5364 5362 5363 0
-5362 5364 0
-5363 5364 0
5365 -5319 -58 0
-5365 58 0
-5365 5319 0
-5365 -5366 -5171 0
5365 -5366 5171 0
5366 -5365 5171 0
5366 -5171 5365 0
-5364 -5366 -5367 0
5366 -5367 5364 0
5366 -5364 5367 0
5367 -5366 5364 0
-5364 5368 -5366 0
5366 -5368 0
-5368 5364 0
-5365 -5171 5369 0
-5369 5171 0
-5369 5365 0
5368 -5370 5369 0
-5368 5370 0
-5369 5370 0
5371 -5319 -66 0
-5371 66 0
-5371 5319 0
-5177 -5372 -5371 0
-5372 5371 5177 0
-5371 5372 5177 0
-5177 5371 5372 0
-5370 -5372 -5373 0
5372 -5373 5370 0
5373 -5370 5372 0
5373 -5372 5370 0
-5370 -5372 5374 0
5372 -5374 0
-5374 5370 0
-5177 5375 -5371 0
5177 -5375 0
5371 -5375 0
5375 -5376 5374 0
5376 -5374 0
5376 -5375 0
5377 -5319 -74 0
-5377 74 0
-5377 5319 0
-5377 -5183 -5378 0
5377 5183 -5378 0
5378 -5377 5183 0
5378 5377 -5183 0
-5379 -5376 -5378 0
5378 5376 -5379 0
5378 -5376 5379 0
5376 5379 -5378 0
5380 -5376 -5378 0
5378 -5380 0
5376 -5380 0
5381 -5377 -5183 0
5183 -5381 0
5377 -5381 0
5381 5380 -5382 0
5382 -5380 0
5382 -5381 0
-82 5383 -5319 0
82 -5383 0
5319 -5383 0
-5383 -5189 -5384 0
5189 5383 -5384 0
5384 5189 -5383 0
5384 5383 -5189 0
-5382 -5385 -5384 0
5382 5384 -5385 0
5385 5384 -5382 0
5382 5385 -5384 0
5386 -5382 -5384 0
5384 -5386 0
5382 -5386 0
5387 -5383 -5189 0
5189 -5387 0
5383 -5387 0
-5388 5386 5387 0
-5386 5388 0
-5387 5388 0
-90 5389 -5319 0
-5389 90 0
-5389 5319 0
-5389 -5195 -5390 0
5195 5389 -5390 0
-5389 5195 5390 0
5389 -5195 5390 0
-5388 -5390 -5391 0
-5391 5390 5388 0
-5388 5391 5390 0
5391 -5390 5388 0
-5388 -5390 5392 0
-5392 5390 0
-5392 5388 0
-5389 5393 -5195 0
5195 -5393 0
5389 -5393 0
-5394 5393 5392 0
-5392 5394 0
5394 -5393 0
-98 5395 -5319 0
-5395 98 0
5319 -5395 0
-5396 -5201 -5395 0
5201 5395 -5396 0
5396 5201 -5395 0
5396 -5201 5395 0
-5394 -5396 -5397 0
5396 -5397 5394 0
-5394 5396 5397 0
-5396 5397 5394 0
-5394 -5396 5398 0
5396 -5398 0
-5398 5394 0
5399 -5201 -5395 0
5201 -5399 0
-5399 5395 0
5399 5398 -5400 0
-5398 5400 0
-5399 5400 0
-106 5401 -5319 0
106 -5401 0
5319 -5401 0
-5207 -5402 -5401 0
5401 5207 -5402 0
5207 5402 -5401 0
-5207 5401 5402 0
-5403 -5402 -5400 0
-5403 5402 5400 0
5403 5402 -5400 0
5403 -5402 5400 0
-5402 5404 -5400 0
-5404 5402 0
-5404 5400 0
-5207 5405 -5401 0
5207 -5405 0
5401 -5405 0
-5406 5405 5404 0
-5404 5406 0
5406 -5405 0
5407 -5319 -114 0
114 -5407 0
5319 -5407 0
-5408 -5407 -5213 0
5213 5407 -5408 0
5213 5408 -5407 0
5407 5408 -5213 0
-5406 -5408 -5409 0
5406 5408 -5409 0
-5406 5409 5408 0
5409 5406 -5408 0
-5406 5410 -5408 0
-5410 5408 0
-5410 5406 0
5411 -5407 -5213 0
5213 -5411 0
5407 -5411 0
-5412 5411 5410 0
-5410 5412 0
-5411 5412 0
5413 -122 -5319 0
122 -5413 0
5319 -5413 0
-5413 -5219 -5414 0
5413 5219 -5414 0
5219 -5413 5414 0
5413 -5219 5414 0
-5415 -5412 -5414 0
-5415 5412 5414 0
5415 -5412 5414 0
5415 5412 -5414 0
5416 -5412 -5414 0
5414 -5416 0
5412 -5416 0
-5413 5417 -5219 0
5219 -5417 0
5413 -5417 0
5417 5416 -5418 0
5418 -5416 0
5418 -5417 0
5419 -5319 -130 0
130 -5419 0
5319 -5419 0
-5420 -5225 -5419 0
-5420 5225 5419 0
5225 5420 -5419 0
5419 5420 -5225 0
-5420 -5418 -5421 0
5418 5420 -5421 0
5421 5420 -5418 0
5418 -5420 5421 0
-5420 5422 -5418 0
5420 -5422 0
5418 -5422 0
5423 -5225 -5419 0
-5423 5225 0
-5423 5419 0
5423 5422 -5424 0
5424 -5422 0
-5423 5424 0
5425 -138 -5319 0
-5425 138 0
5319 -5425 0
-5231 -5426 -5425 0
5425 -5426 5231 0
-5425 5426 5231 0
-5231 5426 5425 0
-5427 -5426 -5424 0
-5427 5424 5426 0
-5424 5426 5427 0
-5426 5424 5427 0
-5426 -5424 5428 0
-5428 5426 0
5424 -5428 0
-5231 -5425 5429 0
-5429 5231 0
5425 -5429 0
-5430 5429 5428 0
5430 -5428 0
5430 -5429 0
5431 -5319 -146 0
146 -5431 0
-5431 5319 0
-5237 -5431 -5432 0
5431 5237 -5432 0
5432 -5431 5237 0
5431 -5237 5432 0
-5433 -5430 -5432 0
5432 5430 -5433 0
5432 -5430 5433 0
5430 5433 -5432 0
-5430 5434 -5432 0
5432 -5434 0
5430 -5434 0
-5237 -5431 5435 0
-5435 5237 0
5431 -5435 0
5434 5435 -5436 0
5436 -5434 0
-5435 5436 0
5437 -5319 -154 0
-5437 154 0
-5437 5319 0
-5437 -5243 -5438 0
5437 -5438 5243 0
-5437 5438 5243 0
5437 -5243 5438 0
-5439 -5436 -5438 0
5436 -5439 5438 0
-5436 5438 5439 0
5436 -5438 5439 0
-5436 -5438 5440 0
5438 -5440 0
5436 -5440 0
-5437 -5243 5441 0
-5441 5243 0
5437 -5441 0
-5442 5440 5441 0
5442 -5440 0
5442 -5441 0
5443 -5319 -162 0
-5443 162 0
-5443 5319 0
-5443 -5444 -5249 0
-5444 5249 5443 0
-5443 5444 5249 0
5444 5443 -5249 0
-5444 -5442 -5445 0
5444 -5445 5442 0
5444 5445 -5442 0
-5444 5445 5442 0
-5444 5446 -5442 0
-5446 5444 0
-5446 5442 0
-5443 5447 -5249 0
-5447 5249 0
-5447 5443 0
-5448 5446 5447 0
-5446 5448 0
-5447 5448 0
5449 -5319 -170 0
170 -5449 0
5319 -5449 0
-5450 -5255 -5449 0
5449 5255 -5450 0
5255 5450 -5449 0
5449 5450 -5255 0
-5448 -5450 -5451 0
-5451 5450 5448 0
-5448 5450 5451 0
5451 -5450 5448 0
-5448 5452 -5450 0
5450 -5452 0
-5452 5448 0
5453 -5255 -5449 0
5255 -5453 0
5449 -5453 0
5453 5452 -5454 0
5454 -5452 0
-5453 5454 0
5455 -5319 -178 0
-5455 178 0
-5455 5319 0
-5455 -5456 -5261 0
5261 -5456 5455 0
5261 5456 -5455 0
5456 -5261 5455 0
-5457 -5456 -5454 0
-5457 5456 5454 0
5456 -5454 5457 0
-5456 5454 5457 0
5458 -5456 -5454 0
-5458 5456 0
-5458 5454 0
-5455 -5261 5459 0
5261 -5459 0
-5459 5455 0
5458 -5460 5459 0
-5458 5460 0
-5459 5460 0
-186 -5319 5461 0
186 -5461 0
-5461 5319 0
-5267 -5461 -5462 0
5267 5461 -5462 0
5267 5462 -5461 0
-5267 5462 5461 0
-5463 -5460 -5462 0
-5463 5462 5460 0
5463 5462 -5460 0
5463 5460 -5462 0
-5460 5464 -5462 0
5462 -5464 0
-5464 5460 0
5465 -5267 -5461 0
5267 -5465 0
-5465 5461 0
5465 -5466 5464 0
5466 -5464 0
5466 -5465 0
-194 -5319 5467 0
194 -5467 0
5319 -5467 0
-5273 -5468 -5467 0
5273 -5468 5467 0
5273 5468 -5467 0
-5273 5468 5467 0
-5466 -5468 -5469 0
5466 5468 -5469 0
5469 -5466 5468 0
5469 5466 -5468 0
-5466 -5468 5470 0
-5470 5468 0
-5470 5466 0
-5273 5471 -5467 0
5273 -5471 0
-5471 5467 0
-5472 5471 5470 0
5472 -5470 0
5472 -5471 0
-202 -5319 5473 0
-5473 202 0
-5473 5319 0
-5279 -5473 -5474 0
-5474 5473 5279 0
5474 -5473 5279 0
5474 -5279 5473 0
-5472 -5475 -5474 0
5474 -5475 5472 0
5474 -5472 5475 0
5472 5475 -5474 0
-5472 -5474 5476 0
5474 -5476 0
5472 -5476 0
-5279 -5473 5477 0
-5477 5279 0
-5477 5473 0
-5478 5476 5477 0
5478 -5476 0
5478 -5477 0
5479 -210 -5319 0
-5479 210 0
-5479 5319 0
-5479 -5480 -5285 0
5479 5285 -5480 0
-5479 5285 5480 0
5479 5480 -5285 0
-5478 -5481 -5480 0
5478 -5481 5480 0
-5478 5480 5481 0
5478 5481 -5480 0
-5478 5482 -5480 0
-5482 5480 0
-5482 5478 0
-5479 5483 -5285 0
5285 -5483 0
5479 -5483 0
-5484 5483 5482 0
5484 -5482 0
5484 -5483 0
-218 5485 -5319 0
-5485 218 0
5319 -5485 0
-5486 -5485 -5291 0
-5486 5485 5291 0
5486 5291 -5485 0
5486 5485 -5291 0
-5484 -5486 -5487 0
5484 5486 -5487 0
-5484 5486 5487 0
5484 5487 -5486 0
-5484 5488 -5486 0
5486 -5488 0
5484 -5488 0
5489 -5485 -5291 0
5291 -5489 0
5485 -5489 0
-5490 5488 5489 0
5490 -5488 0
5490 -5489 0
-226 5491 -5319 0
226 -5491 0
5319 -5491 0
-5297 -5492 -5491 0
5491 5297 -5492 0
5297 5492 -5491 0
-5297 5491 5492 0
-5490 -5492 -5493 0
5490 -5493 5492 0
-5490 5493 5492 0
5490 -5492 5493 0
-5490 -5492 5494 0
-5494 5492 0
5490 -5494 0
-5297 5495 -5491 0
-5495 5297 0
-5495 5491 0
-5496 5494 5495 0
-5494 5496 0
-5495 5496 0
5497 -5319 -234 0
234 -5497 0
5319 -5497 0
-5498 -5497 -5303 0
5303 -5498 5497 0
5303 -5497 5498 0
5497 -5303 5498 0
-5498 -5496 -5499 0
-5499 5496 5498 0
5499 -5496 5498 0
5499 -5498 5496 0
-5498 -5496 5500 0
-5500 5498 0
-5500 5496 0
5501 -5497 -5303 0
5303 -5501 0
-5501 5497 0
5501 5500 -5502 0
5502 -5500 0
5502 -5501 0
5503 -242 -5319 0
-5503 242 0
5319 -5503 0
-5309 -5503 -5504 0
-5504 5309 5503 0
5309 5504 -5503 0
-5309 5503 5504 0
-5502 -5504 -5505 0
5502 5504 -5505 0
-5502 5504 5505 0
5502 -5504 5505 0
-5502 -5504 5506 0
5504 -5506 0
5502 -5506 0
5507 -5309 -5503 0
5309 -5507 0
5503 -5507 0
5507 -5508 5506 0
5508 -5506 0
5508 -5507 0
-250 -5319 5509 0
250 -5509 0
5319 -5509 0
-5315 -5510 -5509 0
5315 -5510 5509 0
5315 5510 -5509 0
-5315 5510 5509 0
-5510 -5511 -5508 0
-5511 5508 5510 0
-5508 5511 5510 0
-5510 5508 5511 0
-5510 -5508 5512 0
-5512 5510 0
-5512 5508 0
-5315 5513 -5509 0
5315 -5513 0
-5513 5509 0
-5514 5512 5513 0
-5512 5514 0
5514 -5513 0
-5319 -258 5515 0
-5515 258 0
5319 -5515 0
-5318 -5515 -5516 0
5318 -5516 5515 0
5318 -5515 5516 0
-5318 5516 5515 0
-5517 -5514 -5516 0
-5517 5516 5514 0
5517 5516 -5514 0
5517 5514 -5516 0
5518 -5514 -5516 0
5516 -5518 0
-5518 5514 0
-5318 -5515 5519 0
5318 -5519 0
-5519 5515 0
5518 5519 -5520 0
-5518 5520 0
-5519 5520 0
5522 -1 -5521 0
-5522 1 0
-5522 5521 0
-5522 -5523 -5325 0
5522 5325 -5523 0
-5522 5325 5523 0
5522 5523 -5325 0
-5522 5524 -5325 0
5325 -5524 0
5522 -5524 0
5525 -4 -5521 0
-5525 4 0
-5525 5521 0
-5526 -5525 -5331 0
5525 5331 -5526 0
5331 5526 -5525 0
5525 5526 -5331 0
-5527 -5524 -5526 0
5524 -5527 5526 0
-5524 5526 5527 0
5524 5527 -5526 0
5528 -5524 -5526 0
5526 -5528 0
5524 -5528 0
5529 -5525 -5331 0
5331 -5529 0
5525 -5529 0
5528 -5530 5529 0
5530 -5528 0
-5529 5530 0
5531 -5521 -10 0
10 -5531 0
-5531 5521 0
-5337 -5531 -5532 0
-5532 5531 5337 0
5532 5337 -5531 0
5532 -5337 5531 0
-5533 -5532 -5530 0
5532 5530 -5533 0
5532 5533 -5530 0
-5532 5533 5530 0
-5532 5534 -5530 0
5532 -5534 0
-5534 5530 0
-5337 -5531 5535 0
-5535 5337 0
5531 -5535 0
-5536 5535 5534 0
-5534 5536 0
-5535 5536 0
5537 -5521 -18 0
-5537 18 0
-5537 5521 0
-5537 -5343 -5538 0
5343 -5538 5537 0
-5537 5538 5343 0
5538 -5343 5537 0
-5539 -5536 -5538 0
-5539 5538 5536 0
5539 5538 -5536 0
5539 -5538 5536 0
-5536 -5538 5540 0
5538 -5540 0
-5540 5536 0
-5537 -5343 5541 0
-5541 5343 0
-5541 5537 0
-5542 5541 5540 0
-5540 5542 0
-5541 5542 0
5543 -5521 -26 0
-5543 26 0
-5543 5521 0
-5543 -5544 -5349 0
5543 -5544 5349 0
5544 -5543 5349 0
5543 -5349 5544 0
-5542 -5545 -5544 0
5544 5542 -5545 0
-5542 5544 5545 0
5542 -5544 5545 0
-5542 -5544 5546 0
5544 -5546 0
5542 -5546 0
-5543 5547 -5349 0
-5547 5349 0
5543 -5547 0
5547 -5548 5546 0
5548 -5546 0
5548 -5547 0
-34 -5521 5549 0
34 -5549 0
-5549 5521 0
-5355 -5549 -5550 0
-5550 5355 5549 0
5550 5355 -5549 0
-5355 5550 5549 0
-5548 -5551 -5550 0
5550 5548 -5551 0
-5548 5550 5551 0
5551 5548 -5550 0
-5548 5552 -5550 0
5550 -5552 0
5548 -5552 0
-5355 5553 -5549 0
5355 -5553 0
-5553 5549 0
-5554 5553 5552 0
5554 -5552 0
5554 -5553 0
5555 -5521 -42 0
42 -5555 0
-5555 5521 0
-5556 -5361 -5555 0
5361 5555 -5556 0
5361 -5555 5556 0
5555 -5361 5556 0
-5557 -5554 -5556 0
5554 -5557 5556 0
5557 -5554 5556 0
5554 5557 -5556 0
-5554 -5556 5558 0
-5558 5556 0
5554 -5558 0
5559 -5361 -5555 0
5361 -5559 0
5555 -5559 0
5559 -5560 5558 0
-5558 5560 0
5560 -5559 0
5561 -50 -5521 0
50 -5561 0
-5561 5521 0
-5561 -5367 -5562 0
5367 5561 -5562 0
5367 -5561 5562 0
5561 5562 -5367 0
-5563 -5562 -5560 0
-5563 5562 5560 0
5563 5562 -5560 0
5563 5560 -5562 0
5564 -5562 -5560 0
-5564 5562 0
-5564 5560 0
5565 -5561 -5367 0
5367 -5565 0
5561 -5565 0
5565 5564 -5566 0
-5564 5566 0
-5565 5566 0
5567 -5521 -58 0
-5567 58 0
-5567 5521 0
-5567 -5568 -5373 0
5373 -5568 5567 0
5373 5568 -5567 0
5568 5567 -5373 0
-5568 -5569 -5566 0
5568 5566 -5569 0
5568 5569 -5566 0
5569 -5568 5566 0
-5568 -5566 5570 0
5568 -5570 0
-5570 5566 0
-5567 5571 -5373 0
5373 -5571 0
5567 -5571 0
-5572 5571 5570 0
-5570 5572 0
-5571 5572 0
5573 -5521 -66 0
66 -5573 0
-5573 5521 0
-5379 -5574 -5573 0
5573 -5574 5379 0
5574 -5573 5379 0
-5379 5573 5574 0
-5572 -5575 -5574 0
-5575 5574 5572 0
5575 -5572 5574 0
5575 -5574 5572 0
-5572 5576 -5574 0
5574 -5576 0
5572 -5576 0
-5379 5577 -5573 0
-5577 5379 0
5573 -5577 0
-5578 5576 5577 0
5578 -5576 0
5578 -5577 0
5579 -5521 -74 0
-5579 74 0
-5579 5521 0
-5580 -5579 -5385 0
5385 5579 -5580 0
5385 5580 -5579 0
5580 5579 -5385 0
-5580 -5578 -5581 0
5580 5578 -5581 0
5580 -5578 5581 0
-5580 5578 5581 0
-5580 -5578 5582 0
5580 -5582 0
5578 -5582 0
5583 -5579 -5385 0
5385 -5583 0
5579 -5583 0
-5584 5583 5582 0
-5582 5584 0
-5583 5584 0
-82 -5521 5585 0
82 -5585 0
-5585 5521 0
-5585 -5586 -5391 0
5391 -5586 5585 0
5391 5586 -5585 0
5585 5586 -5391 0
-5586 -5587 -5584 0
5586 5584 -5587 0
5587 5586 -5584 0
5587 -5586 5584 0
5588 -5586 -5584 0
5586 -5588 0
5584 -5588 0
-5585 5589 -5391 0
5391 -5589 0
5585 -5589 0
5589 -5590 5588 0
5590 -5588 0
5590 -5589 0
5591 -90 -5521 0
90 -5591 0
-5591 5521 0
-5592 -5397 -5591 0
5591 -5592 5397 0
5592 5397 -5591 0
5591 -5397 5592 0
-5592 -5593 -5590 0
5592 5590 -5593 0
5592 5593 -5590 0
-5592 5590 5593 0
-5592 5594 -5590 0
5592 -5594 0
-5594 5590 0
5595 -5397 -5591 0
-5595 5397 0
5591 -5595 0
-5596 5595 5594 0
-5594 5596 0
-5595 5596 0
-98 5597 -5521 0
-5597 98 0
-5597 5521 0
-5597 -5598 -5403 0
5597 5403 -5598 0
-5597 5403 5598 0
5597 -5403 5598 0
-5598 -5599 -5596 0
5598 -5599 5596 0
5599 5598 -5596 0
5599 -5598 5596 0
5600 -5598 -5596 0
-5600 5598 0
-5600 5596 0
-5597 5601 -5403 0
5403 -5601 0
5597 -5601 0
5600 -5602 5601 0
-5600 5602 0
5602 -5601 0
-106 5603 -5521 0
-5603 106 0
-5603 5521 0
-5603 -5604 -5409 0
5409 5603 -5604 0
-5603 5409 5604 0
5604 5603 -5409 0
-5602 -5605 -5604 0
-5605 5604 5602 0
5605 -5602 5604 0
5605 5602 -5604 0
-5602 5606 -5604 0
5604 -5606 0
-5606 5602 0
-5603 5607 -5409 0
5409 -5607 0
5603 -5607 0
5607 5606 -5608 0
5608 -5606 0
5608 -5607 0
5609 -5521 -114 0
114 -5609 0
-5609 5521 0
-5609 -5415 -5610 0
5609 5415 -5610 0
-5609 5415 5610 0
5610 -5415 5609 0
-5608 -5611 -5610 0
5610 5608 -5611 0
5611 5610 -5608 0
5611 5608 -5610 0
-5608 5612 -5610 0
5610 -5612 0
5608 -5612 0
5613 -5609 -5415 0
-5613 5415 0
-5613 5609 0
5613 -5614 5612 0
5614 -5612 0
-5613 5614 0
5615 -122 -5521 0
122 -5615 0
-5615 5521 0
-5616 -5615 -5421 0
5421 5615 -5616 0
5421 -5615 5616 0
5615 5616 -5421 0
-5617 -5614 -5616 0
-5617 5616 5614 0
-5614 5617 5616 0
5614 5617 -5616 0
5618 -5614 -5616 0
-5618 5616 0
-5618 5614 0
5619 -5615 -5421 0
5421 -5619 0
5615 -5619 0
5619 5618 -5620 0
-5618 5620 0
5620 -5619 0
5621 -5521 -130 0
-5621 130 0
-5621 5521 0
-5622 -5621 -5427 0
-5622 5621 5427 0
-5621 5622 5427 0
-5427 5621 5622 0
-5622 -5620 -5623 0
5620 -5623 5622 0
5623 -5620 5622 0
-5622 5623 5620 0
-5622 5624 -5620 0
-5624 5622 0
-5624 5620 0
-5621 -5427 5625 0
-5625 5427 0
5621 -5625 0
5625 5624 -5626 0
-5624 5626 0
5626 -5625 0
5627 -138 -5521 0
-5627 138 0
-5627 5521 0
-5627 -5628 -5433 0
5627 -5628 5433 0
-5627 5628 5433 0
5627 5628 -5433 0
-5626 -5628 -5629 0
5626 5628 -5629 0
5629 -5626 5628 0
5629 5626 -5628 0
5630 -5626 -5628 0
-5630 5628 0
-5630 5626 0
-5627 5631 -5433 0
-5631 5433 0
5627 -5631 0
5631 5630 -5632 0
-5630 5632 0
5632 -5631 0
-5521 -146 5633 0
146 -5633 0
-5633 5521 0
-5634 -5439 -5633 0
5439 -5634 5633 0
5439 -5633 5634 0
-5439 5634 5633 0
-5632 -5634 -5635 0
5632 5634 -5635 0
-5632 5635 5634 0
5632 5635 -5634 0
-5632 -5634 5636 0
-5636 5634 0
5632 -5636 0
-5439 -5633 5637 0
5439 -5637 0
-5637 5633 0
-5638 5636 5637 0
-5636 5638 0
5638 -5637 0
5639 -5521 -154 0
154 -5639 0
5521 -5639 0
-5445 -5640 -5639 0
5445 5639 -5640 0
5445 5640 -5639 0
5639 -5445 5640 0
-5641 -5638 -5640 0
-5641 5638 5640 0
5641 -5638 5640 0
5641 5638 -5640 0
-5638 -5640 5642 0
-5642 5640 0
-5642 5638 0
-5445 5643 -5639 0
5445 -5643 0
-5643 5639 0
-5644 5643 5642 0
-5642 5644 0
-5643 5644 0
5645 -5521 -162 0
162 -5645 0
-5645 5521 0
-5451 -5646 -5645 0
5645 -5646 5451 0
-5645 5646 5451 0
5645 -5451 5646 0
-5644 -5647 -5646 0
-5647 5644 5646 0
-5644 5646 5647 0
5644 -5646 5647 0
-5644 5648 -5646 0
-5648 5646 0
5644 -5648 0
-5451 5649 -5645 0
-5649 5451 0
5645 -5649 0
5648 5649 -5650 0
5650 -5648 0
-5649 5650 0
5651 -5521 -170 0
170 -5651 0
-5651 5521 0
-5457 -5652 -5651 0
5651 -5652 5457 0
5652 -5651 5457 0
-5457 5651 5652 0
-5653 -5652 -5650 0
-5653 5652 5650 0
5652 -5650 5653 0
5653 -5652 5650 0
-5652 5654 -5650 0
5652 -5654 0
-5654 5650 0
-5457 5655 -5651 0
-5655 5457 0
5651 -5655 0
-5656 5654 5655 0
5656 -5654 0
5656 -5655 0
5657 -5521 -178 0
-5657 178 0
-5657 5521 0
-5657 -5463 -5658 0
5463 5657 -5658 0
-5657 5463 5658 0
-5463 5658 5657 0
-5659 -5656 -5658 0
5656 5658 -5659 0
5659 5658 -5656 0
5659 5656 -5658 0
-5656 -5658 5660 0
5658 -5660 0
5656 -5660 0
-5657 -5463 5661 0
5463 -5661 0
-5661 5657 0
5661 5660 -5662 0
5662 -5660 0
5662 -5661 0
5663 -186 -5521 0
186 -5663 0
-5663 5521 0
-5664 -5469 -5663 0
5469 -5664 5663 0
5469 -5663 5664 0
5664 -5469 5663 0
-5665 -5664 -5662 0
5664 -5665 5662 0
5664 5665 -5662 0
-5664 5665 5662 0
-5664 5666 -5662 0
5664 -5666 0
5662 -5666 0
-5469 -5663 5667 0
5469 -5667 0
-5667 5663 0
-5668 5666 5667 0
5668 -5666 0
-5667 5668 0
-194 -5521 5669 0
194 -5669 0
-5669 5521 0
-5669 -5475 -5670 0
5475 -5670 5669 0
-5669 5475 5670 0
5670 -5475 5669 0
-5671 -5668 -5670 0
-5671 5668 5670 0
-5668 5670 5671 0
-5670 5668 5671 0
5672 -5668 -5670 0
-5672 5670 0
-5672 5668 0
-5669 -5475 5673 0
5475 -5673 0
5669 -5673 0
5672 -5674 5673 0
-5672 5674 0
5674 -5673 0
5675 -202 -5521 0
202 -5675 0
5521 -5675 0
-5676 -5481 -5675 0
5675 5481 -5676 0
5676 5481 -5675 0
5675 -5481 5676 0
-5674 -5677 -5676 0
-5677 5676 5674 0
5677 -5674 5676 0
5677 -5676 5674 0
-5674 -5676 5678 0
-5678 5676 0
-5678 5674 0
-5481 -5675 5679 0
-5679 5481 0
5675 -5679 0
-5680 5679 5678 0
5680 -5678 0
5680 -5679 0
5681 -210 -5521 0
-5681 210 0
-5681 5521 0
-5682 -5681 -5487 0
5681 5487 -5682 0
5682 5487 -5681 0
5681 5682 -5487 0
-5682 -5683 -5680 0
5680 5682 -5683 0
5683 5682 -5680 0
-5682 5680 5683 0
-5682 5684 -5680 0
-5684 5682 0
5680 -5684 0
-5681 5685 -5487 0
-5685 5487 0
5681 -5685 0
5684 -5686 5685 0
-5684 5686 0
-5685 5686 0
-218 -5521 5687 0
-5687 218 0
-5687 5521 0
-5688 -5687 -5493 0
-5688 5493 5687 0
5688 -5687 5493 0
5687 5688 -5493 0
-5688 -5689 -5686 0
-5689 5686 5688 0
-5686 5688 5689 0
-5688 5686 5689 0
-5688 -5686 5690 0
5688 -5690 0
5686 -5690 0
5691 -5687 -5493 0
5493 -5691 0
-5691 5687 0
5690 5691 -5692 0
5692 -5690 0
5692 -5691 0
5693 -226 -5521 0
-5693 226 0
-5693 5521 0
-5693 -5694 -5499 0
5499 -5694 5693 0
5499 -5693 5694 0
5693 5694 -5499 0
-5695 -5694 -5692 0
5694 -5695 5692 0
5695 5694 -5692 0
5695 -5694 5692 0
-5694 -5692 5696 0
5694 -5696 0
-5696 5692 0
-5693 5697 -5499 0
5499 -5697 0
5693 -5697 0
-5698 5697 5696 0
-5696 5698 0
-5697 5698 0
5699 -5521 -234 0
234 -5699 0
-5699 5521 0
-5505 -5699 -5700 0
5699 5505 -5700 0
5700 5505 -5699 0
-5505 5700 5699 0
-5701 -5698 -5700 0
-5701 5700 5698 0
-5698 5700 5701 0
5701 5698 -5700 0
5702 -5698 -5700 0
5700 -5702 0
5698 -5702 0
-5505 -5699 5703 0
5505 -5703 0
5699 -5703 0
5702 -5704 5703 0
5704 -5702 0
5704 -5703 0
5705 -242 -5521 0
-5705 242 0
-5705 5521 0
-5705 -5511 -5706 0
5511 5705 -5706 0
-5705 5706 5511 0
5706 -5511 5705 0
-5704 -5706 -5707 0
5706 5704 -5707 0
5707 5706 -5704 0
5707 5704 -5706 0
5708 -5704 -5706 0
-5708 5706 0
-5708 5704 0
-5705 5709 -5511 0
5511 -5709 0
5705 -5709 0
5709 5708 -5710 0
-5708 5710 0
5710 -5709 0
-250 -5521 5711 0
-5711 250 0
-5711 5521 0
-5711 -5517 -5712 0
5517 -5712 5711 0
5517 -5711 5712 0
-5517 5712 5711 0
-5713 -5710 -5712 0
5710 -5713 5712 0
5713 -5710 5712 0
5713 5710 -5712 0
5714 -5710 -5712 0
-5714 5712 0
5710 -5714 0
-5711 -5517 5715 0
5517 -5715 0
-5715 5711 0
5714 5715 -5716 0
5716 -5714 0
5716 -5715 0
-5521 -258 5717 0
258 -5717 0
-5717 5521 0
-5718 -5717 -5520 0
5717 5520 -5718 0
5718 5520 -5717 0
5717 -5520 5718 0
-5716 -5719 -5718 0
-5719 5718 5716 0
-5716 5718 5719 0
-5718 5716 5719 0
-5716 -5718 5720 0
5718 -5720 0
-5720 5716 0
5721 -5717 -5520 0
-5721 5520 0
5717 -5721 0
-5722 5721 5720 0
5722 -5720 0
5722 -5721 0
-1 5724 -5723 0
-5724 1 0
-5724 5723 0
-5527 -5724 -5725 0
5527 -5725 5724 0
5725 5527 -5724 0
5725 -5527 5724 0
5726 -5527 -5724 0
-5726 5527 0
-5726 5724 0
-4 5727 -5723 0
-5727 4 0
-5727 5723 0
-5533 -5727 -5728 0
5533 -5728 5727 0
5533 -5727 5728 0
-5533 5728 5727 0
-5726 -5728 -5729 0
5726 -5729 5728 0
-5726 5728 5729 0
5726 -5728 5729 0
5730 -5726 -5728 0
-5730 5728 0
-5730 5726 0
-5533 -5727 5731 0
-5731 5533 0
-5731 5727 0
-5732 5730 5731 0
-5730 5732 0
5732 -5731 0
5733 -10 -5723 0
-5733 10 0
-5733 5723 0
-5539 -5733 -5734 0
5539 -5734 5733 0
5539 -5733 5734 0
-5539 5734 5733 0
-5735 -5734 -5732 0
-5735 5734 5732 0
5734 5735 -5732 0
-5734 5732 5735 0
-5734 -5732 5736 0
-5736 5734 0
-5736 5732 0
-5539 -5733 5737 0
5539 -5737 0
5733 -5737 0
5737 5736 -5738 0
-5736 5738 0
-5737 5738 0
5739 -5723 -18 0
-5739 18 0
-5739 5723 0
-5545 -5739 -5740 0
-5740 5545 5739 0
-5739 5545 5740 0
-5545 5740 5739 0
-5741 -5740 -5738 0
-5741 5740 5738 0
5741 5740 -5738 0
5741 -5740 5738 0
5742 -5740 -5738 0
5740 -5742 0
-5742 5738 0
5743 -5545 -5739 0
-5743 5545 0
-5743 5739 0
5742 -5744 5743 0
5744 -5742 0
-5743 5744 0
5745 -5723 -26 0
-5745 26 0
-5745 5723 0
-5551 -5745 -5746 0
5745 5551 -5746 0
5746 5551 -5745 0
5745 -5551 5746 0
-5746 -5747 -5744 0
5746 -5747 5744 0
5746 5747 -5744 0
5747 -5746 5744 0
5748 -5746 -5744 0
5746 -5748 0
-5748 5744 0
-5551 -5745 5749 0
-5749 5551 0
-5749 5745 0
5748 5749 -5750 0
-5748 5750 0
-5749 5750 0
-34 5751 -5723 0
-5751 34 0
-5751 5723 0
-5751 -5752 -5557 0
-5752 5557 5751 0
-5751 5557 5752 0
5752 -5557 5751 0
-5753 -5752 -5750 0
-5753 5750 5752 0
5753 -5750 5752 0
5750 -5752 5753 0
5754 -5752 -5750 0
5752 -5754 0
5750 -5754 0
-5751 5755 -5557 0
5557 -5755 0
-5755 5751 0
-5756 5754 5755 0
5756 -5754 0
-5755 5756 0
5757 -5723 -42 0
42 -5757 0
-5757 5723 0
-5563 -5757 -5758 0
5757 5563 -5758 0
5563 -5757 5758 0
-5563 5757 5758 0
-5756 -5759 -5758 0
-5759 5758 5756 0
-5756 5759 5758 0
5756 5759 -5758 0
-5756 5760 -5758 0
5758 -5760 0
-5760 5756 0
-5563 -5757 5761 0
-5761 5563 0
-5761 5757 0
5760 -5762 5761 0
5762 -5760 0
5762 -5761 0
-50 5763 -5723 0
50 -5763 0
-5763 5723 0
-5764 -5569 -5763 0
5569 -5764 5763 0
5569 -5763 5764 0
-5569 5764 5763 0
-5762 -5764 -5765 0
5762 -5765 5764 0
-5762 5765 5764 0
5762 -5764 5765 0
-5762 -5764 5766 0
-5766 5764 0
5762 -5766 0
-5569 5767 -5763 0
5569 -5767 0
-5767 5763 0
-5768 5766 5767 0
5768 -5766 0
-5767 5768 0
5769 -58 -5723 0
-5769 58 0
-5769 5723 0
-5770 -5575 -5769 0
5575 -5770 5769 0
5575 5770 -5769 0
5770 -5575 5769 0
-5768 -5770 -5771 0
5770 -5771 5768 0
5770 -5768 5771 0
-5770 5771 5768 0
-5768 -5770 5772 0
-5772 5770 0
-5772 5768 0
-5575 -5769 5773 0
5575 -5773 0
5769 -5773 0
5772 5773 -5774 0
-5772 5774 0
5774 -5773 0
5775 -66 -5723 0
-5775 66 0
-5775 5723 0
-5775 -5581 -5776 0
5775 5581 -5776 0
-5775 5581 5776 0
5775 5776 -5581 0
-5777 -5774 -5776 0
-5777 5776 5774 0
5777 5776 -5774 0
5777 5774 -5776 0
5778 -5774 -5776 0
-5778 5776 0
-5778 5774 0
-5775 -5581 5779 0
5581 -5779 0
5775 -5779 0
-5780 5778 5779 0
-5778 5780 0
5780 -5779 0
5781 -74 -5723 0
-5781 74 0
-5781 5723 0
-5781 -5782 -5587 0
5587 -5782 5781 0
5587 -5781 5782 0
5781 5782 -5587 0
-5782 -5783 -5780 0
-5783 5780 5782 0
5783 5782 -5780 0
-5782 5780 5783 0
-5782 5784 -5780 0
5782 -5784 0
5780 -5784 0
5785 -5781 -5587 0
5587 -5785 0
5781 -5785 0
5785 5784 -5786 0
5786 -5784 0
5786 -5785 0
5787 -82 -5723 0
82 -5787 0
-5787 5723 0
-5788 -5593 -5787 0
5787 -5788 5593 0
5788 -5787 5593 0
5787 -5593 5788 0
-5786 -5788 -5789 0
5786 -5789 5788 0
5789 -5786 5788 0
5786 -5788 5789 0
-5786 -5788 5790 0
-5790 5788 0
5786 -5790 0
-5593 -5787 5791 0
-5791 5593 0
5787 -5791 0
5791 -5792 5790 0
5792 -5790 0
5792 -5791 0
-90 5793 -5723 0
90 -5793 0
-5793 5723 0
-5793 -5794 -5599 0
5599 -5794 5793 0
5599 -5793 5794 0
5794 5793 -5599 0
-5794 -5795 -5792 0
5792 5794 -5795 0
5794 5795 -5792 0
5792 -5794 5795 0
-5794 5796 -5792 0
-5796 5794 0
-5796 5792 0
-5793 5797 -5599 0
5599 -5797 0
5793 -5797 0
-5798 5797 5796 0
5798 -5796 0
5798 -5797 0
-98 5799 -5723 0
-5799 98 0
-5799 5723 0
-5799 -5800 -5605 0
5605 -5800 5799 0
-5799 5605 5800 0
5800 -5605 5799 0
-5798 -5800 -5801 0
5798 5800 -5801 0
-5798 5800 5801 0
5798 -5800 5801 0
5802 -5798 -5800 0
5800 -5802 0
5798 -5802 0
-5799 5803 -5605 0
-5803 5605 0
-5803 5799 0
5802 5803 -5804 0
-5802 5804 0
-5803 5804 0
-106 5805 -5723 0
106 -5805 0
5723 -5805 0
-5806 -5611 -5805 0
5611 5805 -5806 0
5611 5806 -5805 0
5805 -5611 5806 0
-5806 -5807 -5804 0
-5807 5804 5806 0
5807 -5804 5806 0
5807 -5806 5804 0
-5806 -5804 5808 0
-5808 5806 0
-5808 5804 0
-5611 -5805 5809 0
5611 -5809 0
5805 -5809 0
5808 -5810 5809 0
-5808 5810 0
5810 -5809 0
5811 -114 -5723 0
114 -5811 0
-5811 5723 0
-5812 -5811 -5617 0
-5812 5617 5811 0
-5811 5617 5812 0
5811 5812 -5617 0
-5812 -5810 -5813 0
5812 5810 -5813 0
-5810 5812 5813 0
-5812 5813 5810 0
-5812 -5810 5814 0
-5814 5812 0
-5814 5810 0
5815 -5811 -5617 0
-5815 5617 0
-5815 5811 0
5814 -5816 5815 0
-5814 5816 0
-5815 5816 0
-122 5817 -5723 0
122 -5817 0
-5817 5723 0
-5817 -5623 -5818 0
5623 5817 -5818 0
5623 5818 -5817 0
5818 5817 -5623 0
-5816 -5819 -5818 0
5818 -5819 5816 0
-5816 5819 5818 0
5819 5816 -5818 0
5820 -5816 -5818 0
5818 -5820 0
5816 -5820 0
-5817 5821 -5623 0
5623 -5821 0
-5821 5817 0
5821 5820 -5822 0
5822 -5820 0
5822 -5821 0
5823 -5723 -130 0
130 -5823 0
-5823 5723 0
-5823 -5629 -5824 0
5629 5823 -5824 0
5629 -5823 5824 0
5823 -5629 5824 0
-5825 -5822 -5824 0
5822 5824 -5825 0
5824 5825 -5822 0
5822 5825 -5824 0
-5822 -5824 5826 0
5824 -5826 0
5822 -5826 0
5827 -5823 -5629 0
-5827 5629 0
-5827 5823 0
5827 -5828 5826 0
-5826 5828 0
-5827 5828 0
-138 5829 -5723 0
-5829 138 0
-5829 5723 0
-5829 -5830 -5635 0
5635 -5830 5829 0
5635 -5829 5830 0
5830 5829 -5635 0
-5831 -5830 -5828 0
5830 -5831 5828 0
5830 5831 -5828 0
5828 -5830 5831 0
5832 -5830 -5828 0
5830 -5832 0
-5832 5828 0
-5829 5833 -5635 0
5635 -5833 0
-5833 5829 0
5832 5833 -5834 0
5834 -5832 0
5834 -5833 0
5835 -146 -5723 0
146 -5835 0
-5835 5723 0
-5641 -5836 -5835 0
5641 5835 -5836 0
5641 -5835 5836 0
5835 -5641 5836 0
-5837 -5836 -5834 0
5834 -5837 5836 0
5837 5836 -5834 0
5834 5837 -5836 0
-5836 -5834 5838 0
-5838 5836 0
5834 -5838 0
-5641 -5835 5839 0
5641 -5839 0
5835 -5839 0
-5840 5838 5839 0
5840 -5838 0
5840 -5839 0
5841 -154 -5723 0
-5841 154 0
-5841 5723 0
-5842 -5841 -5647 0
5841 -5842 5647 0
-5841 5842 5647 0
5841 5842 -5647 0
-5842 -5840 -5843 0
5840 5842 -5843 0
5842 -5840 5843 0
-5842 5840 5843 0
-5842 -5840 5844 0
-5844 5842 0
-5844 5840 0
-5841 -5647 5845 0
-5845 5647 0
5841 -5845 0
-5846 5845 5844 0
-5844 5846 0
5846 -5845 0
5847 -162 -5723 0
-5847 162 0
-5847 5723 0
-5653 -5847 -5848 0
-5848 5847 5653 0
-5847 5653 5848 0
-5653 5847 5848 0
-5848 -5846 -5849 0
-5849 5846 5848 0
-5846 5849 5848 0
-5848 5849 5846 0
-5848 -5846 5850 0
-5850 5848 0
-5850 5846 0
-5653 -5847 5851 0
-5851 5653 0
-5851 5847 0
-5852 5850 5851 0
-5850 5852 0
-5851 5852 0
5853 -170 -5723 0
170 -5853 0
-5853 5723 0
-5853 -5659 -5854 0
5659 5853 -5854 0
-5853 5659 5854 0
5854 -5659 5853 0
-5855 -5852 -5854 0
5852 5854 -5855 0
-5852 5855 5854 0
5855 5852 -5854 0
-5852 5856 -5854 0
-5856 5854 0
-5856 5852 0
-5853 5857 -5659 0
5659 -5857 0
5853 -5857 0
5857 5856 -5858 0
5858 -5856 0
5858 -5857 0
-5723 5859 -178 0
-5859 178 0
5723 -5859 0
-5665 -5860 -5859 0
-5860 5665 5859 0
5665 5860 -5859 0
-5665 5859 5860 0
-5860 -5861 -5858 0
5858 -5861 5860 0
5861 -5858 5860 0
-5860 5858 5861 0
-5860 5862 -5858 0
-5862 5860 0
-5862 5858 0
-5665 5863 -5859 0
5665 -5863 0
5859 -5863 0
5862 -5864 5863 0
-5862 5864 0
5864 -5863 0
5865 -186 -5723 0
186 -5865 0
-5865 5723 0
-5671 -5865 -5866 0
5865 -5866 5671 0
-5865 5866 5671 0
-5671 5866 5865 0
-5864 -5866 -5867 0
5866 -5867 5864 0
-5864 5866 5867 0
-5866 5867 5864 0
5868 -5864 -5866 0
5866 -5868 0
-5868 5864 0
-5671 -5865 5869 0
-5869 5671 0
-5869 5865 0
5868 5869 -5870 0
5870 -5868 0
-5869 5870 0
-194 5871 -5723 0
194 -5871 0
5723 -5871 0
-5872 -5677 -5871 0
5677 -5872 5871 0
5677 5872 -5871 0
-5677 5872 5871 0
-5872 -5873 -5870 0
-5873 5870 5872 0
5873 -5870 5872 0
-5872 5870 5873 0
-5872 5874 -5870 0
-5874 5872 0
-5874 5870 0
5875 -5677 -5871 0
5677 -5875 0
-5875 5871 0
5875 5874 -5876 0
-5874 5876 0
-5875 5876 0
5877 -202 -5723 0
-5877 202 0
-5877 5723 0
-5877 -5683 -5878 0
-5878 5877 5683 0
-5877 5683 5878 0
5877 -5683 5878 0
-5878 -5876 -5879 0
-5879 5876 5878 0
-5876 5879 5878 0
-5878 5876 5879 0
-5878 -5876 5880 0
-5880 5878 0
5876 -5880 0
-5877 -5683 5881 0
-5881 5683 0
5877 -5881 0
5881 -5882 5880 0
5882 -5880 0
5882 -5881 0
5883 -210 -5723 0
-5883 210 0
-5883 5723 0
-5883 -5689 -5884 0
5883 -5884 5689 0
-5883 5884 5689 0
-5689 5884 5883 0
-5884 -5882 -5885 0
5882 -5885 5884 0
5885 -5882 5884 0
5882 -5884 5885 0
-5884 -5882 5886 0
-5886 5884 0
5882 -5886 0
-5883 -5689 5887 0
-5887 5689 0
-5887 5883 0
-5888 5886 5887 0
-5886 5888 0
-5887 5888 0
-218 5889 -5723 0
-5889 218 0
-5889 5723 0
-5695 -5890 -5889 0
5695 5889 -5890 0
5695 5890 -5889 0
-5695 5889 5890 0
-5891 -5888 -5890 0
-5891 5890 5888 0
-5888 5891 5890 0
5891 -5890 5888 0
-5888 -5890 5892 0
-5892 5890 0
-5892 5888 0
-5695 5893 -5889 0
5695 -5893 0
-5893 5889 0
-5894 5893 5892 0
-5892 5894 0
5894 -5893 0
5895 -226 -5723 0
-5895 226 0
-5895 5723 0
-5701 -5895 -5896 0
5895 -5896 5701 0
-5895 5701 5896 0
-5701 5895 5896 0
-5894 -5896 -5897 0
5894 -5897 5896 0
-5894 5897 5896 0
5894 -5896 5897 0
5898 -5894 -5896 0
-5898 5896 0
5894 -5898 0
-5701 -5895 5899 0
-5899 5701 0
5895 -5899 0
5898 -5900 5899 0
-5898 5900 0
-5899 5900 0
5901 -5723 -234 0
234 -5901 0
-5901 5723 0
-5902 -5901 -5707 0
5707 -5902 5901 0
5707 -5901 5902 0
5902 5901 -5707 0
-5902 -5900 -5903 0
-5903 5902 5900 0
5903 5902 -5900 0
-5902 5903 5900 0
-5902 5904 -5900 0
-5904 5902 0
-5904 5900 0
5905 -5901 -5707 0
5707 -5905 0
-5905 5901 0
5905 5904 -5906 0
-5904 5906 0
-5905 5906 0
-242 5907 -5723 0
242 -5907 0
-5907 5723 0
-5908 -5713 -5907 0
5713 -5908 5907 0
5713 5908 -5907 0
5908 -5713 5907 0
-5908 -5906 -5909 0
5908 5906 -5909 0
5909 5908 -5906 0
-5908 5909 5906 0
-5908 5910 -5906 0
5908 -5910 0
5906 -5910 0
-5713 -5907 5911 0
5713 -5911 0
-5911 5907 0
-5912 5910 5911 0
5912 -5910 0
5912 -5911 0
5913 -250 -5723 0
-5913 250 0
-5913 5723 0
-5719 -5913 -5914 0
5913 5719 -5914 0
5914 -5913 5719 0
5914 -5719 5913 0
-5915 -5912 -5914 0
5914 -5915 5912 0
5914 5915 -5912 0
5912 5915 -5914 0
5916 -5912 -5914 0
5914 -5916 0
-5916 5912 0
5917 -5719 -5913 0
-5917 5719 0
5913 -5917 0
5917 5916 -5918 0
-5916 5918 0
-5917 5918 0
5919 -258 -5723 0
258 -5919 0
5723 -5919 0
-5722 -5920 -5919 0
5722 5919 -5920 0
5722 5920 -5919 0
5919 -5722 5920 0
-5918 -5921 -5920 0
-5921 5920 5918 0
-5918 5920 5921 0
-5920 5921 5918 0
-5918 5922 -5920 0
-5922 5920 0
-5922 5918 0
-5722 5923 -5919 0
5722 -5923 0
5919 -5923 0
-5924 5922 5923 0
-5922 5924 0
5924 -5923 0
-5925 5926 -1 0
-5926 1 0
-5926 5925 0
-5927 -5729 -5926 0
-5927 5926 5729 0
5927 -5926 5729 0
5927 -5729 5926 0
-5729 -5926 5928 0
-5928 5729 0
-5928 5926 0
-5925 -4 5929 0
-5929 4 0
5925 -5929 0
-5735 -5930 -5929 0
5735 5929 -5930 0
5930 5735 -5929 0
-5735 5930 5929 0
-5928 -5930 -5931 0
5930 -5931 5928 0
-5928 5931 5930 0
5931 -5930 5928 0
-5928 -5930 5932 0
-5932 5930 0
-5932 5928 0
-5735 5933 -5929 0
5735 -5933 0
-5933 5929 0
-5934 5933 5932 0
-5932 5934 0
5934 -5933 0
-5925 5935 -10 0
10 -5935 0
5925 -5935 0
-5741 -5936 -5935 0
5741 -5936 5935 0
5936 5741 -5935 0
-5741 5936 5935 0
-5934 -5937 -5936 0
5936 5934 -5937 0
5936 -5934 5937 0
5934 5937 -5936 0
5938 -5934 -5936 0
5936 -5938 0
-5938 5934 0
-5741 5939 -5935 0
5741 -5939 0
5935 -5939 0
-5940 5938 5939 0
5940 -5938 0
5940 -5939 0
-5925 5941 -18 0
18 -5941 0
5925 -5941 0
-5942 -5747 -5941 0
5747 -5942 5941 0
5747 5942 -5941 0
5941 -5747 5942 0
-5940 -5942 -5943 0
5940 -5943 5942 0
5943 -5940 5942 0
5943 -5942 5940 0
-5940 -5942 5944 0
-5944 5942 0
-5944 5940 0
5945 -5747 -5941 0
5747 -5945 0
5941 -5945 0
5945 -5946 5944 0
-5944 5946 0
-5945 5946 0
-5925 5947 -26 0
-5947 26 0
-5947 5925 0
-5947 -5753 -5948 0
-5948 5947 5753 0
5948 -5947 5753 0
5948 -5753 5947 0
-5948 -5946 -5949 0
5948 -5949 5946 0
5948 -5946 5949 0
-5948 5946 5949 0
5950 -5948 -5946 0
5948 -5950 0
-5950 5946 0
-5947 -5753 5951 0
-5951 5753 0
-5951 5947 0
5950 -5952 5951 0
5952 -5950 0
5952 -5951 0
-34 -5925 5953 0
-5953 34 0
-5953 5925 0
-5954 -5759 -5953 0
-5954 5759 5953 0
5759 5954 -5953 0
-5759 5953 5954 0
-5954 -5952 -5955 0
5952 5954 -5955 0
5955 -5952 5954 0
-5954 5952 5955 0
-5954 -5952 5956 0
-5956 5954 0
-5956 5952 0
-5759 5957 -5953 0
-5957 5759 0
-5957 5953 0
-5958 5956 5957 0
-5956 5958 0
-5957 5958 0
-5925 5959 -42 0
42 -5959 0
-5959 5925 0
-5959 -5765 -5960 0
5959 5765 -5960 0
-5959 5960 5765 0
5960 5959 -5765 0
-5958 -5961 -5960 0
-5961 5960 5958 0
5961 -5958 5960 0
5961 5958 -5960 0
-5958 -5960 5962 0
5960 -5962 0
-5962 5958 0
-5959 5963 -5765 0
5765 -5963 0
5959 -5963 0
5963 -5964 5962 0
5964 -5962 0
5964 -5963 0
-50 5965 -5925 0
50 -5965 0
-5965 5925 0
-5966 -5771 -5965 0
-5966 5965 5771 0
5966 -5965 5771 0
5966 -5771 5965 0
-5966 -5964 -5967 0
5964 5966 -5967 0
5967 5966 -5964 0
5967 -5966 5964 0
-5966 5968 -5964 0
-5968 5966 0
-5968 5964 0
5969 -5771 -5965 0
-5969 5771 0
-5969 5965 0
-5970 5969 5968 0
-5968 5970 0
-5969 5970 0
-5925 5971 -58 0
-5971 58 0
-5971 5925 0
-5971 -5972 -5777 0
-5972 5777 5971 0
5777 5972 -5971 0
5971 5972 -5777 0
-5970 -5972 -5973 0
5972 -5973 5970 0
-5970 5972 5973 0
-5972 5970 5973 0
-5970 -5972 5974 0
5972 -5974 0
5970 -5974 0
-5971 -5777 5975 0
5777 -5975 0
-5975 5971 0
-5976 5974 5975 0
-5974 5976 0
-5975 5976 0
-5925 -66 5977 0
66 -5977 0
-5977 5925 0
-5977 -5978 -5783 0
5977 -5978 5783 0
5978 -5977 5783 0
5978 -5783 5977 0
-5979 -5978 -5976 0
-5979 5978 5976 0
5979 -5976 5978 0
-5978 5979 5976 0
5980 -5978 -5976 0
5978 -5980 0
5976 -5980 0
-5977 -5783 5981 0
-5981 5783 0
-5981 5977 0
5980 -5982 5981 0
5982 -5980 0
-5981 5982 0
-5925 5983 -74 0
-5983 74 0
-5983 5925 0
-5984 -5983 -5789 0
5983 5789 -5984 0
5984 5789 -5983 0
5984 5983 -5789 0
-5982 -5984 -5985 0
5984 -5985 5982 0
5984 -5982 5985 0
5985 -5984 5982 0
5986 -5982 -5984 0
5984 -5986 0
-5986 5982 0
5987 -5983 -5789 0
5789 -5987 0
5983 -5987 0
-5988 5986 5987 0
5988 -5986 0
5988 -5987 0
-82 5989 -5925 0
-5989 82 0
-5989 5925 0
-5989 -5990 -5795 0
-5990 5989 5795 0
-5989 5990 5795 0
5990 5989 -5795 0
-5988 -5991 -5990 0
5990 5988 -5991 0
5990 -5988 5991 0
5988 -5990 5991 0
5992 -5988 -5990 0
5990 -5992 0
5988 -5992 0
-5989 5993 -5795 0
-5993 5795 0
-5993 5989 0
5992 5993 -5994 0
-5992 5994 0
-5993 5994 0
-5925 -90 5995 0
-5995 90 0
-5995 5925 0
-5995 -5996 -5801 0
-5996 5995 5801 0
-5995 5801 5996 0
5996 -5801 5995 0
-5996 -5994 -5997 0
5996 -5997 5994 0
5996 -5994 5997 0
-5996 5997 5994 0
-5996 -5994 5998 0
5996 -5998 0
5994 -5998 0
-5995 5999 -5801 0
-5999 5801 0
-5999 5995 0
5999 -6000 5998 0
6000 -5998 0
-5999 6000 0
-98 -5925 6001 0
-6001 98 0
-6001 5925 0
-6001 -5807 -6002 0
6001 5807 -6002 0
-6001 6002 5807 0
-5807 6001 6002 0
-6003 -6000 -6002 0
-6003 6000 6002 0
-6000 6002 6003 0
6000 -6002 6003 0
-6000 6004 -6002 0
-6004 6002 0
-6004 6000 0
-6001 -5807 6005 0
-6005 5807 0
-6005 6001 0
-6006 6004 6005 0
6006 -6004 0
6006 -6005 0
-106 -5925 6007 0
106 -6007 0
-6007 5925 0
-6007 -5813 -6008 0
6007 5813 -6008 0
6008 5813 -6007 0
6008 6007 -5813 0
-6006 -6009 -6008 0
-6009 6008 6006 0
-6006 6008 6009 0
6009 6006 -6008 0
-6006 6010 -6008 0
6008 -6010 0
6006 -6010 0
6011 -6007 -5813 0
-6011 5813 0
-6011 6007 0
-6012 6011 6010 0
6012 -6010 0
-6011 6012 0
-5925 6013 -114 0
114 -6013 0
5925 -6013 0
-6014 -5819 -6013 0
-6014 5819 6013 0
6014 5819 -6013 0
6014 -5819 6013 0
-6012 -6014 -6015 0
6014 -6015 6012 0
6014 -6012 6015 0
6015 -6014 6012 0
-6012 -6014 6016 0
6014 -6016 0
-6016 6012 0
-5819 -6013 6017 0
-6017 5819 0
-6017 6013 0
-6018 6016 6017 0
-6016 6018 0
-6017 6018 0
-5925 -122 6019 0
122 -6019 0
-6019 5925 0
-6019 -5825 -6020 0
5825 -6020 6019 0
6020 -6019 5825 0
6020 -5825 6019 0
-6018 -6020 -6021 0
6020 -6021 6018 0
6020 -6018 6021 0
6021 -6020 6018 0
-6018 -6020 6022 0
6020 -6022 0
-6022 6018 0
-6019 -5825 6023 0
5825 -6023 0
-6023 6019 0
-6024 6022 6023 0
-6022 6024 0
6024 -6023 0
-5925 6025 -130 0
-6025 130 0
-6025 5925 0
-6025 -6026 -5831 0
-6026 6025 5831 0
6026 -6025 5831 0
6026 -5831 6025 0
-6027 -6024 -6026 0
6026 6024 -6027 0
6026 -6024 6027 0
6024 -6026 6027 0
-6024 6028 -6026 0
6026 -6028 0
-6028 6024 0
-6025 6029 -5831 0
-6029 5831 0
6025 -6029 0
6029 6028 -6030 0
-6028 6030 0
6030 -6029 0
-5925 -138 6031 0
-6031 138 0
-6031 5925 0
-6031 -6032 -5837 0
-6032 5837 6031 0
-6031 5837 6032 0
6032 -5837 6031 0
-6032 -6033 -6030 0
6032 -6033 6030 0
6032 6033 -6030 0
-6032 6033 6030 0
-6032 6034 -6030 0
6032 -6034 0
6030 -6034 0
-6031 -5837 6035 0
5837 -6035 0
-6035 6031 0
-6036 6034 6035 0
6036 -6034 0
6036 -6035 0
-5925 6037 -146 0
146 -6037 0
-6037 5925 0
-6038 -6037 -5843 0
-6038 6037 5843 0
6038 -6037 5843 0
6037 6038 -5843 0
-6036 -6038 -6039 0
-6039 6038 6036 0
-6036 6038 6039 0
-6038 6036 6039 0
-6036 -6038 6040 0
6038 -6040 0
6036 -6040 0
6041 -6037 -5843 0
-6041 5843 0
6037 -6041 0
6040 6041 -6042 0
6042 -6040 0
6042 -6041 0
-5925 6043 -154 0
154 -6043 0
5925 -6043 0
-6043 -6044 -5849 0
-6044 6043 5849 0
6044 5849 -6043 0
6044 6043 -5849 0
-6044 -6045 -6042 0
6044 -6045 6042 0
6044 6045 -6042 0
6042 -6044 6045 0
-6044 -6042 6046 0
6044 -6046 0
6042 -6046 0
-6043 6047 -5849 0
5849 -6047 0
6043 -6047 0
6047 -6048 6046 0
6048 -6046 0
6048 -6047 0
-5925 6049 -162 0
162 -6049 0
-6049 5925 0
-5855 -6049 -6050 0
6049 5855 -6050 0
6050 -6049 5855 0
-5855 6050 6049 0
-6048 -6050 -6051 0
6050 6048 -6051 0
6051 -6048 6050 0
6051 6048 -6050 0
-6048 6052 -6050 0
-6052 6050 0
-6052 6048 0
-5855 6053 -6049 0
5855 -6053 0
6049 -6053 0
-6054 6053 6052 0
-6052 6054 0
6054 -6053 0
-5925 -170 6055 0
170 -6055 0
-6055 5925 0
-5861 -6055 -6056 0
5861 6055 -6056 0
5861 6056 -6055 0
6055 -5861 6056 0
-6057 -6054 -6056 0
-6057 6056 6054 0
6056 -6054 6057 0
6054 6057 -6056 0
-6054 6058 -6056 0
6056 -6058 0
-6058 6054 0
6059 -5861 -6055 0
5861 -6059 0
6055 -6059 0
6059 6058 -6060 0
-6058 6060 0
-6059 6060 0
-5925 6061 -178 0
-6061 178 0
-6061 5925 0
-6061 -5867 -6062 0
-6062 6061 5867 0
-6061 6062 5867 0
6061 6062 -5867 0
-6062 -6060 -6063 0
6062 -6063 6060 0
6062 -6060 6063 0
-6062 6063 6060 0
-6062 -6060 6064 0
6062 -6064 0
-6064 6060 0
-6061 6065 -5867 0
-6065 5867 0
-6065 6061 0
6065 -6066 6064 0
-6064 6066 0
-6065 6066 0
-5925 6067 -186 0
186 -6067 0
5925 -6067 0
-5873 -6068 -6067 0
5873 -6068 6067 0
5873 6068 -6067 0
-5873 6067 6068 0
-6069 -6068 -6066 0
6066 -6069 6068 0
-6066 6068 6069 0
6066 -6068 6069 0
-6068 -6066 6070 0
-6070 6068 0
6066 -6070 0
6071 -5873 -6067 0
5873 -6071 0
6067 -6071 0
6071 -6072 6070 0
-6070 6072 0
-6071 6072 0
-194 -5925 6073 0
194 -6073 0
-6073 5925 0
-6074 -6073 -5879 0
-6074 6073 5879 0
6074 5879 -6073 0
6074 6073 -5879 0
-6075 -6072 -6074 0
6074 -6075 6072 0
6074 6075 -6072 0
6075 -6074 6072 0
-6072 -6074 6076 0
6074 -6076 0
-6076 6072 0
-6073 6077 -5879 0
-6077 5879 0
-6077 6073 0
-6078 6076 6077 0
6078 -6076 0
-6077 6078 0
6079 -5925 -202 0
202 -6079 0
5925 -6079 0
-5885 -6080 -6079 0
6079 -6080 5885 0
6080 5885 -6079 0
6079 6080 -5885 0
-6078 -6081 -6080 0
6078 6080 -6081 0
6081 -6078 6080 0
6081 6078 -6080 0
-6078 6082 -6080 0
-6082 6080 0
-6082 6078 0
6083 -5885 -6079 0
-6083 5885 0
6079 -6083 0
6082 6083 -6084 0
-6082 6084 0
-6083 6084 0
-5925 6085 -210 0
-6085 210 0
-6085 5925 0
-5891 -6086 -6085 0
6085 5891 -6086 0
6086 5891 -6085 0
-5891 6086 6085 0
-6086 -6087 -6084 0
6086 6084 -6087 0
6087 6086 -6084 0
6087 -6086 6084 0
6088 -6086 -6084 0
-6088 6086 0
-6088 6084 0
-5891 -6085 6089 0
5891 -6089 0
6085 -6089 0
6088 6089 -6090 0
-6088 6090 0
6090 -6089 0
-5925 -218 6091 0
-6091 218 0
-6091 5925 0
-6092 -6091 -5897 0
-6092 6091 5897 0
6092 -6091 5897 0
6091 6092 -5897 0
-6092 -6093 -6090 0
6090 6092 -6093 0
6093 6092 -6090 0
-6092 6090 6093 0
-6092 6094 -6090 0
-6094 6092 0
6090 -6094 0
6095 -6091 -5897 0
-6095 5897 0
6091 -6095 0
6094 -6096 6095 0
-6094 6096 0
-6095 6096 0
-226 -5925 6097 0
-6097 226 0
-6097 5925 0
-6097 -6098 -5903 0
5903 -6098 6097 0
6098 -6097 5903 0
6098 6097 -5903 0
-6099 -6096 -6098 0
6098 -6099 6096 0
6099 6098 -6096 0
6099 -6098 6096 0
6100 -6096 -6098 0
6098 -6100 0
-6100 6096 0
6101 -6097 -5903 0
-6101 5903 0
-6101 6097 0
6100 6101 -6102 0
-6100 6102 0
-6101 6102 0
-5925 6103 -234 0
234 -6103 0
-6103 5925 0
-6104 -6103 -5909 0
5909 6103 -6104 0
5909 -6103 6104 0
6104 6103 -5909 0
-6105 -6104 -6102 0
-6105 6104 6102 0
6105 6104 -6102 0
6105 -6104 6102 0
6106 -6104 -6102 0
-6106 6104 0
-6106 6102 0
6107 -6103 -5909 0
-6107 5909 0
-6107 6103 0
6106 -6108 6107 0
6108 -6106 0
-6107 6108 0
-5925 6109 -242 0
-6109 242 0
-6109 5925 0
-6109 -5915 -6110 0
6109 -6110 5915 0
-6109 6110 5915 0
6110 -5915 6109 0
-6108 -6110 -6111 0
6110 6108 -6111 0
6110 -6108 6111 0
-6110 6108 6111 0
-6108 -6110 6112 0
6110 -6112 0
6108 -6112 0
-6109 -5915 6113 0
-6113 5915 0
-6113 6109 0
6113 6112 -6114 0
6114 -6112 0
-6113 6114 0
-5925 -250 6115 0
-6115 250 0
-6115 5925 0
-6115 -5921 -6116 0
-6116 6115 5921 0
-6115 6116 5921 0
-5921 6116 6115 0
-6117 -6116 -6114 0
-6117 6116 6114 0
6117 6116 -6114 0
6117 6114 -6116 0
6118 -6116 -6114 0
-6118 6116 0
-6118 6114 0
-6115 -5921 6119 0
-6119 5921 0
-6119 6115 0
6118 6119 -6120 0
-6118 6120 0
6120 -6119 0
-5925 6121 -258 0
-6121 258 0
-6121 5925 0
-6122 -5924 -6121 0
-6122 6121 5924 0
-6121 5924 6122 0
6121 -5924 6122 0
-6123 -6122 -6120 0
-6123 6120 6122 0
6122 -6120 6123 0
-6122 6120 6123 0
-6122 6124 -6120 0
-6124 6122 0
6120 -6124 0
6125 -5924 -6121 0
-6125 5924 0
-6125 6121 0
6124 6125 -6126 0
-6124 6126 0
-6125 6126 0
6128 -1 -6127 0
-6128 1 0
-6128 6127 0
-6128 -6129 -5931 0
5931 6128 -6129 0
5931 -6128 6129 0
6128 6129 -5931 0
-6128 -5931 6130 0
5931 -6130 0
6128 -6130 0
-4 -6127 6131 0
-6131 4 0
-6131 6127 0
-6131 -6132 -5937 0
-6132 6131 5937 0
-6131 5937 6132 0
6131 6132 -5937 0
-6132 -6130 -6133 0
-6133 6132 6130 0
6133 -6130 6132 0
6133 -6132 6130 0
-6132 6134 -6130 0
-6134 6132 0
-6134 6130 0
-6131 6135 -5937 0
5937 -6135 0
6131 -6135 0
6134 -6136 6135 0
-6134 6136 0
6136 -6135 0
6137 -6127 -10 0
10 -6137 0
-6137 6127 0
-5943 -6137 -6138 0
5943 -6138 6137 0
5943 6138 -6137 0
6137 6138 -5943 0
-6136 -6138 -6139 0
6138 -6139 6136 0
6139 6138 -6136 0
6139 -6138 6136 0
-6136 -6138 6140 0
6138 -6140 0
-6140 6136 0
-5943 -6137 6141 0
5943 -6141 0
6137 -6141 0
-6142 6141 6140 0
6142 -6140 0
6142 -6141 0
-6127 6143 -18 0
-6143 18 0
6127 -6143 0
-6144 -6143 -5949 0
-6144 6143 5949 0
-6143 6144 5949 0
-5949 6143 6144 0
-6144 -6142 -6145 0
6142 -6145 6144 0
6145 -6142 6144 0
-6144 6145 6142 0
-6144 -6142 6146 0
-6146 6144 0
-6146 6142 0
-6143 -5949 6147 0
-6147 5949 0
6143 -6147 0
6146 -6148 6147 0
-6146 6148 0
6148 -6147 0
6149 -6127 -26 0
-6149 26 0
-6149 6127 0
-6149 -6150 -5955 0
6149 5955 -6150 0
-6149 5955 6150 0
6149 -5955 6150 0
-6150 -6148 -6151 0
6148 -6151 6150 0
6151 -6148 6150 0
6151 -6150 6148 0
-6150 -6148 6152 0
-6152 6150 0
-6152 6148 0
-6149 -5955 6153 0
5955 -6153 0
6149 -6153 0
6153 -6154 6152 0
-6152 6154 0
6154 -6153 0
-34 6155 -6127 0
-6155 34 0
-6155 6127 0
-5961 -6155 -6156 0
5961 -6156 6155 0
5961 -6155 6156 0
-5961 6156 6155 0
-6154 -6156 -6157 0
6154 6156 -6157 0
-6154 6157 6156 0
6154 6157 -6156 0
6158 -6154 -6156 0
6156 -6158 0
6154 -6158 0
6159 -5961 -6155 0
5961 -6159 0
-6159 6155 0
6159 6158 -6160 0
-6158 6160 0
-6159 6160 0
6161 -6127 -42 0
42 -6161 0
-6161 6127 0
-6162 -6161 -5967 0
5967 -6162 6161 0
5967 -6161 6162 0
6161 -5967 6162 0
-6162 -6163 -6160 0
-6163 6160 6162 0
6163 -6160 6162 0
-6162 6163 6160 0
-6162 -6160 6164 0
-6164 6162 0
-6164 6160 0
6165 -6161 -5967 0
5967 -6165 0
6161 -6165 0
6165 6164 -6166 0
6166 -6164 0
6166 -6165 0
-50 6167 -6127 0
50 -6167 0
-6167 6127 0
-6167 -6168 -5973 0
6167 -6168 5973 0
-6167 6168 5973 0
6167 6168 -5973 0
-6169 -6168 -6166 0
-6169 6166 6168 0
6169 6168 -6166 0
6169 6166 -6168 0
6170 -6168 -6166 0
-6170 6168 0
6166 -6170 0
-6167 6171 -5973 0
-6171 5973 0
-6171 6167 0
6170 6171 -6172 0
6172 -6170 0
-6171 6172 0
6173 -6127 -58 0
-6173 58 0
-6173 6127 0
-5979 -6173 -6174 0
5979 6173 -6174 0
-6173 6174 5979 0
-5979 6174 6173 0
-6175 -6172 -6174 0
-6175 6174 6172 0
6175 6174 -6172 0
6175 6172 -6174 0
-6172 6176 -6174 0
6174 -6176 0
6172 -6176 0
-5979 -6173 6177 0
-6177 5979 0
-6177 6173 0
-6178 6177 6176 0
6178 -6176 0
6178 -6177 0
-6127 -66 6179 0
66 -6179 0
6127 -6179 0
-5985 -6179 -6180 0
5985 -6180 6179 0
5985 6180 -6179 0
6180 -5985 6179 0
-6178 -6180 -6181 0
6180 6178 -6181 0
-6178 6180 6181 0
6181 6178 -6180 0
-6178 6182 -6180 0
6180 -6182 0
6178 -6182 0
-5985 -6179 6183 0
5985 -6183 0
6179 -6183 0
6182 -6184 6183 0
-6182 6184 0
6184 -6183 0
6185 -6127 -74 0
-6185 74 0
6127 -6185 0
-6186 -5991 -6185 0
-6186 6185 5991 0
6186 5991 -6185 0
6186 -5991 6185 0
-6186 -6184 -6187 0
6186 -6187 6184 0
6187 6186 -6184 0
-6186 6187 6184 0
-6186 -6184 6188 0
6186 -6188 0
-6188 6184 0
6189 -5991 -6185 0
-6189 5991 0
-6189 6185 0
6189 6188 -6190 0
6190 -6188 0
6190 -6189 0
-82 6191 -6127 0
-6191 82 0
-6191 6127 0
-6191 -5997 -6192 0
5997 -6192 6191 0
6192 -6191 5997 0
6192 -5997 6191 0
-6192 -6190 -6193 0
6192 6190 -6193 0
6192 -6190 6193 0
6190 -6192 6193 0
-6192 -6190 6194 0
6192 -6194 0
6190 -6194 0
6195 -6191 -5997 0
5997 -6195 0
6191 -6195 0
6195 -6196 6194 0
6196 -6194 0
6196 -6195 0
6197 -90 -6127 0
90 -6197 0
-6197 6127 0
-6197 -6003 -6198 0
-6198 6197 6003 0
-6197 6198 6003 0
-6003 6198 6197 0
-6199 -6196 -6198 0
-6199 6198 6196 0
-6196 6198 6199 0
6199 6196 -6198 0
-6196 6200 -6198 0
-6200 6198 0
-6200 6196 0
-6197 -6003 6201 0
-6201 6003 0
-6201 6197 0
6201 6200 -6202 0
6202 -6200 0
6202 -6201 0
-98 -6127 6203 0
98 -6203 0
6127 -6203 0
-6009 -6204 -6203 0
6009 -6204 6203 0
6009 6204 -6203 0
6203 -6009 6204 0
-6205 -6204 -6202 0
6202 -6205 6204 0
-6202 6205 6204 0
6202 -6204 6205 0
6206 -6204 -6202 0
-6206 6204 0
6202 -6206 0
-6009 6207 -6203 0
6009 -6207 0
6203 -6207 0
6206 6207 -6208 0
-6206 6208 0
6208 -6207 0
-106 -6127 6209 0
106 -6209 0
6127 -6209 0
-6210 -6015 -6209 0
6015 6209 -6210 0
6015 6210 -6209 0
6210 -6015 6209 0
-6208 -6211 -6210 0
6210 6208 -6211 0
6210 6211 -6208 0
6211 6208 -6210 0
6212 -6208 -6210 0
6210 -6212 0
-6212 6208 0
6213 -6015 -6209 0
6015 -6213 0
-6213 6209 0
6212 -6214 6213 0
6214 -6212 0
6214 -6213 0
6215 -6127 -114 0
114 -6215 0
-6215 6127 0
-6021 -6215 -6216 0
6215 -6216 6021 0
-6215 6216 6021 0
-6021 6215 6216 0
-6214 -6216 -6217 0
6214 6216 -6217 0
6217 -6214 6216 0
6214 -6216 6217 0
-6214 -6216 6218 0
-6218 6216 0
-6218 6214 0
-6021 -6215 6219 0
-6219 6021 0
6215 -6219 0
-6220 6218 6219 0
-6218 6220 0
6220 -6219 0
6221 -122 -6127 0
-6221 122 0
-6221 6127 0
-6027 -6221 -6222 0
6221 -6222 6027 0
-6221 6222 6027 0
-6027 6221 6222 0
-6222 -6223 -6220 0
6222 -6223 6220 0
6222 -6220 6223 0
-6222 6220 6223 0
-6222 6224 -6220 0
6222 -6224 0
-6224 6220 0
-6027 -6221 6225 0
-6225 6027 0
6221 -6225 0
-6226 6224 6225 0
-6224 6226 0
-6225 6226 0
6227 -6127 -130 0
-6227 130 0
-6227 6127 0
-6227 -6033 -6228 0
6033 6227 -6228 0
6033 -6227 6228 0
6227 -6033 6228 0
-6226 -6229 -6228 0
-6229 6228 6226 0
-6226 6229 6228 0
6229 -6228 6226 0
-6226 6230 -6228 0
-6230 6228 0
-6230 6226 0
6231 -6227 -6033 0
6033 -6231 0
6227 -6231 0
6231 -6232 6230 0
-6230 6232 0
-6231 6232 0
6233 -138 -6127 0
-6233 138 0
-6233 6127 0
-6233 -6039 -6234 0
6233 -6234 6039 0
-6233 6234 6039 0
6233 -6039 6234 0
-6235 -6232 -6234 0
-6235 6234 6232 0
6235 6234 -6232 0
6235 6232 -6234 0
6236 -6232 -6234 0
6234 -6236 0
6232 -6236 0
-6233 -6039 6237 0
-6237 6039 0
6233 -6237 0
6236 -6238 6237 0
6238 -6236 0
6238 -6237 0
-6127 -146 6239 0
146 -6239 0
-6239 6127 0
-6239 -6045 -6240 0
6045 -6240 6239 0
6240 -6239 6045 0
6240 -6045 6239 0
-6241 -6238 -6240 0
6240 6238 -6241 0
6240 6241 -6238 0
6241 6238 -6240 0
6242 -6238 -6240 0
-6242 6240 0
-6242 6238 0
6243 -6239 -6045 0
6045 -6243 0
-6243 6239 0
-6244 6243 6242 0
-6242 6244 0
6244 -6243 0
6245 -6127 -154 0
154 -6245 0
6127 -6245 0
-6246 -6245 -6051 0
6051 6245 -6246 0
6051 6246 -6245 0
6245 6246 -6051 0
-6244 -6247 -6246 0
-6247 6244 6246 0
-6244 6246 6247 0
6244 -6246 6247 0
-6244 6248 -6246 0
-6248 6246 0
-6248 6244 0
6249 -6245 -6051 0
6051 -6249 0
6245 -6249 0
6248 -6250 6249 0
-6248 6250 0
6250 -6249 0
6251 -6127 -162 0
-6251 162 0
-6251 6127 0
-6057 -6251 -6252 0
6251 6057 -6252 0
6252 -6251 6057 0
-6057 6251 6252 0
-6253 -6250 -6252 0
6252 6250 -6253 0
6252 6253 -6250 0
6253 6250 -6252 0
6254 -6250 -6252 0
6252 -6254 0
6250 -6254 0
-6057 -6251 6255 0
6057 -6255 0
6251 -6255 0
6254 -6256 6255 0
6256 -6254 0
-6255 6256 0
6257 -6127 -170 0
170 -6257 0
-6257 6127 0
-6257 -6258 -6063 0
6257 6063 -6258 0
6258 6063 -6257 0
6258 6257 -6063 0
-6259 -6256 -6258 0
6258 6256 -6259 0
6258 -6256 6259 0
6256 6259 -6258 0
-6256 6260 -6258 0
6258 -6260 0
6256 -6260 0
6261 -6257 -6063 0
6063 -6261 0
6257 -6261 0
6261 -6262 6260 0
6262 -6260 0
6262 -6261 0
6263 -6127 -178 0
-6263 178 0
-6263 6127 0
-6264 -6263 -6069 0
6263 -6264 6069 0
-6263 6069 6264 0
6263 -6069 6264 0
-6265 -6264 -6262 0
6262 -6265 6264 0
6265 -6262 6264 0
6265 6262 -6264 0
6266 -6264 -6262 0
-6266 6264 0
-6266 6262 0
6267 -6263 -6069 0
-6267 6069 0
6263 -6267 0
6266 6267 -6268 0
-6266 6268 0
6268 -6267 0
-186 -6127 6269 0
186 -6269 0
6127 -6269 0
-6270 -6075 -6269 0
-6270 6075 6269 0
6075 6270 -6269 0
-6075 6270 6269 0
-6270 -6271 -6268 0
-6271 6268 6270 0
6271 6270 -6268 0
-6270 6268 6271 0
6272 -6270 -6268 0
6270 -6272 0
6268 -6272 0
6273 -6075 -6269 0
-6273 6075 0
-6273 6269 0
6272 -6274 6273 0
6274 -6272 0
-6273 6274 0
-194 -6127 6275 0
-6275 194 0
-6275 6127 0
-6275 -6276 -6081 0
6081 -6276 6275 0
6081 -6275 6276 0
-6081 6276 6275 0
-6276 -6277 -6274 0
6274 -6277 6276 0
6277 6276 -6274 0
-6276 6274 6277 0
-6276 6278 -6274 0
-6278 6276 0
6274 -6278 0
-6275 6279 -6081 0
6081 -6279 0
-6279 6275 0
6279 6278 -6280 0
-6278 6280 0
6280 -6279 0
-202 -6127 6281 0
202 -6281 0
6127 -6281 0
-6282 -6281 -6087 0
6087 -6282 6281 0
6087 6282 -6281 0
6281 6282 -6087 0
-6282 -6283 -6280 0
-6283 6282 6280 0
6283 6282 -6280 0
6283 -6282 6280 0
6284 -6282 -6280 0
6282 -6284 0
-6284 6280 0
6285 -6281 -6087 0
6087 -6285 0
-6285 6281 0
6285 6284 -6286 0
6286 -6284 0
-6285 6286 0
6287 -210 -6127 0
-6287 210 0
6127 -6287 0
-6288 -6287 -6093 0
6287 6093 -6288 0
6288 -6287 6093 0
6288 6287 -6093 0
-6289 -6286 -6288 0
-6289 6288 6286 0
6289 -6286 6288 0
6289 -6288 6286 0
-6286 -6288 6290 0
6288 -6290 0
6286 -6290 0
6291 -6287 -6093 0
-6291 6093 0
6287 -6291 0
-6292 6291 6290 0
6292 -6290 0
6292 -6291 0
6293 -218 -6127 0
-6293 218 0
-6293 6127 0
-6294 -6293 -6099 0
6293 6099 -6294 0
6099 -6293 6294 0
6293 -6099 6294 0
-6292 -6295 -6294 0
-6295 6292 6294 0
-6292 6295 6294 0
6295 -6294 6292 0
-6292 6296 -6294 0
-6296 6294 0
-6296 6292 0
6297 -6293 -6099 0
6099 -6297 0
6293 -6297 0
6296 6297 -6298 0
-6296 6298 0
6298 -6297 0
-226 6299 -6127 0
226 -6299 0
6127 -6299 0
-6300 -6105 -6299 0
-6300 6299 6105 0
6300 -6299 6105 0
6299 -6105 6300 0
-6301 -6300 -6298 0
6298 6300 -6301 0
6301 6300 -6298 0
6301 -6300 6298 0
-6300 -6298 6302 0
-6302 6300 0
6298 -6302 0
6303 -6105 -6299 0
-6303 6105 0
6299 -6303 0
6303 -6304 6302 0
-6302 6304 0
-6303 6304 0
6305 -6127 -234 0
234 -6305 0
-6305 6127 0
-6306 -6111 -6305 0
6305 -6306 6111 0
6306 -6305 6111 0
6306 -6111 6305 0
-6307 -6306 -6304 0
6306 -6307 6304 0
6307 6306 -6304 0
-6306 6307 6304 0
-6306 -6304 6308 0
6306 -6308 0
-6308 6304 0
6309 -6111 -6305 0
-6309 6111 0
-6309 6305 0
6309 6308 -6310 0
6310 -6308 0
6310 -6309 0
-242 -6127 6311 0
-6311 242 0
-6311 6127 0
-6117 -6311 -6312 0
6117 -6312 6311 0
6117 -6311 6312 0
-6117 6312 6311 0
-6313 -6312 -6310 0
6310 -6313 6312 0
6313 6312 -6310 0
6310 -6312 6313 0
6314 -6312 -6310 0
6312 -6314 0
6310 -6314 0
-6117 6315 -6311 0
6117 -6315 0
6311 -6315 0
6314 -6316 6315 0
6316 -6314 0
6316 -6315 0
-250 -6127 6317 0
250 -6317 0
6127 -6317 0
-6123 -6318 -6317 0
-6318 6317 6123 0
-6317 6318 6123 0
-6123 6318 6317 0
-6318 -6316 -6319 0
6316 -6319 6318 0
-6316 6318 6319 0
-6318 6316 6319 0
-6318 -6316 6320 0
-6320 6318 0
6316 -6320 0
-6123 6321 -6317 0
-6321 6123 0
-6321 6317 0
-6322 6321 6320 0
-6320 6322 0
6322 -6321 0
-6127 -258 6323 0
258 -6323 0
6127 -6323 0
-6324 -6126 -6323 0
6126 -6324 6323 0
6324 6126 -6323 0
6324 -6126 6323 0
-6325 -6322 -6324 0
6324 6322 -6325 0
6324 6325 -6322 0
6325 6322 -6324 0
6326 -6322 -6324 0
6324 -6326 0
6322 -6326 0
-6126 6327 -6323 0
-6327 6126 0
-6327 6323 0
-6328 6326 6327 0
6328 -6326 0
-6327 6328 0
6330 -1 -6329 0
-6330 1 0
-6330 6329 0
-6330 -6331 -6133 0
6133 -6331 6330 0
6133 -6330 6331 0
6330 6331 -6133 0
-6330 6332 -6133 0
6133 -6332 0
-6332 6330 0
6333 -4 -6329 0
-6333 4 0
6329 -6333 0
-6334 -6333 -6139 0
-6334 6139 6333 0
6334 6139 -6333 0
6334 6333 -6139 0
-6334 -6332 -6335 0
6334 -6335 6332 0
6334 -6332 6335 0
-6334 6332 6335 0
-6334 -6332 6336 0
6334 -6336 0
6332 -6336 0
6337 -6333 -6139 0
6139 -6337 0
6333 -6337 0
6336 6337 -6338 0
-6336 6338 0
-6337 6338 0
6339 -10 -6329 0
10 -6339 0
6329 -6339 0
-6340 -6339 -6145 0
6145 -6340 6339 0
6145 -6339 6340 0
6339 6340 -6145 0
-6341 -6338 -6340 0
-6341 6340 6338 0
-6338 6341 6340 0
-6340 6341 6338 0
6342 -6338 -6340 0
-6342 6340 0
-6342 6338 0
-6339 6343 -6145 0
-6343 6145 0
-6343 6339 0
6342 6343 -6344 0
6344 -6342 0
-6343 6344 0
6345 -6329 -18 0
-6345 18 0
6329 -6345 0
-6346 -6345 -6151 0
6151 -6346 6345 0
6346 6151 -6345 0
6346 6345 -6151 0
-6347 -6346 -6344 0
-6347 6346 6344 0
6347 6346 -6344 0
-6346 6344 6347 0
6348 -6346 -6344 0
6346 -6348 0
6344 -6348 0
6349 -6345 -6151 0
-6349 6151 0
-6349 6345 0
6348 6349 -6350 0
-6348 6350 0
-6349 6350 0
6351 -6329 -26 0
26 -6351 0
6329 -6351 0
-6352 -6157 -6351 0
6351 6157 -6352 0
6157 6352 -6351 0
6351 -6157 6352 0
-6352 -6350 -6353 0
6350 -6353 6352 0
6353 -6350 6352 0
-6352 6353 6350 0
-6352 -6350 6354 0
-6354 6352 0
-6354 6350 0
6355 -6157 -6351 0
6157 -6355 0
6351 -6355 0
6355 -6356 6354 0
6356 -6354 0
6356 -6355 0
-34 6357 -6329 0
34 -6357 0
6329 -6357 0
-6163 -6358 -6357 0
6163 -6358 6357 0
6163 6358 -6357 0
-6163 6358 6357 0
-6359 -6356 -6358 0
6356 -6359 6358 0
6359 -6356 6358 0
6356 6359 -6358 0
6360 -6356 -6358 0
-6360 6358 0
6356 -6360 0
-6163 6361 -6357 0
6163 -6361 0
-6361 6357 0
-6362 6360 6361 0
-6360 6362 0
-6361 6362 0
6363 -6329 -42 0
42 -6363 0
-6363 6329 0
-6169 -6363 -6364 0
6169 -6364 6363 0
-6363 6364 6169 0
-6169 6364 6363 0
-6365 -6364 -6362 0
-6365 6364 6362 0
6364 -6362 6365 0
-6364 6362 6365 0
6366 -6364 -6362 0
-6366 6364 0
-6366 6362 0
-6169 -6363 6367 0
6169 -6367 0
-6367 6363 0
-6368 6366 6367 0
-6366 6368 0
6368 -6367 0
6369 -50 -6329 0
50 -6369 0
-6369 6329 0
-6370 -6369 -6175 0
6175 -6370 6369 0
6175 6370 -6369 0
6369 6370 -6175 0
-6368 -6370 -6371 0
-6371 6370 6368 0
-6368 6370 6371 0
-6370 6368 6371 0
-6368 -6370 6372 0
6370 -6372 0
-6372 6368 0
-6369 -6175 6373 0
6175 -6373 0
6369 -6373 0
-6374 6372 6373 0
6374 -6372 0
6374 -6373 0
6375 -58 -6329 0
-6375 58 0
-6375 6329 0
-6375 -6376 -6181 0
6181 -6376 6375 0
-6375 6181 6376 0
6376 -6181 6375 0
-6377 -6374 -6376 0
-6377 6374 6376 0
-6374 6376 6377 0
6374 -6376 6377 0
-6374 -6376 6378 0
-6378 6376 0
-6378 6374 0
-6375 6379 -6181 0
-6379 6181 0
-6379 6375 0
6379 6378 -6380 0
-6378 6380 0
-6379 6380 0
-66 6381 -6329 0
66 -6381 0
6329 -6381 0
-6382 -6381 -6187 0
6187 -6382 6381 0
6187 6382 -6381 0
6382 -6187 6381 0
-6382 -6380 -6383 0
6382 6380 -6383 0
6382 6383 -6380 0
6383 -6382 6380 0
-6382 6384 -6380 0
6382 -6384 0
6380 -6384 0
6385 -6381 -6187 0
6187 -6385 0
-6385 6381 0
6385 6384 -6386 0
-6384 6386 0
-6385 6386 0
6387 -74 -6329 0
-6387 74 0
6329 -6387 0
-6388 -6193 -6387 0
-6388 6387 6193 0
6388 -6387 6193 0
6388 6387 -6193 0
-6389 -6388 -6386 0
6388 -6389 6386 0
6388 6389 -6386 0
6389 -6388 6386 0
6390 -6388 -6386 0
6388 -6390 0
-6390 6386 0
6391 -6193 -6387 0
-6391 6193 0
6387 -6391 0
6390 6391 -6392 0
6392 -6390 0
6392 -6391 0
-82 6393 -6329 0
-6393 82 0
-6393 6329 0
-6393 -6199 -6394 0
-6394 6199 6393 0
-6393 6199 6394 0
-6199 6393 6394 0
-6394 -6395 -6392 0
6392 -6395 6394 0
6394 6395 -6392 0
6392 -6394 6395 0
-6394 6396 -6392 0
6394 -6396 0
6392 -6396 0
-6393 -6199 6397 0
6199 -6397 0
-6397 6393 0
-6398 6396 6397 0
6398 -6396 0
-6397 6398 0
6399 -90 -6329 0
90 -6399 0
6329 -6399 0
-6400 -6205 -6399 0
6399 -6400 6205 0
-6399 6400 6205 0
6399 -6205 6400 0
-6400 -6398 -6401 0
-6401 6400 6398 0
-6398 6400 6401 0
-6400 6398 6401 0
6402 -6400 -6398 0
-6402 6400 0
-6402 6398 0
6403 -6205 -6399 0
-6403 6205 0
6399 -6403 0
6402 6403 -6404 0
6404 -6402 0
6404 -6403 0
-98 6405 -6329 0
98 -6405 0
6329 -6405 0
-6406 -6211 -6405 0
6405 -6406 6211 0
6406 -6405 6211 0
6406 -6211 6405 0
-6407 -6404 -6406 0
6404 -6407 6406 0
-6404 6406 6407 0
6404 -6406 6407 0
6408 -6404 -6406 0
-6408 6406 0
6404 -6408 0
6409 -6211 -6405 0
-6409 6211 0
-6409 6405 0
6408 -6410 6409 0
-6408 6410 0
6410 -6409 0
-106 6411 -6329 0
106 -6411 0
6329 -6411 0
-6412 -6217 -6411 0
6217 -6412 6411 0
6217 6412 -6411 0
6412 -6217 6411 0
-6413 -6410 -6412 0
6412 -6413 6410 0
6413 6412 -6410 0
6413 -6412 6410 0
6414 -6410 -6412 0
6412 -6414 0
6410 -6414 0
6415 -6217 -6411 0
6217 -6415 0
-6415 6411 0
-6416 6414 6415 0
6416 -6414 0
-6415 6416 0
6417 -114 -6329 0
114 -6417 0
6329 -6417 0
-6418 -6223 -6417 0
-6418 6223 6417 0
6418 6223 -6417 0
6418 -6223 6417 0
-6416 -6418 -6419 0
6418 6416 -6419 0
6418 6419 -6416 0
6419 -6418 6416 0
-6416 6420 -6418 0
6418 -6420 0
-6420 6416 0
6421 -6223 -6417 0
-6421 6223 0
-6421 6417 0
6421 -6422 6420 0
6422 -6420 0
-6421 6422 0
-122 6423 -6329 0
122 -6423 0
6329 -6423 0
-6424 -6423 -6229 0
-6424 6229 6423 0
-6423 6229 6424 0
-6229 6424 6423 0
-6422 -6424 -6425 0
6422 -6425 6424 0
6425 -6422 6424 0
6425 -6424 6422 0
6426 -6422 -6424 0
-6426 6424 0
6422 -6426 0
6427 -6423 -6229 0
6229 -6427 0
-6427 6423 0
6426 6427 -6428 0
6428 -6426 0
6428 -6427 0
6429 -6329 -130 0
130 -6429 0
6329 -6429 0
-6235 -6429 -6430 0
6235 -6430 6429 0
6235 -6429 6430 0
-6235 6429 6430 0
-6431 -6428 -6430 0
6428 6430 -6431 0
6430 6431 -6428 0
6428 6431 -6430 0
-6428 6432 -6430 0
6430 -6432 0
6428 -6432 0
-6235 -6429 6433 0
6235 -6433 0
6429 -6433 0
-6434 6432 6433 0
-6432 6434 0
6434 -6433 0
6435 -138 -6329 0
-6435 138 0
6329 -6435 0
-6241 -6436 -6435 0
6435 6241 -6436 0
6241 6436 -6435 0
6435 -6241 6436 0
-6434 -6437 -6436 0
-6437 6436 6434 0
-6434 6436 6437 0
6434 -6436 6437 0
-6434 -6436 6438 0
6436 -6438 0
6434 -6438 0
-6241 6439 -6435 0
6241 -6439 0
6435 -6439 0
6438 -6440 6439 0
6440 -6438 0
-6439 6440 0
6441 -146 -6329 0
146 -6441 0
-6441 6329 0
-6442 -6441 -6247 0
-6442 6441 6247 0
-6441 6442 6247 0
-6247 6442 6441 0
-6442 -6440 -6443 0
6442 -6443 6440 0
6443 -6440 6442 0
-6442 6443 6440 0
-6442 6444 -6440 0
-6444 6442 0
-6444 6440 0
-6441 6445 -6247 0
-6445 6247 0
-6445 6441 0
6445 6444 -6446 0
-6444 6446 0
-6445 6446 0
6447 -154 -6329 0
-6447 154 0
6329 -6447 0
-6447 -6448 -6253 0
6447 6253 -6448 0
6253 6448 -6447 0
6447 6448 -6253 0
-6449 -6448 -6446 0
6448 -6449 6446 0
6448 6449 -6446 0
-6448 6449 6446 0
-6448 -6446 6450 0
6448 -6450 0
6446 -6450 0
6451 -6447 -6253 0
6253 -6451 0
6447 -6451 0
-6452 6451 6450 0
6452 -6450 0
6452 -6451 0
6453 -162 -6329 0
-6453 162 0
-6453 6329 0
-6454 -6453 -6259 0
-6454 6453 6259 0
-6453 6454 6259 0
6454 6453 -6259 0
-6454 -6452 -6455 0
-6455 6452 6454 0
6455 -6452 6454 0
-6454 6452 6455 0
-6454 -6452 6456 0
-6456 6454 0
6452 -6456 0
6457 -6453 -6259 0
-6457 6259 0
6453 -6457 0
6457 6456 -6458 0
-6456 6458 0
6458 -6457 0
6459 -170 -6329 0
170 -6459 0
6329 -6459 0
-6459 -6265 -6460 0
6265 6459 -6460 0
6265 -6459 6460 0
6460 -6265 6459 0
-6461 -6458 -6460 0
-6461 6460 6458 0
-6458 6460 6461 0
6461 6458 -6460 0
6462 -6458 -6460 0
-6462 6460 0
-6462 6458 0
-6459 -6265 6463 0
6265 -6463 0
6459 -6463 0
6462 6463 -6464 0
-6462 6464 0
-6463 6464 0
6465 -6329 -178 0
-6465 178 0
-6465 6329 0
-6465 -6271 -6466 0
6271 -6466 6465 0
-6465 6271 6466 0
-6271 6465 6466 0
-6467 -6466 -6464 0
-6467 6464 6466 0
6467 6466 -6464 0
-6466 6464 6467 0
-6466 6468 -6464 0
-6468 6466 0
-6468 6464 0
-6465 -6271 6469 0
6271 -6469 0
-6469 6465 0
-6470 6468 6469 0
-6468 6470 0
-6469 6470 0
6471 -186 -6329 0
186 -6471 0
6329 -6471 0
-6472 -6277 -6471 0
-6472 6277 6471 0
6277 6472 -6471 0
-6277 6471 6472 0
-6473 -6472 -6470 0
-6473 6472 6470 0
-6470 6473 6472 0
-6472 6473 6470 0
-6472 6474 -6470 0
6472 -6474 0
6470 -6474 0
6475 -6277 -6471 0
6277 -6475 0
-6475 6471 0
6475 6474 -6476 0
6476 -6474 0
6476 -6475 0
-194 6477 -6329 0
-6477 194 0
-6477 6329 0
-6477 -6283 -6478 0
6283 6477 -6478 0
-6477 6283 6478 0
6478 -6283 6477 0
-6479 -6476 -6478 0
6478 6476 -6479 0
6479 6478 -6476 0
6476 6479 -6478 0
-6476 6480 -6478 0
-6480 6478 0
-6480 6476 0
-6477 6481 -6283 0
6283 -6481 0
-6481 6477 0
6481 -6482 6480 0
-6480 6482 0
-6481 6482 0
-202 6483 -6329 0
-6483 202 0
-6483 6329 0
-6289 -6483 -6484 0
6289 -6484 6483 0
6289 -6483 6484 0
-6289 6484 6483 0
-6482 -6485 -6484 0
-6485 6484 6482 0
-6482 6485 6484 0
6485 6482 -6484 0
6486 -6482 -6484 0
-6486 6484 0
-6486 6482 0
-6289 -6483 6487 0
6289 -6487 0
-6487 6483 0
6486 6487 -6488 0
-6486 6488 0
-6487 6488 0
-210 6489 -6329 0
210 -6489 0
6329 -6489 0
-6490 -6295 -6489 0
6295 -6490 6489 0
6295 -6489 6490 0
-6295 6489 6490 0
-6490 -6488 -6491 0
6488 -6491 6490 0
6491 -6488 6490 0
-6490 6488 6491 0
-6490 -6488 6492 0
-6492 6490 0
-6492 6488 0
6493 -6295 -6489 0
6295 -6493 0
6489 -6493 0
6492 6493 -6494 0
-6492 6494 0
-6493 6494 0
-218 6495 -6329 0
-6495 218 0
6329 -6495 0
-6495 -6496 -6301 0
6301 6495 -6496 0
6301 -6495 6496 0
6495 6496 -6301 0
-6497 -6494 -6496 0
6496 -6497 6494 0
6497 6496 -6494 0
6497 -6496 6494 0
6498 -6494 -6496 0
6496 -6498 0
-6498 6494 0
6499 -6495 -6301 0
6301 -6499 0
6495 -6499 0
6499 6498 -6500 0
6500 -6498 0
6500 -6499 0
6501 -226 -6329 0
226 -6501 0
6329 -6501 0
-6307 -6501 -6502 0
6501 6307 -6502 0
6307 -6501 6502 0
6501 6502 -6307 0
-6503 -6500 -6502 0
6502 6500 -6503 0
6502 6503 -6500 0
6503 6500 -6502 0
6504 -6500 -6502 0
6502 -6504 0
6500 -6504 0
6505 -6307 -6501 0
6307 -6505 0
6501 -6505 0
-6506 6504 6505 0
6506 -6504 0
6506 -6505 0
6507 -6329 -234 0
234 -6507 0
6329 -6507 0
-6313 -6508 -6507 0
6507 -6508 6313 0
6508 -6507 6313 0
-6313 6508 6507 0
-6509 -6508 -6506 0
6508 6506 -6509 0
6508 -6506 6509 0
-6508 6506 6509 0
-6508 -6506 6510 0
6508 -6510 0
6506 -6510 0
-6313 -6507 6511 0
-6511 6313 0
6507 -6511 0
-6512 6511 6510 0
6512 -6510 0
-6511 6512 0
-242 6513 -6329 0
-6513 242 0
6329 -6513 0
-6319 -6513 -6514 0
-6514 6513 6319 0
6514 -6513 6319 0
6514 -6319 6513 0
-6515 -6512 -6514 0
6514 -6515 6512 0
6514 6515 -6512 0
6515 -6514 6512 0
6516 -6512 -6514 0
6514 -6516 0
-6516 6512 0
-6319 -6513 6517 0
-6517 6319 0
-6517 6513 0
6516 -6518 6517 0
-6516 6518 0
-6517 6518 0
-250 6519 -6329 0
-6519 250 0
6329 -6519 0
-6519 -6520 -6325 0
6325 6519 -6520 0
6325 -6519 6520 0
6519 -6325 6520 0
-6518 -6521 -6520 0
6518 -6521 6520 0
-6518 6521 6520 0
6521 -6520 6518 0
-6518 6522 -6520 0
-6522 6520 0
-6522 6518 0
6523 -6519 -6325 0
6325 -6523 0
-6523 6519 0
6522 6523 -6524 0
-6522 6524 0
-6523 6524 0
6525 -258 -6329 0
-6525 258 0
6329 -6525 0
-6526 -6525 -6328 0
6328 6525 -6526 0
6328 -6525 6526 0
6525 6526 -6328 0
-6527 -6526 -6524 0
-6527 6526 6524 0
6527 6526 -6524 0
6527 -6526 6524 0
-6526 6528 -6524 0
6526 -6528 0
6524 -6528 0
6529 -6525 -6328 0
6328 -6529 0
6525 -6529 0
6529 6528 -6530 0
-6528 6530 0
6530 -6529 0
-6531 -1 6532 0
-6532 1 0
-6532 6531 0
-6532 -6335 -6533 0
6335 6532 -6533 0
-6532 6533 6335 0
-6335 6533 6532 0
-6532 -6335 6534 0
-6534 6335 0
-6534 6532 0
6535 -4 -6531 0
-6535 4 0
6531 -6535 0
-6341 -6536 -6535 0
6535 6341 -6536 0
6341 6536 -6535 0
-6341 6536 6535 0
-6536 -6537 -6534 0
6536 -6537 6534 0
6537 6536 -6534 0
6537 -6536 6534 0
-6536 6538 -6534 0
-6538 6536 0
-6538 6534 0
-6341 6539 -6535 0
6341 -6539 0
6535 -6539 0
6538 6539 -6540 0
-6538 6540 0
6540 -6539 0
6541 -6531 -10 0
10 -6541 0
6531 -6541 0
-6347 -6542 -6541 0
6541 -6542 6347 0
6542 -6541 6347 0
-6347 6542 6541 0
-6543 -6542 -6540 0
6542 6540 -6543 0
6543 6542 -6540 0
6543 -6542 6540 0
-6542 6544 -6540 0
6542 -6544 0
6540 -6544 0
-6347 -6541 6545 0
-6545 6347 0
-6545 6541 0
-6546 6545 6544 0
-6544 6546 0
-6545 6546 0
6547 -6531 -18 0
-6547 18 0
-6547 6531 0
-6547 -6548 -6353 0
6547 6353 -6548 0
-6547 6353 6548 0
6547 -6353 6548 0
-6546 -6548 -6549 0
-6549 6548 6546 0
6549 -6546 6548 0
6549 -6548 6546 0
6550 -6546 -6548 0
-6550 6548 0
-6550 6546 0
-6547 -6353 6551 0
-6551 6353 0
6547 -6551 0
6550 -6552 6551 0
-6550 6552 0
-6551 6552 0
6553 -6531 -26 0
-6553 26 0
-6553 6531 0
-6554 -6553 -6359 0
6553 6359 -6554 0
6359 -6553 6554 0
6553 -6359 6554 0
-6555 -6552 -6554 0
-6555 6554 6552 0
-6552 6555 6554 0
6555 -6554 6552 0
-6552 -6554 6556 0
6554 -6556 0
6552 -6556 0
6557 -6553 -6359 0
6359 -6557 0
6553 -6557 0
6557 6556 -6558 0
6558 -6556 0
6558 -6557 0
-34 6559 -6531 0
34 -6559 0
6531 -6559 0
-6365 -6560 -6559 0
6559 -6560 6365 0
-6559 6560 6365 0
6559 -6365 6560 0
-6561 -6558 -6560 0
-6561 6560 6558 0
-6558 6560 6561 0
6561 -6560 6558 0
-6558 -6560 6562 0
6560 -6562 0
-6562 6558 0
-6365 6563 -6559 0
-6563 6365 0
-6563 6559 0
-6564 6563 6562 0
6564 -6562 0
-6563 6564 0
-6531 6565 -42 0
42 -6565 0
6531 -6565 0
-6371 -6566 -6565 0
-6566 6565 6371 0
-6565 6566 6371 0
-6371 6565 6566 0
-6564 -6566 -6567 0
6564 6566 -6567 0
-6564 6567 6566 0
6564 6567 -6566 0
-6564 -6566 6568 0
-6568 6566 0
6564 -6568 0
-6371 6569 -6565 0
-6569 6371 0
6565 -6569 0
6569 -6570 6568 0
6570 -6568 0
6570 -6569 0
-50 6571 -6531 0
50 -6571 0
6531 -6571 0
-6377 -6571 -6572 0
-6572 6571 6377 0
6572 6377 -6571 0
-6377 6572 6571 0
-6572 -6570 -6573 0
6572 6570 -6573 0
6572 -6570 6573 0
-6572 6573 6570 0
-6572 -6570 6574 0
6572 -6574 0
-6574 6570 0
-6377 -6571 6575 0
-6575 6377 0
-6575 6571 0
-6576 6574 6575 0
-6574 6576 0
-6575 6576 0
-6531 6577 -58 0
-6577 58 0
-6577 6531 0
-6578 -6577 -6383 0
6383 -6578 6577 0
6383 -6577 6578 0
6578 6577 -6383 0
-6576 -6578 -6579 0
-6579 6578 6576 0
-6576 6578 6579 0
-6578 6579 6576 0
-6576 -6578 6580 0
6578 -6580 0
-6580 6576 0
-6577 6581 -6383 0
6383 -6581 0
-6581 6577 0
6581 6580 -6582 0
-6580 6582 0
-6581 6582 0
-6531 -66 6583 0
66 -6583 0
6531 -6583 0
-6584 -6389 -6583 0
-6584 6389 6583 0
6584 6389 -6583 0
6584 -6389 6583 0
-6584 -6585 -6582 0
6584 -6585 6582 0
6584 6585 -6582 0
-6584 6582 6585 0
-6584 6586 -6582 0
6584 -6586 0
-6586 6582 0
6587 -6389 -6583 0
-6587 6389 0
-6587 6583 0
6587 6586 -6588 0
6588 -6586 0
-6587 6588 0
6589 -6531 -74 0
-6589 74 0
6531 -6589 0
-6590 -6589 -6395 0
6589 -6590 6395 0
6590 -6589 6395 0
6590 6589 -6395 0
-6591 -6588 -6590 0
6588 6590 -6591 0
6591 6590 -6588 0
6588 6591 -6590 0
-6588 -6590 6592 0
6590 -6592 0
6588 -6592 0
-6589 -6395 6593 0
-6593 6395 0
6589 -6593 0
-6594 6592 6593 0
6594 -6592 0
6594 -6593 0
-82 6595 -6531 0
82 -6595 0
6531 -6595 0
-6596 -6595 -6401 0
6595 -6596 6401 0
6596 -6595 6401 0
6595 6596 -6401 0
-6597 -6596 -6594 0
-6597 6594 6596 0
6597 6596 -6594 0
6594 -6596 6597 0
-6596 -6594 6598 0
6596 -6598 0
6594 -6598 0
6599 -6595 -6401 0
-6599 6401 0
-6599 6595 0
-6600 6599 6598 0
6600 -6598 0
-6599 6600 0
6601 -90 -6531 0
90 -6601 0
6531 -6601 0
-6407 -6602 -6601 0
6601 -6602 6407 0
6602 -6601 6407 0
-6407 6601 6602 0
-6600 -6602 -6603 0
6602 -6603 6600 0
-6600 6602 6603 0
-6602 6600 6603 0
-6600 -6602 6604 0
6602 -6604 0
6600 -6604 0
-6407 6605 -6601 0
-6605 6407 0
6601 -6605 0
6604 -6606 6605 0
6606 -6604 0
-6605 6606 0
-98 -6531 6607 0
-6607 98 0
-6607 6531 0
-6607 -6413 -6608 0
6413 -6608 6607 0
6413 -6607 6608 0
6608 -6413 6607 0
-6609 -6606 -6608 0
6608 -6609 6606 0
6608 6609 -6606 0
6609 -6608 6606 0
-6606 -6608 6610 0
6608 -6610 0
-6610 6606 0
-6607 -6413 6611 0
6413 -6611 0
-6611 6607 0
-6612 6611 6610 0
-6610 6612 0
6612 -6611 0
-106 -6531 6613 0
106 -6613 0
6531 -6613 0
-6614 -6613 -6419 0
6419 -6614 6613 0
6419 6614 -6613 0
6614 6613 -6419 0
-6615 -6612 -6614 0
6612 6614 -6615 0
6614 -6612 6615 0
6612 -6614 6615 0
-6612 -6614 6616 0
-6616 6614 0
6612 -6616 0
6617 -6613 -6419 0
6419 -6617 0
-6617 6613 0
6617 -6618 6616 0
-6616 6618 0
6618 -6617 0
-6531 -114 6619 0
114 -6619 0
6531 -6619 0
-6620 -6619 -6425 0
6425 -6620 6619 0
6425 -6619 6620 0
6620 6619 -6425 0
-6618 -6621 -6620 0
-6621 6618 6620 0
-6618 6621 6620 0
-6620 6618 6621 0
-6618 -6620 6622 0
-6622 6620 0
6618 -6622 0
6623 -6619 -6425 0
6425 -6623 0
6619 -6623 0
6623 6622 -6624 0
-6622 6624 0
6624 -6623 0
6625 -122 -6531 0
122 -6625 0
6531 -6625 0
-6431 -6626 -6625 0
6431 6625 -6626 0
6626 6431 -6625 0
6626 6625 -6431 0
-6627 -6626 -6624 0
6626 -6627 6624 0
6626 -6624 6627 0
-6626 6624 6627 0
-6626 -6624 6628 0
6626 -6628 0
-6628 6624 0
6629 -6431 -6625 0
6431 -6629 0
6625 -6629 0
6629 -6630 6628 0
-6628 6630 0
-6629 6630 0
6631 -6531 -130 0
130 -6631 0
6531 -6631 0
-6632 -6437 -6631 0
-6632 6631 6437 0
-6631 6632 6437 0
6631 -6437 6632 0
-6632 -6633 -6630 0
-6633 6632 6630 0
6633 6632 -6630 0
-6632 6633 6630 0
6634 -6632 -6630 0
6632 -6634 0
-6634 6630 0
6635 -6437 -6631 0
-6635 6437 0
-6635 6631 0
6634 6635 -6636 0
6636 -6634 0
-6635 6636 0
-138 -6531 6637 0
-6637 138 0
-6637 6531 0
-6637 -6443 -6638 0
6443 -6638 6637 0
6443 -6637 6638 0
6638 -6443 6637 0
-6636 -6639 -6638 0
-6639 6638 6636 0
-6636 6639 6638 0
6639 -6638 6636 0
-6636 6640 -6638 0
6638 -6640 0
-6640 6636 0
6641 -6637 -6443 0
6443 -6641 0
-6641 6637 0
6641 6640 -6642 0
6642 -6640 0
-6641 6642 0
-6531 -146 6643 0
146 -6643 0
-6643 6531 0
-6643 -6449 -6644 0
-6644 6449 6643 0
-6643 6644 6449 0
-6449 6644 6643 0
-6642 -6644 -6645 0
6642 6644 -6645 0
6644 -6642 6645 0
6642 -6644 6645 0
-6642 6646 -6644 0
6644 -6646 0
6642 -6646 0
-6643 -6449 6647 0
6449 -6647 0
-6647 6643 0
6646 -6648 6647 0
6648 -6646 0
6648 -6647 0
6649 -6531 -154 0
-6649 154 0
-6649 6531 0
-6650 -6649 -6455 0
6455 -6650 6649 0
6455 6650 -6649 0
6649 6650 -6455 0
-6650 -6651 -6648 0
6650 6648 -6651 0
6650 -6648 6651 0
-6650 6648 6651 0
-6650 -6648 6652 0
6650 -6652 0
-6652 6648 0
-6649 6653 -6455 0
6455 -6653 0
-6653 6649 0
6653 6652 -6654 0
-6652 6654 0
-6653 6654 0
-6531 -162 6655 0
162 -6655 0
-6655 6531 0
-6656 -6461 -6655 0
-6656 6461 6655 0
6461 -6655 6656 0
-6461 6656 6655 0
-6656 -6657 -6654 0
-6657 6654 6656 0
6656 -6654 6657 0
-6656 6654 6657 0
-6656 6658 -6654 0
-6658 6656 0
-6658 6654 0
6659 -6461 -6655 0
-6659 6461 0
-6659 6655 0
6659 -6660 6658 0
6660 -6658 0
-6659 6660 0
6661 -6531 -170 0
170 -6661 0
-6661 6531 0
-6467 -6661 -6662 0
6661 -6662 6467 0
-6661 6662 6467 0
-6467 6661 6662 0
-6663 -6662 -6660 0
6660 -6663 6662 0
-6660 6663 6662 0
-6662 6663 6660 0
6664 -6662 -6660 0
6662 -6664 0
6660 -6664 0
-6467 -6661 6665 0
-6665 6467 0
6661 -6665 0
6664 6665 -6666 0
6666 -6664 0
-6665 6666 0
6667 -6531 -178 0
-6667 178 0
6531 -6667 0
-6668 -6473 -6667 0
6667 6473 -6668 0
6473 -6667 6668 0
-6473 6667 6668 0
-6666 -6669 -6668 0
-6669 6666 6668 0
-6666 6669 6668 0
6669 6666 -6668 0
-6666 6670 -6668 0
-6670 6668 0
-6670 6666 0
6671 -6473 -6667 0
6473 -6671 0
6667 -6671 0
6670 -6672 6671 0
6672 -6670 0
6672 -6671 0
-6531 -186 6673 0
186 -6673 0
6531 -6673 0
-6674 -6479 -6673 0
-6674 6479 6673 0
6674 6479 -6673 0
6674 -6479 6673 0
-6672 -6674 -6675 0
6672 6674 -6675 0
-6672 6674 6675 0
6672 -6674 6675 0
-6672 -6674 6676 0
-6676 6674 0
6672 -6676 0
6677 -6479 -6673 0
-6677 6479 0
-6677 6673 0
6676 6677 -6678 0
-6676 6678 0
-6677 6678 0
-194 -6531 6679 0
194 -6679 0
-6679 6531 0
-6679 -6680 -6485 0
6485 -6680 6679 0
-6679 6485 6680 0
6680 -6485 6679 0
-6680 -6681 -6678 0
6678 -6681 6680 0
6681 6680 -6678 0
6678 -6680 6681 0
6682 -6680 -6678 0
-6682 6680 0
6678 -6682 0
-6679 6683 -6485 0
6485 -6683 0
-6683 6679 0
6683 6682 -6684 0
-6682 6684 0
-6683 6684 0
-6531 -202 6685 0
-6685 202 0
-6685 6531 0
-6685 -6686 -6491 0
-6686 6685 6491 0
-6685 6686 6491 0
6686 6685 -6491 0
-6687 -6686 -6684 0
-6687 6686 6684 0
6686 6687 -6684 0
-6686 6687 6684 0
6688 -6686 -6684 0
-6688 6686 0
-6688 6684 0
-6685 6689 -6491 0
-6689 6491 0
-6689 6685 0
-6690 6689 6688 0
-6688 6690 0
-6689 6690 0
6691 -210 -6531 0
-6691 210 0
-6691 6531 0
-6691 -6497 -6692 0
6497 6691 -6692 0
6692 6497 -6691 0
6692 6691 -6497 0
-6690 -6693 -6692 0
6692 -6693 6690 0
-6690 6692 6693 0
6693 6690 -6692 0
-6690 6694 -6692 0
6692 -6694 0
-6694 6690 0
6695 -6691 -6497 0
-6695 6497 0
-6695 6691 0
6695 6694 -6696 0
-6694 6696 0
-6695 6696 0
-218 -6531 6697 0
-6697 218 0
-6697 6531 0
-6697 -6698 -6503 0
6503 -6698 6697 0
-6697 6503 6698 0
6697 -6503 6698 0
-6698 -6696 -6699 0
-6699 6698 6696 0
6699 6698 -6696 0
-6698 6699 6696 0
-6698 6700 -6696 0
-6700 6698 0
-6700 6696 0
-6697 -6503 6701 0
6503 -6701 0
-6701 6697 0
6701 -6702 6700 0
-6700 6702 0
6702 -6701 0
-226 -6531 6703 0
226 -6703 0
6531 -6703 0
-6704 -6509 -6703 0
-6704 6509 6703 0
6704 -6703 6509 0
-6509 6704 6703 0
-6704 -6702 -6705 0
6702 6704 -6705 0
-6702 6704 6705 0
-6704 6702 6705 0
-6704 -6702 6706 0
6704 -6706 0
6702 -6706 0
-6509 -6703 6707 0
-6707 6509 0
-6707 6703 0
6706 -6708 6707 0
-6706 6708 0
-6707 6708 0
6709 -6531 -234 0
234 -6709 0
6531 -6709 0
-6710 -6709 -6515 0
-6710 6515 6709 0
6710 6515 -6709 0
6710 -6515 6709 0
-6710 -6708 -6711 0
6710 -6711 6708 0
6710 -6708 6711 0
-6710 6711 6708 0
-6710 -6708 6712 0
-6712 6710 0
-6712 6708 0
-6709 6713 -6515 0
-6713 6515 0
-6713 6709 0
6712 -6714 6713 0
-6712 6714 0
-6713 6714 0
6715 -6531 -242 0
242 -6715 0
6531 -6715 0
-6716 -6521 -6715 0
6715 6521 -6716 0
6716 6521 -6715 0
6715 -6521 6716 0
-6714 -6717 -6716 0
6714 6716 -6717 0
6717 -6714 6716 0
6717 6714 -6716 0
-6714 6718 -6716 0
-6718 6716 0
6714 -6718 0
6719 -6521 -6715 0
-6719 6521 0
6715 -6719 0
6719 6718 -6720 0
-6718 6720 0
-6719 6720 0
6721 -250 -6531 0
250 -6721 0
6531 -6721 0
-6722 -6527 -6721 0
-6722 6527 6721 0
6527 6722 -6721 0
-6527 6721 6722 0
-6722 -6723 -6720 0
6720 -6723 6722 0
6723 -6720 6722 0
-6722 6723 6720 0
-6722 6724 -6720 0
-6724 6722 0
-6724 6720 0
-6527 6725 -6721 0
6527 -6725 0
6721 -6725 0
-6726 6724 6725 0
-6724 6726 0
6726 -6725 0
6727 -6531 -258 0
-6727 258 0
-6727 6531 0
-6727 -6530 -6728 0
6727 6530 -6728 0
-6727 6728 6530 0
-6530 6728 6727 0
-6729 -6726 -6728 0
-6729 6726 6728 0
-6726 6728 6729 0
6729 6726 -6728 0
6730 -6726 -6728 0
-6730 6728 0
6726 -6730 0
-6727 6731 -6530 0
-6731 6530 0
6727 -6731 0
6730 -6732 6731 0
-6730 6732 0
-6731 6732 0
3 0
-8 0
271 0
473 0
-675 0
877 0
1079 0
1281 0
1483 0
-1685 0
-1887 0
-2089 0
-2291 0
-2493 0
-2695 0
-2897 0
-3099 0
-3301 0
-3503 0
-3705 0
-3907 0
-4109 0
-4311 0
-4513 0
-4715 0
-4917 0
-5119 0
-5321 0
-5523 0
-5725 0
-5927 0
-6129 0
-6331 0
-6533 0
6537 0
6543 0
6549 0
-6555 0
6561 0
-6567 0
-6573 0
-6579 0
-6585 0
-6591 0
-6597 0
-6603 0
-6609 0
-6615 0
-6621 0
-6627 0
-6633 0
-6639 0
-6645 0
-6651 0
-6657 0
-6663 0
-6669 0
-6675 0
-6681 0
-6687 0
-6693 0
-6699 0
-6705 0
-6711 0
-6717 0
-6723 0
6729 0
-6732 0
