p cnf 9360 31000
-1 -2 3 0
1 -3 0
2 -3 0
-4 -2 5 0
4 -5 0
2 -5 0
-1 -6 7 0
1 -7 0
6 -7 0
-5 -7 -8 0
5 7 -8 0
5 -7 8 0
-5 7 8 0
-5 -7 9 0
5 -9 0
7 -9 0
-10 -2 11 0
10 -11 0
2 -11 0
-4 -6 12 0
4 -12 0
6 -12 0
-11 -12 -13 0
11 12 -13 0
11 -12 13 0
-11 12 13 0
-13 -9 -14 0
13 9 -14 0
13 -9 14 0
-13 9 14 0
-13 -9 15 0
13 -15 0
9 -15 0
-11 -12 16 0
11 -16 0
12 -16 0
15 16 -17 0
-15 17 0
-16 17 0
-18 -2 19 0
18 -19 0
2 -19 0
-10 -6 20 0
10 -20 0
6 -20 0
-19 -20 -21 0
19 20 -21 0
19 -20 21 0
-19 20 21 0
-21 -17 -22 0
21 17 -22 0
21 -17 22 0
-21 17 22 0
-21 -17 23 0
21 -23 0
17 -23 0
-19 -20 24 0
19 -24 0
20 -24 0
23 24 -25 0
-23 25 0
-24 25 0
-26 -2 27 0
26 -27 0
2 -27 0
-18 -6 28 0
18 -28 0
6 -28 0
-27 -28 -29 0
27 28 -29 0
27 -28 29 0
-27 28 29 0
-29 -25 -30 0
29 25 -30 0
29 -25 30 0
-29 25 30 0
-29 -25 31 0
29 -31 0
25 -31 0
-27 -28 32 0
27 -32 0
28 -32 0
31 32 -33 0
-31 33 0
-32 33 0
-34 -2 35 0
34 -35 0
2 -35 0
-26 -6 36 0
26 -36 0
6 -36 0
-35 -36 -37 0
35 36 -37 0
35 -36 37 0
-35 36 37 0
-37 -33 -38 0
37 33 -38 0
37 -33 38 0
-37 33 38 0
-37 -33 39 0
37 -39 0
33 -39 0
-35 -36 40 0
35 -40 0
36 -40 0
39 40 -41 0
-39 41 0
-40 41 0
-42 -2 43 0
42 -43 0
2 -43 0
-34 -6 44 0
34 -44 0
6 -44 0
-43 -44 -45 0
43 44 -45 0
43 -44 45 0
-43 44 45 0
-45 -41 -46 0
45 41 -46 0
45 -41 46 0
-45 41 46 0
-45 -41 47 0
45 -47 0
41 -47 0
-43 -44 48 0
43 -48 0
44 -48 0
47 48 -49 0
-47 49 0
-48 49 0
-50 -2 51 0
50 -51 0
2 -51 0
-42 -6 52 0
42 -52 0
6 -52 0
-51 -52 -53 0
51 52 -53 0
51 -52 53 0
-51 52 53 0
-53 -49 -54 0
53 49 -54 0
53 -49 54 0
-53 49 54 0
-53 -49 55 0
53 -55 0
49 -55 0
-51 -52 56 0
51 -56 0
52 -56 0
55 56 -57 0
-55 57 0
-56 57 0
-58 -2 59 0
58 -59 0
2 -59 0
-50 -6 60 0
50 -60 0
6 -60 0
-59 -60 -61 0
59 60 -61 0
59 -60 61 0
-59 60 61 0
-61 -57 -62 0
61 57 -62 0
61 -57 62 0
-61 57 62 0
-61 -57 63 0
61 -63 0
57 -63 0
-59 -60 64 0
59 -64 0
60 -64 0
63 64 -65 0
-63 65 0
-64 65 0
-66 -2 67 0
66 -67 0
2 -67 0
-58 -6 68 0
58 -68 0
6 -68 0
-67 -68 -69 0
67 68 -69 0
67 -68 69 0
-67 68 69 0
-69 -65 -70 0
69 65 -70 0
69 -65 70 0
-69 65 70 0
-69 -65 71 0
69 -71 0
65 -71 0
-67 -68 72 0
67 -72 0
68 -72 0
71 72 -73 0
-71 73 0
-72 73 0
-74 -2 75 0
74 -75 0
2 -75 0
-66 -6 76 0
66 -76 0
6 -76 0
-75 -76 -77 0
75 76 -77 0
75 -76 77 0
-75 76 77 0
-77 -73 -78 0
77 73 -78 0
77 -73 78 0
-77 73 78 0
-77 -73 79 0
77 -79 0
73 -79 0
-75 -76 80 0
75 -80 0
76 -80 0
79 80 -81 0
-79 81 0
-80 81 0
-82 -2 83 0
82 -83 0
2 -83 0
-74 -6 84 0
74 -84 0
6 -84 0
-83 -84 -85 0
83 84 -85 0
83 -84 85 0
-83 84 85 0
-85 -81 -86 0
85 81 -86 0
85 -81 86 0
-85 81 86 0
-85 -81 87 0
85 -87 0
81 -87 0
-83 -84 88 0
83 -88 0
84 -88 0
87 88 -89 0
-87 89 0
-88 89 0
-90 -2 91 0
90 -91 0
2 -91 0
-82 -6 92 0
82 -92 0
6 -92 0
-91 -92 -93 0
91 92 -93 0
91 -92 93 0
-91 92 93 0
-93 -89 -94 0
93 89 -94 0
93 -89 94 0
-93 89 94 0
-93 -89 95 0
93 -95 0
89 -95 0
-91 -92 96 0
91 -96 0
92 -96 0
95 96 -97 0
-95 97 0
-96 97 0
-98 -2 99 0
98 -99 0
2 -99 0
-90 -6 100 0
90 -100 0
6 -100 0
-99 -100 -101 0
99 100 -101 0
99 -100 101 0
-99 100 101 0
-101 -97 -102 0
101 97 -102 0
101 -97 102 0
-101 97 102 0
-101 -97 103 0
101 -103 0
97 -103 0
-99 -100 104 0
99 -104 0
100 -104 0
103 104 -105 0
-103 105 0
-104 105 0
-106 -2 107 0
106 -107 0
2 -107 0
-98 -6 108 0
98 -108 0
6 -108 0
-107 -108 -109 0
107 108 -109 0
107 -108 109 0
-107 108 109 0
-109 -105 -110 0
109 105 -110 0
109 -105 110 0
-109 105 110 0
-109 -105 111 0
109 -111 0
105 -111 0
-107 -108 112 0
107 -112 0
108 -112 0
111 112 -113 0
-111 113 0
-112 113 0
-114 -2 115 0
114 -115 0
2 -115 0
-106 -6 116 0
106 -116 0
6 -116 0
-115 -116 -117 0
115 116 -117 0
115 -116 117 0
-115 116 117 0
-117 -113 -118 0
117 113 -118 0
117 -113 118 0
-117 113 118 0
-117 -113 119 0
117 -119 0
113 -119 0
-115 -116 120 0
115 -120 0
116 -120 0
119 120 -121 0
-119 121 0
-120 121 0
-122 -2 123 0
122 -123 0
2 -123 0
-114 -6 124 0
114 -124 0
6 -124 0
-123 -124 -125 0
123 124 -125 0
123 -124 125 0
-123 124 125 0
-125 -121 -126 0
125 121 -126 0
125 -121 126 0
-125 121 126 0
-125 -121 127 0
125 -127 0
121 -127 0
-123 -124 128 0
123 -128 0
124 -128 0
127 128 -129 0
-127 129 0
-128 129 0
-130 -2 131 0
130 -131 0
2 -131 0
-122 -6 132 0
122 -132 0
6 -132 0
-131 -132 -133 0
131 132 -133 0
131 -132 133 0
-131 132 133 0
-133 -129 -134 0
133 129 -134 0
133 -129 134 0
-133 129 134 0
-133 -129 135 0
133 -135 0
129 -135 0
-131 -132 136 0
131 -136 0
132 -136 0
135 136 -137 0
-135 137 0
-136 137 0
-138 -2 139 0
138 -139 0
2 -139 0
-130 -6 140 0
130 -140 0
6 -140 0
-139 -140 -141 0
139 140 -141 0
139 -140 141 0
-139 140 141 0
-141 -137 -142 0
141 137 -142 0
141 -137 142 0
-141 137 142 0
-141 -137 143 0
141 -143 0
137 -143 0
-139 -140 144 0
139 -144 0
140 -144 0
143 144 -145 0
-143 145 0
-144 145 0
-146 -2 147 0
146 -147 0
2 -147 0
-138 -6 148 0
138 -148 0
6 -148 0
-147 -148 -149 0
147 148 -149 0
147 -148 149 0
-147 148 149 0
-149 -145 -150 0
149 145 -150 0
149 -145 150 0
-149 145 150 0
-149 -145 151 0
149 -151 0
145 -151 0
-147 -148 152 0
147 -152 0
148 -152 0
151 152 -153 0
-151 153 0
-152 153 0
-154 -2 155 0
154 -155 0
2 -155 0
-146 -6 156 0
146 -156 0
6 -156 0
-155 -156 -157 0
155 156 -157 0
155 -156 157 0
-155 156 157 0
-157 -153 -158 0
157 153 -158 0
157 -153 158 0
-157 153 158 0
-157 -153 159 0
157 -159 0
153 -159 0
-155 -156 160 0
155 -160 0
156 -160 0
159 160 -161 0
-159 161 0
-160 161 0
-162 -2 163 0
162 -163 0
2 -163 0
-154 -6 164 0
154 -164 0
6 -164 0
-163 -164 -165 0
163 164 -165 0
163 -164 165 0
-163 164 165 0
-165 -161 -166 0
165 161 -166 0
165 -161 166 0
-165 161 166 0
-165 -161 167 0
165 -167 0
161 -167 0
-163 -164 168 0
163 -168 0
164 -168 0
167 168 -169 0
-167 169 0
-168 169 0
-170 -2 171 0
170 -171 0
2 -171 0
-162 -6 172 0
162 -172 0
6 -172 0
-171 -172 -173 0
171 172 -173 0
171 -172 173 0
-171 172 173 0
-173 -169 -174 0
173 169 -174 0
173 -169 174 0
-173 169 174 0
-173 -169 175 0
173 -175 0
169 -175 0
-171 -172 176 0
171 -176 0
172 -176 0
175 176 -177 0
-175 177 0
-176 177 0
-178 -2 179 0
178 -179 0
2 -179 0
-170 -6 180 0
170 -180 0
6 -180 0
-179 -180 -181 0
179 180 -181 0
179 -180 181 0
-179 180 181 0
-181 -177 -182 0
181 177 -182 0
181 -177 182 0
-181 177 182 0
-181 -177 183 0
181 -183 0
177 -183 0
-179 -180 184 0
179 -184 0
180 -184 0
183 184 -185 0
-183 185 0
-184 185 0
-186 -2 187 0
186 -187 0
2 -187 0
-178 -6 188 0
178 -188 0
6 -188 0
-187 -188 -189 0
187 188 -189 0
187 -188 189 0
-187 188 189 0
-189 -185 -190 0
189 185 -190 0
189 -185 190 0
-189 185 190 0
-189 -185 191 0
189 -191 0
185 -191 0
-187 -188 192 0
187 -192 0
188 -192 0
191 192 -193 0
-191 193 0
-192 193 0
-194 -2 195 0
194 -195 0
2 -195 0
-186 -6 196 0
186 -196 0
6 -196 0
-195 -196 -197 0
195 196 -197 0
195 -196 197 0
-195 196 197 0
-197 -193 -198 0
197 193 -198 0
197 -193 198 0
-197 193 198 0
-197 -193 199 0
197 -199 0
193 -199 0
-195 -196 200 0
195 -200 0
196 -200 0
199 200 -201 0
-199 201 0
-200 201 0
-202 -2 203 0
202 -203 0
2 -203 0
-194 -6 204 0
194 -204 0
6 -204 0
-203 -204 -205 0
203 204 -205 0
203 -204 205 0
-203 204 205 0
-205 -201 -206 0
205 201 -206 0
205 -201 206 0
-205 201 206 0
-205 -201 207 0
205 -207 0
201 -207 0
-203 -204 208 0
203 -208 0
204 -208 0
207 208 -209 0
-207 209 0
-208 209 0
-210 -2 211 0
210 -211 0
2 -211 0
-202 -6 212 0
202 -212 0
6 -212 0
-211 -212 -213 0
211 212 -213 0
211 -212 213 0
-211 212 213 0
-213 -209 -214 0
213 209 -214 0
213 -209 214 0
-213 209 214 0
-213 -209 215 0
213 -215 0
209 -215 0
-211 -212 216 0
211 -216 0
212 -216 0
215 216 -217 0
-215 217 0
-216 217 0
-218 -2 219 0
218 -219 0
2 -219 0
-210 -6 220 0
210 -220 0
6 -220 0
-219 -220 -221 0
219 220 -221 0
219 -220 221 0
-219 220 221 0
-221 -217 -222 0
221 217 -222 0
221 -217 222 0
-221 217 222 0
-221 -217 223 0
221 -223 0
217 -223 0
-219 -220 224 0
219 -224 0
220 -224 0
223 224 -225 0
-223 225 0
-224 225 0
-226 -2 227 0
226 -227 0
2 -227 0
-218 -6 228 0
218 -228 0
6 -228 0
-227 -228 -229 0
227 228 -229 0
227 -228 229 0
-227 228 229 0
-229 -225 -230 0
229 225 -230 0
229 -225 230 0
-229 225 230 0
-229 -225 231 0
229 -231 0
225 -231 0
-227 -228 232 0
227 -232 0
228 -232 0
231 232 -233 0
-231 233 0
-232 233 0
-234 -2 235 0
234 -235 0
2 -235 0
-226 -6 236 0
226 -236 0
6 -236 0
-235 -236 -237 0
235 236 -237 0
235 -236 237 0
-235 236 237 0
-237 -233 -238 0
237 233 -238 0
237 -233 238 0
-237 233 238 0
-237 -233 239 0
237 -239 0
233 -239 0
-235 -236 240 0
235 -240 0
236 -240 0
239 240 -241 0
-239 241 0
-240 241 0
-242 -2 243 0
242 -243 0
2 -243 0
-234 -6 244 0
234 -244 0
6 -244 0
-243 -244 -245 0
243 244 -245 0
243 -244 245 0
-243 244 245 0
-245 -241 -246 0
245 241 -246 0
245 -241 246 0
-245 241 246 0
-245 -241 247 0
245 -247 0
241 -247 0
-243 -244 248 0
243 -248 0
244 -248 0
247 248 -249 0
-247 249 0
-248 249 0
-250 -2 251 0
250 -251 0
2 -251 0
-242 -6 252 0
242 -252 0
6 -252 0
-251 -252 -253 0
251 252 -253 0
251 -252 253 0
-251 252 253 0
-253 -249 -254 0
253 249 -254 0
253 -249 254 0
-253 249 254 0
-253 -249 255 0
253 -255 0
249 -255 0
-251 -252 256 0
251 -256 0
252 -256 0
255 256 -257 0
-255 257 0
-256 257 0
-258 -2 259 0
258 -259 0
2 -259 0
-250 -6 260 0
250 -260 0
6 -260 0
-259 -260 -261 0
259 260 -261 0
259 -260 261 0
-259 260 261 0
-261 -257 -262 0
261 257 -262 0
261 -257 262 0
-261 257 262 0
-261 -257 263 0
261 -263 0
257 -263 0
-259 -260 264 0
259 -264 0
260 -264 0
263 264 -265 0
-263 265 0
-264 265 0
-266 -2 267 0
266 -267 0
2 -267 0
-258 -6 268 0
258 -268 0
6 -268 0
-267 -268 -269 0
267 268 -269 0
267 -268 269 0
-267 268 269 0
-269 -265 -270 0
269 265 -270 0
269 -265 270 0
-269 265 270 0
-269 -265 271 0
269 -271 0
265 -271 0
-267 -268 272 0
267 -272 0
268 -272 0
271 272 -273 0
-271 273 0
-272 273 0
-274 -2 275 0
274 -275 0
2 -275 0
-266 -6 276 0
266 -276 0
6 -276 0
-275 -276 -277 0
275 276 -277 0
275 -276 277 0
-275 276 277 0
-277 -273 -278 0
277 273 -278 0
277 -273 278 0
-277 273 278 0
-277 -273 279 0
277 -279 0
273 -279 0
-275 -276 280 0
275 -280 0
276 -280 0
279 280 -281 0
-279 281 0
-280 281 0
-282 -2 283 0
282 -283 0
2 -283 0
-274 -6 284 0
274 -284 0
6 -284 0
-283 -284 -285 0
283 284 -285 0
283 -284 285 0
-283 284 285 0
-285 -281 -286 0
285 281 -286 0
285 -281 286 0
-285 281 286 0
-285 -281 287 0
285 -287 0
281 -287 0
-283 -284 288 0
283 -288 0
284 -288 0
287 288 -289 0
-287 289 0
-288 289 0
-290 -2 291 0
290 -291 0
2 -291 0
-282 -6 292 0
282 -292 0
6 -292 0
-291 -292 -293 0
291 292 -293 0
291 -292 293 0
-291 292 293 0
-293 -289 -294 0
293 289 -294 0
293 -289 294 0
-293 289 294 0
-293 -289 295 0
293 -295 0
289 -295 0
-291 -292 296 0
291 -296 0
292 -296 0
295 296 -297 0
-295 297 0
-296 297 0
-298 -2 299 0
298 -299 0
2 -299 0
-290 -6 300 0
290 -300 0
6 -300 0
-299 -300 -301 0
299 300 -301 0
299 -300 301 0
-299 300 301 0
-301 -297 -302 0
301 297 -302 0
301 -297 302 0
-301 297 302 0
-301 -297 303 0
301 -303 0
297 -303 0
-299 -300 304 0
299 -304 0
300 -304 0
303 304 -305 0
-303 305 0
-304 305 0
-306 -2 307 0
306 -307 0
2 -307 0
-298 -6 308 0
298 -308 0
6 -308 0
-307 -308 -309 0
307 308 -309 0
307 -308 309 0
-307 308 309 0
-309 -305 -310 0
309 305 -310 0
309 -305 310 0
-309 305 310 0
-309 -305 311 0
309 -311 0
305 -311 0
-307 -308 312 0
307 -312 0
308 -312 0
311 312 -313 0
-311 313 0
-312 313 0
-306 -6 314 0
306 -314 0
6 -314 0
-313 -314 -315 0
313 314 -315 0
313 -314 315 0
-313 314 315 0
-313 -314 316 0
313 -316 0
314 -316 0
-1 -317 318 0
1 -318 0
317 -318 0
-14 -318 -319 0
14 318 -319 0
14 -318 319 0
-14 318 319 0
-14 -318 320 0
14 -320 0
318 -320 0
-4 -317 321 0
4 -321 0
317 -321 0
-22 -321 -322 0
22 321 -322 0
22 -321 322 0
-22 321 322 0
-322 -320 -323 0
322 320 -323 0
322 -320 323 0
-322 320 323 0
-322 -320 324 0
322 -324 0
320 -324 0
-22 -321 325 0
22 -325 0
321 -325 0
324 325 -326 0
-324 326 0
-325 326 0
-10 -317 327 0
10 -327 0
317 -327 0
-30 -327 -328 0
30 327 -328 0
30 -327 328 0
-30 327 328 0
-328 -326 -329 0
328 326 -329 0
328 -326 329 0
-328 326 329 0
-328 -326 330 0
328 -330 0
326 -330 0
-30 -327 331 0
30 -331 0
327 -331 0
330 331 -332 0
-330 332 0
-331 332 0
-18 -317 333 0
18 -333 0
317 -333 0
-38 -333 -334 0
38 333 -334 0
38 -333 334 0
-38 333 334 0
-334 -332 -335 0
334 332 -335 0
334 -332 335 0
-334 332 335 0
-334 -332 336 0
334 -336 0
332 -336 0
-38 -333 337 0
38 -337 0
333 -337 0
336 337 -338 0
-336 338 0
-337 338 0
-26 -317 339 0
26 -339 0
317 -339 0
-46 -339 -340 0
46 339 -340 0
46 -339 340 0
-46 339 340 0
-340 -338 -341 0
340 338 -341 0
340 -338 341 0
-340 338 341 0
-340 -338 342 0
340 -342 0
338 -342 0
-46 -339 343 0
46 -343 0
339 -343 0
342 343 -344 0
-342 344 0
-343 344 0
-34 -317 345 0
34 -345 0
317 -345 0
-54 -345 -346 0
54 345 -346 0
54 -345 346 0
-54 345 346 0
-346 -344 -347 0
346 344 -347 0
346 -344 347 0
-346 344 347 0
-346 -344 348 0
346 -348 0
344 -348 0
-54 -345 349 0
54 -349 0
345 -349 0
348 349 -350 0
-348 350 0
-349 350 0
-42 -317 351 0
42 -351 0
317 -351 0
-62 -351 -352 0
62 351 -352 0
62 -351 352 0
-62 351 352 0
-352 -350 -353 0
352 350 -353 0
352 -350 353 0
-352 350 353 0
-352 -350 354 0
352 -354 0
350 -354 0
-62 -351 355 0
62 -355 0
351 -355 0
354 355 -356 0
-354 356 0
-355 356 0
-50 -317 357 0
50 -357 0
317 -357 0
-70 -357 -358 0
70 357 -358 0
70 -357 358 0
-70 357 358 0
-358 -356 -359 0
358 356 -359 0
358 -356 359 0
-358 356 359 0
-358 -356 360 0
358 -360 0
356 -360 0
-70 -357 361 0
70 -361 0
357 -361 0
360 361 -362 0
-360 362 0
-361 362 0
-58 -317 363 0
58 -363 0
317 -363 0
-78 -363 -364 0
78 363 -364 0
78 -363 364 0
-78 363 364 0
-364 -362 -365 0
364 362 -365 0
364 -362 365 0
-364 362 365 0
-364 -362 366 0
364 -366 0
362 -366 0
-78 -363 367 0
78 -367 0
363 -367 0
366 367 -368 0
-366 368 0
-367 368 0
-66 -317 369 0
66 -369 0
317 -369 0
-86 -369 -370 0
86 369 -370 0
86 -369 370 0
-86 369 370 0
-370 -368 -371 0
370 368 -371 0
370 -368 371 0
-370 368 371 0
-370 -368 372 0
370 -372 0
368 -372 0
-86 -369 373 0
86 -373 0
369 -373 0
372 373 -374 0
-372 374 0
-373 374 0
-74 -317 375 0
74 -375 0
317 -375 0
-94 -375 -376 0
94 375 -376 0
94 -375 376 0
-94 375 376 0
-376 -374 -377 0
376 374 -377 0
376 -374 377 0
-376 374 377 0
-376 -374 378 0
376 -378 0
374 -378 0
-94 -375 379 0
94 -379 0
375 -379 0
378 379 -380 0
-378 380 0
-379 380 0
-82 -317 381 0
82 -381 0
317 -381 0
-102 -381 -382 0
102 381 -382 0
102 -381 382 0
-102 381 382 0
-382 -380 -383 0
382 380 -383 0
382 -380 383 0
-382 380 383 0
-382 -380 384 0
382 -384 0
380 -384 0
-102 -381 385 0
102 -385 0
381 -385 0
384 385 -386 0
-384 386 0
-385 386 0
-90 -317 387 0
90 -387 0
317 -387 0
-110 -387 -388 0
110 387 -388 0
110 -387 388 0
-110 387 388 0
-388 -386 -389 0
388 386 -389 0
388 -386 389 0
-388 386 389 0
-388 -386 390 0
388 -390 0
386 -390 0
-110 -387 391 0
110 -391 0
387 -391 0
390 391 -392 0
-390 392 0
-391 392 0
-98 -317 393 0
98 -393 0
317 -393 0
-118 -393 -394 0
118 393 -394 0
118 -393 394 0
-118 393 394 0
-394 -392 -395 0
394 392 -395 0
394 -392 395 0
-394 392 395 0
-394 -392 396 0
394 -396 0
392 -396 0
-118 -393 397 0
118 -397 0
393 -397 0
396 397 -398 0
-396 398 0
-397 398 0
-106 -317 399 0
106 -399 0
317 -399 0
-126 -399 -400 0
126 399 -400 0
126 -399 400 0
-126 399 400 0
-400 -398 -401 0
400 398 -401 0
400 -398 401 0
-400 398 401 0
-400 -398 402 0
400 -402 0
398 -402 0
-126 -399 403 0
126 -403 0
399 -403 0
402 403 -404 0
-402 404 0
-403 404 0
-114 -317 405 0
114 -405 0
317 -405 0
-134 -405 -406 0
134 405 -406 0
134 -405 406 0
-134 405 406 0
-406 -404 -407 0
406 404 -407 0
406 -404 407 0
-406 404 407 0
-406 -404 408 0
406 -408 0
404 -408 0
-134 -405 409 0
134 -409 0
405 -409 0
408 409 -410 0
-408 410 0
-409 410 0
-122 -317 411 0
122 -411 0
317 -411 0
-142 -411 -412 0
142 411 -412 0
142 -411 412 0
-142 411 412 0
-412 -410 -413 0
412 410 -413 0
412 -410 413 0
-412 410 413 0
-412 -410 414 0
412 -414 0
410 -414 0
-142 -411 415 0
142 -415 0
411 -415 0
414 415 -416 0
-414 416 0
-415 416 0
-130 -317 417 0
130 -417 0
317 -417 0
-150 -417 -418 0
150 417 -418 0
150 -417 418 0
-150 417 418 0
-418 -416 -419 0
418 416 -419 0
418 -416 419 0
-418 416 419 0
-418 -416 420 0
418 -420 0
416 -420 0
-150 -417 421 0
150 -421 0
417 -421 0
420 421 -422 0
-420 422 0
-421 422 0
-138 -317 423 0
138 -423 0
317 -423 0
-158 -423 -424 0
158 423 -424 0
158 -423 424 0
-158 423 424 0
-424 -422 -425 0
424 422 -425 0
424 -422 425 0
-424 422 425 0
-424 -422 426 0
424 -426 0
422 -426 0
-158 -423 427 0
158 -427 0
423 -427 0
426 427 -428 0
-426 428 0
-427 428 0
-146 -317 429 0
146 -429 0
317 -429 0
-166 -429 -430 0
166 429 -430 0
166 -429 430 0
-166 429 430 0
-430 -428 -431 0
430 428 -431 0
430 -428 431 0
-430 428 431 0
-430 -428 432 0
430 -432 0
428 -432 0
-166 -429 433 0
166 -433 0
429 -433 0
432 433 -434 0
-432 434 0
-433 434 0
-154 -317 435 0
154 -435 0
317 -435 0
-174 -435 -436 0
174 435 -436 0
174 -435 436 0
-174 435 436 0
-436 -434 -437 0
436 434 -437 0
436 -434 437 0
-436 434 437 0
-436 -434 438 0
436 -438 0
434 -438 0
-174 -435 439 0
174 -439 0
435 -439 0
438 439 -440 0
-438 440 0
-439 440 0
-162 -317 441 0
162 -441 0
317 -441 0
-182 -441 -442 0
182 441 -442 0
182 -441 442 0
-182 441 442 0
-442 -440 -443 0
442 440 -443 0
442 -440 443 0
-442 440 443 0
-442 -440 444 0
442 -444 0
440 -444 0
-182 -441 445 0
182 -445 0
441 -445 0
444 445 -446 0
-444 446 0
-445 446 0
-170 -317 447 0
170 -447 0
317 -447 0
-190 -447 -448 0
190 447 -448 0
190 -447 448 0
-190 447 448 0
-448 -446 -449 0
448 446 -449 0
448 -446 449 0
-448 446 449 0
-448 -446 450 0
448 -450 0
446 -450 0
-190 -447 451 0
190 -451 0
447 -451 0
450 451 -452 0
-450 452 0
-451 452 0
-178 -317 453 0
178 -453 0
317 -453 0
-198 -453 -454 0
198 453 -454 0
198 -453 454 0
-198 453 454 0
-454 -452 -455 0
454 452 -455 0
454 -452 455 0
-454 452 455 0
-454 -452 456 0
454 -456 0
452 -456 0
-198 -453 457 0
198 -457 0
453 -457 0
456 457 -458 0
-456 458 0
-457 458 0
-186 -317 459 0
186 -459 0
317 -459 0
-206 -459 -460 0
206 459 -460 0
206 -459 460 0
-206 459 460 0
-460 -458 -461 0
460 458 -461 0
460 -458 461 0
-460 458 461 0
-460 -458 462 0
460 -462 0
458 -462 0
-206 -459 463 0
206 -463 0
459 -463 0
462 463 -464 0
-462 464 0
-463 464 0
-194 -317 465 0
194 -465 0
317 -465 0
-214 -465 -466 0
214 465 -466 0
214 -465 466 0
-214 465 466 0
-466 -464 -467 0
466 464 -467 0
466 -464 467 0
-466 464 467 0
-466 -464 468 0
466 -468 0
464 -468 0
-214 -465 469 0
214 -469 0
465 -469 0
468 469 -470 0
-468 470 0
-469 470 0
-202 -317 471 0
202 -471 0
317 -471 0
-222 -471 -472 0
222 471 -472 0
222 -471 472 0
-222 471 472 0
-472 -470 -473 0
472 470 -473 0
472 -470 473 0
-472 470 473 0
-472 -470 474 0
472 -474 0
470 -474 0
-222 -471 475 0
222 -475 0
471 -475 0
474 475 -476 0
-474 476 0
-475 476 0
-210 -317 477 0
210 -477 0
317 -477 0
-230 -477 -478 0
230 477 -478 0
230 -477 478 0
-230 477 478 0
-478 -476 -479 0
478 476 -479 0
478 -476 479 0
-478 476 479 0
-478 -476 480 0
478 -480 0
476 -480 0
-230 -477 481 0
230 -481 0
477 -481 0
480 481 -482 0
-480 482 0
-481 482 0
-218 -317 483 0
218 -483 0
317 -483 0
-238 -483 -484 0
238 483 -484 0
238 -483 484 0
-238 483 484 0
-484 -482 -485 0
484 482 -485 0
484 -482 485 0
-484 482 485 0
-484 -482 486 0
484 -486 0
482 -486 0
-238 -483 487 0
238 -487 0
483 -487 0
486 487 -488 0
-486 488 0
-487 488 0
-226 -317 489 0
226 -489 0
317 -489 0
-246 -489 -490 0
246 489 -490 0
246 -489 490 0
-246 489 490 0
-490 -488 -491 0
490 488 -491 0
490 -488 491 0
-490 488 491 0
-490 -488 492 0
490 -492 0
488 -492 0
-246 -489 493 0
246 -493 0
489 -493 0
492 493 -494 0
-492 494 0
-493 494 0
-234 -317 495 0
234 -495 0
317 -495 0
-254 -495 -496 0
254 495 -496 0
254 -495 496 0
-254 495 496 0
-496 -494 -497 0
496 494 -497 0
496 -494 497 0
-496 494 497 0
-496 -494 498 0
496 -498 0
494 -498 0
-254 -495 499 0
254 -499 0
495 -499 0
498 499 -500 0
-498 500 0
-499 500 0
-242 -317 501 0
242 -501 0
317 -501 0
-262 -501 -502 0
262 501 -502 0
262 -501 502 0
-262 501 502 0
-502 -500 -503 0
502 500 -503 0
502 -500 503 0
-502 500 503 0
-502 -500 504 0
502 -504 0
500 -504 0
-262 -501 505 0
262 -505 0
501 -505 0
504 505 -506 0
-504 506 0
-505 506 0
-250 -317 507 0
250 -507 0
317 -507 0
-270 -507 -508 0
270 507 -508 0
270 -507 508 0
-270 507 508 0
-508 -506 -509 0
508 506 -509 0
508 -506 509 0
-508 506 509 0
-508 -506 510 0
508 -510 0
506 -510 0
-270 -507 511 0
270 -511 0
507 -511 0
510 511 -512 0
-510 512 0
-511 512 0
-258 -317 513 0
258 -513 0
317 -513 0
-278 -513 -514 0
278 513 -514 0
278 -513 514 0
-278 513 514 0
-514 -512 -515 0
514 512 -515 0
514 -512 515 0
-514 512 515 0
-514 -512 516 0
514 -516 0
512 -516 0
-278 -513 517 0
278 -517 0
513 -517 0
516 517 -518 0
-516 518 0
-517 518 0
-266 -317 519 0
266 -519 0
317 -519 0
-286 -519 -520 0
286 519 -520 0
286 -519 520 0
-286 519 520 0
-520 -518 -521 0
520 518 -521 0
520 -518 521 0
-520 518 521 0
-520 -518 522 0
520 -522 0
518 -522 0
-286 -519 523 0
286 -523 0
519 -523 0
522 523 -524 0
-522 524 0
-523 524 0
-274 -317 525 0
274 -525 0
317 -525 0
-294 -525 -526 0
294 525 -526 0
294 -525 526 0
-294 525 526 0
-526 -524 -527 0
526 524 -527 0
526 -524 527 0
-526 524 527 0
-526 -524 528 0
526 -528 0
524 -528 0
-294 -525 529 0
294 -529 0
525 -529 0
528 529 -530 0
-528 530 0
-529 530 0
-282 -317 531 0
282 -531 0
317 -531 0
-302 -531 -532 0
302 531 -532 0
302 -531 532 0
-302 531 532 0
-532 -530 -533 0
532 530 -533 0
532 -530 533 0
-532 530 533 0
-532 -530 534 0
532 -534 0
530 -534 0
-302 -531 535 0
302 -535 0
531 -535 0
534 535 -536 0
-534 536 0
-535 536 0
-290 -317 537 0
290 -537 0
317 -537 0
-310 -537 -538 0
310 537 -538 0
310 -537 538 0
-310 537 538 0
-538 -536 -539 0
538 536 -539 0
538 -536 539 0
-538 536 539 0
-538 -536 540 0
538 -540 0
536 -540 0
-310 -537 541 0
310 -541 0
537 -541 0
540 541 -542 0
-540 542 0
-541 542 0
-298 -317 543 0
298 -543 0
317 -543 0
-315 -543 -544 0
315 543 -544 0
315 -543 544 0
-315 543 544 0
-544 -542 -545 0
544 542 -545 0
544 -542 545 0
-544 542 545 0
-544 -542 546 0
544 -546 0
542 -546 0
-315 -543 547 0
315 -547 0
543 -547 0
546 547 -548 0
-546 548 0
-547 548 0
-306 -317 549 0
306 -549 0
317 -549 0
-316 -549 -550 0
316 549 -550 0
316 -549 550 0
-316 549 550 0
-550 -548 -551 0
550 548 -551 0
550 -548 551 0
-550 548 551 0
-550 -548 552 0
550 -552 0
548 -552 0
-316 -549 553 0
316 -553 0
549 -553 0
552 553 -554 0
-552 554 0
-553 554 0
-1 -555 556 0
1 -556 0
555 -556 0
-323 -556 -557 0
323 556 -557 0
323 -556 557 0
-323 556 557 0
-323 -556 558 0
323 -558 0
556 -558 0
-4 -555 559 0
4 -559 0
555 -559 0
-329 -559 -560 0
329 559 -560 0
329 -559 560 0
-329 559 560 0
-560 -558 -561 0
560 558 -561 0
560 -558 561 0
-560 558 561 0
-560 -558 562 0
560 -562 0
558 -562 0
-329 -559 563 0
329 -563 0
559 -563 0
562 563 -564 0
-562 564 0
-563 564 0
-10 -555 565 0
10 -565 0
555 -565 0
-335 -565 -566 0
335 565 -566 0
335 -565 566 0
-335 565 566 0
-566 -564 -567 0
566 564 -567 0
566 -564 567 0
-566 564 567 0
-566 -564 568 0
566 -568 0
564 -568 0
-335 -565 569 0
335 -569 0
565 -569 0
568 569 -570 0
-568 570 0
-569 570 0
-18 -555 571 0
18 -571 0
555 -571 0
-341 -571 -572 0
341 571 -572 0
341 -571 572 0
-341 571 572 0
-572 -570 -573 0
572 570 -573 0
572 -570 573 0
-572 570 573 0
-572 -570 574 0
572 -574 0
570 -574 0
-341 -571 575 0
341 -575 0
571 -575 0
574 575 -576 0
-574 576 0
-575 576 0
-26 -555 577 0
26 -577 0
555 -577 0
-347 -577 -578 0
347 577 -578 0
347 -577 578 0
-347 577 578 0
-578 -576 -579 0
578 576 -579 0
578 -576 579 0
-578 576 579 0
-578 -576 580 0
578 -580 0
576 -580 0
-347 -577 581 0
347 -581 0
577 -581 0
580 581 -582 0
-580 582 0
-581 582 0
-34 -555 583 0
34 -583 0
555 -583 0
-353 -583 -584 0
353 583 -584 0
353 -583 584 0
-353 583 584 0
-584 -582 -585 0
584 582 -585 0
584 -582 585 0
-584 582 585 0
-584 -582 586 0
584 -586 0
582 -586 0
-353 -583 587 0
353 -587 0
583 -587 0
586 587 -588 0
-586 588 0
-587 588 0
-42 -555 589 0
42 -589 0
555 -589 0
-359 -589 -590 0
359 589 -590 0
359 -589 590 0
-359 589 590 0
-590 -588 -591 0
590 588 -591 0
590 -588 591 0
-590 588 591 0
-590 -588 592 0
590 -592 0
588 -592 0
-359 -589 593 0
359 -593 0
589 -593 0
592 593 -594 0
-592 594 0
-593 594 0
-50 -555 595 0
50 -595 0
555 -595 0
-365 -595 -596 0
365 595 -596 0
365 -595 596 0
-365 595 596 0
-596 -594 -597 0
596 594 -597 0
596 -594 597 0
-596 594 597 0
-596 -594 598 0
596 -598 0
594 -598 0
-365 -595 599 0
365 -599 0
595 -599 0
598 599 -600 0
-598 600 0
-599 600 0
-58 -555 601 0
58 -601 0
555 -601 0
-371 -601 -602 0
371 601 -602 0
371 -601 602 0
-371 601 602 0
-602 -600 -603 0
602 600 -603 0
602 -600 603 0
-602 600 603 0
-602 -600 604 0
602 -604 0
600 -604 0
-371 -601 605 0
371 -605 0
601 -605 0
604 605 -606 0
-604 606 0
-605 606 0
-66 -555 607 0
66 -607 0
555 -607 0
-377 -607 -608 0
377 607 -608 0
377 -607 608 0
-377 607 608 0
-608 -606 -609 0
608 606 -609 0
608 -606 609 0
-608 606 609 0
-608 -606 610 0
608 -610 0
606 -610 0
-377 -607 611 0
377 -611 0
607 -611 0
610 611 -612 0
-610 612 0
-611 612 0
-74 -555 613 0
74 -613 0
555 -613 0
-383 -613 -614 0
383 613 -614 0
383 -613 614 0
-383 613 614 0
-614 -612 -615 0
614 612 -615 0
614 -612 615 0
-614 612 615 0
-614 -612 616 0
614 -616 0
612 -616 0
-383 -613 617 0
383 -617 0
613 -617 0
616 617 -618 0
-616 618 0
-617 618 0
-82 -555 619 0
82 -619 0
555 -619 0
-389 -619 -620 0
389 619 -620 0
389 -619 620 0
-389 619 620 0
-620 -618 -621 0
620 618 -621 0
620 -618 621 0
-620 618 621 0
-620 -618 622 0
620 -622 0
618 -622 0
-389 -619 623 0
389 -623 0
619 -623 0
622 623 -624 0
-622 624 0
-623 624 0
-90 -555 625 0
90 -625 0
555 -625 0
-395 -625 -626 0
395 625 -626 0
395 -625 626 0
-395 625 626 0
-626 -624 -627 0
626 624 -627 0
626 -624 627 0
-626 624 627 0
-626 -624 628 0
626 -628 0
624 -628 0
-395 -625 629 0
395 -629 0
625 -629 0
628 629 -630 0
-628 630 0
-629 630 0
-98 -555 631 0
98 -631 0
555 -631 0
-401 -631 -632 0
401 631 -632 0
401 -631 632 0
-401 631 632 0
-632 -630 -633 0
632 630 -633 0
632 -630 633 0
-632 630 633 0
-632 -630 634 0
632 -634 0
630 -634 0
-401 -631 635 0
401 -635 0
631 -635 0
634 635 -636 0
-634 636 0
-635 636 0
-106 -555 637 0
106 -637 0
555 -637 0
-407 -637 -638 0
407 637 -638 0
407 -637 638 0
-407 637 638 0
-638 -636 -639 0
638 636 -639 0
638 -636 639 0
-638 636 639 0
-638 -636 640 0
638 -640 0
636 -640 0
-407 -637 641 0
407 -641 0
637 -641 0
640 641 -642 0
-640 642 0
-641 642 0
-114 -555 643 0
114 -643 0
555 -643 0
-413 -643 -644 0
413 643 -644 0
413 -643 644 0
-413 643 644 0
-644 -642 -645 0
644 642 -645 0
644 -642 645 0
-644 642 645 0
-644 -642 646 0
644 -646 0
642 -646 0
-413 -643 647 0
413 -647 0
643 -647 0
646 647 -648 0
-646 648 0
-647 648 0
-122 -555 649 0
122 -649 0
555 -649 0
-419 -649 -650 0
419 649 -650 0
419 -649 650 0
-419 649 650 0
-650 -648 -651 0
650 648 -651 0
650 -648 651 0
-650 648 651 0
-650 -648 652 0
650 -652 0
648 -652 0
-419 -649 653 0
419 -653 0
649 -653 0
652 653 -654 0
-652 654 0
-653 654 0
-130 -555 655 0
130 -655 0
555 -655 0
-425 -655 -656 0
425 655 -656 0
425 -655 656 0
-425 655 656 0
-656 -654 -657 0
656 654 -657 0
656 -654 657 0
-656 654 657 0
-656 -654 658 0
656 -658 0
654 -658 0
-425 -655 659 0
425 -659 0
655 -659 0
658 659 -660 0
-658 660 0
-659 660 0
-138 -555 661 0
138 -661 0
555 -661 0
-431 -661 -662 0
431 661 -662 0
431 -661 662 0
-431 661 662 0
-662 -660 -663 0
662 660 -663 0
662 -660 663 0
-662 660 663 0
-662 -660 664 0
662 -664 0
660 -664 0
-431 -661 665 0
431 -665 0
661 -665 0
664 665 -666 0
-664 666 0
-665 666 0
-146 -555 667 0
146 -667 0
555 -667 0
-437 -667 -668 0
437 667 -668 0
437 -667 668 0
-437 667 668 0
-668 -666 -669 0
668 666 -669 0
668 -666 669 0
-668 666 669 0
-668 -666 670 0
668 -670 0
666 -670 0
-437 -667 671 0
437 -671 0
667 -671 0
670 671 -672 0
-670 672 0
-671 672 0
-154 -555 673 0
154 -673 0
555 -673 0
-443 -673 -674 0
443 673 -674 0
443 -673 674 0
-443 673 674 0
-674 -672 -675 0
674 672 -675 0
674 -672 675 0
-674 672 675 0
-674 -672 676 0
674 -676 0
672 -676 0
-443 -673 677 0
443 -677 0
673 -677 0
676 677 -678 0
-676 678 0
-677 678 0
-162 -555 679 0
162 -679 0
555 -679 0
-449 -679 -680 0
449 679 -680 0
449 -679 680 0
-449 679 680 0
-680 -678 -681 0
680 678 -681 0
680 -678 681 0
-680 678 681 0
-680 -678 682 0
680 -682 0
678 -682 0
-449 -679 683 0
449 -683 0
679 -683 0
682 683 -684 0
-682 684 0
-683 684 0
-170 -555 685 0
170 -685 0
555 -685 0
-455 -685 -686 0
455 685 -686 0
455 -685 686 0
-455 685 686 0
-686 -684 -687 0
686 684 -687 0
686 -684 687 0
-686 684 687 0
-686 -684 688 0
686 -688 0
684 -688 0
-455 -685 689 0
455 -689 0
685 -689 0
688 689 -690 0
-688 690 0
-689 690 0
-178 -555 691 0
178 -691 0
555 -691 0
-461 -691 -692 0
461 691 -692 0
461 -691 692 0
-461 691 692 0
-692 -690 -693 0
692 690 -693 0
692 -690 693 0
-692 690 693 0
-692 -690 694 0
692 -694 0
690 -694 0
-461 -691 695 0
461 -695 0
691 -695 0
694 695 -696 0
-694 696 0
-695 696 0
-186 -555 697 0
186 -697 0
555 -697 0
-467 -697 -698 0
467 697 -698 0
467 -697 698 0
-467 697 698 0
-698 -696 -699 0
698 696 -699 0
698 -696 699 0
-698 696 699 0
-698 -696 700 0
698 -700 0
696 -700 0
-467 -697 701 0
467 -701 0
697 -701 0
700 701 -702 0
-700 702 0
-701 702 0
-194 -555 703 0
194 -703 0
555 -703 0
-473 -703 -704 0
473 703 -704 0
473 -703 704 0
-473 703 704 0
-704 -702 -705 0
704 702 -705 0
704 -702 705 0
-704 702 705 0
-704 -702 706 0
704 -706 0
702 -706 0
-473 -703 707 0
473 -707 0
703 -707 0
706 707 -708 0
-706 708 0
-707 708 0
-202 -555 709 0
202 -709 0
555 -709 0
-479 -709 -710 0
479 709 -710 0
479 -709 710 0
-479 709 710 0
-710 -708 -711 0
710 708 -711 0
710 -708 711 0
-710 708 711 0
-710 -708 712 0
710 -712 0
708 -712 0
-479 -709 713 0
479 -713 0
709 -713 0
712 713 -714 0
-712 714 0
-713 714 0
-210 -555 715 0
210 -715 0
555 -715 0
-485 -715 -716 0
485 715 -716 0
485 -715 716 0
-485 715 716 0
-716 -714 -717 0
716 714 -717 0
716 -714 717 0
-716 714 717 0
-716 -714 718 0
716 -718 0
714 -718 0
-485 -715 719 0
485 -719 0
715 -719 0
718 719 -720 0
-718 720 0
-719 720 0
-218 -555 721 0
218 -721 0
555 -721 0
-491 -721 -722 0
491 721 -722 0
491 -721 722 0
-491 721 722 0
-722 -720 -723 0
722 720 -723 0
722 -720 723 0
-722 720 723 0
-722 -720 724 0
722 -724 0
720 -724 0
-491 -721 725 0
491 -725 0
721 -725 0
724 725 -726 0
-724 726 0
-725 726 0
-226 -555 727 0
226 -727 0
555 -727 0
-497 -727 -728 0
497 727 -728 0
497 -727 728 0
-497 727 728 0
-728 -726 -729 0
728 726 -729 0
728 -726 729 0
-728 726 729 0
-728 -726 730 0
728 -730 0
726 -730 0
-497 -727 731 0
497 -731 0
727 -731 0
730 731 -732 0
-730 732 0
-731 732 0
-234 -555 733 0
234 -733 0
555 -733 0
-503 -733 -734 0
503 733 -734 0
503 -733 734 0
-503 733 734 0
-734 -732 -735 0
734 732 -735 0
734 -732 735 0
-734 732 735 0
-734 -732 736 0
734 -736 0
732 -736 0
-503 -733 737 0
503 -737 0
733 -737 0
736 737 -738 0
-736 738 0
-737 738 0
-242 -555 739 0
242 -739 0
555 -739 0
-509 -739 -740 0
509 739 -740 0
509 -739 740 0
-509 739 740 0
-740 -738 -741 0
740 738 -741 0
740 -738 741 0
-740 738 741 0
-740 -738 742 0
740 -742 0
738 -742 0
-509 -739 743 0
509 -743 0
739 -743 0
742 743 -744 0
-742 744 0
-743 744 0
-250 -555 745 0
250 -745 0
555 -745 0
-515 -745 -746 0
515 745 -746 0
515 -745 746 0
-515 745 746 0
-746 -744 -747 0
746 744 -747 0
746 -744 747 0
-746 744 747 0
-746 -744 748 0
746 -748 0
744 -748 0
-515 -745 749 0
515 -749 0
745 -749 0
748 749 -750 0
-748 750 0
-749 750 0
-258 -555 751 0
258 -751 0
555 -751 0
-521 -751 -752 0
521 751 -752 0
521 -751 752 0
-521 751 752 0
-752 -750 -753 0
752 750 -753 0
752 -750 753 0
-752 750 753 0
-752 -750 754 0
752 -754 0
750 -754 0
-521 -751 755 0
521 -755 0
751 -755 0
754 755 -756 0
-754 756 0
-755 756 0
-266 -555 757 0
266 -757 0
555 -757 0
-527 -757 -758 0
527 757 -758 0
527 -757 758 0
-527 757 758 0
-758 -756 -759 0
758 756 -759 0
758 -756 759 0
-758 756 759 0
-758 -756 760 0
758 -760 0
756 -760 0
-527 -757 761 0
527 -761 0
757 -761 0
760 761 -762 0
-760 762 0
-761 762 0
-274 -555 763 0
274 -763 0
555 -763 0
-533 -763 -764 0
533 763 -764 0
533 -763 764 0
-533 763 764 0
-764 -762 -765 0
764 762 -765 0
764 -762 765 0
-764 762 765 0
-764 -762 766 0
764 -766 0
762 -766 0
-533 -763 767 0
533 -767 0
763 -767 0
766 767 -768 0
-766 768 0
-767 768 0
-282 -555 769 0
282 -769 0
555 -769 0
-539 -769 -770 0
539 769 -770 0
539 -769 770 0
-539 769 770 0
-770 -768 -771 0
770 768 -771 0
770 -768 771 0
-770 768 771 0
-770 -768 772 0
770 -772 0
768 -772 0
-539 -769 773 0
539 -773 0
769 -773 0
772 773 -774 0
-772 774 0
-773 774 0
-290 -555 775 0
290 -775 0
555 -775 0
-545 -775 -776 0
545 775 -776 0
545 -775 776 0
-545 775 776 0
-776 -774 -777 0
776 774 -777 0
776 -774 777 0
-776 774 777 0
-776 -774 778 0
776 -778 0
774 -778 0
-545 -775 779 0
545 -779 0
775 -779 0
778 779 -780 0
-778 780 0
-779 780 0
-298 -555 781 0
298 -781 0
555 -781 0
-551 -781 -782 0
551 781 -782 0
551 -781 782 0
-551 781 782 0
-782 -780 -783 0
782 780 -783 0
782 -780 783 0
-782 780 783 0
-782 -780 784 0
782 -784 0
780 -784 0
-551 -781 785 0
551 -785 0
781 -785 0
784 785 -786 0
-784 786 0
-785 786 0
-306 -555 787 0
306 -787 0
555 -787 0
-554 -787 -788 0
554 787 -788 0
554 -787 788 0
-554 787 788 0
-788 -786 -789 0
788 786 -789 0
788 -786 789 0
-788 786 789 0
-788 -786 790 0
788 -790 0
786 -790 0
-554 -787 791 0
554 -791 0
787 -791 0
790 791 -792 0
-790 792 0
-791 792 0
-1 -793 794 0
1 -794 0
793 -794 0
-561 -794 -795 0
561 794 -795 0
561 -794 795 0
-561 794 795 0
-561 -794 796 0
561 -796 0
794 -796 0
-4 -793 797 0
4 -797 0
793 -797 0
-567 -797 -798 0
567 797 -798 0
567 -797 798 0
-567 797 798 0
-798 -796 -799 0
798 796 -799 0
798 -796 799 0
-798 796 799 0
-798 -796 800 0
798 -800 0
796 -800 0
-567 -797 801 0
567 -801 0
797 -801 0
800 801 -802 0
-800 802 0
-801 802 0
-10 -793 803 0
10 -803 0
793 -803 0
-573 -803 -804 0
573 803 -804 0
573 -803 804 0
-573 803 804 0
-804 -802 -805 0
804 802 -805 0
804 -802 805 0
-804 802 805 0
-804 -802 806 0
804 -806 0
802 -806 0
-573 -803 807 0
573 -807 0
803 -807 0
806 807 -808 0
-806 808 0
-807 808 0
-18 -793 809 0
18 -809 0
793 -809 0
-579 -809 -810 0
579 809 -810 0
579 -809 810 0
-579 809 810 0
-810 -808 -811 0
810 808 -811 0
810 -808 811 0
-810 808 811 0
-810 -808 812 0
810 -812 0
808 -812 0
-579 -809 813 0
579 -813 0
809 -813 0
812 813 -814 0
-812 814 0
-813 814 0
-26 -793 815 0
26 -815 0
793 -815 0
-585 -815 -816 0
585 815 -816 0
585 -815 816 0
-585 815 816 0
-816 -814 -817 0
816 814 -817 0
816 -814 817 0
-816 814 817 0
-816 -814 818 0
816 -818 0
814 -818 0
-585 -815 819 0
585 -819 0
815 -819 0
818 819 -820 0
-818 820 0
-819 820 0
-34 -793 821 0
34 -821 0
793 -821 0
-591 -821 -822 0
591 821 -822 0
591 -821 822 0
-591 821 822 0
-822 -820 -823 0
822 820 -823 0
822 -820 823 0
-822 820 823 0
-822 -820 824 0
822 -824 0
820 -824 0
-591 -821 825 0
591 -825 0
821 -825 0
824 825 -826 0
-824 826 0
-825 826 0
-42 -793 827 0
42 -827 0
793 -827 0
-597 -827 -828 0
597 827 -828 0
597 -827 828 0
-597 827 828 0
-828 -826 -829 0
828 826 -829 0
828 -826 829 0
-828 826 829 0
-828 -826 830 0
828 -830 0
826 -830 0
-597 -827 831 0
597 -831 0
827 -831 0
830 831 -832 0
-830 832 0
-831 832 0
-50 -793 833 0
50 -833 0
793 -833 0
-603 -833 -834 0
603 833 -834 0
603 -833 834 0
-603 833 834 0
-834 -832 -835 0
834 832 -835 0
834 -832 835 0
-834 832 835 0
-834 -832 836 0
834 -836 0
832 -836 0
-603 -833 837 0
603 -837 0
833 -837 0
836 837 -838 0
-836 838 0
-837 838 0
-58 -793 839 0
58 -839 0
793 -839 0
-609 -839 -840 0
609 839 -840 0
609 -839 840 0
-609 839 840 0
-840 -838 -841 0
840 838 -841 0
840 -838 841 0
-840 838 841 0
-840 -838 842 0
840 -842 0
838 -842 0
-609 -839 843 0
609 -843 0
839 -843 0
842 843 -844 0
-842 844 0
-843 844 0
-66 -793 845 0
66 -845 0
793 -845 0
-615 -845 -846 0
615 845 -846 0
615 -845 846 0
-615 845 846 0
-846 -844 -847 0
846 844 -847 0
846 -844 847 0
-846 844 847 0
-846 -844 848 0
846 -848 0
844 -848 0
-615 -845 849 0
615 -849 0
845 -849 0
848 849 -850 0
-848 850 0
-849 850 0
-74 -793 851 0
74 -851 0
793 -851 0
-621 -851 -852 0
621 851 -852 0
621 -851 852 0
-621 851 852 0
-852 -850 -853 0
852 850 -853 0
852 -850 853 0
-852 850 853 0
-852 -850 854 0
852 -854 0
850 -854 0
-621 -851 855 0
621 -855 0
851 -855 0
854 855 -856 0
-854 856 0
-855 856 0
-82 -793 857 0
82 -857 0
793 -857 0
-627 -857 -858 0
627 857 -858 0
627 -857 858 0
-627 857 858 0
-858 -856 -859 0
858 856 -859 0
858 -856 859 0
-858 856 859 0
-858 -856 860 0
858 -860 0
856 -860 0
-627 -857 861 0
627 -861 0
857 -861 0
860 861 -862 0
-860 862 0
-861 862 0
-90 -793 863 0
90 -863 0
793 -863 0
-633 -863 -864 0
633 863 -864 0
633 -863 864 0
-633 863 864 0
-864 -862 -865 0
864 862 -865 0
864 -862 865 0
-864 862 865 0
-864 -862 866 0
864 -866 0
862 -866 0
-633 -863 867 0
633 -867 0
863 -867 0
866 867 -868 0
-866 868 0
-867 868 0
-98 -793 869 0
98 -869 0
793 -869 0
-639 -869 -870 0
639 869 -870 0
639 -869 870 0
-639 869 870 0
-870 -868 -871 0
870 868 -871 0
870 -868 871 0
-870 868 871 0
-870 -868 872 0
870 -872 0
868 -872 0
-639 -869 873 0
639 -873 0
869 -873 0
872 873 -874 0
-872 874 0
-873 874 0
-106 -793 875 0
106 -875 0
793 -875 0
-645 -875 -876 0
645 875 -876 0
645 -875 876 0
-645 875 876 0
-876 -874 -877 0
876 874 -877 0
876 -874 877 0
-876 874 877 0
-876 -874 878 0
876 -878 0
874 -878 0
-645 -875 879 0
645 -879 0
875 -879 0
878 879 -880 0
-878 880 0
-879 880 0
-114 -793 881 0
114 -881 0
793 -881 0
-651 -881 -882 0
651 881 -882 0
651 -881 882 0
-651 881 882 0
-882 -880 -883 0
882 880 -883 0
882 -880 883 0
-882 880 883 0
-882 -880 884 0
882 -884 0
880 -884 0
-651 -881 885 0
651 -885 0
881 -885 0
884 885 -886 0
-884 886 0
-885 886 0
-122 -793 887 0
122 -887 0
793 -887 0
-657 -887 -888 0
657 887 -888 0
657 -887 888 0
-657 887 888 0
-888 -886 -889 0
888 886 -889 0
888 -886 889 0
-888 886 889 0
-888 -886 890 0
888 -890 0
886 -890 0
-657 -887 891 0
657 -891 0
887 -891 0
890 891 -892 0
-890 892 0
-891 892 0
-130 -793 893 0
130 -893 0
793 -893 0
-663 -893 -894 0
663 893 -894 0
663 -893 894 0
-663 893 894 0
-894 -892 -895 0
894 892 -895 0
894 -892 895 0
-894 892 895 0
-894 -892 896 0
894 -896 0
892 -896 0
-663 -893 897 0
663 -897 0
893 -897 0
896 897 -898 0
-896 898 0
-897 898 0
-138 -793 899 0
138 -899 0
793 -899 0
-669 -899 -900 0
669 899 -900 0
669 -899 900 0
-669 899 900 0
-900 -898 -901 0
900 898 -901 0
900 -898 901 0
-900 898 901 0
-900 -898 902 0
900 -902 0
898 -902 0
-669 -899 903 0
669 -903 0
899 -903 0
902 903 -904 0
-902 904 0
-903 904 0
-146 -793 905 0
146 -905 0
793 -905 0
-675 -905 -906 0
675 905 -906 0
675 -905 906 0
-675 905 906 0
-906 -904 -907 0
906 904 -907 0
906 -904 907 0
-906 904 907 0
-906 -904 908 0
906 -908 0
904 -908 0
-675 -905 909 0
675 -909 0
905 -909 0
908 909 -910 0
-908 910 0
-909 910 0
-154 -793 911 0
154 -911 0
793 -911 0
-681 -911 -912 0
681 911 -912 0
681 -911 912 0
-681 911 912 0
-912 -910 -913 0
912 910 -913 0
912 -910 913 0
-912 910 913 0
-912 -910 914 0
912 -914 0
910 -914 0
-681 -911 915 0
681 -915 0
911 -915 0
914 915 -916 0
-914 916 0
-915 916 0
-162 -793 917 0
162 -917 0
793 -917 0
-687 -917 -918 0
687 917 -918 0
687 -917 918 0
-687 917 918 0
-918 -916 -919 0
918 916 -919 0
918 -916 919 0
-918 916 919 0
-918 -916 920 0
918 -920 0
916 -920 0
-687 -917 921 0
687 -921 0
917 -921 0
920 921 -922 0
-920 922 0
-921 922 0
-170 -793 923 0
170 -923 0
793 -923 0
-693 -923 -924 0
693 923 -924 0
693 -923 924 0
-693 923 924 0
-924 -922 -925 0
924 922 -925 0
924 -922 925 0
-924 922 925 0
-924 -922 926 0
924 -926 0
922 -926 0
-693 -923 927 0
693 -927 0
923 -927 0
926 927 -928 0
-926 928 0
-927 928 0
-178 -793 929 0
178 -929 0
793 -929 0
-699 -929 -930 0
699 929 -930 0
699 -929 930 0
-699 929 930 0
-930 -928 -931 0
930 928 -931 0
930 -928 931 0
-930 928 931 0
-930 -928 932 0
930 -932 0
928 -932 0
-699 -929 933 0
699 -933 0
929 -933 0
932 933 -934 0
-932 934 0
-933 934 0
-186 -793 935 0
186 -935 0
793 -935 0
-705 -935 -936 0
705 935 -936 0
705 -935 936 0
-705 935 936 0
-936 -934 -937 0
936 934 -937 0
936 -934 937 0
-936 934 937 0
-936 -934 938 0
936 -938 0
934 -938 0
-705 -935 939 0
705 -939 0
935 -939 0
938 939 -940 0
-938 940 0
-939 940 0
-194 -793 941 0
194 -941 0
793 -941 0
-711 -941 -942 0
711 941 -942 0
711 -941 942 0
-711 941 942 0
-942 -940 -943 0
942 940 -943 0
942 -940 943 0
-942 940 943 0
-942 -940 944 0
942 -944 0
940 -944 0
-711 -941 945 0
711 -945 0
941 -945 0
944 945 -946 0
-944 946 0
-945 946 0
-202 -793 947 0
202 -947 0
793 -947 0
-717 -947 -948 0
717 947 -948 0
717 -947 948 0
-717 947 948 0
-948 -946 -949 0
948 946 -949 0
948 -946 949 0
-948 946 949 0
-948 -946 950 0
948 -950 0
946 -950 0
-717 -947 951 0
717 -951 0
947 -951 0
950 951 -952 0
-950 952 0
-951 952 0
-210 -793 953 0
210 -953 0
793 -953 0
-723 -953 -954 0
723 953 -954 0
723 -953 954 0
-723 953 954 0
-954 -952 -955 0
954 952 -955 0
954 -952 955 0
-954 952 955 0
-954 -952 956 0
954 -956 0
952 -956 0
-723 -953 957 0
723 -957 0
953 -957 0
956 957 -958 0
-956 958 0
-957 958 0
-218 -793 959 0
218 -959 0
793 -959 0
-729 -959 -960 0
729 959 -960 0
729 -959 960 0
-729 959 960 0
-960 -958 -961 0
960 958 -961 0
960 -958 961 0
-960 958 961 0
-960 -958 962 0
960 -962 0
958 -962 0
-729 -959 963 0
729 -963 0
959 -963 0
962 963 -964 0
-962 964 0
-963 964 0
-226 -793 965 0
226 -965 0
793 -965 0
-735 -965 -966 0
735 965 -966 0
735 -965 966 0
-735 965 966 0
-966 -964 -967 0
966 964 -967 0
966 -964 967 0
-966 964 967 0
-966 -964 968 0
966 -968 0
964 -968 0
-735 -965 969 0
735 -969 0
965 -969 0
968 969 -970 0
-968 970 0
-969 970 0
-234 -793 971 0
234 -971 0
793 -971 0
-741 -971 -972 0
741 971 -972 0
741 -971 972 0
-741 971 972 0
-972 -970 -973 0
972 970 -973 0
972 -970 973 0
-972 970 973 0
-972 -970 974 0
972 -974 0
970 -974 0
-741 -971 975 0
741 -975 0
971 -975 0
974 975 -976 0
-974 976 0
-975 976 0
-242 -793 977 0
242 -977 0
793 -977 0
-747 -977 -978 0
747 977 -978 0
747 -977 978 0
-747 977 978 0
-978 -976 -979 0
978 976 -979 0
978 -976 979 0
-978 976 979 0
-978 -976 980 0
978 -980 0
976 -980 0
-747 -977 981 0
747 -981 0
977 -981 0
980 981 -982 0
-980 982 0
-981 982 0
-250 -793 983 0
250 -983 0
793 -983 0
-753 -983 -984 0
753 983 -984 0
753 -983 984 0
-753 983 984 0
-984 -982 -985 0
984 982 -985 0
984 -982 985 0
-984 982 985 0
-984 -982 986 0
984 -986 0
982 -986 0
-753 -983 987 0
753 -987 0
983 -987 0
986 987 -988 0
-986 988 0
-987 988 0
-258 -793 989 0
258 -989 0
793 -989 0
-759 -989 -990 0
759 989 -990 0
759 -989 990 0
-759 989 990 0
-990 -988 -991 0
990 988 -991 0
990 -988 991 0
-990 988 991 0
-990 -988 992 0
990 -992 0
988 -992 0
-759 -989 993 0
759 -993 0
989 -993 0
992 993 -994 0
-992 994 0
-993 994 0
-266 -793 995 0
266 -995 0
793 -995 0
-765 -995 -996 0
765 995 -996 0
765 -995 996 0
-765 995 996 0
-996 -994 -997 0
996 994 -997 0
996 -994 997 0
-996 994 997 0
-996 -994 998 0
996 -998 0
994 -998 0
-765 -995 999 0
765 -999 0
995 -999 0
998 999 -1000 0
-998 1000 0
-999 1000 0
-274 -793 1001 0
274 -1001 0
793 -1001 0
-771 -1001 -1002 0
771 1001 -1002 0
771 -1001 1002 0
-771 1001 1002 0
-1002 -1000 -1003 0
1002 1000 -1003 0
1002 -1000 1003 0
-1002 1000 1003 0
-1002 -1000 1004 0
1002 -1004 0
1000 -1004 0
-771 -1001 1005 0
771 -1005 0
1001 -1005 0
1004 1005 -1006 0
-1004 1006 0
-1005 1006 0
-282 -793 1007 0
282 -1007 0
793 -1007 0
-777 -1007 -1008 0
777 1007 -1008 0
777 -1007 1008 0
-777 1007 1008 0
-1008 -1006 -1009 0
1008 1006 -1009 0
1008 -1006 1009 0
-1008 1006 1009 0
-1008 -1006 1010 0
1008 -1010 0
1006 -1010 0
-777 -1007 1011 0
777 -1011 0
1007 -1011 0
1010 1011 -1012 0
-1010 1012 0
-1011 1012 0
-290 -793 1013 0
290 -1013 0
793 -1013 0
-783 -1013 -1014 0
783 1013 -1014 0
783 -1013 1014 0
-783 1013 1014 0
-1014 -1012 -1015 0
1014 1012 -1015 0
1014 -1012 1015 0
-1014 1012 1015 0
-1014 -1012 1016 0
1014 -1016 0
1012 -1016 0
-783 -1013 1017 0
783 -1017 0
1013 -1017 0
1016 1017 -1018 0
-1016 1018 0
-1017 1018 0
-298 -793 1019 0
298 -1019 0
793 -1019 0
-789 -1019 -1020 0
789 1019 -1020 0
789 -1019 1020 0
-789 1019 1020 0
-1020 -1018 -1021 0
1020 1018 -1021 0
1020 -1018 1021 0
-1020 1018 1021 0
-1020 -1018 1022 0
1020 -1022 0
1018 -1022 0
-789 -1019 1023 0
789 -1023 0
1019 -1023 0
1022 1023 -1024 0
-1022 1024 0
-1023 1024 0
-306 -793 1025 0
306 -1025 0
793 -1025 0
-792 -1025 -1026 0
792 1025 -1026 0
792 -1025 1026 0
-792 1025 1026 0
-1026 -1024 -1027 0
1026 1024 -1027 0
1026 -1024 1027 0
-1026 1024 1027 0
-1026 -1024 1028 0
1026 -1028 0
1024 -1028 0
-792 -1025 1029 0
792 -1029 0
1025 -1029 0
1028 1029 -1030 0
-1028 1030 0
-1029 1030 0
-1 -1031 1032 0
1 -1032 0
1031 -1032 0
-799 -1032 -1033 0
799 1032 -1033 0
799 -1032 1033 0
-799 1032 1033 0
-799 -1032 1034 0
799 -1034 0
1032 -1034 0
-4 -1031 1035 0
4 -1035 0
1031 -1035 0
-805 -1035 -1036 0
805 1035 -1036 0
805 -1035 1036 0
-805 1035 1036 0
-1036 -1034 -1037 0
1036 1034 -1037 0
1036 -1034 1037 0
-1036 1034 1037 0
-1036 -1034 1038 0
1036 -1038 0
1034 -1038 0
-805 -1035 1039 0
805 -1039 0
1035 -1039 0
1038 1039 -1040 0
-1038 1040 0
-1039 1040 0
-10 -1031 1041 0
10 -1041 0
1031 -1041 0
-811 -1041 -1042 0
811 1041 -1042 0
811 -1041 1042 0
-811 1041 1042 0
-1042 -1040 -1043 0
1042 1040 -1043 0
1042 -1040 1043 0
-1042 1040 1043 0
-1042 -1040 1044 0
1042 -1044 0
1040 -1044 0
-811 -1041 1045 0
811 -1045 0
1041 -1045 0
1044 1045 -1046 0
-1044 1046 0
-1045 1046 0
-18 -1031 1047 0
18 -1047 0
1031 -1047 0
-817 -1047 -1048 0
817 1047 -1048 0
817 -1047 1048 0
-817 1047 1048 0
-1048 -1046 -1049 0
1048 1046 -1049 0
1048 -1046 1049 0
-1048 1046 1049 0
-1048 -1046 1050 0
1048 -1050 0
1046 -1050 0
-817 -1047 1051 0
817 -1051 0
1047 -1051 0
1050 1051 -1052 0
-1050 1052 0
-1051 1052 0
-26 -1031 1053 0
26 -1053 0
1031 -1053 0
-823 -1053 -1054 0
823 1053 -1054 0
823 -1053 1054 0
-823 1053 1054 0
-1054 -1052 -1055 0
1054 1052 -1055 0
1054 -1052 1055 0
-1054 1052 1055 0
-1054 -1052 1056 0
1054 -1056 0
1052 -1056 0
-823 -1053 1057 0
823 -1057 0
1053 -1057 0
1056 1057 -1058 0
-1056 1058 0
-1057 1058 0
-34 -1031 1059 0
34 -1059 0
1031 -1059 0
-829 -1059 -1060 0
829 1059 -1060 0
829 -1059 1060 0
-829 1059 1060 0
-1060 -1058 -1061 0
1060 1058 -1061 0
1060 -1058 1061 0
-1060 1058 1061 0
-1060 -1058 1062 0
1060 -1062 0
1058 -1062 0
-829 -1059 1063 0
829 -1063 0
1059 -1063 0
1062 1063 -1064 0
-1062 1064 0
-1063 1064 0
-42 -1031 1065 0
42 -1065 0
1031 -1065 0
-835 -1065 -1066 0
835 1065 -1066 0
835 -1065 1066 0
-835 1065 1066 0
-1066 -1064 -1067 0
1066 1064 -1067 0
1066 -1064 1067 0
-1066 1064 1067 0
-1066 -1064 1068 0
1066 -1068 0
1064 -1068 0
-835 -1065 1069 0
835 -1069 0
1065 -1069 0
1068 1069 -1070 0
-1068 1070 0
-1069 1070 0
-50 -1031 1071 0
50 -1071 0
1031 -1071 0
-841 -1071 -1072 0
841 1071 -1072 0
841 -1071 1072 0
-841 1071 1072 0
-1072 -1070 -1073 0
1072 1070 -1073 0
1072 -1070 1073 0
-1072 1070 1073 0
-1072 -1070 1074 0
1072 -1074 0
1070 -1074 0
-841 -1071 1075 0
841 -1075 0
1071 -1075 0
1074 1075 -1076 0
-1074 1076 0
-1075 1076 0
-58 -1031 1077 0
58 -1077 0
1031 -1077 0
-847 -1077 -1078 0
847 1077 -1078 0
847 -1077 1078 0
-847 1077 1078 0
-1078 -1076 -1079 0
1078 1076 -1079 0
1078 -1076 1079 0
-1078 1076 1079 0
-1078 -1076 1080 0
1078 -1080 0
1076 -1080 0
-847 -1077 1081 0
847 -1081 0
1077 -1081 0
1080 1081 -1082 0
-1080 1082 0
-1081 1082 0
-66 -1031 1083 0
66 -1083 0
1031 -1083 0
-853 -1083 -1084 0
853 1083 -1084 0
853 -1083 1084 0
-853 1083 1084 0
-1084 -1082 -1085 0
1084 1082 -1085 0
1084 -1082 1085 0
-1084 1082 1085 0
-1084 -1082 1086 0
1084 -1086 0
1082 -1086 0
-853 -1083 1087 0
853 -1087 0
1083 -1087 0
1086 1087 -1088 0
-1086 1088 0
-1087 1088 0
-74 -1031 1089 0
74 -1089 0
1031 -1089 0
-859 -1089 -1090 0
859 1089 -1090 0
859 -1089 1090 0
-859 1089 1090 0
-1090 -1088 -1091 0
1090 1088 -1091 0
1090 -1088 1091 0
-1090 1088 1091 0
-1090 -1088 1092 0
1090 -1092 0
1088 -1092 0
-859 -1089 1093 0
859 -1093 0
1089 -1093 0
1092 1093 -1094 0
-1092 1094 0
-1093 1094 0
-82 -1031 1095 0
82 -1095 0
1031 -1095 0
-865 -1095 -1096 0
865 1095 -1096 0
865 -1095 1096 0
-865 1095 1096 0
-1096 -1094 -1097 0
1096 1094 -1097 0
1096 -1094 1097 0
-1096 1094 1097 0
-1096 -1094 1098 0
1096 -1098 0
1094 -1098 0
-865 -1095 1099 0
865 -1099 0
1095 -1099 0
1098 1099 -1100 0
-1098 1100 0
-1099 1100 0
-90 -1031 1101 0
90 -1101 0
1031 -1101 0
-871 -1101 -1102 0
871 1101 -1102 0
871 -1101 1102 0
-871 1101 1102 0
-1102 -1100 -1103 0
1102 1100 -1103 0
1102 -1100 1103 0
-1102 1100 1103 0
-1102 -1100 1104 0
1102 -1104 0
1100 -1104 0
-871 -1101 1105 0
871 -1105 0
1101 -1105 0
1104 1105 -1106 0
-1104 1106 0
-1105 1106 0
-98 -1031 1107 0
98 -1107 0
1031 -1107 0
-877 -1107 -1108 0
877 1107 -1108 0
877 -1107 1108 0
-877 1107 1108 0
-1108 -1106 -1109 0
1108 1106 -1109 0
1108 -1106 1109 0
-1108 1106 1109 0
-1108 -1106 1110 0
1108 -1110 0
1106 -1110 0
-877 -1107 1111 0
877 -1111 0
1107 -1111 0
1110 1111 -1112 0
-1110 1112 0
-1111 1112 0
-106 -1031 1113 0
106 -1113 0
1031 -1113 0
-883 -1113 -1114 0
883 1113 -1114 0
883 -1113 1114 0
-883 1113 1114 0
-1114 -1112 -1115 0
1114 1112 -1115 0
1114 -1112 1115 0
-1114 1112 1115 0
-1114 -1112 1116 0
1114 -1116 0
1112 -1116 0
-883 -1113 1117 0
883 -1117 0
1113 -1117 0
1116 1117 -1118 0
-1116 1118 0
-1117 1118 0
-114 -1031 1119 0
114 -1119 0
1031 -1119 0
-889 -1119 -1120 0
889 1119 -1120 0
889 -1119 1120 0
-889 1119 1120 0
-1120 -1118 -1121 0
1120 1118 -1121 0
1120 -1118 1121 0
-1120 1118 1121 0
-1120 -1118 1122 0
1120 -1122 0
1118 -1122 0
-889 -1119 1123 0
889 -1123 0
1119 -1123 0
1122 1123 -1124 0
-1122 1124 0
-1123 1124 0
-122 -1031 1125 0
122 -1125 0
1031 -1125 0
-895 -1125 -1126 0
895 1125 -1126 0
895 -1125 1126 0
-895 1125 1126 0
-1126 -1124 -1127 0
1126 1124 -1127 0
1126 -1124 1127 0
-1126 1124 1127 0
-1126 -1124 1128 0
1126 -1128 0
1124 -1128 0
-895 -1125 1129 0
895 -1129 0
1125 -1129 0
1128 1129 -1130 0
-1128 1130 0
-1129 1130 0
-130 -1031 1131 0
130 -1131 0
1031 -1131 0
-901 -1131 -1132 0
901 1131 -1132 0
901 -1131 1132 0
-901 1131 1132 0
-1132 -1130 -1133 0
1132 1130 -1133 0
1132 -1130 1133 0
-1132 1130 1133 0
-1132 -1130 1134 0
1132 -1134 0
1130 -1134 0
-901 -1131 1135 0
901 -1135 0
1131 -1135 0
1134 1135 -1136 0
-1134 1136 0
-1135 1136 0
-138 -1031 1137 0
138 -1137 0
1031 -1137 0
-907 -1137 -1138 0
907 1137 -1138 0
907 -1137 1138 0
-907 1137 1138 0
-1138 -1136 -1139 0
1138 1136 -1139 0
1138 -1136 1139 0
-1138 1136 1139 0
-1138 -1136 1140 0
1138 -1140 0
1136 -1140 0
-907 -1137 1141 0
907 -1141 0
1137 -1141 0
1140 1141 -1142 0
-1140 1142 0
-1141 1142 0
-146 -1031 1143 0
146 -1143 0
1031 -1143 0
-913 -1143 -1144 0
913 1143 -1144 0
913 -1143 1144 0
-913 1143 1144 0
-1144 -1142 -1145 0
1144 1142 -1145 0
1144 -1142 1145 0
-1144 1142 1145 0
-1144 -1142 1146 0
1144 -1146 0
1142 -1146 0
-913 -1143 1147 0
913 -1147 0
1143 -1147 0
1146 1147 -1148 0
-1146 1148 0
-1147 1148 0
-154 -1031 1149 0
154 -1149 0
1031 -1149 0
-919 -1149 -1150 0
919 1149 -1150 0
919 -1149 1150 0
-919 1149 1150 0
-1150 -1148 -1151 0
1150 1148 -1151 0
1150 -1148 1151 0
-1150 1148 1151 0
-1150 -1148 1152 0
1150 -1152 0
1148 -1152 0
-919 -1149 1153 0
919 -1153 0
1149 -1153 0
1152 1153 -1154 0
-1152 1154 0
-1153 1154 0
-162 -1031 1155 0
162 -1155 0
1031 -1155 0
-925 -1155 -1156 0
925 1155 -1156 0
925 -1155 1156 0
-925 1155 1156 0
-1156 -1154 -1157 0
1156 1154 -1157 0
1156 -1154 1157 0
-1156 1154 1157 0
-1156 -1154 1158 0
1156 -1158 0
1154 -1158 0
-925 -1155 1159 0
925 -1159 0
1155 -1159 0
1158 1159 -1160 0
-1158 1160 0
-1159 1160 0
-170 -1031 1161 0
170 -1161 0
1031 -1161 0
-931 -1161 -1162 0
931 1161 -1162 0
931 -1161 1162 0
-931 1161 1162 0
-1162 -1160 -1163 0
1162 1160 -1163 0
1162 -1160 1163 0
-1162 1160 1163 0
-1162 -1160 1164 0
1162 -1164 0
1160 -1164 0
-931 -1161 1165 0
931 -1165 0
1161 -1165 0
1164 1165 -1166 0
-1164 1166 0
-1165 1166 0
-178 -1031 1167 0
178 -1167 0
1031 -1167 0
-937 -1167 -1168 0
937 1167 -1168 0
937 -1167 1168 0
-937 1167 1168 0
-1168 -1166 -1169 0
1168 1166 -1169 0
1168 -1166 1169 0
-1168 1166 1169 0
-1168 -1166 1170 0
1168 -1170 0
1166 -1170 0
-937 -1167 1171 0
937 -1171 0
1167 -1171 0
1170 1171 -1172 0
-1170 1172 0
-1171 1172 0
-186 -1031 1173 0
186 -1173 0
1031 -1173 0
-943 -1173 -1174 0
943 1173 -1174 0
943 -1173 1174 0
-943 1173 1174 0
-1174 -1172 -1175 0
1174 1172 -1175 0
1174 -1172 1175 0
-1174 1172 1175 0
-1174 -1172 1176 0
1174 -1176 0
1172 -1176 0
-943 -1173 1177 0
943 -1177 0
1173 -1177 0
1176 1177 -1178 0
-1176 1178 0
-1177 1178 0
-194 -1031 1179 0
194 -1179 0
1031 -1179 0
-949 -1179 -1180 0
949 1179 -1180 0
949 -1179 1180 0
-949 1179 1180 0
-1180 -1178 -1181 0
1180 1178 -1181 0
1180 -1178 1181 0
-1180 1178 1181 0
-1180 -1178 1182 0
1180 -1182 0
1178 -1182 0
-949 -1179 1183 0
949 -1183 0
1179 -1183 0
1182 1183 -1184 0
-1182 1184 0
-1183 1184 0
-202 -1031 1185 0
202 -1185 0
1031 -1185 0
-955 -1185 -1186 0
955 1185 -1186 0
955 -1185 1186 0
-955 1185 1186 0
-1186 -1184 -1187 0
1186 1184 -1187 0
1186 -1184 1187 0
-1186 1184 1187 0
-1186 -1184 1188 0
1186 -1188 0
1184 -1188 0
-955 -1185 1189 0
955 -1189 0
1185 -1189 0
1188 1189 -1190 0
-1188 1190 0
-1189 1190 0
-210 -1031 1191 0
210 -1191 0
1031 -1191 0
-961 -1191 -1192 0
961 1191 -1192 0
961 -1191 1192 0
-961 1191 1192 0
-1192 -1190 -1193 0
1192 1190 -1193 0
1192 -1190 1193 0
-1192 1190 1193 0
-1192 -1190 1194 0
1192 -1194 0
1190 -1194 0
-961 -1191 1195 0
961 -1195 0
1191 -1195 0
1194 1195 -1196 0
-1194 1196 0
-1195 1196 0
-218 -1031 1197 0
218 -1197 0
1031 -1197 0
-967 -1197 -1198 0
967 1197 -1198 0
967 -1197 1198 0
-967 1197 1198 0
-1198 -1196 -1199 0
1198 1196 -1199 0
1198 -1196 1199 0
-1198 1196 1199 0
-1198 -1196 1200 0
1198 -1200 0
1196 -1200 0
-967 -1197 1201 0
967 -1201 0
1197 -1201 0
1200 1201 -1202 0
-1200 1202 0
-1201 1202 0
-226 -1031 1203 0
226 -1203 0
1031 -1203 0
-973 -1203 -1204 0
973 1203 -1204 0
973 -1203 1204 0
-973 1203 1204 0
-1204 -1202 -1205 0
1204 1202 -1205 0
1204 -1202 1205 0
-1204 1202 1205 0
-1204 -1202 1206 0
1204 -1206 0
1202 -1206 0
-973 -1203 1207 0
973 -1207 0
1203 -1207 0
1206 1207 -1208 0
-1206 1208 0
-1207 1208 0
-234 -1031 1209 0
234 -1209 0
1031 -1209 0
-979 -1209 -1210 0
979 1209 -1210 0
979 -1209 1210 0
-979 1209 1210 0
-1210 -1208 -1211 0
1210 1208 -1211 0
1210 -1208 1211 0
-1210 1208 1211 0
-1210 -1208 1212 0
1210 -1212 0
1208 -1212 0
-979 -1209 1213 0
979 -1213 0
1209 -1213 0
1212 1213 -1214 0
-1212 1214 0
-1213 1214 0
-242 -1031 1215 0
242 -1215 0
1031 -1215 0
-985 -1215 -1216 0
985 1215 -1216 0
985 -1215 1216 0
-985 1215 1216 0
-1216 -1214 -1217 0
1216 1214 -1217 0
1216 -1214 1217 0
-1216 1214 1217 0
-1216 -1214 1218 0
1216 -1218 0
1214 -1218 0
-985 -1215 1219 0
985 -1219 0
1215 -1219 0
1218 1219 -1220 0
-1218 1220 0
-1219 1220 0
-250 -1031 1221 0
250 -1221 0
1031 -1221 0
-991 -1221 -1222 0
991 1221 -1222 0
991 -1221 1222 0
-991 1221 1222 0
-1222 -1220 -1223 0
1222 1220 -1223 0
1222 -1220 1223 0
-1222 1220 1223 0
-1222 -1220 1224 0
1222 -1224 0
1220 -1224 0
-991 -1221 1225 0
991 -1225 0
1221 -1225 0
1224 1225 -1226 0
-1224 1226 0
-1225 1226 0
-258 -1031 1227 0
258 -1227 0
1031 -1227 0
-997 -1227 -1228 0
997 1227 -1228 0
997 -1227 1228 0
-997 1227 1228 0
-1228 -1226 -1229 0
1228 1226 -1229 0
1228 -1226 1229 0
-1228 1226 1229 0
-1228 -1226 1230 0
1228 -1230 0
1226 -1230 0
-997 -1227 1231 0
997 -1231 0
1227 -1231 0
1230 1231 -1232 0
-1230 1232 0
-1231 1232 0
-266 -1031 1233 0
266 -1233 0
1031 -1233 0
-1003 -1233 -1234 0
1003 1233 -1234 0
1003 -1233 1234 0
-1003 1233 1234 0
-1234 -1232 -1235 0
1234 1232 -1235 0
1234 -1232 1235 0
-1234 1232 1235 0
-1234 -1232 1236 0
1234 -1236 0
1232 -1236 0
-1003 -1233 1237 0
1003 -1237 0
1233 -1237 0
1236 1237 -1238 0
-1236 1238 0
-1237 1238 0
-274 -1031 1239 0
274 -1239 0
1031 -1239 0
-1009 -1239 -1240 0
1009 1239 -1240 0
1009 -1239 1240 0
-1009 1239 1240 0
-1240 -1238 -1241 0
1240 1238 -1241 0
1240 -1238 1241 0
-1240 1238 1241 0
-1240 -1238 1242 0
1240 -1242 0
1238 -1242 0
-1009 -1239 1243 0
1009 -1243 0
1239 -1243 0
1242 1243 -1244 0
-1242 1244 0
-1243 1244 0
-282 -1031 1245 0
282 -1245 0
1031 -1245 0
-1015 -1245 -1246 0
1015 1245 -1246 0
1015 -1245 1246 0
-1015 1245 1246 0
-1246 -1244 -1247 0
1246 1244 -1247 0
1246 -1244 1247 0
-1246 1244 1247 0
-1246 -1244 1248 0
1246 -1248 0
1244 -1248 0
-1015 -1245 1249 0
1015 -1249 0
1245 -1249 0
1248 1249 -1250 0
-1248 1250 0
-1249 1250 0
-290 -1031 1251 0
290 -1251 0
1031 -1251 0
-1021 -1251 -1252 0
1021 1251 -1252 0
1021 -1251 1252 0
-1021 1251 1252 0
-1252 -1250 -1253 0
1252 1250 -1253 0
1252 -1250 1253 0
-1252 1250 1253 0
-1252 -1250 1254 0
1252 -1254 0
1250 -1254 0
-1021 -1251 1255 0
1021 -1255 0
1251 -1255 0
1254 1255 -1256 0
-1254 1256 0
-1255 1256 0
-298 -1031 1257 0
298 -1257 0
1031 -1257 0
-1027 -1257 -1258 0
1027 1257 -1258 0
1027 -1257 1258 0
-1027 1257 1258 0
-1258 -1256 -1259 0
1258 1256 -1259 0
1258 -1256 1259 0
-1258 1256 1259 0
-1258 -1256 1260 0
1258 -1260 0
1256 -1260 0
-1027 -1257 1261 0
1027 -1261 0
1257 -1261 0
1260 1261 -1262 0
-1260 1262 0
-1261 1262 0
-306 -1031 1263 0
306 -1263 0
1031 -1263 0
-1030 -1263 -1264 0
1030 1263 -1264 0
1030 -1263 1264 0
-1030 1263 1264 0
-1264 -1262 -1265 0
1264 1262 -1265 0
1264 -1262 1265 0
-1264 1262 1265 0
-1264 -1262 1266 0
1264 -1266 0
1262 -1266 0
-1030 -1263 1267 0
1030 -1267 0
1263 -1267 0
1266 1267 -1268 0
-1266 1268 0
-1267 1268 0
-1 -1269 1270 0
1 -1270 0
1269 -1270 0
-1037 -1270 -1271 0
1037 1270 -1271 0
1037 -1270 1271 0
-1037 1270 1271 0
-1037 -1270 1272 0
1037 -1272 0
1270 -1272 0
-4 -1269 1273 0
4 -1273 0
1269 -1273 0
-1043 -1273 -1274 0
1043 1273 -1274 0
1043 -1273 1274 0
-1043 1273 1274 0
-1274 -1272 -1275 0
1274 1272 -1275 0
1274 -1272 1275 0
-1274 1272 1275 0
-1274 -1272 1276 0
1274 -1276 0
1272 -1276 0
-1043 -1273 1277 0
1043 -1277 0
1273 -1277 0
1276 1277 -1278 0
-1276 1278 0
-1277 1278 0
-10 -1269 1279 0
10 -1279 0
1269 -1279 0
-1049 -1279 -1280 0
1049 1279 -1280 0
1049 -1279 1280 0
-1049 1279 1280 0
-1280 -1278 -1281 0
1280 1278 -1281 0
1280 -1278 1281 0
-1280 1278 1281 0
-1280 -1278 1282 0
1280 -1282 0
1278 -1282 0
-1049 -1279 1283 0
1049 -1283 0
1279 -1283 0
1282 1283 -1284 0
-1282 1284 0
-1283 1284 0
-18 -1269 1285 0
18 -1285 0
1269 -1285 0
-1055 -1285 -1286 0
1055 1285 -1286 0
1055 -1285 1286 0
-1055 1285 1286 0
-1286 -1284 -1287 0
1286 1284 -1287 0
1286 -1284 1287 0
-1286 1284 1287 0
-1286 -1284 1288 0
1286 -1288 0
1284 -1288 0
-1055 -1285 1289 0
1055 -1289 0
1285 -1289 0
1288 1289 -1290 0
-1288 1290 0
-1289 1290 0
-26 -1269 1291 0
26 -1291 0
1269 -1291 0
-1061 -1291 -1292 0
1061 1291 -1292 0
1061 -1291 1292 0
-1061 1291 1292 0
-1292 -1290 -1293 0
1292 1290 -1293 0
1292 -1290 1293 0
-1292 1290 1293 0
-1292 -1290 1294 0
1292 -1294 0
1290 -1294 0
-1061 -1291 1295 0
1061 -1295 0
1291 -1295 0
1294 1295 -1296 0
-1294 1296 0
-1295 1296 0
-34 -1269 1297 0
34 -1297 0
1269 -1297 0
-1067 -1297 -1298 0
1067 1297 -1298 0
1067 -1297 1298 0
-1067 1297 1298 0
-1298 -1296 -1299 0
1298 1296 -1299 0
1298 -1296 1299 0
-1298 1296 1299 0
-1298 -1296 1300 0
1298 -1300 0
1296 -1300 0
-1067 -1297 1301 0
1067 -1301 0
1297 -1301 0
1300 1301 -1302 0
-1300 1302 0
-1301 1302 0
-42 -1269 1303 0
42 -1303 0
1269 -1303 0
-1073 -1303 -1304 0
1073 1303 -1304 0
1073 -1303 1304 0
-1073 1303 1304 0
-1304 -1302 -1305 0
1304 1302 -1305 0
1304 -1302 1305 0
-1304 1302 1305 0
-1304 -1302 1306 0
1304 -1306 0
1302 -1306 0
-1073 -1303 1307 0
1073 -1307 0
1303 -1307 0
1306 1307 -1308 0
-1306 1308 0
-1307 1308 0
-50 -1269 1309 0
50 -1309 0
1269 -1309 0
-1079 -1309 -1310 0
1079 1309 -1310 0
1079 -1309 1310 0
-1079 1309 1310 0
-1310 -1308 -1311 0
1310 1308 -1311 0
1310 -1308 1311 0
-1310 1308 1311 0
-1310 -1308 1312 0
1310 -1312 0
1308 -1312 0
-1079 -1309 1313 0
1079 -1313 0
1309 -1313 0
1312 1313 -1314 0
-1312 1314 0
-1313 1314 0
-58 -1269 1315 0
58 -1315 0
1269 -1315 0
-1085 -1315 -1316 0
1085 1315 -1316 0
1085 -1315 1316 0
-1085 1315 1316 0
-1316 -1314 -1317 0
1316 1314 -1317 0
1316 -1314 1317 0
-1316 1314 1317 0
-1316 -1314 1318 0
1316 -1318 0
1314 -1318 0
-1085 -1315 1319 0
1085 -1319 0
1315 -1319 0
1318 1319 -1320 0
-1318 1320 0
-1319 1320 0
-66 -1269 1321 0
66 -1321 0
1269 -1321 0
-1091 -1321 -1322 0
1091 1321 -1322 0
1091 -1321 1322 0
-1091 1321 1322 0
-1322 -1320 -1323 0
1322 1320 -1323 0
1322 -1320 1323 0
-1322 1320 1323 0
-1322 -1320 1324 0
1322 -1324 0
1320 -1324 0
-1091 -1321 1325 0
1091 -1325 0
1321 -1325 0
1324 1325 -1326 0
-1324 1326 0
-1325 1326 0
-74 -1269 1327 0
74 -1327 0
1269 -1327 0
-1097 -1327 -1328 0
1097 1327 -1328 0
1097 -1327 1328 0
-1097 1327 1328 0
-1328 -1326 -1329 0
1328 1326 -1329 0
1328 -1326 1329 0
-1328 1326 1329 0
-1328 -1326 1330 0
1328 -1330 0
1326 -1330 0
-1097 -1327 1331 0
1097 -1331 0
1327 -1331 0
1330 1331 -1332 0
-1330 1332 0
-1331 1332 0
-82 -1269 1333 0
82 -1333 0
1269 -1333 0
-1103 -1333 -1334 0
1103 1333 -1334 0
1103 -1333 1334 0
-1103 1333 1334 0
-1334 -1332 -1335 0
1334 1332 -1335 0
1334 -1332 1335 0
-1334 1332 1335 0
-1334 -1332 1336 0
1334 -1336 0
1332 -1336 0
-1103 -1333 1337 0
1103 -1337 0
1333 -1337 0
1336 1337 -1338 0
-1336 1338 0
-1337 1338 0
-90 -1269 1339 0
90 -1339 0
1269 -1339 0
-1109 -1339 -1340 0
1109 1339 -1340 0
1109 -1339 1340 0
-1109 1339 1340 0
-1340 -1338 -1341 0
1340 1338 -1341 0
1340 -1338 1341 0
-1340 1338 1341 0
-1340 -1338 1342 0
1340 -1342 0
1338 -1342 0
-1109 -1339 1343 0
1109 -1343 0
1339 -1343 0
1342 1343 -1344 0
-1342 1344 0
-1343 1344 0
-98 -1269 1345 0
98 -1345 0
1269 -1345 0
-1115 -1345 -1346 0
1115 1345 -1346 0
1115 -1345 1346 0
-1115 1345 1346 0
-1346 -1344 -1347 0
1346 1344 -1347 0
1346 -1344 1347 0
-1346 1344 1347 0
-1346 -1344 1348 0
1346 -1348 0
1344 -1348 0
-1115 -1345 1349 0
1115 -1349 0
1345 -1349 0
1348 1349 -1350 0
-1348 1350 0
-1349 1350 0
-106 -1269 1351 0
106 -1351 0
1269 -1351 0
-1121 -1351 -1352 0
1121 1351 -1352 0
1121 -1351 1352 0
-1121 1351 1352 0
-1352 -1350 -1353 0
1352 1350 -1353 0
1352 -1350 1353 0
-1352 1350 1353 0
-1352 -1350 1354 0
1352 -1354 0
1350 -1354 0
-1121 -1351 1355 0
1121 -1355 0
1351 -1355 0
1354 1355 -1356 0
-1354 1356 0
-1355 1356 0
-114 -1269 1357 0
114 -1357 0
1269 -1357 0
-1127 -1357 -1358 0
1127 1357 -1358 0
1127 -1357 1358 0
-1127 1357 1358 0
-1358 -1356 -1359 0
1358 1356 -1359 0
1358 -1356 1359 0
-1358 1356 1359 0
-1358 -1356 1360 0
1358 -1360 0
1356 -1360 0
-1127 -1357 1361 0
1127 -1361 0
1357 -1361 0
1360 1361 -1362 0
-1360 1362 0
-1361 1362 0
-122 -1269 1363 0
122 -1363 0
1269 -1363 0
-1133 -1363 -1364 0
1133 1363 -1364 0
1133 -1363 1364 0
-1133 1363 1364 0
-1364 -1362 -1365 0
1364 1362 -1365 0
1364 -1362 1365 0
-1364 1362 1365 0
-1364 -1362 1366 0
1364 -1366 0
1362 -1366 0
-1133 -1363 1367 0
1133 -1367 0
1363 -1367 0
1366 1367 -1368 0
-1366 1368 0
-1367 1368 0
-130 -1269 1369 0
130 -1369 0
1269 -1369 0
-1139 -1369 -1370 0
1139 1369 -1370 0
1139 -1369 1370 0
-1139 1369 1370 0
-1370 -1368 -1371 0
1370 1368 -1371 0
1370 -1368 1371 0
-1370 1368 1371 0
-1370 -1368 1372 0
1370 -1372 0
1368 -1372 0
-1139 -1369 1373 0
1139 -1373 0
1369 -1373 0
1372 1373 -1374 0
-1372 1374 0
-1373 1374 0
-138 -1269 1375 0
138 -1375 0
1269 -1375 0
-1145 -1375 -1376 0
1145 1375 -1376 0
1145 -1375 1376 0
-1145 1375 1376 0
-1376 -1374 -1377 0
1376 1374 -1377 0
1376 -1374 1377 0
-1376 1374 1377 0
-1376 -1374 1378 0
1376 -1378 0
1374 -1378 0
-1145 -1375 1379 0
1145 -1379 0
1375 -1379 0
1378 1379 -1380 0
-1378 1380 0
-1379 1380 0
-146 -1269 1381 0
146 -1381 0
1269 -1381 0
-1151 -1381 -1382 0
1151 1381 -1382 0
1151 -1381 1382 0
-1151 1381 1382 0
-1382 -1380 -1383 0
1382 1380 -1383 0
1382 -1380 1383 0
-1382 1380 1383 0
-1382 -1380 1384 0
1382 -1384 0
1380 -1384 0
-1151 -1381 1385 0
1151 -1385 0
1381 -1385 0
1384 1385 -1386 0
-1384 1386 0
-1385 1386 0
-154 -1269 1387 0
154 -1387 0
1269 -1387 0
-1157 -1387 -1388 0
1157 1387 -1388 0
1157 -1387 1388 0
-1157 1387 1388 0
-1388 -1386 -1389 0
1388 1386 -1389 0
1388 -1386 1389 0
-1388 1386 1389 0
-1388 -1386 1390 0
1388 -1390 0
1386 -1390 0
-1157 -1387 1391 0
1157 -1391 0
1387 -1391 0
1390 1391 -1392 0
-1390 1392 0
-1391 1392 0
-162 -1269 1393 0
162 -1393 0
1269 -1393 0
-1163 -1393 -1394 0
1163 1393 -1394 0
1163 -1393 1394 0
-1163 1393 1394 0
-1394 -1392 -1395 0
1394 1392 -1395 0
1394 -1392 1395 0
-1394 1392 1395 0
-1394 -1392 1396 0
1394 -1396 0
1392 -1396 0
-1163 -1393 1397 0
1163 -1397 0
1393 -1397 0
1396 1397 -1398 0
-1396 1398 0
-1397 1398 0
-170 -1269 1399 0
170 -1399 0
1269 -1399 0
-1169 -1399 -1400 0
1169 1399 -1400 0
1169 -1399 1400 0
-1169 1399 1400 0
-1400 -1398 -1401 0
1400 1398 -1401 0
1400 -1398 1401 0
-1400 1398 1401 0
-1400 -1398 1402 0
1400 -1402 0
1398 -1402 0
-1169 -1399 1403 0
1169 -1403 0
1399 -1403 0
1402 1403 -1404 0
-1402 1404 0
-1403 1404 0
-178 -1269 1405 0
178 -1405 0
1269 -1405 0
-1175 -1405 -1406 0
1175 1405 -1406 0
1175 -1405 1406 0
-1175 1405 1406 0
-1406 -1404 -1407 0
1406 1404 -1407 0
1406 -1404 1407 0
-1406 1404 1407 0
-1406 -1404 1408 0
1406 -1408 0
1404 -1408 0
-1175 -1405 1409 0
1175 -1409 0
1405 -1409 0
1408 1409 -1410 0
-1408 1410 0
-1409 1410 0
-186 -1269 1411 0
186 -1411 0
1269 -1411 0
-1181 -1411 -1412 0
1181 1411 -1412 0
1181 -1411 1412 0
-1181 1411 1412 0
-1412 -1410 -1413 0
1412 1410 -1413 0
1412 -1410 1413 0
-1412 1410 1413 0
-1412 -1410 1414 0
1412 -1414 0
1410 -1414 0
-1181 -1411 1415 0
1181 -1415 0
1411 -1415 0
1414 1415 -1416 0
-1414 1416 0
-1415 1416 0
-194 -1269 1417 0
194 -1417 0
1269 -1417 0
-1187 -1417 -1418 0
1187 1417 -1418 0
1187 -1417 1418 0
-1187 1417 1418 0
-1418 -1416 -1419 0
1418 1416 -1419 0
1418 -1416 1419 0
-1418 1416 1419 0
-1418 -1416 1420 0
1418 -1420 0
1416 -1420 0
-1187 -1417 1421 0
1187 -1421 0
1417 -1421 0
1420 1421 -1422 0
-1420 1422 0
-1421 1422 0
-202 -1269 1423 0
202 -1423 0
1269 -1423 0
-1193 -1423 -1424 0
1193 1423 -1424 0
1193 -1423 1424 0
-1193 1423 1424 0
-1424 -1422 -1425 0
1424 1422 -1425 0
1424 -1422 1425 0
-1424 1422 1425 0
-1424 -1422 1426 0
1424 -1426 0
1422 -1426 0
-1193 -1423 1427 0
1193 -1427 0
1423 -1427 0
1426 1427 -1428 0
-1426 1428 0
-1427 1428 0
-210 -1269 1429 0
210 -1429 0
1269 -1429 0
-1199 -1429 -1430 0
1199 1429 -1430 0
1199 -1429 1430 0
-1199 1429 1430 0
-1430 -1428 -1431 0
1430 1428 -1431 0
1430 -1428 1431 0
-1430 1428 1431 0
-1430 -1428 1432 0
1430 -1432 0
1428 -1432 0
-1199 -1429 1433 0
1199 -1433 0
1429 -1433 0
1432 1433 -1434 0
-1432 1434 0
-1433 1434 0
-218 -1269 1435 0
218 -1435 0
1269 -1435 0
-1205 -1435 -1436 0
1205 1435 -1436 0
1205 -1435 1436 0
-1205 1435 1436 0
-1436 -1434 -1437 0
1436 1434 -1437 0
1436 -1434 1437 0
-1436 1434 1437 0
-1436 -1434 1438 0
1436 -1438 0
1434 -1438 0
-1205 -1435 1439 0
1205 -1439 0
1435 -1439 0
1438 1439 -1440 0
-1438 1440 0
-1439 1440 0
-226 -1269 1441 0
226 -1441 0
1269 -1441 0
-1211 -1441 -1442 0
1211 1441 -1442 0
1211 -1441 1442 0
-1211 1441 1442 0
-1442 -1440 -1443 0
1442 1440 -1443 0
1442 -1440 1443 0
-1442 1440 1443 0
-1442 -1440 1444 0
1442 -1444 0
1440 -1444 0
-1211 -1441 1445 0
1211 -1445 0
1441 -1445 0
1444 1445 -1446 0
-1444 1446 0
-1445 1446 0
-234 -1269 1447 0
234 -1447 0
1269 -1447 0
-1217 -1447 -1448 0
1217 1447 -1448 0
1217 -1447 1448 0
-1217 1447 1448 0
-1448 -1446 -1449 0
1448 1446 -1449 0
1448 -1446 1449 0
-1448 1446 1449 0
-1448 -1446 1450 0
1448 -1450 0
1446 -1450 0
-1217 -1447 1451 0
1217 -1451 0
1447 -1451 0
1450 1451 -1452 0
-1450 1452 0
-1451 1452 0
-242 -1269 1453 0
242 -1453 0
1269 -1453 0
-1223 -1453 -1454 0
1223 1453 -1454 0
1223 -1453 1454 0
-1223 1453 1454 0
-1454 -1452 -1455 0
1454 1452 -1455 0
1454 -1452 1455 0
-1454 1452 1455 0
-1454 -1452 1456 0
1454 -1456 0
1452 -1456 0
-1223 -1453 1457 0
1223 -1457 0
1453 -1457 0
1456 1457 -1458 0
-1456 1458 0
-1457 1458 0
-250 -1269 1459 0
250 -1459 0
1269 -1459 0
-1229 -1459 -1460 0
1229 1459 -1460 0
1229 -1459 1460 0
-1229 1459 1460 0
-1460 -1458 -1461 0
1460 1458 -1461 0
1460 -1458 1461 0
-1460 1458 1461 0
-1460 -1458 1462 0
1460 -1462 0
1458 -1462 0
-1229 -1459 1463 0
1229 -1463 0
1459 -1463 0
1462 1463 -1464 0
-1462 1464 0
-1463 1464 0
-258 -1269 1465 0
258 -1465 0
1269 -1465 0
-1235 -1465 -1466 0
1235 1465 -1466 0
1235 -1465 1466 0
-1235 1465 1466 0
-1466 -1464 -1467 0
1466 1464 -1467 0
1466 -1464 1467 0
-1466 1464 1467 0
-1466 -1464 1468 0
1466 -1468 0
1464 -1468 0
-1235 -1465 1469 0
1235 -1469 0
1465 -1469 0
1468 1469 -1470 0
-1468 1470 0
-1469 1470 0
-266 -1269 1471 0
266 -1471 0
1269 -1471 0
-1241 -1471 -1472 0
1241 1471 -1472 0
1241 -1471 1472 0
-1241 1471 1472 0
-1472 -1470 -1473 0
1472 1470 -1473 0
1472 -1470 1473 0
-1472 1470 1473 0
-1472 -1470 1474 0
1472 -1474 0
1470 -1474 0
-1241 -1471 1475 0
1241 -1475 0
1471 -1475 0
1474 1475 -1476 0
-1474 1476 0
-1475 1476 0
-274 -1269 1477 0
274 -1477 0
1269 -1477 0
-1247 -1477 -1478 0
1247 1477 -1478 0
1247 -1477 1478 0
-1247 1477 1478 0
-1478 -1476 -1479 0
1478 1476 -1479 0
1478 -1476 1479 0
-1478 1476 1479 0
-1478 -1476 1480 0
1478 -1480 0
1476 -1480 0
-1247 -1477 1481 0
1247 -1481 0
1477 -1481 0
1480 1481 -1482 0
-1480 1482 0
-1481 1482 0
-282 -1269 1483 0
282 -1483 0
1269 -1483 0
-1253 -1483 -1484 0
1253 1483 -1484 0
1253 -1483 1484 0
-1253 1483 1484 0
-1484 -1482 -1485 0
1484 1482 -1485 0
1484 -1482 1485 0
-1484 1482 1485 0
-1484 -1482 1486 0
1484 -1486 0
1482 -1486 0
-1253 -1483 1487 0
1253 -1487 0
1483 -1487 0
1486 1487 -1488 0
-1486 1488 0
-1487 1488 0
-290 -1269 1489 0
290 -1489 0
1269 -1489 0
-1259 -1489 -1490 0
1259 1489 -1490 0
1259 -1489 1490 0
-1259 1489 1490 0
-1490 -1488 -1491 0
1490 1488 -1491 0
1490 -1488 1491 0
-1490 1488 1491 0
-1490 -1488 1492 0
1490 -1492 0
1488 -1492 0
-1259 -1489 1493 0
1259 -1493 0
1489 -1493 0
1492 1493 -1494 0
-1492 1494 0
-1493 1494 0
-298 -1269 1495 0
298 -1495 0
1269 -1495 0
-1265 -1495 -1496 0
1265 1495 -1496 0
1265 -1495 1496 0
-1265 1495 1496 0
-1496 -1494 -1497 0
1496 1494 -1497 0
1496 -1494 1497 0
-1496 1494 1497 0
-1496 -1494 1498 0
1496 -1498 0
1494 -1498 0
-1265 -1495 1499 0
1265 -1499 0
1495 -1499 0
1498 1499 -1500 0
-1498 1500 0
-1499 1500 0
-306 -1269 1501 0
306 -1501 0
1269 -1501 0
-1268 -1501 -1502 0
1268 1501 -1502 0
1268 -1501 1502 0
-1268 1501 1502 0
-1502 -1500 -1503 0
1502 1500 -1503 0
1502 -1500 1503 0
-1502 1500 1503 0
-1502 -1500 1504 0
1502 -1504 0
1500 -1504 0
-1268 -1501 1505 0
1268 -1505 0
1501 -1505 0
1504 1505 -1506 0
-1504 1506 0
-1505 1506 0
-1 -1507 1508 0
1 -1508 0
1507 -1508 0
-1275 -1508 -1509 0
1275 1508 -1509 0
1275 -1508 1509 0
-1275 1508 1509 0
-1275 -1508 1510 0
1275 -1510 0
1508 -1510 0
-4 -1507 1511 0
4 -1511 0
1507 -1511 0
-1281 -1511 -1512 0
1281 1511 -1512 0
1281 -1511 1512 0
-1281 1511 1512 0
-1512 -1510 -1513 0
1512 1510 -1513 0
1512 -1510 1513 0
-1512 1510 1513 0
-1512 -1510 1514 0
1512 -1514 0
1510 -1514 0
-1281 -1511 1515 0
1281 -1515 0
1511 -1515 0
1514 1515 -1516 0
-1514 1516 0
-1515 1516 0
-10 -1507 1517 0
10 -1517 0
1507 -1517 0
-1287 -1517 -1518 0
1287 1517 -1518 0
1287 -1517 1518 0
-1287 1517 1518 0
-1518 -1516 -1519 0
1518 1516 -1519 0
1518 -1516 1519 0
-1518 1516 1519 0
-1518 -1516 1520 0
1518 -1520 0
1516 -1520 0
-1287 -1517 1521 0
1287 -1521 0
1517 -1521 0
1520 1521 -1522 0
-1520 1522 0
-1521 1522 0
-18 -1507 1523 0
18 -1523 0
1507 -1523 0
-1293 -1523 -1524 0
1293 1523 -1524 0
1293 -1523 1524 0
-1293 1523 1524 0
-1524 -1522 -1525 0
1524 1522 -1525 0
1524 -1522 1525 0
-1524 1522 1525 0
-1524 -1522 1526 0
1524 -1526 0
1522 -1526 0
-1293 -1523 1527 0
1293 -1527 0
1523 -1527 0
1526 1527 -1528 0
-1526 1528 0
-1527 1528 0
-26 -1507 1529 0
26 -1529 0
1507 -1529 0
-1299 -1529 -1530 0
1299 1529 -1530 0
1299 -1529 1530 0
-1299 1529 1530 0
-1530 -1528 -1531 0
1530 1528 -1531 0
1530 -1528 1531 0
-1530 1528 1531 0
-1530 -1528 1532 0
1530 -1532 0
1528 -1532 0
-1299 -1529 1533 0
1299 -1533 0
1529 -1533 0
1532 1533 -1534 0
-1532 1534 0
-1533 1534 0
-34 -1507 1535 0
34 -1535 0
1507 -1535 0
-1305 -1535 -1536 0
1305 1535 -1536 0
1305 -1535 1536 0
-1305 1535 1536 0
-1536 -1534 -1537 0
1536 1534 -1537 0
1536 -1534 1537 0
-1536 1534 1537 0
-1536 -1534 1538 0
1536 -1538 0
1534 -1538 0
-1305 -1535 1539 0
1305 -1539 0
1535 -1539 0
1538 1539 -1540 0
-1538 1540 0
-1539 1540 0
-42 -1507 1541 0
42 -1541 0
1507 -1541 0
-1311 -1541 -1542 0
1311 1541 -1542 0
1311 -1541 1542 0
-1311 1541 1542 0
-1542 -1540 -1543 0
1542 1540 -1543 0
1542 -1540 1543 0
-1542 1540 1543 0
-1542 -1540 1544 0
1542 -1544 0
1540 -1544 0
-1311 -1541 1545 0
1311 -1545 0
1541 -1545 0
1544 1545 -1546 0
-1544 1546 0
-1545 1546 0
-50 -1507 1547 0
50 -1547 0
1507 -1547 0
-1317 -1547 -1548 0
1317 1547 -1548 0
1317 -1547 1548 0
-1317 1547 1548 0
-1548 -1546 -1549 0
1548 1546 -1549 0
1548 -1546 1549 0
-1548 1546 1549 0
-1548 -1546 1550 0
1548 -1550 0
1546 -1550 0
-1317 -1547 1551 0
1317 -1551 0
1547 -1551 0
1550 1551 -1552 0
-1550 1552 0
-1551 1552 0
-58 -1507 1553 0
58 -1553 0
1507 -1553 0
-1323 -1553 -1554 0
1323 1553 -1554 0
1323 -1553 1554 0
-1323 1553 1554 0
-1554 -1552 -1555 0
1554 1552 -1555 0
1554 -1552 1555 0
-1554 1552 1555 0
-1554 -1552 1556 0
1554 -1556 0
1552 -1556 0
-1323 -1553 1557 0
1323 -1557 0
1553 -1557 0
1556 1557 -1558 0
-1556 1558 0
-1557 1558 0
-66 -1507 1559 0
66 -1559 0
1507 -1559 0
-1329 -1559 -1560 0
1329 1559 -1560 0
1329 -1559 1560 0
-1329 1559 1560 0
-1560 -1558 -1561 0
1560 1558 -1561 0
1560 -1558 1561 0
-1560 1558 1561 0
-1560 -1558 1562 0
1560 -1562 0
1558 -1562 0
-1329 -1559 1563 0
1329 -1563 0
1559 -1563 0
1562 1563 -1564 0
-1562 1564 0
-1563 1564 0
-74 -1507 1565 0
74 -1565 0
1507 -1565 0
-1335 -1565 -1566 0
1335 1565 -1566 0
1335 -1565 1566 0
-1335 1565 1566 0
-1566 -1564 -1567 0
1566 1564 -1567 0
1566 -1564 1567 0
-1566 1564 1567 0
-1566 -1564 1568 0
1566 -1568 0
1564 -1568 0
-1335 -1565 1569 0
1335 -1569 0
1565 -1569 0
1568 1569 -1570 0
-1568 1570 0
-1569 1570 0
-82 -1507 1571 0
82 -1571 0
1507 -1571 0
-1341 -1571 -1572 0
1341 1571 -1572 0
1341 -1571 1572 0
-1341 1571 1572 0
-1572 -1570 -1573 0
1572 1570 -1573 0
1572 -1570 1573 0
-1572 1570 1573 0
-1572 -1570 1574 0
1572 -1574 0
1570 -1574 0
-1341 -1571 1575 0
1341 -1575 0
1571 -1575 0
1574 1575 -1576 0
-1574 1576 0
-1575 1576 0
-90 -1507 1577 0
90 -1577 0
1507 -1577 0
-1347 -1577 -1578 0
1347 1577 -1578 0
1347 -1577 1578 0
-1347 1577 1578 0
-1578 -1576 -1579 0
1578 1576 -1579 0
1578 -1576 1579 0
-1578 1576 1579 0
-1578 -1576 1580 0
1578 -1580 0
1576 -1580 0
-1347 -1577 1581 0
1347 -1581 0
1577 -1581 0
1580 1581 -1582 0
-1580 1582 0
-1581 1582 0
-98 -1507 1583 0
98 -1583 0
1507 -1583 0
-1353 -1583 -1584 0
1353 1583 -1584 0
1353 -1583 1584 0
-1353 1583 1584 0
-1584 -1582 -1585 0
1584 1582 -1585 0
1584 -1582 1585 0
-1584 1582 1585 0
-1584 -1582 1586 0
1584 -1586 0
1582 -1586 0
-1353 -1583 1587 0
1353 -1587 0
1583 -1587 0
1586 1587 -1588 0
-1586 1588 0
-1587 1588 0
-106 -1507 1589 0
106 -1589 0
1507 -1589 0
-1359 -1589 -1590 0
1359 1589 -1590 0
1359 -1589 1590 0
-1359 1589 1590 0
-1590 -1588 -1591 0
1590 1588 -1591 0
1590 -1588 1591 0
-1590 1588 1591 0
-1590 -1588 1592 0
1590 -1592 0
1588 -1592 0
-1359 -1589 1593 0
1359 -1593 0
1589 -1593 0
1592 1593 -1594 0
-1592 1594 0
-1593 1594 0
-114 -1507 1595 0
114 -1595 0
1507 -1595 0
-1365 -1595 -1596 0
1365 1595 -1596 0
1365 -1595 1596 0
-1365 1595 1596 0
-1596 -1594 -1597 0
1596 1594 -1597 0
1596 -1594 1597 0
-1596 1594 1597 0
-1596 -1594 1598 0
1596 -1598 0
1594 -1598 0
-1365 -1595 1599 0
1365 -1599 0
1595 -1599 0
1598 1599 -1600 0
-1598 1600 0
-1599 1600 0
-122 -1507 1601 0
122 -1601 0
1507 -1601 0
-1371 -1601 -1602 0
1371 1601 -1602 0
1371 -1601 1602 0
-1371 1601 1602 0
-1602 -1600 -1603 0
1602 1600 -1603 0
1602 -1600 1603 0
-1602 1600 1603 0
-1602 -1600 1604 0
1602 -1604 0
1600 -1604 0
-1371 -1601 1605 0
1371 -1605 0
1601 -1605 0
1604 1605 -1606 0
-1604 1606 0
-1605 1606 0
-130 -1507 1607 0
130 -1607 0
1507 -1607 0
-1377 -1607 -1608 0
1377 1607 -1608 0
1377 -1607 1608 0
-1377 1607 1608 0
-1608 -1606 -1609 0
1608 1606 -1609 0
1608 -1606 1609 0
-1608 1606 1609 0
-1608 -1606 1610 0
1608 -1610 0
1606 -1610 0
-1377 -1607 1611 0
1377 -1611 0
1607 -1611 0
1610 1611 -1612 0
-1610 1612 0
-1611 1612 0
-138 -1507 1613 0
138 -1613 0
1507 -1613 0
-1383 -1613 -1614 0
1383 1613 -1614 0
1383 -1613 1614 0
-1383 1613 1614 0
-1614 -1612 -1615 0
1614 1612 -1615 0
1614 -1612 1615 0
-1614 1612 1615 0
-1614 -1612 1616 0
1614 -1616 0
1612 -1616 0
-1383 -1613 1617 0
1383 -1617 0
1613 -1617 0
1616 1617 -1618 0
-1616 1618 0
-1617 1618 0
-146 -1507 1619 0
146 -1619 0
1507 -1619 0
-1389 -1619 -1620 0
1389 1619 -1620 0
1389 -1619 1620 0
-1389 1619 1620 0
-1620 -1618 -1621 0
1620 1618 -1621 0
1620 -1618 1621 0
-1620 1618 1621 0
-1620 -1618 1622 0
1620 -1622 0
1618 -1622 0
-1389 -1619 1623 0
1389 -1623 0
1619 -1623 0
1622 1623 -1624 0
-1622 1624 0
-1623 1624 0
-154 -1507 1625 0
154 -1625 0
1507 -1625 0
-1395 -1625 -1626 0
1395 1625 -1626 0
1395 -1625 1626 0
-1395 1625 1626 0
-1626 -1624 -1627 0
1626 1624 -1627 0
1626 -1624 1627 0
-1626 1624 1627 0
-1626 -1624 1628 0
1626 -1628 0
1624 -1628 0
-1395 -1625 1629 0
1395 -1629 0
1625 -1629 0
1628 1629 -1630 0
-1628 1630 0
-1629 1630 0
-162 -1507 1631 0
162 -1631 0
1507 -1631 0
-1401 -1631 -1632 0
1401 1631 -1632 0
1401 -1631 1632 0
-1401 1631 1632 0
-1632 -1630 -1633 0
1632 1630 -1633 0
1632 -1630 1633 0
-1632 1630 1633 0
-1632 -1630 1634 0
1632 -1634 0
1630 -1634 0
-1401 -1631 1635 0
1401 -1635 0
1631 -1635 0
1634 1635 -1636 0
-1634 1636 0
-1635 1636 0
-170 -1507 1637 0
170 -1637 0
1507 -1637 0
-1407 -1637 -1638 0
1407 1637 -1638 0
1407 -1637 1638 0
-1407 1637 1638 0
-1638 -1636 -1639 0
1638 1636 -1639 0
1638 -1636 1639 0
-1638 1636 1639 0
-1638 -1636 1640 0
1638 -1640 0
1636 -1640 0
-1407 -1637 1641 0
1407 -1641 0
1637 -1641 0
1640 1641 -1642 0
-1640 1642 0
-1641 1642 0
-178 -1507 1643 0
178 -1643 0
1507 -1643 0
-1413 -1643 -1644 0
1413 1643 -1644 0
1413 -1643 1644 0
-1413 1643 1644 0
-1644 -1642 -1645 0
1644 1642 -1645 0
1644 -1642 1645 0
-1644 1642 1645 0
-1644 -1642 1646 0
1644 -1646 0
1642 -1646 0
-1413 -1643 1647 0
1413 -1647 0
1643 -1647 0
1646 1647 -1648 0
-1646 1648 0
-1647 1648 0
-186 -1507 1649 0
186 -1649 0
1507 -1649 0
-1419 -1649 -1650 0
1419 1649 -1650 0
1419 -1649 1650 0
-1419 1649 1650 0
-1650 -1648 -1651 0
1650 1648 -1651 0
1650 -1648 1651 0
-1650 1648 1651 0
-1650 -1648 1652 0
1650 -1652 0
1648 -1652 0
-1419 -1649 1653 0
1419 -1653 0
1649 -1653 0
1652 1653 -1654 0
-1652 1654 0
-1653 1654 0
-194 -1507 1655 0
194 -1655 0
1507 -1655 0
-1425 -1655 -1656 0
1425 1655 -1656 0
1425 -1655 1656 0
-1425 1655 1656 0
-1656 -1654 -1657 0
1656 1654 -1657 0
1656 -1654 1657 0
-1656 1654 1657 0
-1656 -1654 1658 0
1656 -1658 0
1654 -1658 0
-1425 -1655 1659 0
1425 -1659 0
1655 -1659 0
1658 1659 -1660 0
-1658 1660 0
-1659 1660 0
-202 -1507 1661 0
202 -1661 0
1507 -1661 0
-1431 -1661 -1662 0
1431 1661 -1662 0
1431 -1661 1662 0
-1431 1661 1662 0
-1662 -1660 -1663 0
1662 1660 -1663 0
1662 -1660 1663 0
-1662 1660 1663 0
-1662 -1660 1664 0
1662 -1664 0
1660 -1664 0
-1431 -1661 1665 0
1431 -1665 0
1661 -1665 0
1664 1665 -1666 0
-1664 1666 0
-1665 1666 0
-210 -1507 1667 0
210 -1667 0
1507 -1667 0
-1437 -1667 -1668 0
1437 1667 -1668 0
1437 -1667 1668 0
-1437 1667 1668 0
-1668 -1666 -1669 0
1668 1666 -1669 0
1668 -1666 1669 0
-1668 1666 1669 0
-1668 -1666 1670 0
1668 -1670 0
1666 -1670 0
-1437 -1667 1671 0
1437 -1671 0
1667 -1671 0
1670 1671 -1672 0
-1670 1672 0
-1671 1672 0
-218 -1507 1673 0
218 -1673 0
1507 -1673 0
-1443 -1673 -1674 0
1443 1673 -1674 0
1443 -1673 1674 0
-1443 1673 1674 0
-1674 -1672 -1675 0
1674 1672 -1675 0
1674 -1672 1675 0
-1674 1672 1675 0
-1674 -1672 1676 0
1674 -1676 0
1672 -1676 0
-1443 -1673 1677 0
1443 -1677 0
1673 -1677 0
1676 1677 -1678 0
-1676 1678 0
-1677 1678 0
-226 -1507 1679 0
226 -1679 0
1507 -1679 0
-1449 -1679 -1680 0
1449 1679 -1680 0
1449 -1679 1680 0
-1449 1679 1680 0
-1680 -1678 -1681 0
1680 1678 -1681 0
1680 -1678 1681 0
-1680 1678 1681 0
-1680 -1678 1682 0
1680 -1682 0
1678 -1682 0
-1449 -1679 1683 0
1449 -1683 0
1679 -1683 0
1682 1683 -1684 0
-1682 1684 0
-1683 1684 0
-234 -1507 1685 0
234 -1685 0
1507 -1685 0
-1455 -1685 -1686 0
1455 1685 -1686 0
1455 -1685 1686 0
-1455 1685 1686 0
-1686 -1684 -1687 0
1686 1684 -1687 0
1686 -1684 1687 0
-1686 1684 1687 0
-1686 -1684 1688 0
1686 -1688 0
1684 -1688 0
-1455 -1685 1689 0
1455 -1689 0
1685 -1689 0
1688 1689 -1690 0
-1688 1690 0
-1689 1690 0
-242 -1507 1691 0
242 -1691 0
1507 -1691 0
-1461 -1691 -1692 0
1461 1691 -1692 0
1461 -1691 1692 0
-1461 1691 1692 0
-1692 -1690 -1693 0
1692 1690 -1693 0
1692 -1690 1693 0
-1692 1690 1693 0
-1692 -1690 1694 0
1692 -1694 0
1690 -1694 0
-1461 -1691 1695 0
1461 -1695 0
1691 -1695 0
1694 1695 -1696 0
-1694 1696 0
-1695 1696 0
-250 -1507 1697 0
250 -1697 0
1507 -1697 0
-1467 -1697 -1698 0
1467 1697 -1698 0
1467 -1697 1698 0
-1467 1697 1698 0
-1698 -1696 -1699 0
1698 1696 -1699 0
1698 -1696 1699 0
-1698 1696 1699 0
-1698 -1696 1700 0
1698 -1700 0
1696 -1700 0
-1467 -1697 1701 0
1467 -1701 0
1697 -1701 0
1700 1701 -1702 0
-1700 1702 0
-1701 1702 0
-258 -1507 1703 0
258 -1703 0
1507 -1703 0
-1473 -1703 -1704 0
1473 1703 -1704 0
1473 -1703 1704 0
-1473 1703 1704 0
-1704 -1702 -1705 0
1704 1702 -1705 0
1704 -1702 1705 0
-1704 1702 1705 0
-1704 -1702 1706 0
1704 -1706 0
1702 -1706 0
-1473 -1703 1707 0
1473 -1707 0
1703 -1707 0
1706 1707 -1708 0
-1706 1708 0
-1707 1708 0
-266 -1507 1709 0
266 -1709 0
1507 -1709 0
-1479 -1709 -1710 0
1479 1709 -1710 0
1479 -1709 1710 0
-1479 1709 1710 0
-1710 -1708 -1711 0
1710 1708 -1711 0
1710 -1708 1711 0
-1710 1708 1711 0
-1710 -1708 1712 0
1710 -1712 0
1708 -1712 0
-1479 -1709 1713 0
1479 -1713 0
1709 -1713 0
1712 1713 -1714 0
-1712 1714 0
-1713 1714 0
-274 -1507 1715 0
274 -1715 0
1507 -1715 0
-1485 -1715 -1716 0
1485 1715 -1716 0
1485 -1715 1716 0
-1485 1715 1716 0
-1716 -1714 -1717 0
1716 1714 -1717 0
1716 -1714 1717 0
-1716 1714 1717 0
-1716 -1714 1718 0
1716 -1718 0
1714 -1718 0
-1485 -1715 1719 0
1485 -1719 0
1715 -1719 0
1718 1719 -1720 0
-1718 1720 0
-1719 1720 0
-282 -1507 1721 0
282 -1721 0
1507 -1721 0
-1491 -1721 -1722 0
1491 1721 -1722 0
1491 -1721 1722 0
-1491 1721 1722 0
-1722 -1720 -1723 0
1722 1720 -1723 0
1722 -1720 1723 0
-1722 1720 1723 0
-1722 -1720 1724 0
1722 -1724 0
1720 -1724 0
-1491 -1721 1725 0
1491 -1725 0
1721 -1725 0
1724 1725 -1726 0
-1724 1726 0
-1725 1726 0
-290 -1507 1727 0
290 -1727 0
1507 -1727 0
-1497 -1727 -1728 0
1497 1727 -1728 0
1497 -1727 1728 0
-1497 1727 1728 0
-1728 -1726 -1729 0
1728 1726 -1729 0
1728 -1726 1729 0
-1728 1726 1729 0
-1728 -1726 1730 0
1728 -1730 0
1726 -1730 0
-1497 -1727 1731 0
1497 -1731 0
1727 -1731 0
1730 1731 -1732 0
-1730 1732 0
-1731 1732 0
-298 -1507 1733 0
298 -1733 0
1507 -1733 0
-1503 -1733 -1734 0
1503 1733 -1734 0
1503 -1733 1734 0
-1503 1733 1734 0
-1734 -1732 -1735 0
1734 1732 -1735 0
1734 -1732 1735 0
-1734 1732 1735 0
-1734 -1732 1736 0
1734 -1736 0
1732 -1736 0
-1503 -1733 1737 0
1503 -1737 0
1733 -1737 0
1736 1737 -1738 0
-1736 1738 0
-1737 1738 0
-306 -1507 1739 0
306 -1739 0
1507 -1739 0
-1506 -1739 -1740 0
1506 1739 -1740 0
1506 -1739 1740 0
-1506 1739 1740 0
-1740 -1738 -1741 0
1740 1738 -1741 0
1740 -1738 1741 0
-1740 1738 1741 0
-1740 -1738 1742 0
1740 -1742 0
1738 -1742 0
-1506 -1739 1743 0
1506 -1743 0
1739 -1743 0
1742 1743 -1744 0
-1742 1744 0
-1743 1744 0
-1 -1745 1746 0
1 -1746 0
1745 -1746 0
-1513 -1746 -1747 0
1513 1746 -1747 0
1513 -1746 1747 0
-1513 1746 1747 0
-1513 -1746 1748 0
1513 -1748 0
1746 -1748 0
-4 -1745 1749 0
4 -1749 0
1745 -1749 0
-1519 -1749 -1750 0
1519 1749 -1750 0
1519 -1749 1750 0
-1519 1749 1750 0
-1750 -1748 -1751 0
1750 1748 -1751 0
1750 -1748 1751 0
-1750 1748 1751 0
-1750 -1748 1752 0
1750 -1752 0
1748 -1752 0
-1519 -1749 1753 0
1519 -1753 0
1749 -1753 0
1752 1753 -1754 0
-1752 1754 0
-1753 1754 0
-10 -1745 1755 0
10 -1755 0
1745 -1755 0
-1525 -1755 -1756 0
1525 1755 -1756 0
1525 -1755 1756 0
-1525 1755 1756 0
-1756 -1754 -1757 0
1756 1754 -1757 0
1756 -1754 1757 0
-1756 1754 1757 0
-1756 -1754 1758 0
1756 -1758 0
1754 -1758 0
-1525 -1755 1759 0
1525 -1759 0
1755 -1759 0
1758 1759 -1760 0
-1758 1760 0
-1759 1760 0
-18 -1745 1761 0
18 -1761 0
1745 -1761 0
-1531 -1761 -1762 0
1531 1761 -1762 0
1531 -1761 1762 0
-1531 1761 1762 0
-1762 -1760 -1763 0
1762 1760 -1763 0
1762 -1760 1763 0
-1762 1760 1763 0
-1762 -1760 1764 0
1762 -1764 0
1760 -1764 0
-1531 -1761 1765 0
1531 -1765 0
1761 -1765 0
1764 1765 -1766 0
-1764 1766 0
-1765 1766 0
-26 -1745 1767 0
26 -1767 0
1745 -1767 0
-1537 -1767 -1768 0
1537 1767 -1768 0
1537 -1767 1768 0
-1537 1767 1768 0
-1768 -1766 -1769 0
1768 1766 -1769 0
1768 -1766 1769 0
-1768 1766 1769 0
-1768 -1766 1770 0
1768 -1770 0
1766 -1770 0
-1537 -1767 1771 0
1537 -1771 0
1767 -1771 0
1770 1771 -1772 0
-1770 1772 0
-1771 1772 0
-34 -1745 1773 0
34 -1773 0
1745 -1773 0
-1543 -1773 -1774 0
1543 1773 -1774 0
1543 -1773 1774 0
-1543 1773 1774 0
-1774 -1772 -1775 0
1774 1772 -1775 0
1774 -1772 1775 0
-1774 1772 1775 0
-1774 -1772 1776 0
1774 -1776 0
1772 -1776 0
-1543 -1773 1777 0
1543 -1777 0
1773 -1777 0
1776 1777 -1778 0
-1776 1778 0
-1777 1778 0
-42 -1745 1779 0
42 -1779 0
1745 -1779 0
-1549 -1779 -1780 0
1549 1779 -1780 0
1549 -1779 1780 0
-1549 1779 1780 0
-1780 -1778 -1781 0
1780 1778 -1781 0
1780 -1778 1781 0
-1780 1778 1781 0
-1780 -1778 1782 0
1780 -1782 0
1778 -1782 0
-1549 -1779 1783 0
1549 -1783 0
1779 -1783 0
1782 1783 -1784 0
-1782 1784 0
-1783 1784 0
-50 -1745 1785 0
50 -1785 0
1745 -1785 0
-1555 -1785 -1786 0
1555 1785 -1786 0
1555 -1785 1786 0
-1555 1785 1786 0
-1786 -1784 -1787 0
1786 1784 -1787 0
1786 -1784 1787 0
-1786 1784 1787 0
-1786 -1784 1788 0
1786 -1788 0
1784 -1788 0
-1555 -1785 1789 0
1555 -1789 0
1785 -1789 0
1788 1789 -1790 0
-1788 1790 0
-1789 1790 0
-58 -1745 1791 0
58 -1791 0
1745 -1791 0
-1561 -1791 -1792 0
1561 1791 -1792 0
1561 -1791 1792 0
-1561 1791 1792 0
-1792 -1790 -1793 0
1792 1790 -1793 0
1792 -1790 1793 0
-1792 1790 1793 0
-1792 -1790 1794 0
1792 -1794 0
1790 -1794 0
-1561 -1791 1795 0
1561 -1795 0
1791 -1795 0
1794 1795 -1796 0
-1794 1796 0
-1795 1796 0
-66 -1745 1797 0
66 -1797 0
1745 -1797 0
-1567 -1797 -1798 0
1567 1797 -1798 0
1567 -1797 1798 0
-1567 1797 1798 0
-1798 -1796 -1799 0
1798 1796 -1799 0
1798 -1796 1799 0
-1798 1796 1799 0
-1798 -1796 1800 0
1798 -1800 0
1796 -1800 0
-1567 -1797 1801 0
1567 -1801 0
1797 -1801 0
1800 1801 -1802 0
-1800 1802 0
-1801 1802 0
-74 -1745 1803 0
74 -1803 0
1745 -1803 0
-1573 -1803 -1804 0
1573 1803 -1804 0
1573 -1803 1804 0
-1573 1803 1804 0
-1804 -1802 -1805 0
1804 1802 -1805 0
1804 -1802 1805 0
-1804 1802 1805 0
-1804 -1802 1806 0
1804 -1806 0
1802 -1806 0
-1573 -1803 1807 0
1573 -1807 0
1803 -1807 0
1806 1807 -1808 0
-1806 1808 0
-1807 1808 0
-82 -1745 1809 0
82 -1809 0
1745 -1809 0
-1579 -1809 -1810 0
1579 1809 -1810 0
1579 -1809 1810 0
-1579 1809 1810 0
-1810 -1808 -1811 0
1810 1808 -1811 0
1810 -1808 1811 0
-1810 1808 1811 0
-1810 -1808 1812 0
1810 -1812 0
1808 -1812 0
-1579 -1809 1813 0
1579 -1813 0
1809 -1813 0
1812 1813 -1814 0
-1812 1814 0
-1813 1814 0
-90 -1745 1815 0
90 -1815 0
1745 -1815 0
-1585 -1815 -1816 0
1585 1815 -1816 0
1585 -1815 1816 0
-1585 1815 1816 0
-1816 -1814 -1817 0
1816 1814 -1817 0
1816 -1814 1817 0
-1816 1814 1817 0
-1816 -1814 1818 0
1816 -1818 0
1814 -1818 0
-1585 -1815 1819 0
1585 -1819 0
1815 -1819 0
1818 1819 -1820 0
-1818 1820 0
-1819 1820 0
-98 -1745 1821 0
98 -1821 0
1745 -1821 0
-1591 -1821 -1822 0
1591 1821 -1822 0
1591 -1821 1822 0
-1591 1821 1822 0
-1822 -1820 -1823 0
1822 1820 -1823 0
1822 -1820 1823 0
-1822 1820 1823 0
-1822 -1820 1824 0
1822 -1824 0
1820 -1824 0
-1591 -1821 1825 0
1591 -1825 0
1821 -1825 0
1824 1825 -1826 0
-1824 1826 0
-1825 1826 0
-106 -1745 1827 0
106 -1827 0
1745 -1827 0
-1597 -1827 -1828 0
1597 1827 -1828 0
1597 -1827 1828 0
-1597 1827 1828 0
-1828 -1826 -1829 0
1828 1826 -1829 0
1828 -1826 1829 0
-1828 1826 1829 0
-1828 -1826 1830 0
1828 -1830 0
1826 -1830 0
-1597 -1827 1831 0
1597 -1831 0
1827 -1831 0
1830 1831 -1832 0
-1830 1832 0
-1831 1832 0
-114 -1745 1833 0
114 -1833 0
1745 -1833 0
-1603 -1833 -1834 0
1603 1833 -1834 0
1603 -1833 1834 0
-1603 1833 1834 0
-1834 -1832 -1835 0
1834 1832 -1835 0
1834 -1832 1835 0
-1834 1832 1835 0
-1834 -1832 1836 0
1834 -1836 0
1832 -1836 0
-1603 -1833 1837 0
1603 -1837 0
1833 -1837 0
1836 1837 -1838 0
-1836 1838 0
-1837 1838 0
-122 -1745 1839 0
122 -1839 0
1745 -1839 0
-1609 -1839 -1840 0
1609 1839 -1840 0
1609 -1839 1840 0
-1609 1839 1840 0
-1840 -1838 -1841 0
1840 1838 -1841 0
1840 -1838 1841 0
-1840 1838 1841 0
-1840 -1838 1842 0
1840 -1842 0
1838 -1842 0
-1609 -1839 1843 0
1609 -1843 0
1839 -1843 0
1842 1843 -1844 0
-1842 1844 0
-1843 1844 0
-130 -1745 1845 0
130 -1845 0
1745 -1845 0
-1615 -1845 -1846 0
1615 1845 -1846 0
1615 -1845 1846 0
-1615 1845 1846 0
-1846 -1844 -1847 0
1846 1844 -1847 0
1846 -1844 1847 0
-1846 1844 1847 0
-1846 -1844 1848 0
1846 -1848 0
1844 -1848 0
-1615 -1845 1849 0
1615 -1849 0
1845 -1849 0
1848 1849 -1850 0
-1848 1850 0
-1849 1850 0
-138 -1745 1851 0
138 -1851 0
1745 -1851 0
-1621 -1851 -1852 0
1621 1851 -1852 0
1621 -1851 1852 0
-1621 1851 1852 0
-1852 -1850 -1853 0
1852 1850 -1853 0
1852 -1850 1853 0
-1852 1850 1853 0
-1852 -1850 1854 0
1852 -1854 0
1850 -1854 0
-1621 -1851 1855 0
1621 -1855 0
1851 -1855 0
1854 1855 -1856 0
-1854 1856 0
-1855 1856 0
-146 -1745 1857 0
146 -1857 0
1745 -1857 0
-1627 -1857 -1858 0
1627 1857 -1858 0
1627 -1857 1858 0
-1627 1857 1858 0
-1858 -1856 -1859 0
1858 1856 -1859 0
1858 -1856 1859 0
-1858 1856 1859 0
-1858 -1856 1860 0
1858 -1860 0
1856 -1860 0
-1627 -1857 1861 0
1627 -1861 0
1857 -1861 0
1860 1861 -1862 0
-1860 1862 0
-1861 1862 0
-154 -1745 1863 0
154 -1863 0
1745 -1863 0
-1633 -1863 -1864 0
1633 1863 -1864 0
1633 -1863 1864 0
-1633 1863 1864 0
-1864 -1862 -1865 0
1864 1862 -1865 0
1864 -1862 1865 0
-1864 1862 1865 0
-1864 -1862 1866 0
1864 -1866 0
1862 -1866 0
-1633 -1863 1867 0
1633 -1867 0
1863 -1867 0
1866 1867 -1868 0
-1866 1868 0
-1867 1868 0
-162 -1745 1869 0
162 -1869 0
1745 -1869 0
-1639 -1869 -1870 0
1639 1869 -1870 0
1639 -1869 1870 0
-1639 1869 1870 0
-1870 -1868 -1871 0
1870 1868 -1871 0
1870 -1868 1871 0
-1870 1868 1871 0
-1870 -1868 1872 0
1870 -1872 0
1868 -1872 0
-1639 -1869 1873 0
1639 -1873 0
1869 -1873 0
1872 1873 -1874 0
-1872 1874 0
-1873 1874 0
-170 -1745 1875 0
170 -1875 0
1745 -1875 0
-1645 -1875 -1876 0
1645 1875 -1876 0
1645 -1875 1876 0
-1645 1875 1876 0
-1876 -1874 -1877 0
1876 1874 -1877 0
1876 -1874 1877 0
-1876 1874 1877 0
-1876 -1874 1878 0
1876 -1878 0
1874 -1878 0
-1645 -1875 1879 0
1645 -1879 0
1875 -1879 0
1878 1879 -1880 0
-1878 1880 0
-1879 1880 0
-178 -1745 1881 0
178 -1881 0
1745 -1881 0
-1651 -1881 -1882 0
1651 1881 -1882 0
1651 -1881 1882 0
-1651 1881 1882 0
-1882 -1880 -1883 0
1882 1880 -1883 0
1882 -1880 1883 0
-1882 1880 1883 0
-1882 -1880 1884 0
1882 -1884 0
1880 -1884 0
-1651 -1881 1885 0
1651 -1885 0
1881 -1885 0
1884 1885 -1886 0
-1884 1886 0
-1885 1886 0
-186 -1745 1887 0
186 -1887 0
1745 -1887 0
-1657 -1887 -1888 0
1657 1887 -1888 0
1657 -1887 1888 0
-1657 1887 1888 0
-1888 -1886 -1889 0
1888 1886 -1889 0
1888 -1886 1889 0
-1888 1886 1889 0
-1888 -1886 1890 0
1888 -1890 0
1886 -1890 0
-1657 -1887 1891 0
1657 -1891 0
1887 -1891 0
1890 1891 -1892 0
-1890 1892 0
-1891 1892 0
-194 -1745 1893 0
194 -1893 0
1745 -1893 0
-1663 -1893 -1894 0
1663 1893 -1894 0
1663 -1893 1894 0
-1663 1893 1894 0
-1894 -1892 -1895 0
1894 1892 -1895 0
1894 -1892 1895 0
-1894 1892 1895 0
-1894 -1892 1896 0
1894 -1896 0
1892 -1896 0
-1663 -1893 1897 0
1663 -1897 0
1893 -1897 0
1896 1897 -1898 0
-1896 1898 0
-1897 1898 0
-202 -1745 1899 0
202 -1899 0
1745 -1899 0
-1669 -1899 -1900 0
1669 1899 -1900 0
1669 -1899 1900 0
-1669 1899 1900 0
-1900 -1898 -1901 0
1900 1898 -1901 0
1900 -1898 1901 0
-1900 1898 1901 0
-1900 -1898 1902 0
1900 -1902 0
1898 -1902 0
-1669 -1899 1903 0
1669 -1903 0
1899 -1903 0
1902 1903 -1904 0
-1902 1904 0
-1903 1904 0
-210 -1745 1905 0
210 -1905 0
1745 -1905 0
-1675 -1905 -1906 0
1675 1905 -1906 0
1675 -1905 1906 0
-1675 1905 1906 0
-1906 -1904 -1907 0
1906 1904 -1907 0
1906 -1904 1907 0
-1906 1904 1907 0
-1906 -1904 1908 0
1906 -1908 0
1904 -1908 0
-1675 -1905 1909 0
1675 -1909 0
1905 -1909 0
1908 1909 -1910 0
-1908 1910 0
-1909 1910 0
-218 -1745 1911 0
218 -1911 0
1745 -1911 0
-1681 -1911 -1912 0
1681 1911 -1912 0
1681 -1911 1912 0
-1681 1911 1912 0
-1912 -1910 -1913 0
1912 1910 -1913 0
1912 -1910 1913 0
-1912 1910 1913 0
-1912 -1910 1914 0
1912 -1914 0
1910 -1914 0
-1681 -1911 1915 0
1681 -1915 0
1911 -1915 0
1914 1915 -1916 0
-1914 1916 0
-1915 1916 0
-226 -1745 1917 0
226 -1917 0
1745 -1917 0
-1687 -1917 -1918 0
1687 1917 -1918 0
1687 -1917 1918 0
-1687 1917 1918 0
-1918 -1916 -1919 0
1918 1916 -1919 0
1918 -1916 1919 0
-1918 1916 1919 0
-1918 -1916 1920 0
1918 -1920 0
1916 -1920 0
-1687 -1917 1921 0
1687 -1921 0
1917 -1921 0
1920 1921 -1922 0
-1920 1922 0
-1921 1922 0
-234 -1745 1923 0
234 -1923 0
1745 -1923 0
-1693 -1923 -1924 0
1693 1923 -1924 0
1693 -1923 1924 0
-1693 1923 1924 0
-1924 -1922 -1925 0
1924 1922 -1925 0
1924 -1922 1925 0
-1924 1922 1925 0
-1924 -1922 1926 0
1924 -1926 0
1922 -1926 0
-1693 -1923 1927 0
1693 -1927 0
1923 -1927 0
1926 1927 -1928 0
-1926 1928 0
-1927 1928 0
-242 -1745 1929 0
242 -1929 0
1745 -1929 0
-1699 -1929 -1930 0
1699 1929 -1930 0
1699 -1929 1930 0
-1699 1929 1930 0
-1930 -1928 -1931 0
1930 1928 -1931 0
1930 -1928 1931 0
-1930 1928 1931 0
-1930 -1928 1932 0
1930 -1932 0
1928 -1932 0
-1699 -1929 1933 0
1699 -1933 0
1929 -1933 0
1932 1933 -1934 0
-1932 1934 0
-1933 1934 0
-250 -1745 1935 0
250 -1935 0
1745 -1935 0
-1705 -1935 -1936 0
1705 1935 -1936 0
1705 -1935 1936 0
-1705 1935 1936 0
-1936 -1934 -1937 0
1936 1934 -1937 0
1936 -1934 1937 0
-1936 1934 1937 0
-1936 -1934 1938 0
1936 -1938 0
1934 -1938 0
-1705 -1935 1939 0
1705 -1939 0
1935 -1939 0
1938 1939 -1940 0
-1938 1940 0
-1939 1940 0
-258 -1745 1941 0
258 -1941 0
1745 -1941 0
-1711 -1941 -1942 0
1711 1941 -1942 0
1711 -1941 1942 0
-1711 1941 1942 0
-1942 -1940 -1943 0
1942 1940 -1943 0
1942 -1940 1943 0
-1942 1940 1943 0
-1942 -1940 1944 0
1942 -1944 0
1940 -1944 0
-1711 -1941 1945 0
1711 -1945 0
1941 -1945 0
1944 1945 -1946 0
-1944 1946 0
-1945 1946 0
-266 -1745 1947 0
266 -1947 0
1745 -1947 0
-1717 -1947 -1948 0
1717 1947 -1948 0
1717 -1947 1948 0
-1717 1947 1948 0
-1948 -1946 -1949 0
1948 1946 -1949 0
1948 -1946 1949 0
-1948 1946 1949 0
-1948 -1946 1950 0
1948 -1950 0
1946 -1950 0
-1717 -1947 1951 0
1717 -1951 0
1947 -1951 0
1950 1951 -1952 0
-1950 1952 0
-1951 1952 0
-274 -1745 1953 0
274 -1953 0
1745 -1953 0
-1723 -1953 -1954 0
1723 1953 -1954 0
1723 -1953 1954 0
-1723 1953 1954 0
-1954 -1952 -1955 0
1954 1952 -1955 0
1954 -1952 1955 0
-1954 1952 1955 0
-1954 -1952 1956 0
1954 -1956 0
1952 -1956 0
-1723 -1953 1957 0
1723 -1957 0
1953 -1957 0
1956 1957 -1958 0
-1956 1958 0
-1957 1958 0
-282 -1745 1959 0
282 -1959 0
1745 -1959 0
-1729 -1959 -1960 0
1729 1959 -1960 0
1729 -1959 1960 0
-1729 1959 1960 0
-1960 -1958 -1961 0
1960 1958 -1961 0
1960 -1958 1961 0
-1960 1958 1961 0
-1960 -1958 1962 0
1960 -1962 0
1958 -1962 0
-1729 -1959 1963 0
1729 -1963 0
1959 -1963 0
1962 1963 -1964 0
-1962 1964 0
-1963 1964 0
-290 -1745 1965 0
290 -1965 0
1745 -1965 0
-1735 -1965 -1966 0
1735 1965 -1966 0
1735 -1965 1966 0
-1735 1965 1966 0
-1966 -1964 -1967 0
1966 1964 -1967 0
1966 -1964 1967 0
-1966 1964 1967 0
-1966 -1964 1968 0
1966 -1968 0
1964 -1968 0
-1735 -1965 1969 0
1735 -1969 0
1965 -1969 0
1968 1969 -1970 0
-1968 1970 0
-1969 1970 0
-298 -1745 1971 0
298 -1971 0
1745 -1971 0
-1741 -1971 -1972 0
1741 1971 -1972 0
1741 -1971 1972 0
-1741 1971 1972 0
-1972 -1970 -1973 0
1972 1970 -1973 0
1972 -1970 1973 0
-1972 1970 1973 0
-1972 -1970 1974 0
1972 -1974 0
1970 -1974 0
-1741 -1971 1975 0
1741 -1975 0
1971 -1975 0
1974 1975 -1976 0
-1974 1976 0
-1975 1976 0
-306 -1745 1977 0
306 -1977 0
1745 -1977 0
-1744 -1977 -1978 0
1744 1977 -1978 0
1744 -1977 1978 0
-1744 1977 1978 0
-1978 -1976 -1979 0
1978 1976 -1979 0
1978 -1976 1979 0
-1978 1976 1979 0
-1978 -1976 1980 0
1978 -1980 0
1976 -1980 0
-1744 -1977 1981 0
1744 -1981 0
1977 -1981 0
1980 1981 -1982 0
-1980 1982 0
-1981 1982 0
-1 -1983 1984 0
1 -1984 0
1983 -1984 0
-1751 -1984 -1985 0
1751 1984 -1985 0
1751 -1984 1985 0
-1751 1984 1985 0
-1751 -1984 1986 0
1751 -1986 0
1984 -1986 0
-4 -1983 1987 0
4 -1987 0
1983 -1987 0
-1757 -1987 -1988 0
1757 1987 -1988 0
1757 -1987 1988 0
-1757 1987 1988 0
-1988 -1986 -1989 0
1988 1986 -1989 0
1988 -1986 1989 0
-1988 1986 1989 0
-1988 -1986 1990 0
1988 -1990 0
1986 -1990 0
-1757 -1987 1991 0
1757 -1991 0
1987 -1991 0
1990 1991 -1992 0
-1990 1992 0
-1991 1992 0
-10 -1983 1993 0
10 -1993 0
1983 -1993 0
-1763 -1993 -1994 0
1763 1993 -1994 0
1763 -1993 1994 0
-1763 1993 1994 0
-1994 -1992 -1995 0
1994 1992 -1995 0
1994 -1992 1995 0
-1994 1992 1995 0
-1994 -1992 1996 0
1994 -1996 0
1992 -1996 0
-1763 -1993 1997 0
1763 -1997 0
1993 -1997 0
1996 1997 -1998 0
-1996 1998 0
-1997 1998 0
-18 -1983 1999 0
18 -1999 0
1983 -1999 0
-1769 -1999 -2000 0
1769 1999 -2000 0
1769 -1999 2000 0
-1769 1999 2000 0
-2000 -1998 -2001 0
2000 1998 -2001 0
2000 -1998 2001 0
-2000 1998 2001 0
-2000 -1998 2002 0
2000 -2002 0
1998 -2002 0
-1769 -1999 2003 0
1769 -2003 0
1999 -2003 0
2002 2003 -2004 0
-2002 2004 0
-2003 2004 0
-26 -1983 2005 0
26 -2005 0
1983 -2005 0
-1775 -2005 -2006 0
1775 2005 -2006 0
1775 -2005 2006 0
-1775 2005 2006 0
-2006 -2004 -2007 0
2006 2004 -2007 0
2006 -2004 2007 0
-2006 2004 2007 0
-2006 -2004 2008 0
2006 -2008 0
2004 -2008 0
-1775 -2005 2009 0
1775 -2009 0
2005 -2009 0
2008 2009 -2010 0
-2008 2010 0
-2009 2010 0
-34 -1983 2011 0
34 -2011 0
1983 -2011 0
-1781 -2011 -2012 0
1781 2011 -2012 0
1781 -2011 2012 0
-1781 2011 2012 0
-2012 -2010 -2013 0
2012 2010 -2013 0
2012 -2010 2013 0
-2012 2010 2013 0
-2012 -2010 2014 0
2012 -2014 0
2010 -2014 0
-1781 -2011 2015 0
1781 -2015 0
2011 -2015 0
2014 2015 -2016 0
-2014 2016 0
-2015 2016 0
-42 -1983 2017 0
42 -2017 0
1983 -2017 0
-1787 -2017 -2018 0
1787 2017 -2018 0
1787 -2017 2018 0
-1787 2017 2018 0
-2018 -2016 -2019 0
2018 2016 -2019 0
2018 -2016 2019 0
-2018 2016 2019 0
-2018 -2016 2020 0
2018 -2020 0
2016 -2020 0
-1787 -2017 2021 0
1787 -2021 0
2017 -2021 0
2020 2021 -2022 0
-2020 2022 0
-2021 2022 0
-50 -1983 2023 0
50 -2023 0
1983 -2023 0
-1793 -2023 -2024 0
1793 2023 -2024 0
1793 -2023 2024 0
-1793 2023 2024 0
-2024 -2022 -2025 0
2024 2022 -2025 0
2024 -2022 2025 0
-2024 2022 2025 0
-2024 -2022 2026 0
2024 -2026 0
2022 -2026 0
-1793 -2023 2027 0
1793 -2027 0
2023 -2027 0
2026 2027 -2028 0
-2026 2028 0
-2027 2028 0
-58 -1983 2029 0
58 -2029 0
1983 -2029 0
-1799 -2029 -2030 0
1799 2029 -2030 0
1799 -2029 2030 0
-1799 2029 2030 0
-2030 -2028 -2031 0
2030 2028 -2031 0
2030 -2028 2031 0
-2030 2028 2031 0
-2030 -2028 2032 0
2030 -2032 0
2028 -2032 0
-1799 -2029 2033 0
1799 -2033 0
2029 -2033 0
2032 2033 -2034 0
-2032 2034 0
-2033 2034 0
-66 -1983 2035 0
66 -2035 0
1983 -2035 0
-1805 -2035 -2036 0
1805 2035 -2036 0
1805 -2035 2036 0
-1805 2035 2036 0
-2036 -2034 -2037 0
2036 2034 -2037 0
2036 -2034 2037 0
-2036 2034 2037 0
-2036 -2034 2038 0
2036 -2038 0
2034 -2038 0
-1805 -2035 2039 0
1805 -2039 0
2035 -2039 0
2038 2039 -2040 0
-2038 2040 0
-2039 2040 0
-74 -1983 2041 0
74 -2041 0
1983 -2041 0
-1811 -2041 -2042 0
1811 2041 -2042 0
1811 -2041 2042 0
-1811 2041 2042 0
-2042 -2040 -2043 0
2042 2040 -2043 0
2042 -2040 2043 0
-2042 2040 2043 0
-2042 -2040 2044 0
2042 -2044 0
2040 -2044 0
-1811 -2041 2045 0
1811 -2045 0
2041 -2045 0
2044 2045 -2046 0
-2044 2046 0
-2045 2046 0
-82 -1983 2047 0
82 -2047 0
1983 -2047 0
-1817 -2047 -2048 0
1817 2047 -2048 0
1817 -2047 2048 0
-1817 2047 2048 0
-2048 -2046 -2049 0
2048 2046 -2049 0
2048 -2046 2049 0
-2048 2046 2049 0
-2048 -2046 2050 0
2048 -2050 0
2046 -2050 0
-1817 -2047 2051 0
1817 -2051 0
2047 -2051 0
2050 2051 -2052 0
-2050 2052 0
-2051 2052 0
-90 -1983 2053 0
90 -2053 0
1983 -2053 0
-1823 -2053 -2054 0
1823 2053 -2054 0
1823 -2053 2054 0
-1823 2053 2054 0
-2054 -2052 -2055 0
2054 2052 -2055 0
2054 -2052 2055 0
-2054 2052 2055 0
-2054 -2052 2056 0
2054 -2056 0
2052 -2056 0
-1823 -2053 2057 0
1823 -2057 0
2053 -2057 0
2056 2057 -2058 0
-2056 2058 0
-2057 2058 0
-98 -1983 2059 0
98 -2059 0
1983 -2059 0
-1829 -2059 -2060 0
1829 2059 -2060 0
1829 -2059 2060 0
-1829 2059 2060 0
-2060 -2058 -2061 0
2060 2058 -2061 0
2060 -2058 2061 0
-2060 2058 2061 0
-2060 -2058 2062 0
2060 -2062 0
2058 -2062 0
-1829 -2059 2063 0
1829 -2063 0
2059 -2063 0
2062 2063 -2064 0
-2062 2064 0
-2063 2064 0
-106 -1983 2065 0
106 -2065 0
1983 -2065 0
-1835 -2065 -2066 0
1835 2065 -2066 0
1835 -2065 2066 0
-1835 2065 2066 0
-2066 -2064 -2067 0
2066 2064 -2067 0
2066 -2064 2067 0
-2066 2064 2067 0
-2066 -2064 2068 0
2066 -2068 0
2064 -2068 0
-1835 -2065 2069 0
1835 -2069 0
2065 -2069 0
2068 2069 -2070 0
-2068 2070 0
-2069 2070 0
-114 -1983 2071 0
114 -2071 0
1983 -2071 0
-1841 -2071 -2072 0
1841 2071 -2072 0
1841 -2071 2072 0
-1841 2071 2072 0
-2072 -2070 -2073 0
2072 2070 -2073 0
2072 -2070 2073 0
-2072 2070 2073 0
-2072 -2070 2074 0
2072 -2074 0
2070 -2074 0
-1841 -2071 2075 0
1841 -2075 0
2071 -2075 0
2074 2075 -2076 0
-2074 2076 0
-2075 2076 0
-122 -1983 2077 0
122 -2077 0
1983 -2077 0
-1847 -2077 -2078 0
1847 2077 -2078 0
1847 -2077 2078 0
-1847 2077 2078 0
-2078 -2076 -2079 0
2078 2076 -2079 0
2078 -2076 2079 0
-2078 2076 2079 0
-2078 -2076 2080 0
2078 -2080 0
2076 -2080 0
-1847 -2077 2081 0
1847 -2081 0
2077 -2081 0
2080 2081 -2082 0
-2080 2082 0
-2081 2082 0
-130 -1983 2083 0
130 -2083 0
1983 -2083 0
-1853 -2083 -2084 0
1853 2083 -2084 0
1853 -2083 2084 0
-1853 2083 2084 0
-2084 -2082 -2085 0
2084 2082 -2085 0
2084 -2082 2085 0
-2084 2082 2085 0
-2084 -2082 2086 0
2084 -2086 0
2082 -2086 0
-1853 -2083 2087 0
1853 -2087 0
2083 -2087 0
2086 2087 -2088 0
-2086 2088 0
-2087 2088 0
-138 -1983 2089 0
138 -2089 0
1983 -2089 0
-1859 -2089 -2090 0
1859 2089 -2090 0
1859 -2089 2090 0
-1859 2089 2090 0
-2090 -2088 -2091 0
2090 2088 -2091 0
2090 -2088 2091 0
-2090 2088 2091 0
-2090 -2088 2092 0
2090 -2092 0
2088 -2092 0
-1859 -2089 2093 0
1859 -2093 0
2089 -2093 0
2092 2093 -2094 0
-2092 2094 0
-2093 2094 0
-146 -1983 2095 0
146 -2095 0
1983 -2095 0
-1865 -2095 -2096 0
1865 2095 -2096 0
1865 -2095 2096 0
-1865 2095 2096 0
-2096 -2094 -2097 0
2096 2094 -2097 0
2096 -2094 2097 0
-2096 2094 2097 0
-2096 -2094 2098 0
2096 -2098 0
2094 -2098 0
-1865 -2095 2099 0
1865 -2099 0
2095 -2099 0
2098 2099 -2100 0
-2098 2100 0
-2099 2100 0
-154 -1983 2101 0
154 -2101 0
1983 -2101 0
-1871 -2101 -2102 0
1871 2101 -2102 0
1871 -2101 2102 0
-1871 2101 2102 0
-2102 -2100 -2103 0
2102 2100 -2103 0
2102 -2100 2103 0
-2102 2100 2103 0
-2102 -2100 2104 0
2102 -2104 0
2100 -2104 0
-1871 -2101 2105 0
1871 -2105 0
2101 -2105 0
2104 2105 -2106 0
-2104 2106 0
-2105 2106 0
-162 -1983 2107 0
162 -2107 0
1983 -2107 0
-1877 -2107 -2108 0
1877 2107 -2108 0
1877 -2107 2108 0
-1877 2107 2108 0
-2108 -2106 -2109 0
2108 2106 -2109 0
2108 -2106 2109 0
-2108 2106 2109 0
-2108 -2106 2110 0
2108 -2110 0
2106 -2110 0
-1877 -2107 2111 0
1877 -2111 0
2107 -2111 0
2110 2111 -2112 0
-2110 2112 0
-2111 2112 0
-170 -1983 2113 0
170 -2113 0
1983 -2113 0
-1883 -2113 -2114 0
1883 2113 -2114 0
1883 -2113 2114 0
-1883 2113 2114 0
-2114 -2112 -2115 0
2114 2112 -2115 0
2114 -2112 2115 0
-2114 2112 2115 0
-2114 -2112 2116 0
2114 -2116 0
2112 -2116 0
-1883 -2113 2117 0
1883 -2117 0
2113 -2117 0
2116 2117 -2118 0
-2116 2118 0
-2117 2118 0
-178 -1983 2119 0
178 -2119 0
1983 -2119 0
-1889 -2119 -2120 0
1889 2119 -2120 0
1889 -2119 2120 0
-1889 2119 2120 0
-2120 -2118 -2121 0
2120 2118 -2121 0
2120 -2118 2121 0
-2120 2118 2121 0
-2120 -2118 2122 0
2120 -2122 0
2118 -2122 0
-1889 -2119 2123 0
1889 -2123 0
2119 -2123 0
2122 2123 -2124 0
-2122 2124 0
-2123 2124 0
-186 -1983 2125 0
186 -2125 0
1983 -2125 0
-1895 -2125 -2126 0
1895 2125 -2126 0
1895 -2125 2126 0
-1895 2125 2126 0
-2126 -2124 -2127 0
2126 2124 -2127 0
2126 -2124 2127 0
-2126 2124 2127 0
-2126 -2124 2128 0
2126 -2128 0
2124 -2128 0
-1895 -2125 2129 0
1895 -2129 0
2125 -2129 0
2128 2129 -2130 0
-2128 2130 0
-2129 2130 0
-194 -1983 2131 0
194 -2131 0
1983 -2131 0
-1901 -2131 -2132 0
1901 2131 -2132 0
1901 -2131 2132 0
-1901 2131 2132 0
-2132 -2130 -2133 0
2132 2130 -2133 0
2132 -2130 2133 0
-2132 2130 2133 0
-2132 -2130 2134 0
2132 -2134 0
2130 -2134 0
-1901 -2131 2135 0
1901 -2135 0
2131 -2135 0
2134 2135 -2136 0
-2134 2136 0
-2135 2136 0
-202 -1983 2137 0
202 -2137 0
1983 -2137 0
-1907 -2137 -2138 0
1907 2137 -2138 0
1907 -2137 2138 0
-1907 2137 2138 0
-2138 -2136 -2139 0
2138 2136 -2139 0
2138 -2136 2139 0
-2138 2136 2139 0
-2138 -2136 2140 0
2138 -2140 0
2136 -2140 0
-1907 -2137 2141 0
1907 -2141 0
2137 -2141 0
2140 2141 -2142 0
-2140 2142 0
-2141 2142 0
-210 -1983 2143 0
210 -2143 0
1983 -2143 0
-1913 -2143 -2144 0
1913 2143 -2144 0
1913 -2143 2144 0
-1913 2143 2144 0
-2144 -2142 -2145 0
2144 2142 -2145 0
2144 -2142 2145 0
-2144 2142 2145 0
-2144 -2142 2146 0
2144 -2146 0
2142 -2146 0
-1913 -2143 2147 0
1913 -2147 0
2143 -2147 0
2146 2147 -2148 0
-2146 2148 0
-2147 2148 0
-218 -1983 2149 0
218 -2149 0
1983 -2149 0
-1919 -2149 -2150 0
1919 2149 -2150 0
1919 -2149 2150 0
-1919 2149 2150 0
-2150 -2148 -2151 0
2150 2148 -2151 0
2150 -2148 2151 0
-2150 2148 2151 0
-2150 -2148 2152 0
2150 -2152 0
2148 -2152 0
-1919 -2149 2153 0
1919 -2153 0
2149 -2153 0
2152 2153 -2154 0
-2152 2154 0
-2153 2154 0
-226 -1983 2155 0
226 -2155 0
1983 -2155 0
-1925 -2155 -2156 0
1925 2155 -2156 0
1925 -2155 2156 0
-1925 2155 2156 0
-2156 -2154 -2157 0
2156 2154 -2157 0
2156 -2154 2157 0
-2156 2154 2157 0
-2156 -2154 2158 0
2156 -2158 0
2154 -2158 0
-1925 -2155 2159 0
1925 -2159 0
2155 -2159 0
2158 2159 -2160 0
-2158 2160 0
-2159 2160 0
-234 -1983 2161 0
234 -2161 0
1983 -2161 0
-1931 -2161 -2162 0
1931 2161 -2162 0
1931 -2161 2162 0
-1931 2161 2162 0
-2162 -2160 -2163 0
2162 2160 -2163 0
2162 -2160 2163 0
-2162 2160 2163 0
-2162 -2160 2164 0
2162 -2164 0
2160 -2164 0
-1931 -2161 2165 0
1931 -2165 0
2161 -2165 0
2164 2165 -2166 0
-2164 2166 0
-2165 2166 0
-242 -1983 2167 0
242 -2167 0
1983 -2167 0
-1937 -2167 -2168 0
1937 2167 -2168 0
1937 -2167 2168 0
-1937 2167 2168 0
-2168 -2166 -2169 0
2168 2166 -2169 0
2168 -2166 2169 0
-2168 2166 2169 0
-2168 -2166 2170 0
2168 -2170 0
2166 -2170 0
-1937 -2167 2171 0
1937 -2171 0
2167 -2171 0
2170 2171 -2172 0
-2170 2172 0
-2171 2172 0
-250 -1983 2173 0
250 -2173 0
1983 -2173 0
-1943 -2173 -2174 0
1943 2173 -2174 0
1943 -2173 2174 0
-1943 2173 2174 0
-2174 -2172 -2175 0
2174 2172 -2175 0
2174 -2172 2175 0
-2174 2172 2175 0
-2174 -2172 2176 0
2174 -2176 0
2172 -2176 0
-1943 -2173 2177 0
1943 -2177 0
2173 -2177 0
2176 2177 -2178 0
-2176 2178 0
-2177 2178 0
-258 -1983 2179 0
258 -2179 0
1983 -2179 0
-1949 -2179 -2180 0
1949 2179 -2180 0
1949 -2179 2180 0
-1949 2179 2180 0
-2180 -2178 -2181 0
2180 2178 -2181 0
2180 -2178 2181 0
-2180 2178 2181 0
-2180 -2178 2182 0
2180 -2182 0
2178 -2182 0
-1949 -2179 2183 0
1949 -2183 0
2179 -2183 0
2182 2183 -2184 0
-2182 2184 0
-2183 2184 0
-266 -1983 2185 0
266 -2185 0
1983 -2185 0
-1955 -2185 -2186 0
1955 2185 -2186 0
1955 -2185 2186 0
-1955 2185 2186 0
-2186 -2184 -2187 0
2186 2184 -2187 0
2186 -2184 2187 0
-2186 2184 2187 0
-2186 -2184 2188 0
2186 -2188 0
2184 -2188 0
-1955 -2185 2189 0
1955 -2189 0
2185 -2189 0
2188 2189 -2190 0
-2188 2190 0
-2189 2190 0
-274 -1983 2191 0
274 -2191 0
1983 -2191 0
-1961 -2191 -2192 0
1961 2191 -2192 0
1961 -2191 2192 0
-1961 2191 2192 0
-2192 -2190 -2193 0
2192 2190 -2193 0
2192 -2190 2193 0
-2192 2190 2193 0
-2192 -2190 2194 0
2192 -2194 0
2190 -2194 0
-1961 -2191 2195 0
1961 -2195 0
2191 -2195 0
2194 2195 -2196 0
-2194 2196 0
-2195 2196 0
-282 -1983 2197 0
282 -2197 0
1983 -2197 0
-1967 -2197 -2198 0
1967 2197 -2198 0
1967 -2197 2198 0
-1967 2197 2198 0
-2198 -2196 -2199 0
2198 2196 -2199 0
2198 -2196 2199 0
-2198 2196 2199 0
-2198 -2196 2200 0
2198 -2200 0
2196 -2200 0
-1967 -2197 2201 0
1967 -2201 0
2197 -2201 0
2200 2201 -2202 0
-2200 2202 0
-2201 2202 0
-290 -1983 2203 0
290 -2203 0
1983 -2203 0
-1973 -2203 -2204 0
1973 2203 -2204 0
1973 -2203 2204 0
-1973 2203 2204 0
-2204 -2202 -2205 0
2204 2202 -2205 0
2204 -2202 2205 0
-2204 2202 2205 0
-2204 -2202 2206 0
2204 -2206 0
2202 -2206 0
-1973 -2203 2207 0
1973 -2207 0
2203 -2207 0
2206 2207 -2208 0
-2206 2208 0
-2207 2208 0
-298 -1983 2209 0
298 -2209 0
1983 -2209 0
-1979 -2209 -2210 0
1979 2209 -2210 0
1979 -2209 2210 0
-1979 2209 2210 0
-2210 -2208 -2211 0
2210 2208 -2211 0
2210 -2208 2211 0
-2210 2208 2211 0
-2210 -2208 2212 0
2210 -2212 0
2208 -2212 0
-1979 -2209 2213 0
1979 -2213 0
2209 -2213 0
2212 2213 -2214 0
-2212 2214 0
-2213 2214 0
-306 -1983 2215 0
306 -2215 0
1983 -2215 0
-1982 -2215 -2216 0
1982 2215 -2216 0
1982 -2215 2216 0
-1982 2215 2216 0
-2216 -2214 -2217 0
2216 2214 -2217 0
2216 -2214 2217 0
-2216 2214 2217 0
-2216 -2214 2218 0
2216 -2218 0
2214 -2218 0
-1982 -2215 2219 0
1982 -2219 0
2215 -2219 0
2218 2219 -2220 0
-2218 2220 0
-2219 2220 0
-1 -2221 2222 0
1 -2222 0
2221 -2222 0
-1989 -2222 -2223 0
1989 2222 -2223 0
1989 -2222 2223 0
-1989 2222 2223 0
-1989 -2222 2224 0
1989 -2224 0
2222 -2224 0
-4 -2221 2225 0
4 -2225 0
2221 -2225 0
-1995 -2225 -2226 0
1995 2225 -2226 0
1995 -2225 2226 0
-1995 2225 2226 0
-2226 -2224 -2227 0
2226 2224 -2227 0
2226 -2224 2227 0
-2226 2224 2227 0
-2226 -2224 2228 0
2226 -2228 0
2224 -2228 0
-1995 -2225 2229 0
1995 -2229 0
2225 -2229 0
2228 2229 -2230 0
-2228 2230 0
-2229 2230 0
-10 -2221 2231 0
10 -2231 0
2221 -2231 0
-2001 -2231 -2232 0
2001 2231 -2232 0
2001 -2231 2232 0
-2001 2231 2232 0
-2232 -2230 -2233 0
2232 2230 -2233 0
2232 -2230 2233 0
-2232 2230 2233 0
-2232 -2230 2234 0
2232 -2234 0
2230 -2234 0
-2001 -2231 2235 0
2001 -2235 0
2231 -2235 0
2234 2235 -2236 0
-2234 2236 0
-2235 2236 0
-18 -2221 2237 0
18 -2237 0
2221 -2237 0
-2007 -2237 -2238 0
2007 2237 -2238 0
2007 -2237 2238 0
-2007 2237 2238 0
-2238 -2236 -2239 0
2238 2236 -2239 0
2238 -2236 2239 0
-2238 2236 2239 0
-2238 -2236 2240 0
2238 -2240 0
2236 -2240 0
-2007 -2237 2241 0
2007 -2241 0
2237 -2241 0
2240 2241 -2242 0
-2240 2242 0
-2241 2242 0
-26 -2221 2243 0
26 -2243 0
2221 -2243 0
-2013 -2243 -2244 0
2013 2243 -2244 0
2013 -2243 2244 0
-2013 2243 2244 0
-2244 -2242 -2245 0
2244 2242 -2245 0
2244 -2242 2245 0
-2244 2242 2245 0
-2244 -2242 2246 0
2244 -2246 0
2242 -2246 0
-2013 -2243 2247 0
2013 -2247 0
2243 -2247 0
2246 2247 -2248 0
-2246 2248 0
-2247 2248 0
-34 -2221 2249 0
34 -2249 0
2221 -2249 0
-2019 -2249 -2250 0
2019 2249 -2250 0
2019 -2249 2250 0
-2019 2249 2250 0
-2250 -2248 -2251 0
2250 2248 -2251 0
2250 -2248 2251 0
-2250 2248 2251 0
-2250 -2248 2252 0
2250 -2252 0
2248 -2252 0
-2019 -2249 2253 0
2019 -2253 0
2249 -2253 0
2252 2253 -2254 0
-2252 2254 0
-2253 2254 0
-42 -2221 2255 0
42 -2255 0
2221 -2255 0
-2025 -2255 -2256 0
2025 2255 -2256 0
2025 -2255 2256 0
-2025 2255 2256 0
-2256 -2254 -2257 0
2256 2254 -2257 0
2256 -2254 2257 0
-2256 2254 2257 0
-2256 -2254 2258 0
2256 -2258 0
2254 -2258 0
-2025 -2255 2259 0
2025 -2259 0
2255 -2259 0
2258 2259 -2260 0
-2258 2260 0
-2259 2260 0
-50 -2221 2261 0
50 -2261 0
2221 -2261 0
-2031 -2261 -2262 0
2031 2261 -2262 0
2031 -2261 2262 0
-2031 2261 2262 0
-2262 -2260 -2263 0
2262 2260 -2263 0
2262 -2260 2263 0
-2262 2260 2263 0
-2262 -2260 2264 0
2262 -2264 0
2260 -2264 0
-2031 -2261 2265 0
2031 -2265 0
2261 -2265 0
2264 2265 -2266 0
-2264 2266 0
-2265 2266 0
-58 -2221 2267 0
58 -2267 0
2221 -2267 0
-2037 -2267 -2268 0
2037 2267 -2268 0
2037 -2267 2268 0
-2037 2267 2268 0
-2268 -2266 -2269 0
2268 2266 -2269 0
2268 -2266 2269 0
-2268 2266 2269 0
-2268 -2266 2270 0
2268 -2270 0
2266 -2270 0
-2037 -2267 2271 0
2037 -2271 0
2267 -2271 0
2270 2271 -2272 0
-2270 2272 0
-2271 2272 0
-66 -2221 2273 0
66 -2273 0
2221 -2273 0
-2043 -2273 -2274 0
2043 2273 -2274 0
2043 -2273 2274 0
-2043 2273 2274 0
-2274 -2272 -2275 0
2274 2272 -2275 0
2274 -2272 2275 0
-2274 2272 2275 0
-2274 -2272 2276 0
2274 -2276 0
2272 -2276 0
-2043 -2273 2277 0
2043 -2277 0
2273 -2277 0
2276 2277 -2278 0
-2276 2278 0
-2277 2278 0
-74 -2221 2279 0
74 -2279 0
2221 -2279 0
-2049 -2279 -2280 0
2049 2279 -2280 0
2049 -2279 2280 0
-2049 2279 2280 0
-2280 -2278 -2281 0
2280 2278 -2281 0
2280 -2278 2281 0
-2280 2278 2281 0
-2280 -2278 2282 0
2280 -2282 0
2278 -2282 0
-2049 -2279 2283 0
2049 -2283 0
2279 -2283 0
2282 2283 -2284 0
-2282 2284 0
-2283 2284 0
-82 -2221 2285 0
82 -2285 0
2221 -2285 0
-2055 -2285 -2286 0
2055 2285 -2286 0
2055 -2285 2286 0
-2055 2285 2286 0
-2286 -2284 -2287 0
2286 2284 -2287 0
2286 -2284 2287 0
-2286 2284 2287 0
-2286 -2284 2288 0
2286 -2288 0
2284 -2288 0
-2055 -2285 2289 0
2055 -2289 0
2285 -2289 0
2288 2289 -2290 0
-2288 2290 0
-2289 2290 0
-90 -2221 2291 0
90 -2291 0
2221 -2291 0
-2061 -2291 -2292 0
2061 2291 -2292 0
2061 -2291 2292 0
-2061 2291 2292 0
-2292 -2290 -2293 0
2292 2290 -2293 0
2292 -2290 2293 0
-2292 2290 2293 0
-2292 -2290 2294 0
2292 -2294 0
2290 -2294 0
-2061 -2291 2295 0
2061 -2295 0
2291 -2295 0
2294 2295 -2296 0
-2294 2296 0
-2295 2296 0
-98 -2221 2297 0
98 -2297 0
2221 -2297 0
-2067 -2297 -2298 0
2067 2297 -2298 0
2067 -2297 2298 0
-2067 2297 2298 0
-2298 -2296 -2299 0
2298 2296 -2299 0
2298 -2296 2299 0
-2298 2296 2299 0
-2298 -2296 2300 0
2298 -2300 0
2296 -2300 0
-2067 -2297 2301 0
2067 -2301 0
2297 -2301 0
2300 2301 -2302 0
-2300 2302 0
-2301 2302 0
-106 -2221 2303 0
106 -2303 0
2221 -2303 0
-2073 -2303 -2304 0
2073 2303 -2304 0
2073 -2303 2304 0
-2073 2303 2304 0
-2304 -2302 -2305 0
2304 2302 -2305 0
2304 -2302 2305 0
-2304 2302 2305 0
-2304 -2302 2306 0
2304 -2306 0
2302 -2306 0
-2073 -2303 2307 0
2073 -2307 0
2303 -2307 0
2306 2307 -2308 0
-2306 2308 0
-2307 2308 0
-114 -2221 2309 0
114 -2309 0
2221 -2309 0
-2079 -2309 -2310 0
2079 2309 -2310 0
2079 -2309 2310 0
-2079 2309 2310 0
-2310 -2308 -2311 0
2310 2308 -2311 0
2310 -2308 2311 0
-2310 2308 2311 0
-2310 -2308 2312 0
2310 -2312 0
2308 -2312 0
-2079 -2309 2313 0
2079 -2313 0
2309 -2313 0
2312 2313 -2314 0
-2312 2314 0
-2313 2314 0
-122 -2221 2315 0
122 -2315 0
2221 -2315 0
-2085 -2315 -2316 0
2085 2315 -2316 0
2085 -2315 2316 0
-2085 2315 2316 0
-2316 -2314 -2317 0
2316 2314 -2317 0
2316 -2314 2317 0
-2316 2314 2317 0
-2316 -2314 2318 0
2316 -2318 0
2314 -2318 0
-2085 -2315 2319 0
2085 -2319 0
2315 -2319 0
2318 2319 -2320 0
-2318 2320 0
-2319 2320 0
-130 -2221 2321 0
130 -2321 0
2221 -2321 0
-2091 -2321 -2322 0
2091 2321 -2322 0
2091 -2321 2322 0
-2091 2321 2322 0
-2322 -2320 -2323 0
2322 2320 -2323 0
2322 -2320 2323 0
-2322 2320 2323 0
-2322 -2320 2324 0
2322 -2324 0
2320 -2324 0
-2091 -2321 2325 0
2091 -2325 0
2321 -2325 0
2324 2325 -2326 0
-2324 2326 0
-2325 2326 0
-138 -2221 2327 0
138 -2327 0
2221 -2327 0
-2097 -2327 -2328 0
2097 2327 -2328 0
2097 -2327 2328 0
-2097 2327 2328 0
-2328 -2326 -2329 0
2328 2326 -2329 0
2328 -2326 2329 0
-2328 2326 2329 0
-2328 -2326 2330 0
2328 -2330 0
2326 -2330 0
-2097 -2327 2331 0
2097 -2331 0
2327 -2331 0
2330 2331 -2332 0
-2330 2332 0
-2331 2332 0
-146 -2221 2333 0
146 -2333 0
2221 -2333 0
-2103 -2333 -2334 0
2103 2333 -2334 0
2103 -2333 2334 0
-2103 2333 2334 0
-2334 -2332 -2335 0
2334 2332 -2335 0
2334 -2332 2335 0
-2334 2332 2335 0
-2334 -2332 2336 0
2334 -2336 0
2332 -2336 0
-2103 -2333 2337 0
2103 -2337 0
2333 -2337 0
2336 2337 -2338 0
-2336 2338 0
-2337 2338 0
-154 -2221 2339 0
154 -2339 0
2221 -2339 0
-2109 -2339 -2340 0
2109 2339 -2340 0
2109 -2339 2340 0
-2109 2339 2340 0
-2340 -2338 -2341 0
2340 2338 -2341 0
2340 -2338 2341 0
-2340 2338 2341 0
-2340 -2338 2342 0
2340 -2342 0
2338 -2342 0
-2109 -2339 2343 0
2109 -2343 0
2339 -2343 0
2342 2343 -2344 0
-2342 2344 0
-2343 2344 0
-162 -2221 2345 0
162 -2345 0
2221 -2345 0
-2115 -2345 -2346 0
2115 2345 -2346 0
2115 -2345 2346 0
-2115 2345 2346 0
-2346 -2344 -2347 0
2346 2344 -2347 0
2346 -2344 2347 0
-2346 2344 2347 0
-2346 -2344 2348 0
2346 -2348 0
2344 -2348 0
-2115 -2345 2349 0
2115 -2349 0
2345 -2349 0
2348 2349 -2350 0
-2348 2350 0
-2349 2350 0
-170 -2221 2351 0
170 -2351 0
2221 -2351 0
-2121 -2351 -2352 0
2121 2351 -2352 0
2121 -2351 2352 0
-2121 2351 2352 0
-2352 -2350 -2353 0
2352 2350 -2353 0
2352 -2350 2353 0
-2352 2350 2353 0
-2352 -2350 2354 0
2352 -2354 0
2350 -2354 0
-2121 -2351 2355 0
2121 -2355 0
2351 -2355 0
2354 2355 -2356 0
-2354 2356 0
-2355 2356 0
-178 -2221 2357 0
178 -2357 0
2221 -2357 0
-2127 -2357 -2358 0
2127 2357 -2358 0
2127 -2357 2358 0
-2127 2357 2358 0
-2358 -2356 -2359 0
2358 2356 -2359 0
2358 -2356 2359 0
-2358 2356 2359 0
-2358 -2356 2360 0
2358 -2360 0
2356 -2360 0
-2127 -2357 2361 0
2127 -2361 0
2357 -2361 0
2360 2361 -2362 0
-2360 2362 0
-2361 2362 0
-186 -2221 2363 0
186 -2363 0
2221 -2363 0
-2133 -2363 -2364 0
2133 2363 -2364 0
2133 -2363 2364 0
-2133 2363 2364 0
-2364 -2362 -2365 0
2364 2362 -2365 0
2364 -2362 2365 0
-2364 2362 2365 0
-2364 -2362 2366 0
2364 -2366 0
2362 -2366 0
-2133 -2363 2367 0
2133 -2367 0
2363 -2367 0
2366 2367 -2368 0
-2366 2368 0
-2367 2368 0
-194 -2221 2369 0
194 -2369 0
2221 -2369 0
-2139 -2369 -2370 0
2139 2369 -2370 0
2139 -2369 2370 0
-2139 2369 2370 0
-2370 -2368 -2371 0
2370 2368 -2371 0
2370 -2368 2371 0
-2370 2368 2371 0
-2370 -2368 2372 0
2370 -2372 0
2368 -2372 0
-2139 -2369 2373 0
2139 -2373 0
2369 -2373 0
2372 2373 -2374 0
-2372 2374 0
-2373 2374 0
-202 -2221 2375 0
202 -2375 0
2221 -2375 0
-2145 -2375 -2376 0
2145 2375 -2376 0
2145 -2375 2376 0
-2145 2375 2376 0
-2376 -2374 -2377 0
2376 2374 -2377 0
2376 -2374 2377 0
-2376 2374 2377 0
-2376 -2374 2378 0
2376 -2378 0
2374 -2378 0
-2145 -2375 2379 0
2145 -2379 0
2375 -2379 0
2378 2379 -2380 0
-2378 2380 0
-2379 2380 0
-210 -2221 2381 0
210 -2381 0
2221 -2381 0
-2151 -2381 -2382 0
2151 2381 -2382 0
2151 -2381 2382 0
-2151 2381 2382 0
-2382 -2380 -2383 0
2382 2380 -2383 0
2382 -2380 2383 0
-2382 2380 2383 0
-2382 -2380 2384 0
2382 -2384 0
2380 -2384 0
-2151 -2381 2385 0
2151 -2385 0
2381 -2385 0
2384 2385 -2386 0
-2384 2386 0
-2385 2386 0
-218 -2221 2387 0
218 -2387 0
2221 -2387 0
-2157 -2387 -2388 0
2157 2387 -2388 0
2157 -2387 2388 0
-2157 2387 2388 0
-2388 -2386 -2389 0
2388 2386 -2389 0
2388 -2386 2389 0
-2388 2386 2389 0
-2388 -2386 2390 0
2388 -2390 0
2386 -2390 0
-2157 -2387 2391 0
2157 -2391 0
2387 -2391 0
2390 2391 -2392 0
-2390 2392 0
-2391 2392 0
-226 -2221 2393 0
226 -2393 0
2221 -2393 0
-2163 -2393 -2394 0
2163 2393 -2394 0
2163 -2393 2394 0
-2163 2393 2394 0
-2394 -2392 -2395 0
2394 2392 -2395 0
2394 -2392 2395 0
-2394 2392 2395 0
-2394 -2392 2396 0
2394 -2396 0
2392 -2396 0
-2163 -2393 2397 0
2163 -2397 0
2393 -2397 0
2396 2397 -2398 0
-2396 2398 0
-2397 2398 0
-234 -2221 2399 0
234 -2399 0
2221 -2399 0
-2169 -2399 -2400 0
2169 2399 -2400 0
2169 -2399 2400 0
-2169 2399 2400 0
-2400 -2398 -2401 0
2400 2398 -2401 0
2400 -2398 2401 0
-2400 2398 2401 0
-2400 -2398 2402 0
2400 -2402 0
2398 -2402 0
-2169 -2399 2403 0
2169 -2403 0
2399 -2403 0
2402 2403 -2404 0
-2402 2404 0
-2403 2404 0
-242 -2221 2405 0
242 -2405 0
2221 -2405 0
-2175 -2405 -2406 0
2175 2405 -2406 0
2175 -2405 2406 0
-2175 2405 2406 0
-2406 -2404 -2407 0
2406 2404 -2407 0
2406 -2404 2407 0
-2406 2404 2407 0
-2406 -2404 2408 0
2406 -2408 0
2404 -2408 0
-2175 -2405 2409 0
2175 -2409 0
2405 -2409 0
2408 2409 -2410 0
-2408 2410 0
-2409 2410 0
-250 -2221 2411 0
250 -2411 0
2221 -2411 0
-2181 -2411 -2412 0
2181 2411 -2412 0
2181 -2411 2412 0
-2181 2411 2412 0
-2412 -2410 -2413 0
2412 2410 -2413 0
2412 -2410 2413 0
-2412 2410 2413 0
-2412 -2410 2414 0
2412 -2414 0
2410 -2414 0
-2181 -2411 2415 0
2181 -2415 0
2411 -2415 0
2414 2415 -2416 0
-2414 2416 0
-2415 2416 0
-258 -2221 2417 0
258 -2417 0
2221 -2417 0
-2187 -2417 -2418 0
2187 2417 -2418 0
2187 -2417 2418 0
-2187 2417 2418 0
-2418 -2416 -2419 0
2418 2416 -2419 0
2418 -2416 2419 0
-2418 2416 2419 0
-2418 -2416 2420 0
2418 -2420 0
2416 -2420 0
-2187 -2417 2421 0
2187 -2421 0
2417 -2421 0
2420 2421 -2422 0
-2420 2422 0
-2421 2422 0
-266 -2221 2423 0
266 -2423 0
2221 -2423 0
-2193 -2423 -2424 0
2193 2423 -2424 0
2193 -2423 2424 0
-2193 2423 2424 0
-2424 -2422 -2425 0
2424 2422 -2425 0
2424 -2422 2425 0
-2424 2422 2425 0
-2424 -2422 2426 0
2424 -2426 0
2422 -2426 0
-2193 -2423 2427 0
2193 -2427 0
2423 -2427 0
2426 2427 -2428 0
-2426 2428 0
-2427 2428 0
-274 -2221 2429 0
274 -2429 0
2221 -2429 0
-2199 -2429 -2430 0
2199 2429 -2430 0
2199 -2429 2430 0
-2199 2429 2430 0
-2430 -2428 -2431 0
2430 2428 -2431 0
2430 -2428 2431 0
-2430 2428 2431 0
-2430 -2428 2432 0
2430 -2432 0
2428 -2432 0
-2199 -2429 2433 0
2199 -2433 0
2429 -2433 0
2432 2433 -2434 0
-2432 2434 0
-2433 2434 0
-282 -2221 2435 0
282 -2435 0
2221 -2435 0
-2205 -2435 -2436 0
2205 2435 -2436 0
2205 -2435 2436 0
-2205 2435 2436 0
-2436 -2434 -2437 0
2436 2434 -2437 0
2436 -2434 2437 0
-2436 2434 2437 0
-2436 -2434 2438 0
2436 -2438 0
2434 -2438 0
-2205 -2435 2439 0
2205 -2439 0
2435 -2439 0
2438 2439 -2440 0
-2438 2440 0
-2439 2440 0
-290 -2221 2441 0
290 -2441 0
2221 -2441 0
-2211 -2441 -2442 0
2211 2441 -2442 0
2211 -2441 2442 0
-2211 2441 2442 0
-2442 -2440 -2443 0
2442 2440 -2443 0
2442 -2440 2443 0
-2442 2440 2443 0
-2442 -2440 2444 0
2442 -2444 0
2440 -2444 0
-2211 -2441 2445 0
2211 -2445 0
2441 -2445 0
2444 2445 -2446 0
-2444 2446 0
-2445 2446 0
-298 -2221 2447 0
298 -2447 0
2221 -2447 0
-2217 -2447 -2448 0
2217 2447 -2448 0
2217 -2447 2448 0
-2217 2447 2448 0
-2448 -2446 -2449 0
2448 2446 -2449 0
2448 -2446 2449 0
-2448 2446 2449 0
-2448 -2446 2450 0
2448 -2450 0
2446 -2450 0
-2217 -2447 2451 0
2217 -2451 0
2447 -2451 0
2450 2451 -2452 0
-2450 2452 0
-2451 2452 0
-306 -2221 2453 0
306 -2453 0
2221 -2453 0
-2220 -2453 -2454 0
2220 2453 -2454 0
2220 -2453 2454 0
-2220 2453 2454 0
-2454 -2452 -2455 0
2454 2452 -2455 0
2454 -2452 2455 0
-2454 2452 2455 0
-2454 -2452 2456 0
2454 -2456 0
2452 -2456 0
-2220 -2453 2457 0
2220 -2457 0
2453 -2457 0
2456 2457 -2458 0
-2456 2458 0
-2457 2458 0
-1 -2459 2460 0
1 -2460 0
2459 -2460 0
-2227 -2460 -2461 0
2227 2460 -2461 0
2227 -2460 2461 0
-2227 2460 2461 0
-2227 -2460 2462 0
2227 -2462 0
2460 -2462 0
-4 -2459 2463 0
4 -2463 0
2459 -2463 0
-2233 -2463 -2464 0
2233 2463 -2464 0
2233 -2463 2464 0
-2233 2463 2464 0
-2464 -2462 -2465 0
2464 2462 -2465 0
2464 -2462 2465 0
-2464 2462 2465 0
-2464 -2462 2466 0
2464 -2466 0
2462 -2466 0
-2233 -2463 2467 0
2233 -2467 0
2463 -2467 0
2466 2467 -2468 0
-2466 2468 0
-2467 2468 0
-10 -2459 2469 0
10 -2469 0
2459 -2469 0
-2239 -2469 -2470 0
2239 2469 -2470 0
2239 -2469 2470 0
-2239 2469 2470 0
-2470 -2468 -2471 0
2470 2468 -2471 0
2470 -2468 2471 0
-2470 2468 2471 0
-2470 -2468 2472 0
2470 -2472 0
2468 -2472 0
-2239 -2469 2473 0
2239 -2473 0
2469 -2473 0
2472 2473 -2474 0
-2472 2474 0
-2473 2474 0
-18 -2459 2475 0
18 -2475 0
2459 -2475 0
-2245 -2475 -2476 0
2245 2475 -2476 0
2245 -2475 2476 0
-2245 2475 2476 0
-2476 -2474 -2477 0
2476 2474 -2477 0
2476 -2474 2477 0
-2476 2474 2477 0
-2476 -2474 2478 0
2476 -2478 0
2474 -2478 0
-2245 -2475 2479 0
2245 -2479 0
2475 -2479 0
2478 2479 -2480 0
-2478 2480 0
-2479 2480 0
-26 -2459 2481 0
26 -2481 0
2459 -2481 0
-2251 -2481 -2482 0
2251 2481 -2482 0
2251 -2481 2482 0
-2251 2481 2482 0
-2482 -2480 -2483 0
2482 2480 -2483 0
2482 -2480 2483 0
-2482 2480 2483 0
-2482 -2480 2484 0
2482 -2484 0
2480 -2484 0
-2251 -2481 2485 0
2251 -2485 0
2481 -2485 0
2484 2485 -2486 0
-2484 2486 0
-2485 2486 0
-34 -2459 2487 0
34 -2487 0
2459 -2487 0
-2257 -2487 -2488 0
2257 2487 -2488 0
2257 -2487 2488 0
-2257 2487 2488 0
-2488 -2486 -2489 0
2488 2486 -2489 0
2488 -2486 2489 0
-2488 2486 2489 0
-2488 -2486 2490 0
2488 -2490 0
2486 -2490 0
-2257 -2487 2491 0
2257 -2491 0
2487 -2491 0
2490 2491 -2492 0
-2490 2492 0
-2491 2492 0
-42 -2459 2493 0
42 -2493 0
2459 -2493 0
-2263 -2493 -2494 0
2263 2493 -2494 0
2263 -2493 2494 0
-2263 2493 2494 0
-2494 -2492 -2495 0
2494 2492 -2495 0
2494 -2492 2495 0
-2494 2492 2495 0
-2494 -2492 2496 0
2494 -2496 0
2492 -2496 0
-2263 -2493 2497 0
2263 -2497 0
2493 -2497 0
2496 2497 -2498 0
-2496 2498 0
-2497 2498 0
-50 -2459 2499 0
50 -2499 0
2459 -2499 0
-2269 -2499 -2500 0
2269 2499 -2500 0
2269 -2499 2500 0
-2269 2499 2500 0
-2500 -2498 -2501 0
2500 2498 -2501 0
2500 -2498 2501 0
-2500 2498 2501 0
-2500 -2498 2502 0
2500 -2502 0
2498 -2502 0
-2269 -2499 2503 0
2269 -2503 0
2499 -2503 0
2502 2503 -2504 0
-2502 2504 0
-2503 2504 0
-58 -2459 2505 0
58 -2505 0
2459 -2505 0
-2275 -2505 -2506 0
2275 2505 -2506 0
2275 -2505 2506 0
-2275 2505 2506 0
-2506 -2504 -2507 0
2506 2504 -2507 0
2506 -2504 2507 0
-2506 2504 2507 0
-2506 -2504 2508 0
2506 -2508 0
2504 -2508 0
-2275 -2505 2509 0
2275 -2509 0
2505 -2509 0
2508 2509 -2510 0
-2508 2510 0
-2509 2510 0
-66 -2459 2511 0
66 -2511 0
2459 -2511 0
-2281 -2511 -2512 0
2281 2511 -2512 0
2281 -2511 2512 0
-2281 2511 2512 0
-2512 -2510 -2513 0
2512 2510 -2513 0
2512 -2510 2513 0
-2512 2510 2513 0
-2512 -2510 2514 0
2512 -2514 0
2510 -2514 0
-2281 -2511 2515 0
2281 -2515 0
2511 -2515 0
2514 2515 -2516 0
-2514 2516 0
-2515 2516 0
-74 -2459 2517 0
74 -2517 0
2459 -2517 0
-2287 -2517 -2518 0
2287 2517 -2518 0
2287 -2517 2518 0
-2287 2517 2518 0
-2518 -2516 -2519 0
2518 2516 -2519 0
2518 -2516 2519 0
-2518 2516 2519 0
-2518 -2516 2520 0
2518 -2520 0
2516 -2520 0
-2287 -2517 2521 0
2287 -2521 0
2517 -2521 0
2520 2521 -2522 0
-2520 2522 0
-2521 2522 0
-82 -2459 2523 0
82 -2523 0
2459 -2523 0
-2293 -2523 -2524 0
2293 2523 -2524 0
2293 -2523 2524 0
-2293 2523 2524 0
-2524 -2522 -2525 0
2524 2522 -2525 0
2524 -2522 2525 0
-2524 2522 2525 0
-2524 -2522 2526 0
2524 -2526 0
2522 -2526 0
-2293 -2523 2527 0
2293 -2527 0
2523 -2527 0
2526 2527 -2528 0
-2526 2528 0
-2527 2528 0
-90 -2459 2529 0
90 -2529 0
2459 -2529 0
-2299 -2529 -2530 0
2299 2529 -2530 0
2299 -2529 2530 0
-2299 2529 2530 0
-2530 -2528 -2531 0
2530 2528 -2531 0
2530 -2528 2531 0
-2530 2528 2531 0
-2530 -2528 2532 0
2530 -2532 0
2528 -2532 0
-2299 -2529 2533 0
2299 -2533 0
2529 -2533 0
2532 2533 -2534 0
-2532 2534 0
-2533 2534 0
-98 -2459 2535 0
98 -2535 0
2459 -2535 0
-2305 -2535 -2536 0
2305 2535 -2536 0
2305 -2535 2536 0
-2305 2535 2536 0
-2536 -2534 -2537 0
2536 2534 -2537 0
2536 -2534 2537 0
-2536 2534 2537 0
-2536 -2534 2538 0
2536 -2538 0
2534 -2538 0
-2305 -2535 2539 0
2305 -2539 0
2535 -2539 0
2538 2539 -2540 0
-2538 2540 0
-2539 2540 0
-106 -2459 2541 0
106 -2541 0
2459 -2541 0
-2311 -2541 -2542 0
2311 2541 -2542 0
2311 -2541 2542 0
-2311 2541 2542 0
-2542 -2540 -2543 0
2542 2540 -2543 0
2542 -2540 2543 0
-2542 2540 2543 0
-2542 -2540 2544 0
2542 -2544 0
2540 -2544 0
-2311 -2541 2545 0
2311 -2545 0
2541 -2545 0
2544 2545 -2546 0
-2544 2546 0
-2545 2546 0
-114 -2459 2547 0
114 -2547 0
2459 -2547 0
-2317 -2547 -2548 0
2317 2547 -2548 0
2317 -2547 2548 0
-2317 2547 2548 0
-2548 -2546 -2549 0
2548 2546 -2549 0
2548 -2546 2549 0
-2548 2546 2549 0
-2548 -2546 2550 0
2548 -2550 0
2546 -2550 0
-2317 -2547 2551 0
2317 -2551 0
2547 -2551 0
2550 2551 -2552 0
-2550 2552 0
-2551 2552 0
-122 -2459 2553 0
122 -2553 0
2459 -2553 0
-2323 -2553 -2554 0
2323 2553 -2554 0
2323 -2553 2554 0
-2323 2553 2554 0
-2554 -2552 -2555 0
2554 2552 -2555 0
2554 -2552 2555 0
-2554 2552 2555 0
-2554 -2552 2556 0
2554 -2556 0
2552 -2556 0
-2323 -2553 2557 0
2323 -2557 0
2553 -2557 0
2556 2557 -2558 0
-2556 2558 0
-2557 2558 0
-130 -2459 2559 0
130 -2559 0
2459 -2559 0
-2329 -2559 -2560 0
2329 2559 -2560 0
2329 -2559 2560 0
-2329 2559 2560 0
-2560 -2558 -2561 0
2560 2558 -2561 0
2560 -2558 2561 0
-2560 2558 2561 0
-2560 -2558 2562 0
2560 -2562 0
2558 -2562 0
-2329 -2559 2563 0
2329 -2563 0
2559 -2563 0
2562 2563 -2564 0
-2562 2564 0
-2563 2564 0
-138 -2459 2565 0
138 -2565 0
2459 -2565 0
-2335 -2565 -2566 0
2335 2565 -2566 0
2335 -2565 2566 0
-2335 2565 2566 0
-2566 -2564 -2567 0
2566 2564 -2567 0
2566 -2564 2567 0
-2566 2564 2567 0
-2566 -2564 2568 0
2566 -2568 0
2564 -2568 0
-2335 -2565 2569 0
2335 -2569 0
2565 -2569 0
2568 2569 -2570 0
-2568 2570 0
-2569 2570 0
-146 -2459 2571 0
146 -2571 0
2459 -2571 0
-2341 -2571 -2572 0
2341 2571 -2572 0
2341 -2571 2572 0
-2341 2571 2572 0
-2572 -2570 -2573 0
2572 2570 -2573 0
2572 -2570 2573 0
-2572 2570 2573 0
-2572 -2570 2574 0
2572 -2574 0
2570 -2574 0
-2341 -2571 2575 0
2341 -2575 0
2571 -2575 0
2574 2575 -2576 0
-2574 2576 0
-2575 2576 0
-154 -2459 2577 0
154 -2577 0
2459 -2577 0
-2347 -2577 -2578 0
2347 2577 -2578 0
2347 -2577 2578 0
-2347 2577 2578 0
-2578 -2576 -2579 0
2578 2576 -2579 0
2578 -2576 2579 0
-2578 2576 2579 0
-2578 -2576 2580 0
2578 -2580 0
2576 -2580 0
-2347 -2577 2581 0
2347 -2581 0
2577 -2581 0
2580 2581 -2582 0
-2580 2582 0
-2581 2582 0
-162 -2459 2583 0
162 -2583 0
2459 -2583 0
-2353 -2583 -2584 0
2353 2583 -2584 0
2353 -2583 2584 0
-2353 2583 2584 0
-2584 -2582 -2585 0
2584 2582 -2585 0
2584 -2582 2585 0
-2584 2582 2585 0
-2584 -2582 2586 0
2584 -2586 0
2582 -2586 0
-2353 -2583 2587 0
2353 -2587 0
2583 -2587 0
2586 2587 -2588 0
-2586 2588 0
-2587 2588 0
-170 -2459 2589 0
170 -2589 0
2459 -2589 0
-2359 -2589 -2590 0
2359 2589 -2590 0
2359 -2589 2590 0
-2359 2589 2590 0
-2590 -2588 -2591 0
2590 2588 -2591 0
2590 -2588 2591 0
-2590 2588 2591 0
-2590 -2588 2592 0
2590 -2592 0
2588 -2592 0
-2359 -2589 2593 0
2359 -2593 0
2589 -2593 0
2592 2593 -2594 0
-2592 2594 0
-2593 2594 0
-178 -2459 2595 0
178 -2595 0
2459 -2595 0
-2365 -2595 -2596 0
2365 2595 -2596 0
2365 -2595 2596 0
-2365 2595 2596 0
-2596 -2594 -2597 0
2596 2594 -2597 0
2596 -2594 2597 0
-2596 2594 2597 0
-2596 -2594 2598 0
2596 -2598 0
2594 -2598 0
-2365 -2595 2599 0
2365 -2599 0
2595 -2599 0
2598 2599 -2600 0
-2598 2600 0
-2599 2600 0
-186 -2459 2601 0
186 -2601 0
2459 -2601 0
-2371 -2601 -2602 0
2371 2601 -2602 0
2371 -2601 2602 0
-2371 2601 2602 0
-2602 -2600 -2603 0
2602 2600 -2603 0
2602 -2600 2603 0
-2602 2600 2603 0
-2602 -2600 2604 0
2602 -2604 0
2600 -2604 0
-2371 -2601 2605 0
2371 -2605 0
2601 -2605 0
2604 2605 -2606 0
-2604 2606 0
-2605 2606 0
-194 -2459 2607 0
194 -2607 0
2459 -2607 0
-2377 -2607 -2608 0
2377 2607 -2608 0
2377 -2607 2608 0
-2377 2607 2608 0
-2608 -2606 -2609 0
2608 2606 -2609 0
2608 -2606 2609 0
-2608 2606 2609 0
-2608 -2606 2610 0
2608 -2610 0
2606 -2610 0
-2377 -2607 2611 0
2377 -2611 0
2607 -2611 0
2610 2611 -2612 0
-2610 2612 0
-2611 2612 0
-202 -2459 2613 0
202 -2613 0
2459 -2613 0
-2383 -2613 -2614 0
2383 2613 -2614 0
2383 -2613 2614 0
-2383 2613 2614 0
-2614 -2612 -2615 0
2614 2612 -2615 0
2614 -2612 2615 0
-2614 2612 2615 0
-2614 -2612 2616 0
2614 -2616 0
2612 -2616 0
-2383 -2613 2617 0
2383 -2617 0
2613 -2617 0
2616 2617 -2618 0
-2616 2618 0
-2617 2618 0
-210 -2459 2619 0
210 -2619 0
2459 -2619 0
-2389 -2619 -2620 0
2389 2619 -2620 0
2389 -2619 2620 0
-2389 2619 2620 0
-2620 -2618 -2621 0
2620 2618 -2621 0
2620 -2618 2621 0
-2620 2618 2621 0
-2620 -2618 2622 0
2620 -2622 0
2618 -2622 0
-2389 -2619 2623 0
2389 -2623 0
2619 -2623 0
2622 2623 -2624 0
-2622 2624 0
-2623 2624 0
-218 -2459 2625 0
218 -2625 0
2459 -2625 0
-2395 -2625 -2626 0
2395 2625 -2626 0
2395 -2625 2626 0
-2395 2625 2626 0
-2626 -2624 -2627 0
2626 2624 -2627 0
2626 -2624 2627 0
-2626 2624 2627 0
-2626 -2624 2628 0
2626 -2628 0
2624 -2628 0
-2395 -2625 2629 0
2395 -2629 0
2625 -2629 0
2628 2629 -2630 0
-2628 2630 0
-2629 2630 0
-226 -2459 2631 0
226 -2631 0
2459 -2631 0
-2401 -2631 -2632 0
2401 2631 -2632 0
2401 -2631 2632 0
-2401 2631 2632 0
-2632 -2630 -2633 0
2632 2630 -2633 0
2632 -2630 2633 0
-2632 2630 2633 0
-2632 -2630 2634 0
2632 -2634 0
2630 -2634 0
-2401 -2631 2635 0
2401 -2635 0
2631 -2635 0
2634 2635 -2636 0
-2634 2636 0
-2635 2636 0
-234 -2459 2637 0
234 -2637 0
2459 -2637 0
-2407 -2637 -2638 0
2407 2637 -2638 0
2407 -2637 2638 0
-2407 2637 2638 0
-2638 -2636 -2639 0
2638 2636 -2639 0
2638 -2636 2639 0
-2638 2636 2639 0
-2638 -2636 2640 0
2638 -2640 0
2636 -2640 0
-2407 -2637 2641 0
2407 -2641 0
2637 -2641 0
2640 2641 -2642 0
-2640 2642 0
-2641 2642 0
-242 -2459 2643 0
242 -2643 0
2459 -2643 0
-2413 -2643 -2644 0
2413 2643 -2644 0
2413 -2643 2644 0
-2413 2643 2644 0
-2644 -2642 -2645 0
2644 2642 -2645 0
2644 -2642 2645 0
-2644 2642 2645 0
-2644 -2642 2646 0
2644 -2646 0
2642 -2646 0
-2413 -2643 2647 0
2413 -2647 0
2643 -2647 0
2646 2647 -2648 0
-2646 2648 0
-2647 2648 0
-250 -2459 2649 0
250 -2649 0
2459 -2649 0
-2419 -2649 -2650 0
2419 2649 -2650 0
2419 -2649 2650 0
-2419 2649 2650 0
-2650 -2648 -2651 0
2650 2648 -2651 0
2650 -2648 2651 0
-2650 2648 2651 0
-2650 -2648 2652 0
2650 -2652 0
2648 -2652 0
-2419 -2649 2653 0
2419 -2653 0
2649 -2653 0
2652 2653 -2654 0
-2652 2654 0
-2653 2654 0
-258 -2459 2655 0
258 -2655 0
2459 -2655 0
-2425 -2655 -2656 0
2425 2655 -2656 0
2425 -2655 2656 0
-2425 2655 2656 0
-2656 -2654 -2657 0
2656 2654 -2657 0
2656 -2654 2657 0
-2656 2654 2657 0
-2656 -2654 2658 0
2656 -2658 0
2654 -2658 0
-2425 -2655 2659 0
2425 -2659 0
2655 -2659 0
2658 2659 -2660 0
-2658 2660 0
-2659 2660 0
-266 -2459 2661 0
266 -2661 0
2459 -2661 0
-2431 -2661 -2662 0
2431 2661 -2662 0
2431 -2661 2662 0
-2431 2661 2662 0
-2662 -2660 -2663 0
2662 2660 -2663 0
2662 -2660 2663 0
-2662 2660 2663 0
-2662 -2660 2664 0
2662 -2664 0
2660 -2664 0
-2431 -2661 2665 0
2431 -2665 0
2661 -2665 0
2664 2665 -2666 0
-2664 2666 0
-2665 2666 0
-274 -2459 2667 0
274 -2667 0
2459 -2667 0
-2437 -2667 -2668 0
2437 2667 -2668 0
2437 -2667 2668 0
-2437 2667 2668 0
-2668 -2666 -2669 0
2668 2666 -2669 0
2668 -2666 2669 0
-2668 2666 2669 0
-2668 -2666 2670 0
2668 -2670 0
2666 -2670 0
-2437 -2667 2671 0
2437 -2671 0
2667 -2671 0
2670 2671 -2672 0
-2670 2672 0
-2671 2672 0
-282 -2459 2673 0
282 -2673 0
2459 -2673 0
-2443 -2673 -2674 0
2443 2673 -2674 0
2443 -2673 2674 0
-2443 2673 2674 0
-2674 -2672 -2675 0
2674 2672 -2675 0
2674 -2672 2675 0
-2674 2672 2675 0
-2674 -2672 2676 0
2674 -2676 0
2672 -2676 0
-2443 -2673 2677 0
2443 -2677 0
2673 -2677 0
2676 2677 -2678 0
-2676 2678 0
-2677 2678 0
-290 -2459 2679 0
290 -2679 0
2459 -2679 0
-2449 -2679 -2680 0
2449 2679 -2680 0
2449 -2679 2680 0
-2449 2679 2680 0
-2680 -2678 -2681 0
2680 2678 -2681 0
2680 -2678 2681 0
-2680 2678 2681 0
-2680 -2678 2682 0
2680 -2682 0
2678 -2682 0
-2449 -2679 2683 0
2449 -2683 0
2679 -2683 0
2682 2683 -2684 0
-2682 2684 0
-2683 2684 0
-298 -2459 2685 0
298 -2685 0
2459 -2685 0
-2455 -2685 -2686 0
2455 2685 -2686 0
2455 -2685 2686 0
-2455 2685 2686 0
-2686 -2684 -2687 0
2686 2684 -2687 0
2686 -2684 2687 0
-2686 2684 2687 0
-2686 -2684 2688 0
2686 -2688 0
2684 -2688 0
-2455 -2685 2689 0
2455 -2689 0
2685 -2689 0
2688 2689 -2690 0
-2688 2690 0
-2689 2690 0
-306 -2459 2691 0
306 -2691 0
2459 -2691 0
-2458 -2691 -2692 0
2458 2691 -2692 0
2458 -2691 2692 0
-2458 2691 2692 0
-2692 -2690 -2693 0
2692 2690 -2693 0
2692 -2690 2693 0
-2692 2690 2693 0
-2692 -2690 2694 0
2692 -2694 0
2690 -2694 0
-2458 -2691 2695 0
2458 -2695 0
2691 -2695 0
2694 2695 -2696 0
-2694 2696 0
-2695 2696 0
-1 -2697 2698 0
1 -2698 0
2697 -2698 0
-2465 -2698 -2699 0
2465 2698 -2699 0
2465 -2698 2699 0
-2465 2698 2699 0
-2465 -2698 2700 0
2465 -2700 0
2698 -2700 0
-4 -2697 2701 0
4 -2701 0
2697 -2701 0
-2471 -2701 -2702 0
2471 2701 -2702 0
2471 -2701 2702 0
-2471 2701 2702 0
-2702 -2700 -2703 0
2702 2700 -2703 0
2702 -2700 2703 0
-2702 2700 2703 0
-2702 -2700 2704 0
2702 -2704 0
2700 -2704 0
-2471 -2701 2705 0
2471 -2705 0
2701 -2705 0
2704 2705 -2706 0
-2704 2706 0
-2705 2706 0
-10 -2697 2707 0
10 -2707 0
2697 -2707 0
-2477 -2707 -2708 0
2477 2707 -2708 0
2477 -2707 2708 0
-2477 2707 2708 0
-2708 -2706 -2709 0
2708 2706 -2709 0
2708 -2706 2709 0
-2708 2706 2709 0
-2708 -2706 2710 0
2708 -2710 0
2706 -2710 0
-2477 -2707 2711 0
2477 -2711 0
2707 -2711 0
2710 2711 -2712 0
-2710 2712 0
-2711 2712 0
-18 -2697 2713 0
18 -2713 0
2697 -2713 0
-2483 -2713 -2714 0
2483 2713 -2714 0
2483 -2713 2714 0
-2483 2713 2714 0
-2714 -2712 -2715 0
2714 2712 -2715 0
2714 -2712 2715 0
-2714 2712 2715 0
-2714 -2712 2716 0
2714 -2716 0
2712 -2716 0
-2483 -2713 2717 0
2483 -2717 0
2713 -2717 0
2716 2717 -2718 0
-2716 2718 0
-2717 2718 0
-26 -2697 2719 0
26 -2719 0
2697 -2719 0
-2489 -2719 -2720 0
2489 2719 -2720 0
2489 -2719 2720 0
-2489 2719 2720 0
-2720 -2718 -2721 0
2720 2718 -2721 0
2720 -2718 2721 0
-2720 2718 2721 0
-2720 -2718 2722 0
2720 -2722 0
2718 -2722 0
-2489 -2719 2723 0
2489 -2723 0
2719 -2723 0
2722 2723 -2724 0
-2722 2724 0
-2723 2724 0
-34 -2697 2725 0
34 -2725 0
2697 -2725 0
-2495 -2725 -2726 0
2495 2725 -2726 0
2495 -2725 2726 0
-2495 2725 2726 0
-2726 -2724 -2727 0
2726 2724 -2727 0
2726 -2724 2727 0
-2726 2724 2727 0
-2726 -2724 2728 0
2726 -2728 0
2724 -2728 0
-2495 -2725 2729 0
2495 -2729 0
2725 -2729 0
2728 2729 -2730 0
-2728 2730 0
-2729 2730 0
-42 -2697 2731 0
42 -2731 0
2697 -2731 0
-2501 -2731 -2732 0
2501 2731 -2732 0
2501 -2731 2732 0
-2501 2731 2732 0
-2732 -2730 -2733 0
2732 2730 -2733 0
2732 -2730 2733 0
-2732 2730 2733 0
-2732 -2730 2734 0
2732 -2734 0
2730 -2734 0
-2501 -2731 2735 0
2501 -2735 0
2731 -2735 0
2734 2735 -2736 0
-2734 2736 0
-2735 2736 0
-50 -2697 2737 0
50 -2737 0
2697 -2737 0
-2507 -2737 -2738 0
2507 2737 -2738 0
2507 -2737 2738 0
-2507 2737 2738 0
-2738 -2736 -2739 0
2738 2736 -2739 0
2738 -2736 2739 0
-2738 2736 2739 0
-2738 -2736 2740 0
2738 -2740 0
2736 -2740 0
-2507 -2737 2741 0
2507 -2741 0
2737 -2741 0
2740 2741 -2742 0
-2740 2742 0
-2741 2742 0
-58 -2697 2743 0
58 -2743 0
2697 -2743 0
-2513 -2743 -2744 0
2513 2743 -2744 0
2513 -2743 2744 0
-2513 2743 2744 0
-2744 -2742 -2745 0
2744 2742 -2745 0
2744 -2742 2745 0
-2744 2742 2745 0
-2744 -2742 2746 0
2744 -2746 0
2742 -2746 0
-2513 -2743 2747 0
2513 -2747 0
2743 -2747 0
2746 2747 -2748 0
-2746 2748 0
-2747 2748 0
-66 -2697 2749 0
66 -2749 0
2697 -2749 0
-2519 -2749 -2750 0
2519 2749 -2750 0
2519 -2749 2750 0
-2519 2749 2750 0
-2750 -2748 -2751 0
2750 2748 -2751 0
2750 -2748 2751 0
-2750 2748 2751 0
-2750 -2748 2752 0
2750 -2752 0
2748 -2752 0
-2519 -2749 2753 0
2519 -2753 0
2749 -2753 0
2752 2753 -2754 0
-2752 2754 0
-2753 2754 0
-74 -2697 2755 0
74 -2755 0
2697 -2755 0
-2525 -2755 -2756 0
2525 2755 -2756 0
2525 -2755 2756 0
-2525 2755 2756 0
-2756 -2754 -2757 0
2756 2754 -2757 0
2756 -2754 2757 0
-2756 2754 2757 0
-2756 -2754 2758 0
2756 -2758 0
2754 -2758 0
-2525 -2755 2759 0
2525 -2759 0
2755 -2759 0
2758 2759 -2760 0
-2758 2760 0
-2759 2760 0
-82 -2697 2761 0
82 -2761 0
2697 -2761 0
-2531 -2761 -2762 0
2531 2761 -2762 0
2531 -2761 2762 0
-2531 2761 2762 0
-2762 -2760 -2763 0
2762 2760 -2763 0
2762 -2760 2763 0
-2762 2760 2763 0
-2762 -2760 2764 0
2762 -2764 0
2760 -2764 0
-2531 -2761 2765 0
2531 -2765 0
2761 -2765 0
2764 2765 -2766 0
-2764 2766 0
-2765 2766 0
-90 -2697 2767 0
90 -2767 0
2697 -2767 0
-2537 -2767 -2768 0
2537 2767 -2768 0
2537 -2767 2768 0
-2537 2767 2768 0
-2768 -2766 -2769 0
2768 2766 -2769 0
2768 -2766 2769 0
-2768 2766 2769 0
-2768 -2766 2770 0
2768 -2770 0
2766 -2770 0
-2537 -2767 2771 0
2537 -2771 0
2767 -2771 0
2770 2771 -2772 0
-2770 2772 0
-2771 2772 0
-98 -2697 2773 0
98 -2773 0
2697 -2773 0
-2543 -2773 -2774 0
2543 2773 -2774 0
2543 -2773 2774 0
-2543 2773 2774 0
-2774 -2772 -2775 0
2774 2772 -2775 0
2774 -2772 2775 0
-2774 2772 2775 0
-2774 -2772 2776 0
2774 -2776 0
2772 -2776 0
-2543 -2773 2777 0
2543 -2777 0
2773 -2777 0
2776 2777 -2778 0
-2776 2778 0
-2777 2778 0
-106 -2697 2779 0
106 -2779 0
2697 -2779 0
-2549 -2779 -2780 0
2549 2779 -2780 0
2549 -2779 2780 0
-2549 2779 2780 0
-2780 -2778 -2781 0
2780 2778 -2781 0
2780 -2778 2781 0
-2780 2778 2781 0
-2780 -2778 2782 0
2780 -2782 0
2778 -2782 0
-2549 -2779 2783 0
2549 -2783 0
2779 -2783 0
2782 2783 -2784 0
-2782 2784 0
-2783 2784 0
-114 -2697 2785 0
114 -2785 0
2697 -2785 0
-2555 -2785 -2786 0
2555 2785 -2786 0
2555 -2785 2786 0
-2555 2785 2786 0
-2786 -2784 -2787 0
2786 2784 -2787 0
2786 -2784 2787 0
-2786 2784 2787 0
-2786 -2784 2788 0
2786 -2788 0
2784 -2788 0
-2555 -2785 2789 0
2555 -2789 0
2785 -2789 0
2788 2789 -2790 0
-2788 2790 0
-2789 2790 0
-122 -2697 2791 0
122 -2791 0
2697 -2791 0
-2561 -2791 -2792 0
2561 2791 -2792 0
2561 -2791 2792 0
-2561 2791 2792 0
-2792 -2790 -2793 0
2792 2790 -2793 0
2792 -2790 2793 0
-2792 2790 2793 0
-2792 -2790 2794 0
2792 -2794 0
2790 -2794 0
-2561 -2791 2795 0
2561 -2795 0
2791 -2795 0
2794 2795 -2796 0
-2794 2796 0
-2795 2796 0
-130 -2697 2797 0
130 -2797 0
2697 -2797 0
-2567 -2797 -2798 0
2567 2797 -2798 0
2567 -2797 2798 0
-2567 2797 2798 0
-2798 -2796 -2799 0
2798 2796 -2799 0
2798 -2796 2799 0
-2798 2796 2799 0
-2798 -2796 2800 0
2798 -2800 0
2796 -2800 0
-2567 -2797 2801 0
2567 -2801 0
2797 -2801 0
2800 2801 -2802 0
-2800 2802 0
-2801 2802 0
-138 -2697 2803 0
138 -2803 0
2697 -2803 0
-2573 -2803 -2804 0
2573 2803 -2804 0
2573 -2803 2804 0
-2573 2803 2804 0
-2804 -2802 -2805 0
2804 2802 -2805 0
2804 -2802 2805 0
-2804 2802 2805 0
-2804 -2802 2806 0
2804 -2806 0
2802 -2806 0
-2573 -2803 2807 0
2573 -2807 0
2803 -2807 0
2806 2807 -2808 0
-2806 2808 0
-2807 2808 0
-146 -2697 2809 0
146 -2809 0
2697 -2809 0
-2579 -2809 -2810 0
2579 2809 -2810 0
2579 -2809 2810 0
-2579 2809 2810 0
-2810 -2808 -2811 0
2810 2808 -2811 0
2810 -2808 2811 0
-2810 2808 2811 0
-2810 -2808 2812 0
2810 -2812 0
2808 -2812 0
-2579 -2809 2813 0
2579 -2813 0
2809 -2813 0
2812 2813 -2814 0
-2812 2814 0
-2813 2814 0
-154 -2697 2815 0
154 -2815 0
2697 -2815 0
-2585 -2815 -2816 0
2585 2815 -2816 0
2585 -2815 2816 0
-2585 2815 2816 0
-2816 -2814 -2817 0
2816 2814 -2817 0
2816 -2814 2817 0
-2816 2814 2817 0
-2816 -2814 2818 0
2816 -2818 0
2814 -2818 0
-2585 -2815 2819 0
2585 -2819 0
2815 -2819 0
2818 2819 -2820 0
-2818 2820 0
-2819 2820 0
-162 -2697 2821 0
162 -2821 0
2697 -2821 0
-2591 -2821 -2822 0
2591 2821 -2822 0
2591 -2821 2822 0
-2591 2821 2822 0
-2822 -2820 -2823 0
2822 2820 -2823 0
2822 -2820 2823 0
-2822 2820 2823 0
-2822 -2820 2824 0
2822 -2824 0
2820 -2824 0
-2591 -2821 2825 0
2591 -2825 0
2821 -2825 0
2824 2825 -2826 0
-2824 2826 0
-2825 2826 0
-170 -2697 2827 0
170 -2827 0
2697 -2827 0
-2597 -2827 -2828 0
2597 2827 -2828 0
2597 -2827 2828 0
-2597 2827 2828 0
-2828 -2826 -2829 0
2828 2826 -2829 0
2828 -2826 2829 0
-2828 2826 2829 0
-2828 -2826 2830 0
2828 -2830 0
2826 -2830 0
-2597 -2827 2831 0
2597 -2831 0
2827 -2831 0
2830 2831 -2832 0
-2830 2832 0
-2831 2832 0
-178 -2697 2833 0
178 -2833 0
2697 -2833 0
-2603 -2833 -2834 0
2603 2833 -2834 0
2603 -2833 2834 0
-2603 2833 2834 0
-2834 -2832 -2835 0
2834 2832 -2835 0
2834 -2832 2835 0
-2834 2832 2835 0
-2834 -2832 2836 0
2834 -2836 0
2832 -2836 0
-2603 -2833 2837 0
2603 -2837 0
2833 -2837 0
2836 2837 -2838 0
-2836 2838 0
-2837 2838 0
-186 -2697 2839 0
186 -2839 0
2697 -2839 0
-2609 -2839 -2840 0
2609 2839 -2840 0
2609 -2839 2840 0
-2609 2839 2840 0
-2840 -2838 -2841 0
2840 2838 -2841 0
2840 -2838 2841 0
-2840 2838 2841 0
-2840 -2838 2842 0
2840 -2842 0
2838 -2842 0
-2609 -2839 2843 0
2609 -2843 0
2839 -2843 0
2842 2843 -2844 0
-2842 2844 0
-2843 2844 0
-194 -2697 2845 0
194 -2845 0
2697 -2845 0
-2615 -2845 -2846 0
2615 2845 -2846 0
2615 -2845 2846 0
-2615 2845 2846 0
-2846 -2844 -2847 0
2846 2844 -2847 0
2846 -2844 2847 0
-2846 2844 2847 0
-2846 -2844 2848 0
2846 -2848 0
2844 -2848 0
-2615 -2845 2849 0
2615 -2849 0
2845 -2849 0
2848 2849 -2850 0
-2848 2850 0
-2849 2850 0
-202 -2697 2851 0
202 -2851 0
2697 -2851 0
-2621 -2851 -2852 0
2621 2851 -2852 0
2621 -2851 2852 0
-2621 2851 2852 0
-2852 -2850 -2853 0
2852 2850 -2853 0
2852 -2850 2853 0
-2852 2850 2853 0
-2852 -2850 2854 0
2852 -2854 0
2850 -2854 0
-2621 -2851 2855 0
2621 -2855 0
2851 -2855 0
2854 2855 -2856 0
-2854 2856 0
-2855 2856 0
-210 -2697 2857 0
210 -2857 0
2697 -2857 0
-2627 -2857 -2858 0
2627 2857 -2858 0
2627 -2857 2858 0
-2627 2857 2858 0
-2858 -2856 -2859 0
2858 2856 -2859 0
2858 -2856 2859 0
-2858 2856 2859 0
-2858 -2856 2860 0
2858 -2860 0
2856 -2860 0
-2627 -2857 2861 0
2627 -2861 0
2857 -2861 0
2860 2861 -2862 0
-2860 2862 0
-2861 2862 0
-218 -2697 2863 0
218 -2863 0
2697 -2863 0
-2633 -2863 -2864 0
2633 2863 -2864 0
2633 -2863 2864 0
-2633 2863 2864 0
-2864 -2862 -2865 0
2864 2862 -2865 0
2864 -2862 2865 0
-2864 2862 2865 0
-2864 -2862 2866 0
2864 -2866 0
2862 -2866 0
-2633 -2863 2867 0
2633 -2867 0
2863 -2867 0
2866 2867 -2868 0
-2866 2868 0
-2867 2868 0
-226 -2697 2869 0
226 -2869 0
2697 -2869 0
-2639 -2869 -2870 0
2639 2869 -2870 0
2639 -2869 2870 0
-2639 2869 2870 0
-2870 -2868 -2871 0
2870 2868 -2871 0
2870 -2868 2871 0
-2870 2868 2871 0
-2870 -2868 2872 0
2870 -2872 0
2868 -2872 0
-2639 -2869 2873 0
2639 -2873 0
2869 -2873 0
2872 2873 -2874 0
-2872 2874 0
-2873 2874 0
-234 -2697 2875 0
234 -2875 0
2697 -2875 0
-2645 -2875 -2876 0
2645 2875 -2876 0
2645 -2875 2876 0
-2645 2875 2876 0
-2876 -2874 -2877 0
2876 2874 -2877 0
2876 -2874 2877 0
-2876 2874 2877 0
-2876 -2874 2878 0
2876 -2878 0
2874 -2878 0
-2645 -2875 2879 0
2645 -2879 0
2875 -2879 0
2878 2879 -2880 0
-2878 2880 0
-2879 2880 0
-242 -2697 2881 0
242 -2881 0
2697 -2881 0
-2651 -2881 -2882 0
2651 2881 -2882 0
2651 -2881 2882 0
-2651 2881 2882 0
-2882 -2880 -2883 0
2882 2880 -2883 0
2882 -2880 2883 0
-2882 2880 2883 0
-2882 -2880 2884 0
2882 -2884 0
2880 -2884 0
-2651 -2881 2885 0
2651 -2885 0
2881 -2885 0
2884 2885 -2886 0
-2884 2886 0
-2885 2886 0
-250 -2697 2887 0
250 -2887 0
2697 -2887 0
-2657 -2887 -2888 0
2657 2887 -2888 0
2657 -2887 2888 0
-2657 2887 2888 0
-2888 -2886 -2889 0
2888 2886 -2889 0
2888 -2886 2889 0
-2888 2886 2889 0
-2888 -2886 2890 0
2888 -2890 0
2886 -2890 0
-2657 -2887 2891 0
2657 -2891 0
2887 -2891 0
2890 2891 -2892 0
-2890 2892 0
-2891 2892 0
-258 -2697 2893 0
258 -2893 0
2697 -2893 0
-2663 -2893 -2894 0
2663 2893 -2894 0
2663 -2893 2894 0
-2663 2893 2894 0
-2894 -2892 -2895 0
2894 2892 -2895 0
2894 -2892 2895 0
-2894 2892 2895 0
-2894 -2892 2896 0
2894 -2896 0
2892 -2896 0
-2663 -2893 2897 0
2663 -2897 0
2893 -2897 0
2896 2897 -2898 0
-2896 2898 0
-2897 2898 0
-266 -2697 2899 0
266 -2899 0
2697 -2899 0
-2669 -2899 -2900 0
2669 2899 -2900 0
2669 -2899 2900 0
-2669 2899 2900 0
-2900 -2898 -2901 0
2900 2898 -2901 0
2900 -2898 2901 0
-2900 2898 2901 0
-2900 -2898 2902 0
2900 -2902 0
2898 -2902 0
-2669 -2899 2903 0
2669 -2903 0
2899 -2903 0
2902 2903 -2904 0
-2902 2904 0
-2903 2904 0
-274 -2697 2905 0
274 -2905 0
2697 -2905 0
-2675 -2905 -2906 0
2675 2905 -2906 0
2675 -2905 2906 0
-2675 2905 2906 0
-2906 -2904 -2907 0
2906 2904 -2907 0
2906 -2904 2907 0
-2906 2904 2907 0
-2906 -2904 2908 0
2906 -2908 0
2904 -2908 0
-2675 -2905 2909 0
2675 -2909 0
2905 -2909 0
2908 2909 -2910 0
-2908 2910 0
-2909 2910 0
-282 -2697 2911 0
282 -2911 0
2697 -2911 0
-2681 -2911 -2912 0
2681 2911 -2912 0
2681 -2911 2912 0
-2681 2911 2912 0
-2912 -2910 -2913 0
2912 2910 -2913 0
2912 -2910 2913 0
-2912 2910 2913 0
-2912 -2910 2914 0
2912 -2914 0
2910 -2914 0
-2681 -2911 2915 0
2681 -2915 0
2911 -2915 0
2914 2915 -2916 0
-2914 2916 0
-2915 2916 0
-290 -2697 2917 0
290 -2917 0
2697 -2917 0
-2687 -2917 -2918 0
2687 2917 -2918 0
2687 -2917 2918 0
-2687 2917 2918 0
-2918 -2916 -2919 0
2918 2916 -2919 0
2918 -2916 2919 0
-2918 2916 2919 0
-2918 -2916 2920 0
2918 -2920 0
2916 -2920 0
-2687 -2917 2921 0
2687 -2921 0
2917 -2921 0
2920 2921 -2922 0
-2920 2922 0
-2921 2922 0
-298 -2697 2923 0
298 -2923 0
2697 -2923 0
-2693 -2923 -2924 0
2693 2923 -2924 0
2693 -2923 2924 0
-2693 2923 2924 0
-2924 -2922 -2925 0
2924 2922 -2925 0
2924 -2922 2925 0
-2924 2922 2925 0
-2924 -2922 2926 0
2924 -2926 0
2922 -2926 0
-2693 -2923 2927 0
2693 -2927 0
2923 -2927 0
2926 2927 -2928 0
-2926 2928 0
-2927 2928 0
-306 -2697 2929 0
306 -2929 0
2697 -2929 0
-2696 -2929 -2930 0
2696 2929 -2930 0
2696 -2929 2930 0
-2696 2929 2930 0
-2930 -2928 -2931 0
2930 2928 -2931 0
2930 -2928 2931 0
-2930 2928 2931 0
-2930 -2928 2932 0
2930 -2932 0
2928 -2932 0
-2696 -2929 2933 0
2696 -2933 0
2929 -2933 0
2932 2933 -2934 0
-2932 2934 0
-2933 2934 0
-1 -2935 2936 0
1 -2936 0
2935 -2936 0
-2703 -2936 -2937 0
2703 2936 -2937 0
2703 -2936 2937 0
-2703 2936 2937 0
-2703 -2936 2938 0
2703 -2938 0
2936 -2938 0
-4 -2935 2939 0
4 -2939 0
2935 -2939 0
-2709 -2939 -2940 0
2709 2939 -2940 0
2709 -2939 2940 0
-2709 2939 2940 0
-2940 -2938 -2941 0
2940 2938 -2941 0
2940 -2938 2941 0
-2940 2938 2941 0
-2940 -2938 2942 0
2940 -2942 0
2938 -2942 0
-2709 -2939 2943 0
2709 -2943 0
2939 -2943 0
2942 2943 -2944 0
-2942 2944 0
-2943 2944 0
-10 -2935 2945 0
10 -2945 0
2935 -2945 0
-2715 -2945 -2946 0
2715 2945 -2946 0
2715 -2945 2946 0
-2715 2945 2946 0
-2946 -2944 -2947 0
2946 2944 -2947 0
2946 -2944 2947 0
-2946 2944 2947 0
-2946 -2944 2948 0
2946 -2948 0
2944 -2948 0
-2715 -2945 2949 0
2715 -2949 0
2945 -2949 0
2948 2949 -2950 0
-2948 2950 0
-2949 2950 0
-18 -2935 2951 0
18 -2951 0
2935 -2951 0
-2721 -2951 -2952 0
2721 2951 -2952 0
2721 -2951 2952 0
-2721 2951 2952 0
-2952 -2950 -2953 0
2952 2950 -2953 0
2952 -2950 2953 0
-2952 2950 2953 0
-2952 -2950 2954 0
2952 -2954 0
2950 -2954 0
-2721 -2951 2955 0
2721 -2955 0
2951 -2955 0
2954 2955 -2956 0
-2954 2956 0
-2955 2956 0
-26 -2935 2957 0
26 -2957 0
2935 -2957 0
-2727 -2957 -2958 0
2727 2957 -2958 0
2727 -2957 2958 0
-2727 2957 2958 0
-2958 -2956 -2959 0
2958 2956 -2959 0
2958 -2956 2959 0
-2958 2956 2959 0
-2958 -2956 2960 0
2958 -2960 0
2956 -2960 0
-2727 -2957 2961 0
2727 -2961 0
2957 -2961 0
2960 2961 -2962 0
-2960 2962 0
-2961 2962 0
-34 -2935 2963 0
34 -2963 0
2935 -2963 0
-2733 -2963 -2964 0
2733 2963 -2964 0
2733 -2963 2964 0
-2733 2963 2964 0
-2964 -2962 -2965 0
2964 2962 -2965 0
2964 -2962 2965 0
-2964 2962 2965 0
-2964 -2962 2966 0
2964 -2966 0
2962 -2966 0
-2733 -2963 2967 0
2733 -2967 0
2963 -2967 0
2966 2967 -2968 0
-2966 2968 0
-2967 2968 0
-42 -2935 2969 0
42 -2969 0
2935 -2969 0
-2739 -2969 -2970 0
2739 2969 -2970 0
2739 -2969 2970 0
-2739 2969 2970 0
-2970 -2968 -2971 0
2970 2968 -2971 0
2970 -2968 2971 0
-2970 2968 2971 0
-2970 -2968 2972 0
2970 -2972 0
2968 -2972 0
-2739 -2969 2973 0
2739 -2973 0
2969 -2973 0
2972 2973 -2974 0
-2972 2974 0
-2973 2974 0
-50 -2935 2975 0
50 -2975 0
2935 -2975 0
-2745 -2975 -2976 0
2745 2975 -2976 0
2745 -2975 2976 0
-2745 2975 2976 0
-2976 -2974 -2977 0
2976 2974 -2977 0
2976 -2974 2977 0
-2976 2974 2977 0
-2976 -2974 2978 0
2976 -2978 0
2974 -2978 0
-2745 -2975 2979 0
2745 -2979 0
2975 -2979 0
2978 2979 -2980 0
-2978 2980 0
-2979 2980 0
-58 -2935 2981 0
58 -2981 0
2935 -2981 0
-2751 -2981 -2982 0
2751 2981 -2982 0
2751 -2981 2982 0
-2751 2981 2982 0
-2982 -2980 -2983 0
2982 2980 -2983 0
2982 -2980 2983 0
-2982 2980 2983 0
-2982 -2980 2984 0
2982 -2984 0
2980 -2984 0
-2751 -2981 2985 0
2751 -2985 0
2981 -2985 0
2984 2985 -2986 0
-2984 2986 0
-2985 2986 0
-66 -2935 2987 0
66 -2987 0
2935 -2987 0
-2757 -2987 -2988 0
2757 2987 -2988 0
2757 -2987 2988 0
-2757 2987 2988 0
-2988 -2986 -2989 0
2988 2986 -2989 0
2988 -2986 2989 0
-2988 2986 2989 0
-2988 -2986 2990 0
2988 -2990 0
2986 -2990 0
-2757 -2987 2991 0
2757 -2991 0
2987 -2991 0
2990 2991 -2992 0
-2990 2992 0
-2991 2992 0
-74 -2935 2993 0
74 -2993 0
2935 -2993 0
-2763 -2993 -2994 0
2763 2993 -2994 0
2763 -2993 2994 0
-2763 2993 2994 0
-2994 -2992 -2995 0
2994 2992 -2995 0
2994 -2992 2995 0
-2994 2992 2995 0
-2994 -2992 2996 0
2994 -2996 0
2992 -2996 0
-2763 -2993 2997 0
2763 -2997 0
2993 -2997 0
2996 2997 -2998 0
-2996 2998 0
-2997 2998 0
-82 -2935 2999 0
82 -2999 0
2935 -2999 0
-2769 -2999 -3000 0
2769 2999 -3000 0
2769 -2999 3000 0
-2769 2999 3000 0
-3000 -2998 -3001 0
3000 2998 -3001 0
3000 -2998 3001 0
-3000 2998 3001 0
-3000 -2998 3002 0
3000 -3002 0
2998 -3002 0
-2769 -2999 3003 0
2769 -3003 0
2999 -3003 0
3002 3003 -3004 0
-3002 3004 0
-3003 3004 0
-90 -2935 3005 0
90 -3005 0
2935 -3005 0
-2775 -3005 -3006 0
2775 3005 -3006 0
2775 -3005 3006 0
-2775 3005 3006 0
-3006 -3004 -3007 0
3006 3004 -3007 0
3006 -3004 3007 0
-3006 3004 3007 0
-3006 -3004 3008 0
3006 -3008 0
3004 -3008 0
-2775 -3005 3009 0
2775 -3009 0
3005 -3009 0
3008 3009 -3010 0
-3008 3010 0
-3009 3010 0
-98 -2935 3011 0
98 -3011 0
2935 -3011 0
-2781 -3011 -3012 0
2781 3011 -3012 0
2781 -3011 3012 0
-2781 3011 3012 0
-3012 -3010 -3013 0
3012 3010 -3013 0
3012 -3010 3013 0
-3012 3010 3013 0
-3012 -3010 3014 0
3012 -3014 0
3010 -3014 0
-2781 -3011 3015 0
2781 -3015 0
3011 -3015 0
3014 3015 -3016 0
-3014 3016 0
-3015 3016 0
-106 -2935 3017 0
106 -3017 0
2935 -3017 0
-2787 -3017 -3018 0
2787 3017 -3018 0
2787 -3017 3018 0
-2787 3017 3018 0
-3018 -3016 -3019 0
3018 3016 -3019 0
3018 -3016 3019 0
-3018 3016 3019 0
-3018 -3016 3020 0
3018 -3020 0
3016 -3020 0
-2787 -3017 3021 0
2787 -3021 0
3017 -3021 0
3020 3021 -3022 0
-3020 3022 0
-3021 3022 0
-114 -2935 3023 0
114 -3023 0
2935 -3023 0
-2793 -3023 -3024 0
2793 3023 -3024 0
2793 -3023 3024 0
-2793 3023 3024 0
-3024 -3022 -3025 0
3024 3022 -3025 0
3024 -3022 3025 0
-3024 3022 3025 0
-3024 -3022 3026 0
3024 -3026 0
3022 -3026 0
-2793 -3023 3027 0
2793 -3027 0
3023 -3027 0
3026 3027 -3028 0
-3026 3028 0
-3027 3028 0
-122 -2935 3029 0
122 -3029 0
2935 -3029 0
-2799 -3029 -3030 0
2799 3029 -3030 0
2799 -3029 3030 0
-2799 3029 3030 0
-3030 -3028 -3031 0
3030 3028 -3031 0
3030 -3028 3031 0
-3030 3028 3031 0
-3030 -3028 3032 0
3030 -3032 0
3028 -3032 0
-2799 -3029 3033 0
2799 -3033 0
3029 -3033 0
3032 3033 -3034 0
-3032 3034 0
-3033 3034 0
-130 -2935 3035 0
130 -3035 0
2935 -3035 0
-2805 -3035 -3036 0
2805 3035 -3036 0
2805 -3035 3036 0
-2805 3035 3036 0
-3036 -3034 -3037 0
3036 3034 -3037 0
3036 -3034 3037 0
-3036 3034 3037 0
-3036 -3034 3038 0
3036 -3038 0
3034 -3038 0
-2805 -3035 3039 0
2805 -3039 0
3035 -3039 0
3038 3039 -3040 0
-3038 3040 0
-3039 3040 0
-138 -2935 3041 0
138 -3041 0
2935 -3041 0
-2811 -3041 -3042 0
2811 3041 -3042 0
2811 -3041 3042 0
-2811 3041 3042 0
-3042 -3040 -3043 0
3042 3040 -3043 0
3042 -3040 3043 0
-3042 3040 3043 0
-3042 -3040 3044 0
3042 -3044 0
3040 -3044 0
-2811 -3041 3045 0
2811 -3045 0
3041 -3045 0
3044 3045 -3046 0
-3044 3046 0
-3045 3046 0
-146 -2935 3047 0
146 -3047 0
2935 -3047 0
-2817 -3047 -3048 0
2817 3047 -3048 0
2817 -3047 3048 0
-2817 3047 3048 0
-3048 -3046 -3049 0
3048 3046 -3049 0
3048 -3046 3049 0
-3048 3046 3049 0
-3048 -3046 3050 0
3048 -3050 0
3046 -3050 0
-2817 -3047 3051 0
2817 -3051 0
3047 -3051 0
3050 3051 -3052 0
-3050 3052 0
-3051 3052 0
-154 -2935 3053 0
154 -3053 0
2935 -3053 0
-2823 -3053 -3054 0
2823 3053 -3054 0
2823 -3053 3054 0
-2823 3053 3054 0
-3054 -3052 -3055 0
3054 3052 -3055 0
3054 -3052 3055 0
-3054 3052 3055 0
-3054 -3052 3056 0
3054 -3056 0
3052 -3056 0
-2823 -3053 3057 0
2823 -3057 0
3053 -3057 0
3056 3057 -3058 0
-3056 3058 0
-3057 3058 0
-162 -2935 3059 0
162 -3059 0
2935 -3059 0
-2829 -3059 -3060 0
2829 3059 -3060 0
2829 -3059 3060 0
-2829 3059 3060 0
-3060 -3058 -3061 0
3060 3058 -3061 0
3060 -3058 3061 0
-3060 3058 3061 0
-3060 -3058 3062 0
3060 -3062 0
3058 -3062 0
-2829 -3059 3063 0
2829 -3063 0
3059 -3063 0
3062 3063 -3064 0
-3062 3064 0
-3063 3064 0
-170 -2935 3065 0
170 -3065 0
2935 -3065 0
-2835 -3065 -3066 0
2835 3065 -3066 0
2835 -3065 3066 0
-2835 3065 3066 0
-3066 -3064 -3067 0
3066 3064 -3067 0
3066 -3064 3067 0
-3066 3064 3067 0
-3066 -3064 3068 0
3066 -3068 0
3064 -3068 0
-2835 -3065 3069 0
2835 -3069 0
3065 -3069 0
3068 3069 -3070 0
-3068 3070 0
-3069 3070 0
-178 -2935 3071 0
178 -3071 0
2935 -3071 0
-2841 -3071 -3072 0
2841 3071 -3072 0
2841 -3071 3072 0
-2841 3071 3072 0
-3072 -3070 -3073 0
3072 3070 -3073 0
3072 -3070 3073 0
-3072 3070 3073 0
-3072 -3070 3074 0
3072 -3074 0
3070 -3074 0
-2841 -3071 3075 0
2841 -3075 0
3071 -3075 0
3074 3075 -3076 0
-3074 3076 0
-3075 3076 0
-186 -2935 3077 0
186 -3077 0
2935 -3077 0
-2847 -3077 -3078 0
2847 3077 -3078 0
2847 -3077 3078 0
-2847 3077 3078 0
-3078 -3076 -3079 0
3078 3076 -3079 0
3078 -3076 3079 0
-3078 3076 3079 0
-3078 -3076 3080 0
3078 -3080 0
3076 -3080 0
-2847 -3077 3081 0
2847 -3081 0
3077 -3081 0
3080 3081 -3082 0
-3080 3082 0
-3081 3082 0
-194 -2935 3083 0
194 -3083 0
2935 -3083 0
-2853 -3083 -3084 0
2853 3083 -3084 0
2853 -3083 3084 0
-2853 3083 3084 0
-3084 -3082 -3085 0
3084 3082 -3085 0
3084 -3082 3085 0
-3084 3082 3085 0
-3084 -3082 3086 0
3084 -3086 0
3082 -3086 0
-2853 -3083 3087 0
2853 -3087 0
3083 -3087 0
3086 3087 -3088 0
-3086 3088 0
-3087 3088 0
-202 -2935 3089 0
202 -3089 0
2935 -3089 0
-2859 -3089 -3090 0
2859 3089 -3090 0
2859 -3089 3090 0
-2859 3089 3090 0
-3090 -3088 -3091 0
3090 3088 -3091 0
3090 -3088 3091 0
-3090 3088 3091 0
-3090 -3088 3092 0
3090 -3092 0
3088 -3092 0
-2859 -3089 3093 0
2859 -3093 0
3089 -3093 0
3092 3093 -3094 0
-3092 3094 0
-3093 3094 0
-210 -2935 3095 0
210 -3095 0
2935 -3095 0
-2865 -3095 -3096 0
2865 3095 -3096 0
2865 -3095 3096 0
-2865 3095 3096 0
-3096 -3094 -3097 0
3096 3094 -3097 0
3096 -3094 3097 0
-3096 3094 3097 0
-3096 -3094 3098 0
3096 -3098 0
3094 -3098 0
-2865 -3095 3099 0
2865 -3099 0
3095 -3099 0
3098 3099 -3100 0
-3098 3100 0
-3099 3100 0
-218 -2935 3101 0
218 -3101 0
2935 -3101 0
-2871 -3101 -3102 0
2871 3101 -3102 0
2871 -3101 3102 0
-2871 3101 3102 0
-3102 -3100 -3103 0
3102 3100 -3103 0
3102 -3100 3103 0
-3102 3100 3103 0
-3102 -3100 3104 0
3102 -3104 0
3100 -3104 0
-2871 -3101 3105 0
2871 -3105 0
3101 -3105 0
3104 3105 -3106 0
-3104 3106 0
-3105 3106 0
-226 -2935 3107 0
226 -3107 0
2935 -3107 0
-2877 -3107 -3108 0
2877 3107 -3108 0
2877 -3107 3108 0
-2877 3107 3108 0
-3108 -3106 -3109 0
3108 3106 -3109 0
3108 -3106 3109 0
-3108 3106 3109 0
-3108 -3106 3110 0
3108 -3110 0
3106 -3110 0
-2877 -3107 3111 0
2877 -3111 0
3107 -3111 0
3110 3111 -3112 0
-3110 3112 0
-3111 3112 0
-234 -2935 3113 0
234 -3113 0
2935 -3113 0
-2883 -3113 -3114 0
2883 3113 -3114 0
2883 -3113 3114 0
-2883 3113 3114 0
-3114 -3112 -3115 0
3114 3112 -3115 0
3114 -3112 3115 0
-3114 3112 3115 0
-3114 -3112 3116 0
3114 -3116 0
3112 -3116 0
-2883 -3113 3117 0
2883 -3117 0
3113 -3117 0
3116 3117 -3118 0
-3116 3118 0
-3117 3118 0
-242 -2935 3119 0
242 -3119 0
2935 -3119 0
-2889 -3119 -3120 0
2889 3119 -3120 0
2889 -3119 3120 0
-2889 3119 3120 0
-3120 -3118 -3121 0
3120 3118 -3121 0
3120 -3118 3121 0
-3120 3118 3121 0
-3120 -3118 3122 0
3120 -3122 0
3118 -3122 0
-2889 -3119 3123 0
2889 -3123 0
3119 -3123 0
3122 3123 -3124 0
-3122 3124 0
-3123 3124 0
-250 -2935 3125 0
250 -3125 0
2935 -3125 0
-2895 -3125 -3126 0
2895 3125 -3126 0
2895 -3125 3126 0
-2895 3125 3126 0
-3126 -3124 -3127 0
3126 3124 -3127 0
3126 -3124 3127 0
-3126 3124 3127 0
-3126 -3124 3128 0
3126 -3128 0
3124 -3128 0
-2895 -3125 3129 0
2895 -3129 0
3125 -3129 0
3128 3129 -3130 0
-3128 3130 0
-3129 3130 0
-258 -2935 3131 0
258 -3131 0
2935 -3131 0
-2901 -3131 -3132 0
2901 3131 -3132 0
2901 -3131 3132 0
-2901 3131 3132 0
-3132 -3130 -3133 0
3132 3130 -3133 0
3132 -3130 3133 0
-3132 3130 3133 0
-3132 -3130 3134 0
3132 -3134 0
3130 -3134 0
-2901 -3131 3135 0
2901 -3135 0
3131 -3135 0
3134 3135 -3136 0
-3134 3136 0
-3135 3136 0
-266 -2935 3137 0
266 -3137 0
2935 -3137 0
-2907 -3137 -3138 0
2907 3137 -3138 0
2907 -3137 3138 0
-2907 3137 3138 0
-3138 -3136 -3139 0
3138 3136 -3139 0
3138 -3136 3139 0
-3138 3136 3139 0
-3138 -3136 3140 0
3138 -3140 0
3136 -3140 0
-2907 -3137 3141 0
2907 -3141 0
3137 -3141 0
3140 3141 -3142 0
-3140 3142 0
-3141 3142 0
-274 -2935 3143 0
274 -3143 0
2935 -3143 0
-2913 -3143 -3144 0
2913 3143 -3144 0
2913 -3143 3144 0
-2913 3143 3144 0
-3144 -3142 -3145 0
3144 3142 -3145 0
3144 -3142 3145 0
-3144 3142 3145 0
-3144 -3142 3146 0
3144 -3146 0
3142 -3146 0
-2913 -3143 3147 0
2913 -3147 0
3143 -3147 0
3146 3147 -3148 0
-3146 3148 0
-3147 3148 0
-282 -2935 3149 0
282 -3149 0
2935 -3149 0
-2919 -3149 -3150 0
2919 3149 -3150 0
2919 -3149 3150 0
-2919 3149 3150 0
-3150 -3148 -3151 0
3150 3148 -3151 0
3150 -3148 3151 0
-3150 3148 3151 0
-3150 -3148 3152 0
3150 -3152 0
3148 -3152 0
-2919 -3149 3153 0
2919 -3153 0
3149 -3153 0
3152 3153 -3154 0
-3152 3154 0
-3153 3154 0
-290 -2935 3155 0
290 -3155 0
2935 -3155 0
-2925 -3155 -3156 0
2925 3155 -3156 0
2925 -3155 3156 0
-2925 3155 3156 0
-3156 -3154 -3157 0
3156 3154 -3157 0
3156 -3154 3157 0
-3156 3154 3157 0
-3156 -3154 3158 0
3156 -3158 0
3154 -3158 0
-2925 -3155 3159 0
2925 -3159 0
3155 -3159 0
3158 3159 -3160 0
-3158 3160 0
-3159 3160 0
-298 -2935 3161 0
298 -3161 0
2935 -3161 0
-2931 -3161 -3162 0
2931 3161 -3162 0
2931 -3161 3162 0
-2931 3161 3162 0
-3162 -3160 -3163 0
3162 3160 -3163 0
3162 -3160 3163 0
-3162 3160 3163 0
-3162 -3160 3164 0
3162 -3164 0
3160 -3164 0
-2931 -3161 3165 0
2931 -3165 0
3161 -3165 0
3164 3165 -3166 0
-3164 3166 0
-3165 3166 0
-306 -2935 3167 0
306 -3167 0
2935 -3167 0
-2934 -3167 -3168 0
2934 3167 -3168 0
2934 -3167 3168 0
-2934 3167 3168 0
-3168 -3166 -3169 0
3168 3166 -3169 0
3168 -3166 3169 0
-3168 3166 3169 0
-3168 -3166 3170 0
3168 -3170 0
3166 -3170 0
-2934 -3167 3171 0
2934 -3171 0
3167 -3171 0
3170 3171 -3172 0
-3170 3172 0
-3171 3172 0
-1 -3173 3174 0
1 -3174 0
3173 -3174 0
-2941 -3174 -3175 0
2941 3174 -3175 0
2941 -3174 3175 0
-2941 3174 3175 0
-2941 -3174 3176 0
2941 -3176 0
3174 -3176 0
-4 -3173 3177 0
4 -3177 0
3173 -3177 0
-2947 -3177 -3178 0
2947 3177 -3178 0
2947 -3177 3178 0
-2947 3177 3178 0
-3178 -3176 -3179 0
3178 3176 -3179 0
3178 -3176 3179 0
-3178 3176 3179 0
-3178 -3176 3180 0
3178 -3180 0
3176 -3180 0
-2947 -3177 3181 0
2947 -3181 0
3177 -3181 0
3180 3181 -3182 0
-3180 3182 0
-3181 3182 0
-10 -3173 3183 0
10 -3183 0
3173 -3183 0
-2953 -3183 -3184 0
2953 3183 -3184 0
2953 -3183 3184 0
-2953 3183 3184 0
-3184 -3182 -3185 0
3184 3182 -3185 0
3184 -3182 3185 0
-3184 3182 3185 0
-3184 -3182 3186 0
3184 -3186 0
3182 -3186 0
-2953 -3183 3187 0
2953 -3187 0
3183 -3187 0
3186 3187 -3188 0
-3186 3188 0
-3187 3188 0
-18 -3173 3189 0
18 -3189 0
3173 -3189 0
-2959 -3189 -3190 0
2959 3189 -3190 0
2959 -3189 3190 0
-2959 3189 3190 0
-3190 -3188 -3191 0
3190 3188 -3191 0
3190 -3188 3191 0
-3190 3188 3191 0
-3190 -3188 3192 0
3190 -3192 0
3188 -3192 0
-2959 -3189 3193 0
2959 -3193 0
3189 -3193 0
3192 3193 -3194 0
-3192 3194 0
-3193 3194 0
-26 -3173 3195 0
26 -3195 0
3173 -3195 0
-2965 -3195 -3196 0
2965 3195 -3196 0
2965 -3195 3196 0
-2965 3195 3196 0
-3196 -3194 -3197 0
3196 3194 -3197 0
3196 -3194 3197 0
-3196 3194 3197 0
-3196 -3194 3198 0
3196 -3198 0
3194 -3198 0
-2965 -3195 3199 0
2965 -3199 0
3195 -3199 0
3198 3199 -3200 0
-3198 3200 0
-3199 3200 0
-34 -3173 3201 0
34 -3201 0
3173 -3201 0
-2971 -3201 -3202 0
2971 3201 -3202 0
2971 -3201 3202 0
-2971 3201 3202 0
-3202 -3200 -3203 0
3202 3200 -3203 0
3202 -3200 3203 0
-3202 3200 3203 0
-3202 -3200 3204 0
3202 -3204 0
3200 -3204 0
-2971 -3201 3205 0
2971 -3205 0
3201 -3205 0
3204 3205 -3206 0
-3204 3206 0
-3205 3206 0
-42 -3173 3207 0
42 -3207 0
3173 -3207 0
-2977 -3207 -3208 0
2977 3207 -3208 0
2977 -3207 3208 0
-2977 3207 3208 0
-3208 -3206 -3209 0
3208 3206 -3209 0
3208 -3206 3209 0
-3208 3206 3209 0
-3208 -3206 3210 0
3208 -3210 0
3206 -3210 0
-2977 -3207 3211 0
2977 -3211 0
3207 -3211 0
3210 3211 -3212 0
-3210 3212 0
-3211 3212 0
-50 -3173 3213 0
50 -3213 0
3173 -3213 0
-2983 -3213 -3214 0
2983 3213 -3214 0
2983 -3213 3214 0
-2983 3213 3214 0
-3214 -3212 -3215 0
3214 3212 -3215 0
3214 -3212 3215 0
-3214 3212 3215 0
-3214 -3212 3216 0
3214 -3216 0
3212 -3216 0
-2983 -3213 3217 0
2983 -3217 0
3213 -3217 0
3216 3217 -3218 0
-3216 3218 0
-3217 3218 0
-58 -3173 3219 0
58 -3219 0
3173 -3219 0
-2989 -3219 -3220 0
2989 3219 -3220 0
2989 -3219 3220 0
-2989 3219 3220 0
-3220 -3218 -3221 0
3220 3218 -3221 0
3220 -3218 3221 0
-3220 3218 3221 0
-3220 -3218 3222 0
3220 -3222 0
3218 -3222 0
-2989 -3219 3223 0
2989 -3223 0
3219 -3223 0
3222 3223 -3224 0
-3222 3224 0
-3223 3224 0
-66 -3173 3225 0
66 -3225 0
3173 -3225 0
-2995 -3225 -3226 0
2995 3225 -3226 0
2995 -3225 3226 0
-2995 3225 3226 0
-3226 -3224 -3227 0
3226 3224 -3227 0
3226 -3224 3227 0
-3226 3224 3227 0
-3226 -3224 3228 0
3226 -3228 0
3224 -3228 0
-2995 -3225 3229 0
2995 -3229 0
3225 -3229 0
3228 3229 -3230 0
-3228 3230 0
-3229 3230 0
-74 -3173 3231 0
74 -3231 0
3173 -3231 0
-3001 -3231 -3232 0
3001 3231 -3232 0
3001 -3231 3232 0
-3001 3231 3232 0
-3232 -3230 -3233 0
3232 3230 -3233 0
3232 -3230 3233 0
-3232 3230 3233 0
-3232 -3230 3234 0
3232 -3234 0
3230 -3234 0
-3001 -3231 3235 0
3001 -3235 0
3231 -3235 0
3234 3235 -3236 0
-3234 3236 0
-3235 3236 0
-82 -3173 3237 0
82 -3237 0
3173 -3237 0
-3007 -3237 -3238 0
3007 3237 -3238 0
3007 -3237 3238 0
-3007 3237 3238 0
-3238 -3236 -3239 0
3238 3236 -3239 0
3238 -3236 3239 0
-3238 3236 3239 0
-3238 -3236 3240 0
3238 -3240 0
3236 -3240 0
-3007 -3237 3241 0
3007 -3241 0
3237 -3241 0
3240 3241 -3242 0
-3240 3242 0
-3241 3242 0
-90 -3173 3243 0
90 -3243 0
3173 -3243 0
-3013 -3243 -3244 0
3013 3243 -3244 0
3013 -3243 3244 0
-3013 3243 3244 0
-3244 -3242 -3245 0
3244 3242 -3245 0
3244 -3242 3245 0
-3244 3242 3245 0
-3244 -3242 3246 0
3244 -3246 0
3242 -3246 0
-3013 -3243 3247 0
3013 -3247 0
3243 -3247 0
3246 3247 -3248 0
-3246 3248 0
-3247 3248 0
-98 -3173 3249 0
98 -3249 0
3173 -3249 0
-3019 -3249 -3250 0
3019 3249 -3250 0
3019 -3249 3250 0
-3019 3249 3250 0
-3250 -3248 -3251 0
3250 3248 -3251 0
3250 -3248 3251 0
-3250 3248 3251 0
-3250 -3248 3252 0
3250 -3252 0
3248 -3252 0
-3019 -3249 3253 0
3019 -3253 0
3249 -3253 0
3252 3253 -3254 0
-3252 3254 0
-3253 3254 0
-106 -3173 3255 0
106 -3255 0
3173 -3255 0
-3025 -3255 -3256 0
3025 3255 -3256 0
3025 -3255 3256 0
-3025 3255 3256 0
-3256 -3254 -3257 0
3256 3254 -3257 0
3256 -3254 3257 0
-3256 3254 3257 0
-3256 -3254 3258 0
3256 -3258 0
3254 -3258 0
-3025 -3255 3259 0
3025 -3259 0
3255 -3259 0
3258 3259 -3260 0
-3258 3260 0
-3259 3260 0
-114 -3173 3261 0
114 -3261 0
3173 -3261 0
-3031 -3261 -3262 0
3031 3261 -3262 0
3031 -3261 3262 0
-3031 3261 3262 0
-3262 -3260 -3263 0
3262 3260 -3263 0
3262 -3260 3263 0
-3262 3260 3263 0
-3262 -3260 3264 0
3262 -3264 0
3260 -3264 0
-3031 -3261 3265 0
3031 -3265 0
3261 -3265 0
3264 3265 -3266 0
-3264 3266 0
-3265 3266 0
-122 -3173 3267 0
122 -3267 0
3173 -3267 0
-3037 -3267 -3268 0
3037 3267 -3268 0
3037 -3267 3268 0
-3037 3267 3268 0
-3268 -3266 -3269 0
3268 3266 -3269 0
3268 -3266 3269 0
-3268 3266 3269 0
-3268 -3266 3270 0
3268 -3270 0
3266 -3270 0
-3037 -3267 3271 0
3037 -3271 0
3267 -3271 0
3270 3271 -3272 0
-3270 3272 0
-3271 3272 0
-130 -3173 3273 0
130 -3273 0
3173 -3273 0
-3043 -3273 -3274 0
3043 3273 -3274 0
3043 -3273 3274 0
-3043 3273 3274 0
-3274 -3272 -3275 0
3274 3272 -3275 0
3274 -3272 3275 0
-3274 3272 3275 0
-3274 -3272 3276 0
3274 -3276 0
3272 -3276 0
-3043 -3273 3277 0
3043 -3277 0
3273 -3277 0
3276 3277 -3278 0
-3276 3278 0
-3277 3278 0
-138 -3173 3279 0
138 -3279 0
3173 -3279 0
-3049 -3279 -3280 0
3049 3279 -3280 0
3049 -3279 3280 0
-3049 3279 3280 0
-3280 -3278 -3281 0
3280 3278 -3281 0
3280 -3278 3281 0
-3280 3278 3281 0
-3280 -3278 3282 0
3280 -3282 0
3278 -3282 0
-3049 -3279 3283 0
3049 -3283 0
3279 -3283 0
3282 3283 -3284 0
-3282 3284 0
-3283 3284 0
-146 -3173 3285 0
146 -3285 0
3173 -3285 0
-3055 -3285 -3286 0
3055 3285 -3286 0
3055 -3285 3286 0
-3055 3285 3286 0
-3286 -3284 -3287 0
3286 3284 -3287 0
3286 -3284 3287 0
-3286 3284 3287 0
-3286 -3284 3288 0
3286 -3288 0
3284 -3288 0
-3055 -3285 3289 0
3055 -3289 0
3285 -3289 0
3288 3289 -3290 0
-3288 3290 0
-3289 3290 0
-154 -3173 3291 0
154 -3291 0
3173 -3291 0
-3061 -3291 -3292 0
3061 3291 -3292 0
3061 -3291 3292 0
-3061 3291 3292 0
-3292 -3290 -3293 0
3292 3290 -3293 0
3292 -3290 3293 0
-3292 3290 3293 0
-3292 -3290 3294 0
3292 -3294 0
3290 -3294 0
-3061 -3291 3295 0
3061 -3295 0
3291 -3295 0
3294 3295 -3296 0
-3294 3296 0
-3295 3296 0
-162 -3173 3297 0
162 -3297 0
3173 -3297 0
-3067 -3297 -3298 0
3067 3297 -3298 0
3067 -3297 3298 0
-3067 3297 3298 0
-3298 -3296 -3299 0
3298 3296 -3299 0
3298 -3296 3299 0
-3298 3296 3299 0
-3298 -3296 3300 0
3298 -3300 0
3296 -3300 0
-3067 -3297 3301 0
3067 -3301 0
3297 -3301 0
3300 3301 -3302 0
-3300 3302 0
-3301 3302 0
-170 -3173 3303 0
170 -3303 0
3173 -3303 0
-3073 -3303 -3304 0
3073 3303 -3304 0
3073 -3303 3304 0
-3073 3303 3304 0
-3304 -3302 -3305 0
3304 3302 -3305 0
3304 -3302 3305 0
-3304 3302 3305 0
-3304 -3302 3306 0
3304 -3306 0
3302 -3306 0
-3073 -3303 3307 0
3073 -3307 0
3303 -3307 0
3306 3307 -3308 0
-3306 3308 0
-3307 3308 0
-178 -3173 3309 0
178 -3309 0
3173 -3309 0
-3079 -3309 -3310 0
3079 3309 -3310 0
3079 -3309 3310 0
-3079 3309 3310 0
-3310 -3308 -3311 0
3310 3308 -3311 0
3310 -3308 3311 0
-3310 3308 3311 0
-3310 -3308 3312 0
3310 -3312 0
3308 -3312 0
-3079 -3309 3313 0
3079 -3313 0
3309 -3313 0
3312 3313 -3314 0
-3312 3314 0
-3313 3314 0
-186 -3173 3315 0
186 -3315 0
3173 -3315 0
-3085 -3315 -3316 0
3085 3315 -3316 0
3085 -3315 3316 0
-3085 3315 3316 0
-3316 -3314 -3317 0
3316 3314 -3317 0
3316 -3314 3317 0
-3316 3314 3317 0
-3316 -3314 3318 0
3316 -3318 0
3314 -3318 0
-3085 -3315 3319 0
3085 -3319 0
3315 -3319 0
3318 3319 -3320 0
-3318 3320 0
-3319 3320 0
-194 -3173 3321 0
194 -3321 0
3173 -3321 0
-3091 -3321 -3322 0
3091 3321 -3322 0
3091 -3321 3322 0
-3091 3321 3322 0
-3322 -3320 -3323 0
3322 3320 -3323 0
3322 -3320 3323 0
-3322 3320 3323 0
-3322 -3320 3324 0
3322 -3324 0
3320 -3324 0
-3091 -3321 3325 0
3091 -3325 0
3321 -3325 0
3324 3325 -3326 0
-3324 3326 0
-3325 3326 0
-202 -3173 3327 0
202 -3327 0
3173 -3327 0
-3097 -3327 -3328 0
3097 3327 -3328 0
3097 -3327 3328 0
-3097 3327 3328 0
-3328 -3326 -3329 0
3328 3326 -3329 0
3328 -3326 3329 0
-3328 3326 3329 0
-3328 -3326 3330 0
3328 -3330 0
3326 -3330 0
-3097 -3327 3331 0
3097 -3331 0
3327 -3331 0
3330 3331 -3332 0
-3330 3332 0
-3331 3332 0
-210 -3173 3333 0
210 -3333 0
3173 -3333 0
-3103 -3333 -3334 0
3103 3333 -3334 0
3103 -3333 3334 0
-3103 3333 3334 0
-3334 -3332 -3335 0
3334 3332 -3335 0
3334 -3332 3335 0
-3334 3332 3335 0
-3334 -3332 3336 0
3334 -3336 0
3332 -3336 0
-3103 -3333 3337 0
3103 -3337 0
3333 -3337 0
3336 3337 -3338 0
-3336 3338 0
-3337 3338 0
-218 -3173 3339 0
218 -3339 0
3173 -3339 0
-3109 -3339 -3340 0
3109 3339 -3340 0
3109 -3339 3340 0
-3109 3339 3340 0
-3340 -3338 -3341 0
3340 3338 -3341 0
3340 -3338 3341 0
-3340 3338 3341 0
-3340 -3338 3342 0
3340 -3342 0
3338 -3342 0
-3109 -3339 3343 0
3109 -3343 0
3339 -3343 0
3342 3343 -3344 0
-3342 3344 0
-3343 3344 0
-226 -3173 3345 0
226 -3345 0
3173 -3345 0
-3115 -3345 -3346 0
3115 3345 -3346 0
3115 -3345 3346 0
-3115 3345 3346 0
-3346 -3344 -3347 0
3346 3344 -3347 0
3346 -3344 3347 0
-3346 3344 3347 0
-3346 -3344 3348 0
3346 -3348 0
3344 -3348 0
-3115 -3345 3349 0
3115 -3349 0
3345 -3349 0
3348 3349 -3350 0
-3348 3350 0
-3349 3350 0
-234 -3173 3351 0
234 -3351 0
3173 -3351 0
-3121 -3351 -3352 0
3121 3351 -3352 0
3121 -3351 3352 0
-3121 3351 3352 0
-3352 -3350 -3353 0
3352 3350 -3353 0
3352 -3350 3353 0
-3352 3350 3353 0
-3352 -3350 3354 0
3352 -3354 0
3350 -3354 0
-3121 -3351 3355 0
3121 -3355 0
3351 -3355 0
3354 3355 -3356 0
-3354 3356 0
-3355 3356 0
-242 -3173 3357 0
242 -3357 0
3173 -3357 0
-3127 -3357 -3358 0
3127 3357 -3358 0
3127 -3357 3358 0
-3127 3357 3358 0
-3358 -3356 -3359 0
3358 3356 -3359 0
3358 -3356 3359 0
-3358 3356 3359 0
-3358 -3356 3360 0
3358 -3360 0
3356 -3360 0
-3127 -3357 3361 0
3127 -3361 0
3357 -3361 0
3360 3361 -3362 0
-3360 3362 0
-3361 3362 0
-250 -3173 3363 0
250 -3363 0
3173 -3363 0
-3133 -3363 -3364 0
3133 3363 -3364 0
3133 -3363 3364 0
-3133 3363 3364 0
-3364 -3362 -3365 0
3364 3362 -3365 0
3364 -3362 3365 0
-3364 3362 3365 0
-3364 -3362 3366 0
3364 -3366 0
3362 -3366 0
-3133 -3363 3367 0
3133 -3367 0
3363 -3367 0
3366 3367 -3368 0
-3366 3368 0
-3367 3368 0
-258 -3173 3369 0
258 -3369 0
3173 -3369 0
-3139 -3369 -3370 0
3139 3369 -3370 0
3139 -3369 3370 0
-3139 3369 3370 0
-3370 -3368 -3371 0
3370 3368 -3371 0
3370 -3368 3371 0
-3370 3368 3371 0
-3370 -3368 3372 0
3370 -3372 0
3368 -3372 0
-3139 -3369 3373 0
3139 -3373 0
3369 -3373 0
3372 3373 -3374 0
-3372 3374 0
-3373 3374 0
-266 -3173 3375 0
266 -3375 0
3173 -3375 0
-3145 -3375 -3376 0
3145 3375 -3376 0
3145 -3375 3376 0
-3145 3375 3376 0
-3376 -3374 -3377 0
3376 3374 -3377 0
3376 -3374 3377 0
-3376 3374 3377 0
-3376 -3374 3378 0
3376 -3378 0
3374 -3378 0
-3145 -3375 3379 0
3145 -3379 0
3375 -3379 0
3378 3379 -3380 0
-3378 3380 0
-3379 3380 0
-274 -3173 3381 0
274 -3381 0
3173 -3381 0
-3151 -3381 -3382 0
3151 3381 -3382 0
3151 -3381 3382 0
-3151 3381 3382 0
-3382 -3380 -3383 0
3382 3380 -3383 0
3382 -3380 3383 0
-3382 3380 3383 0
-3382 -3380 3384 0
3382 -3384 0
3380 -3384 0
-3151 -3381 3385 0
3151 -3385 0
3381 -3385 0
3384 3385 -3386 0
-3384 3386 0
-3385 3386 0
-282 -3173 3387 0
282 -3387 0
3173 -3387 0
-3157 -3387 -3388 0
3157 3387 -3388 0
3157 -3387 3388 0
-3157 3387 3388 0
-3388 -3386 -3389 0
3388 3386 -3389 0
3388 -3386 3389 0
-3388 3386 3389 0
-3388 -3386 3390 0
3388 -3390 0
3386 -3390 0
-3157 -3387 3391 0
3157 -3391 0
3387 -3391 0
3390 3391 -3392 0
-3390 3392 0
-3391 3392 0
-290 -3173 3393 0
290 -3393 0
3173 -3393 0
-3163 -3393 -3394 0
3163 3393 -3394 0
3163 -3393 3394 0
-3163 3393 3394 0
-3394 -3392 -3395 0
3394 3392 -3395 0
3394 -3392 3395 0
-3394 3392 3395 0
-3394 -3392 3396 0
3394 -3396 0
3392 -3396 0
-3163 -3393 3397 0
3163 -3397 0
3393 -3397 0
3396 3397 -3398 0
-3396 3398 0
-3397 3398 0
-298 -3173 3399 0
298 -3399 0
3173 -3399 0
-3169 -3399 -3400 0
3169 3399 -3400 0
3169 -3399 3400 0
-3169 3399 3400 0
-3400 -3398 -3401 0
3400 3398 -3401 0
3400 -3398 3401 0
-3400 3398 3401 0
-3400 -3398 3402 0
3400 -3402 0
3398 -3402 0
-3169 -3399 3403 0
3169 -3403 0
3399 -3403 0
3402 3403 -3404 0
-3402 3404 0
-3403 3404 0
-306 -3173 3405 0
306 -3405 0
3173 -3405 0
-3172 -3405 -3406 0
3172 3405 -3406 0
3172 -3405 3406 0
-3172 3405 3406 0
-3406 -3404 -3407 0
3406 3404 -3407 0
3406 -3404 3407 0
-3406 3404 3407 0
-3406 -3404 3408 0
3406 -3408 0
3404 -3408 0
-3172 -3405 3409 0
3172 -3409 0
3405 -3409 0
3408 3409 -3410 0
-3408 3410 0
-3409 3410 0
-1 -3411 3412 0
1 -3412 0
3411 -3412 0
-3179 -3412 -3413 0
3179 3412 -3413 0
3179 -3412 3413 0
-3179 3412 3413 0
-3179 -3412 3414 0
3179 -3414 0
3412 -3414 0
-4 -3411 3415 0
4 -3415 0
3411 -3415 0
-3185 -3415 -3416 0
3185 3415 -3416 0
3185 -3415 3416 0
-3185 3415 3416 0
-3416 -3414 -3417 0
3416 3414 -3417 0
3416 -3414 3417 0
-3416 3414 3417 0
-3416 -3414 3418 0
3416 -3418 0
3414 -3418 0
-3185 -3415 3419 0
3185 -3419 0
3415 -3419 0
3418 3419 -3420 0
-3418 3420 0
-3419 3420 0
-10 -3411 3421 0
10 -3421 0
3411 -3421 0
-3191 -3421 -3422 0
3191 3421 -3422 0
3191 -3421 3422 0
-3191 3421 3422 0
-3422 -3420 -3423 0
3422 3420 -3423 0
3422 -3420 3423 0
-3422 3420 3423 0
-3422 -3420 3424 0
3422 -3424 0
3420 -3424 0
-3191 -3421 3425 0
3191 -3425 0
3421 -3425 0
3424 3425 -3426 0
-3424 3426 0
-3425 3426 0
-18 -3411 3427 0
18 -3427 0
3411 -3427 0
-3197 -3427 -3428 0
3197 3427 -3428 0
3197 -3427 3428 0
-3197 3427 3428 0
-3428 -3426 -3429 0
3428 3426 -3429 0
3428 -3426 3429 0
-3428 3426 3429 0
-3428 -3426 3430 0
3428 -3430 0
3426 -3430 0
-3197 -3427 3431 0
3197 -3431 0
3427 -3431 0
3430 3431 -3432 0
-3430 3432 0
-3431 3432 0
-26 -3411 3433 0
26 -3433 0
3411 -3433 0
-3203 -3433 -3434 0
3203 3433 -3434 0
3203 -3433 3434 0
-3203 3433 3434 0
-3434 -3432 -3435 0
3434 3432 -3435 0
3434 -3432 3435 0
-3434 3432 3435 0
-3434 -3432 3436 0
3434 -3436 0
3432 -3436 0
-3203 -3433 3437 0
3203 -3437 0
3433 -3437 0
3436 3437 -3438 0
-3436 3438 0
-3437 3438 0
-34 -3411 3439 0
34 -3439 0
3411 -3439 0
-3209 -3439 -3440 0
3209 3439 -3440 0
3209 -3439 3440 0
-3209 3439 3440 0
-3440 -3438 -3441 0
3440 3438 -3441 0
3440 -3438 3441 0
-3440 3438 3441 0
-3440 -3438 3442 0
3440 -3442 0
3438 -3442 0
-3209 -3439 3443 0
3209 -3443 0
3439 -3443 0
3442 3443 -3444 0
-3442 3444 0
-3443 3444 0
-42 -3411 3445 0
42 -3445 0
3411 -3445 0
-3215 -3445 -3446 0
3215 3445 -3446 0
3215 -3445 3446 0
-3215 3445 3446 0
-3446 -3444 -3447 0
3446 3444 -3447 0
3446 -3444 3447 0
-3446 3444 3447 0
-3446 -3444 3448 0
3446 -3448 0
3444 -3448 0
-3215 -3445 3449 0
3215 -3449 0
3445 -3449 0
3448 3449 -3450 0
-3448 3450 0
-3449 3450 0
-50 -3411 3451 0
50 -3451 0
3411 -3451 0
-3221 -3451 -3452 0
3221 3451 -3452 0
3221 -3451 3452 0
-3221 3451 3452 0
-3452 -3450 -3453 0
3452 3450 -3453 0
3452 -3450 3453 0
-3452 3450 3453 0
-3452 -3450 3454 0
3452 -3454 0
3450 -3454 0
-3221 -3451 3455 0
3221 -3455 0
3451 -3455 0
3454 3455 -3456 0
-3454 3456 0
-3455 3456 0
-58 -3411 3457 0
58 -3457 0
3411 -3457 0
-3227 -3457 -3458 0
3227 3457 -3458 0
3227 -3457 3458 0
-3227 3457 3458 0
-3458 -3456 -3459 0
3458 3456 -3459 0
3458 -3456 3459 0
-3458 3456 3459 0
-3458 -3456 3460 0
3458 -3460 0
3456 -3460 0
-3227 -3457 3461 0
3227 -3461 0
3457 -3461 0
3460 3461 -3462 0
-3460 3462 0
-3461 3462 0
-66 -3411 3463 0
66 -3463 0
3411 -3463 0
-3233 -3463 -3464 0
3233 3463 -3464 0
3233 -3463 3464 0
-3233 3463 3464 0
-3464 -3462 -3465 0
3464 3462 -3465 0
3464 -3462 3465 0
-3464 3462 3465 0
-3464 -3462 3466 0
3464 -3466 0
3462 -3466 0
-3233 -3463 3467 0
3233 -3467 0
3463 -3467 0
3466 3467 -3468 0
-3466 3468 0
-3467 3468 0
-74 -3411 3469 0
74 -3469 0
3411 -3469 0
-3239 -3469 -3470 0
3239 3469 -3470 0
3239 -3469 3470 0
-3239 3469 3470 0
-3470 -3468 -3471 0
3470 3468 -3471 0
3470 -3468 3471 0
-3470 3468 3471 0
-3470 -3468 3472 0
3470 -3472 0
3468 -3472 0
-3239 -3469 3473 0
3239 -3473 0
3469 -3473 0
3472 3473 -3474 0
-3472 3474 0
-3473 3474 0
-82 -3411 3475 0
82 -3475 0
3411 -3475 0
-3245 -3475 -3476 0
3245 3475 -3476 0
3245 -3475 3476 0
-3245 3475 3476 0
-3476 -3474 -3477 0
3476 3474 -3477 0
3476 -3474 3477 0
-3476 3474 3477 0
-3476 -3474 3478 0
3476 -3478 0
3474 -3478 0
-3245 -3475 3479 0
3245 -3479 0
3475 -3479 0
3478 3479 -3480 0
-3478 3480 0
-3479 3480 0
-90 -3411 3481 0
90 -3481 0
3411 -3481 0
-3251 -3481 -3482 0
3251 3481 -3482 0
3251 -3481 3482 0
-3251 3481 3482 0
-3482 -3480 -3483 0
3482 3480 -3483 0
3482 -3480 3483 0
-3482 3480 3483 0
-3482 -3480 3484 0
3482 -3484 0
3480 -3484 0
-3251 -3481 3485 0
3251 -3485 0
3481 -3485 0
3484 3485 -3486 0
-3484 3486 0
-3485 3486 0
-98 -3411 3487 0
98 -3487 0
3411 -3487 0
-3257 -3487 -3488 0
3257 3487 -3488 0
3257 -3487 3488 0
-3257 3487 3488 0
-3488 -3486 -3489 0
3488 3486 -3489 0
3488 -3486 3489 0
-3488 3486 3489 0
-3488 -3486 3490 0
3488 -3490 0
3486 -3490 0
-3257 -3487 3491 0
3257 -3491 0
3487 -3491 0
3490 3491 -3492 0
-3490 3492 0
-3491 3492 0
-106 -3411 3493 0
106 -3493 0
3411 -3493 0
-3263 -3493 -3494 0
3263 3493 -3494 0
3263 -3493 3494 0
-3263 3493 3494 0
-3494 -3492 -3495 0
3494 3492 -3495 0
3494 -3492 3495 0
-3494 3492 3495 0
-3494 -3492 3496 0
3494 -3496 0
3492 -3496 0
-3263 -3493 3497 0
3263 -3497 0
3493 -3497 0
3496 3497 -3498 0
-3496 3498 0
-3497 3498 0
-114 -3411 3499 0
114 -3499 0
3411 -3499 0
-3269 -3499 -3500 0
3269 3499 -3500 0
3269 -3499 3500 0
-3269 3499 3500 0
-3500 -3498 -3501 0
3500 3498 -3501 0
3500 -3498 3501 0
-3500 3498 3501 0
-3500 -3498 3502 0
3500 -3502 0
3498 -3502 0
-3269 -3499 3503 0
3269 -3503 0
3499 -3503 0
3502 3503 -3504 0
-3502 3504 0
-3503 3504 0
-122 -3411 3505 0
122 -3505 0
3411 -3505 0
-3275 -3505 -3506 0
3275 3505 -3506 0
3275 -3505 3506 0
-3275 3505 3506 0
-3506 -3504 -3507 0
3506 3504 -3507 0
3506 -3504 3507 0
-3506 3504 3507 0
-3506 -3504 3508 0
3506 -3508 0
3504 -3508 0
-3275 -3505 3509 0
3275 -3509 0
3505 -3509 0
3508 3509 -3510 0
-3508 3510 0
-3509 3510 0
-130 -3411 3511 0
130 -3511 0
3411 -3511 0
-3281 -3511 -3512 0
3281 3511 -3512 0
3281 -3511 3512 0
-3281 3511 3512 0
-3512 -3510 -3513 0
3512 3510 -3513 0
3512 -3510 3513 0
-3512 3510 3513 0
-3512 -3510 3514 0
3512 -3514 0
3510 -3514 0
-3281 -3511 3515 0
3281 -3515 0
3511 -3515 0
3514 3515 -3516 0
-3514 3516 0
-3515 3516 0
-138 -3411 3517 0
138 -3517 0
3411 -3517 0
-3287 -3517 -3518 0
3287 3517 -3518 0
3287 -3517 3518 0
-3287 3517 3518 0
-3518 -3516 -3519 0
3518 3516 -3519 0
3518 -3516 3519 0
-3518 3516 3519 0
-3518 -3516 3520 0
3518 -3520 0
3516 -3520 0
-3287 -3517 3521 0
3287 -3521 0
3517 -3521 0
3520 3521 -3522 0
-3520 3522 0
-3521 3522 0
-146 -3411 3523 0
146 -3523 0
3411 -3523 0
-3293 -3523 -3524 0
3293 3523 -3524 0
3293 -3523 3524 0
-3293 3523 3524 0
-3524 -3522 -3525 0
3524 3522 -3525 0
3524 -3522 3525 0
-3524 3522 3525 0
-3524 -3522 3526 0
3524 -3526 0
3522 -3526 0
-3293 -3523 3527 0
3293 -3527 0
3523 -3527 0
3526 3527 -3528 0
-3526 3528 0
-3527 3528 0
-154 -3411 3529 0
154 -3529 0
3411 -3529 0
-3299 -3529 -3530 0
3299 3529 -3530 0
3299 -3529 3530 0
-3299 3529 3530 0
-3530 -3528 -3531 0
3530 3528 -3531 0
3530 -3528 3531 0
-3530 3528 3531 0
-3530 -3528 3532 0
3530 -3532 0
3528 -3532 0
-3299 -3529 3533 0
3299 -3533 0
3529 -3533 0
3532 3533 -3534 0
-3532 3534 0
-3533 3534 0
-162 -3411 3535 0
162 -3535 0
3411 -3535 0
-3305 -3535 -3536 0
3305 3535 -3536 0
3305 -3535 3536 0
-3305 3535 3536 0
-3536 -3534 -3537 0
3536 3534 -3537 0
3536 -3534 3537 0
-3536 3534 3537 0
-3536 -3534 3538 0
3536 -3538 0
3534 -3538 0
-3305 -3535 3539 0
3305 -3539 0
3535 -3539 0
3538 3539 -3540 0
-3538 3540 0
-3539 3540 0
-170 -3411 3541 0
170 -3541 0
3411 -3541 0
-3311 -3541 -3542 0
3311 3541 -3542 0
3311 -3541 3542 0
-3311 3541 3542 0
-3542 -3540 -3543 0
3542 3540 -3543 0
3542 -3540 3543 0
-3542 3540 3543 0
-3542 -3540 3544 0
3542 -3544 0
3540 -3544 0
-3311 -3541 3545 0
3311 -3545 0
3541 -3545 0
3544 3545 -3546 0
-3544 3546 0
-3545 3546 0
-178 -3411 3547 0
178 -3547 0
3411 -3547 0
-3317 -3547 -3548 0
3317 3547 -3548 0
3317 -3547 3548 0
-3317 3547 3548 0
-3548 -3546 -3549 0
3548 3546 -3549 0
3548 -3546 3549 0
-3548 3546 3549 0
-3548 -3546 3550 0
3548 -3550 0
3546 -3550 0
-3317 -3547 3551 0
3317 -3551 0
3547 -3551 0
3550 3551 -3552 0
-3550 3552 0
-3551 3552 0
-186 -3411 3553 0
186 -3553 0
3411 -3553 0
-3323 -3553 -3554 0
3323 3553 -3554 0
3323 -3553 3554 0
-3323 3553 3554 0
-3554 -3552 -3555 0
3554 3552 -3555 0
3554 -3552 3555 0
-3554 3552 3555 0
-3554 -3552 3556 0
3554 -3556 0
3552 -3556 0
-3323 -3553 3557 0
3323 -3557 0
3553 -3557 0
3556 3557 -3558 0
-3556 3558 0
-3557 3558 0
-194 -3411 3559 0
194 -3559 0
3411 -3559 0
-3329 -3559 -3560 0
3329 3559 -3560 0
3329 -3559 3560 0
-3329 3559 3560 0
-3560 -3558 -3561 0
3560 3558 -3561 0
3560 -3558 3561 0
-3560 3558 3561 0
-3560 -3558 3562 0
3560 -3562 0
3558 -3562 0
-3329 -3559 3563 0
3329 -3563 0
3559 -3563 0
3562 3563 -3564 0
-3562 3564 0
-3563 3564 0
-202 -3411 3565 0
202 -3565 0
3411 -3565 0
-3335 -3565 -3566 0
3335 3565 -3566 0
3335 -3565 3566 0
-3335 3565 3566 0
-3566 -3564 -3567 0
3566 3564 -3567 0
3566 -3564 3567 0
-3566 3564 3567 0
-3566 -3564 3568 0
3566 -3568 0
3564 -3568 0
-3335 -3565 3569 0
3335 -3569 0
3565 -3569 0
3568 3569 -3570 0
-3568 3570 0
-3569 3570 0
-210 -3411 3571 0
210 -3571 0
3411 -3571 0
-3341 -3571 -3572 0
3341 3571 -3572 0
3341 -3571 3572 0
-3341 3571 3572 0
-3572 -3570 -3573 0
3572 3570 -3573 0
3572 -3570 3573 0
-3572 3570 3573 0
-3572 -3570 3574 0
3572 -3574 0
3570 -3574 0
-3341 -3571 3575 0
3341 -3575 0
3571 -3575 0
3574 3575 -3576 0
-3574 3576 0
-3575 3576 0
-218 -3411 3577 0
218 -3577 0
3411 -3577 0
-3347 -3577 -3578 0
3347 3577 -3578 0
3347 -3577 3578 0
-3347 3577 3578 0
-3578 -3576 -3579 0
3578 3576 -3579 0
3578 -3576 3579 0
-3578 3576 3579 0
-3578 -3576 3580 0
3578 -3580 0
3576 -3580 0
-3347 -3577 3581 0
3347 -3581 0
3577 -3581 0
3580 3581 -3582 0
-3580 3582 0
-3581 3582 0
-226 -3411 3583 0
226 -3583 0
3411 -3583 0
-3353 -3583 -3584 0
3353 3583 -3584 0
3353 -3583 3584 0
-3353 3583 3584 0
-3584 -3582 -3585 0
3584 3582 -3585 0
3584 -3582 3585 0
-3584 3582 3585 0
-3584 -3582 3586 0
3584 -3586 0
3582 -3586 0
-3353 -3583 3587 0
3353 -3587 0
3583 -3587 0
3586 3587 -3588 0
-3586 3588 0
-3587 3588 0
-234 -3411 3589 0
234 -3589 0
3411 -3589 0
-3359 -3589 -3590 0
3359 3589 -3590 0
3359 -3589 3590 0
-3359 3589 3590 0
-3590 -3588 -3591 0
3590 3588 -3591 0
3590 -3588 3591 0
-3590 3588 3591 0
-3590 -3588 3592 0
3590 -3592 0
3588 -3592 0
-3359 -3589 3593 0
3359 -3593 0
3589 -3593 0
3592 3593 -3594 0
-3592 3594 0
-3593 3594 0
-242 -3411 3595 0
242 -3595 0
3411 -3595 0
-3365 -3595 -3596 0
3365 3595 -3596 0
3365 -3595 3596 0
-3365 3595 3596 0
-3596 -3594 -3597 0
3596 3594 -3597 0
3596 -3594 3597 0
-3596 3594 3597 0
-3596 -3594 3598 0
3596 -3598 0
3594 -3598 0
-3365 -3595 3599 0
3365 -3599 0
3595 -3599 0
3598 3599 -3600 0
-3598 3600 0
-3599 3600 0
-250 -3411 3601 0
250 -3601 0
3411 -3601 0
-3371 -3601 -3602 0
3371 3601 -3602 0
3371 -3601 3602 0
-3371 3601 3602 0
-3602 -3600 -3603 0
3602 3600 -3603 0
3602 -3600 3603 0
-3602 3600 3603 0
-3602 -3600 3604 0
3602 -3604 0
3600 -3604 0
-3371 -3601 3605 0
3371 -3605 0
3601 -3605 0
3604 3605 -3606 0
-3604 3606 0
-3605 3606 0
-258 -3411 3607 0
258 -3607 0
3411 -3607 0
-3377 -3607 -3608 0
3377 3607 -3608 0
3377 -3607 3608 0
-3377 3607 3608 0
-3608 -3606 -3609 0
3608 3606 -3609 0
3608 -3606 3609 0
-3608 3606 3609 0
-3608 -3606 3610 0
3608 -3610 0
3606 -3610 0
-3377 -3607 3611 0
3377 -3611 0
3607 -3611 0
3610 3611 -3612 0
-3610 3612 0
-3611 3612 0
-266 -3411 3613 0
266 -3613 0
3411 -3613 0
-3383 -3613 -3614 0
3383 3613 -3614 0
3383 -3613 3614 0
-3383 3613 3614 0
-3614 -3612 -3615 0
3614 3612 -3615 0
3614 -3612 3615 0
-3614 3612 3615 0
-3614 -3612 3616 0
3614 -3616 0
3612 -3616 0
-3383 -3613 3617 0
3383 -3617 0
3613 -3617 0
3616 3617 -3618 0
-3616 3618 0
-3617 3618 0
-274 -3411 3619 0
274 -3619 0
3411 -3619 0
-3389 -3619 -3620 0
3389 3619 -3620 0
3389 -3619 3620 0
-3389 3619 3620 0
-3620 -3618 -3621 0
3620 3618 -3621 0
3620 -3618 3621 0
-3620 3618 3621 0
-3620 -3618 3622 0
3620 -3622 0
3618 -3622 0
-3389 -3619 3623 0
3389 -3623 0
3619 -3623 0
3622 3623 -3624 0
-3622 3624 0
-3623 3624 0
-282 -3411 3625 0
282 -3625 0
3411 -3625 0
-3395 -3625 -3626 0
3395 3625 -3626 0
3395 -3625 3626 0
-3395 3625 3626 0
-3626 -3624 -3627 0
3626 3624 -3627 0
3626 -3624 3627 0
-3626 3624 3627 0
-3626 -3624 3628 0
3626 -3628 0
3624 -3628 0
-3395 -3625 3629 0
3395 -3629 0
3625 -3629 0
3628 3629 -3630 0
-3628 3630 0
-3629 3630 0
-290 -3411 3631 0
290 -3631 0
3411 -3631 0
-3401 -3631 -3632 0
3401 3631 -3632 0
3401 -3631 3632 0
-3401 3631 3632 0
-3632 -3630 -3633 0
3632 3630 -3633 0
3632 -3630 3633 0
-3632 3630 3633 0
-3632 -3630 3634 0
3632 -3634 0
3630 -3634 0
-3401 -3631 3635 0
3401 -3635 0
3631 -3635 0
3634 3635 -3636 0
-3634 3636 0
-3635 3636 0
-298 -3411 3637 0
298 -3637 0
3411 -3637 0
-3407 -3637 -3638 0
3407 3637 -3638 0
3407 -3637 3638 0
-3407 3637 3638 0
-3638 -3636 -3639 0
3638 3636 -3639 0
3638 -3636 3639 0
-3638 3636 3639 0
-3638 -3636 3640 0
3638 -3640 0
3636 -3640 0
-3407 -3637 3641 0
3407 -3641 0
3637 -3641 0
3640 3641 -3642 0
-3640 3642 0
-3641 3642 0
-306 -3411 3643 0
306 -3643 0
3411 -3643 0
-3410 -3643 -3644 0
3410 3643 -3644 0
3410 -3643 3644 0
-3410 3643 3644 0
-3644 -3642 -3645 0
3644 3642 -3645 0
3644 -3642 3645 0
-3644 3642 3645 0
-3644 -3642 3646 0
3644 -3646 0
3642 -3646 0
-3410 -3643 3647 0
3410 -3647 0
3643 -3647 0
3646 3647 -3648 0
-3646 3648 0
-3647 3648 0
-1 -3649 3650 0
1 -3650 0
3649 -3650 0
-3417 -3650 -3651 0
3417 3650 -3651 0
3417 -3650 3651 0
-3417 3650 3651 0
-3417 -3650 3652 0
3417 -3652 0
3650 -3652 0
-4 -3649 3653 0
4 -3653 0
3649 -3653 0
-3423 -3653 -3654 0
3423 3653 -3654 0
3423 -3653 3654 0
-3423 3653 3654 0
-3654 -3652 -3655 0
3654 3652 -3655 0
3654 -3652 3655 0
-3654 3652 3655 0
-3654 -3652 3656 0
3654 -3656 0
3652 -3656 0
-3423 -3653 3657 0
3423 -3657 0
3653 -3657 0
3656 3657 -3658 0
-3656 3658 0
-3657 3658 0
-10 -3649 3659 0
10 -3659 0
3649 -3659 0
-3429 -3659 -3660 0
3429 3659 -3660 0
3429 -3659 3660 0
-3429 3659 3660 0
-3660 -3658 -3661 0
3660 3658 -3661 0
3660 -3658 3661 0
-3660 3658 3661 0
-3660 -3658 3662 0
3660 -3662 0
3658 -3662 0
-3429 -3659 3663 0
3429 -3663 0
3659 -3663 0
3662 3663 -3664 0
-3662 3664 0
-3663 3664 0
-18 -3649 3665 0
18 -3665 0
3649 -3665 0
-3435 -3665 -3666 0
3435 3665 -3666 0
3435 -3665 3666 0
-3435 3665 3666 0
-3666 -3664 -3667 0
3666 3664 -3667 0
3666 -3664 3667 0
-3666 3664 3667 0
-3666 -3664 3668 0
3666 -3668 0
3664 -3668 0
-3435 -3665 3669 0
3435 -3669 0
3665 -3669 0
3668 3669 -3670 0
-3668 3670 0
-3669 3670 0
-26 -3649 3671 0
26 -3671 0
3649 -3671 0
-3441 -3671 -3672 0
3441 3671 -3672 0
3441 -3671 3672 0
-3441 3671 3672 0
-3672 -3670 -3673 0
3672 3670 -3673 0
3672 -3670 3673 0
-3672 3670 3673 0
-3672 -3670 3674 0
3672 -3674 0
3670 -3674 0
-3441 -3671 3675 0
3441 -3675 0
3671 -3675 0
3674 3675 -3676 0
-3674 3676 0
-3675 3676 0
-34 -3649 3677 0
34 -3677 0
3649 -3677 0
-3447 -3677 -3678 0
3447 3677 -3678 0
3447 -3677 3678 0
-3447 3677 3678 0
-3678 -3676 -3679 0
3678 3676 -3679 0
3678 -3676 3679 0
-3678 3676 3679 0
-3678 -3676 3680 0
3678 -3680 0
3676 -3680 0
-3447 -3677 3681 0
3447 -3681 0
3677 -3681 0
3680 3681 -3682 0
-3680 3682 0
-3681 3682 0
-42 -3649 3683 0
42 -3683 0
3649 -3683 0
-3453 -3683 -3684 0
3453 3683 -3684 0
3453 -3683 3684 0
-3453 3683 3684 0
-3684 -3682 -3685 0
3684 3682 -3685 0
3684 -3682 3685 0
-3684 3682 3685 0
-3684 -3682 3686 0
3684 -3686 0
3682 -3686 0
-3453 -3683 3687 0
3453 -3687 0
3683 -3687 0
3686 3687 -3688 0
-3686 3688 0
-3687 3688 0
-50 -3649 3689 0
50 -3689 0
3649 -3689 0
-3459 -3689 -3690 0
3459 3689 -3690 0
3459 -3689 3690 0
-3459 3689 3690 0
-3690 -3688 -3691 0
3690 3688 -3691 0
3690 -3688 3691 0
-3690 3688 3691 0
-3690 -3688 3692 0
3690 -3692 0
3688 -3692 0
-3459 -3689 3693 0
3459 -3693 0
3689 -3693 0
3692 3693 -3694 0
-3692 3694 0
-3693 3694 0
-58 -3649 3695 0
58 -3695 0
3649 -3695 0
-3465 -3695 -3696 0
3465 3695 -3696 0
3465 -3695 3696 0
-3465 3695 3696 0
-3696 -3694 -3697 0
3696 3694 -3697 0
3696 -3694 3697 0
-3696 3694 3697 0
-3696 -3694 3698 0
3696 -3698 0
3694 -3698 0
-3465 -3695 3699 0
3465 -3699 0
3695 -3699 0
3698 3699 -3700 0
-3698 3700 0
-3699 3700 0
-66 -3649 3701 0
66 -3701 0
3649 -3701 0
-3471 -3701 -3702 0
3471 3701 -3702 0
3471 -3701 3702 0
-3471 3701 3702 0
-3702 -3700 -3703 0
3702 3700 -3703 0
3702 -3700 3703 0
-3702 3700 3703 0
-3702 -3700 3704 0
3702 -3704 0
3700 -3704 0
-3471 -3701 3705 0
3471 -3705 0
3701 -3705 0
3704 3705 -3706 0
-3704 3706 0
-3705 3706 0
-74 -3649 3707 0
74 -3707 0
3649 -3707 0
-3477 -3707 -3708 0
3477 3707 -3708 0
3477 -3707 3708 0
-3477 3707 3708 0
-3708 -3706 -3709 0
3708 3706 -3709 0
3708 -3706 3709 0
-3708 3706 3709 0
-3708 -3706 3710 0
3708 -3710 0
3706 -3710 0
-3477 -3707 3711 0
3477 -3711 0
3707 -3711 0
3710 3711 -3712 0
-3710 3712 0
-3711 3712 0
-82 -3649 3713 0
82 -3713 0
3649 -3713 0
-3483 -3713 -3714 0
3483 3713 -3714 0
3483 -3713 3714 0
-3483 3713 3714 0
-3714 -3712 -3715 0
3714 3712 -3715 0
3714 -3712 3715 0
-3714 3712 3715 0
-3714 -3712 3716 0
3714 -3716 0
3712 -3716 0
-3483 -3713 3717 0
3483 -3717 0
3713 -3717 0
3716 3717 -3718 0
-3716 3718 0
-3717 3718 0
-90 -3649 3719 0
90 -3719 0
3649 -3719 0
-3489 -3719 -3720 0
3489 3719 -3720 0
3489 -3719 3720 0
-3489 3719 3720 0
-3720 -3718 -3721 0
3720 3718 -3721 0
3720 -3718 3721 0
-3720 3718 3721 0
-3720 -3718 3722 0
3720 -3722 0
3718 -3722 0
-3489 -3719 3723 0
3489 -3723 0
3719 -3723 0
3722 3723 -3724 0
-3722 3724 0
-3723 3724 0
-98 -3649 3725 0
98 -3725 0
3649 -3725 0
-3495 -3725 -3726 0
3495 3725 -3726 0
3495 -3725 3726 0
-3495 3725 3726 0
-3726 -3724 -3727 0
3726 3724 -3727 0
3726 -3724 3727 0
-3726 3724 3727 0
-3726 -3724 3728 0
3726 -3728 0
3724 -3728 0
-3495 -3725 3729 0
3495 -3729 0
3725 -3729 0
3728 3729 -3730 0
-3728 3730 0
-3729 3730 0
-106 -3649 3731 0
106 -3731 0
3649 -3731 0
-3501 -3731 -3732 0
3501 3731 -3732 0
3501 -3731 3732 0
-3501 3731 3732 0
-3732 -3730 -3733 0
3732 3730 -3733 0
3732 -3730 3733 0
-3732 3730 3733 0
-3732 -3730 3734 0
3732 -3734 0
3730 -3734 0
-3501 -3731 3735 0
3501 -3735 0
3731 -3735 0
3734 3735 -3736 0
-3734 3736 0
-3735 3736 0
-114 -3649 3737 0
114 -3737 0
3649 -3737 0
-3507 -3737 -3738 0
3507 3737 -3738 0
3507 -3737 3738 0
-3507 3737 3738 0
-3738 -3736 -3739 0
3738 3736 -3739 0
3738 -3736 3739 0
-3738 3736 3739 0
-3738 -3736 3740 0
3738 -3740 0
3736 -3740 0
-3507 -3737 3741 0
3507 -3741 0
3737 -3741 0
3740 3741 -3742 0
-3740 3742 0
-3741 3742 0
-122 -3649 3743 0
122 -3743 0
3649 -3743 0
-3513 -3743 -3744 0
3513 3743 -3744 0
3513 -3743 3744 0
-3513 3743 3744 0
-3744 -3742 -3745 0
3744 3742 -3745 0
3744 -3742 3745 0
-3744 3742 3745 0
-3744 -3742 3746 0
3744 -3746 0
3742 -3746 0
-3513 -3743 3747 0
3513 -3747 0
3743 -3747 0
3746 3747 -3748 0
-3746 3748 0
-3747 3748 0
-130 -3649 3749 0
130 -3749 0
3649 -3749 0
-3519 -3749 -3750 0
3519 3749 -3750 0
3519 -3749 3750 0
-3519 3749 3750 0
-3750 -3748 -3751 0
3750 3748 -3751 0
3750 -3748 3751 0
-3750 3748 3751 0
-3750 -3748 3752 0
3750 -3752 0
3748 -3752 0
-3519 -3749 3753 0
3519 -3753 0
3749 -3753 0
3752 3753 -3754 0
-3752 3754 0
-3753 3754 0
-138 -3649 3755 0
138 -3755 0
3649 -3755 0
-3525 -3755 -3756 0
3525 3755 -3756 0
3525 -3755 3756 0
-3525 3755 3756 0
-3756 -3754 -3757 0
3756 3754 -3757 0
3756 -3754 3757 0
-3756 3754 3757 0
-3756 -3754 3758 0
3756 -3758 0
3754 -3758 0
-3525 -3755 3759 0
3525 -3759 0
3755 -3759 0
3758 3759 -3760 0
-3758 3760 0
-3759 3760 0
-146 -3649 3761 0
146 -3761 0
3649 -3761 0
-3531 -3761 -3762 0
3531 3761 -3762 0
3531 -3761 3762 0
-3531 3761 3762 0
-3762 -3760 -3763 0
3762 3760 -3763 0
3762 -3760 3763 0
-3762 3760 3763 0
-3762 -3760 3764 0
3762 -3764 0
3760 -3764 0
-3531 -3761 3765 0
3531 -3765 0
3761 -3765 0
3764 3765 -3766 0
-3764 3766 0
-3765 3766 0
-154 -3649 3767 0
154 -3767 0
3649 -3767 0
-3537 -3767 -3768 0
3537 3767 -3768 0
3537 -3767 3768 0
-3537 3767 3768 0
-3768 -3766 -3769 0
3768 3766 -3769 0
3768 -3766 3769 0
-3768 3766 3769 0
-3768 -3766 3770 0
3768 -3770 0
3766 -3770 0
-3537 -3767 3771 0
3537 -3771 0
3767 -3771 0
3770 3771 -3772 0
-3770 3772 0
-3771 3772 0
-162 -3649 3773 0
162 -3773 0
3649 -3773 0
-3543 -3773 -3774 0
3543 3773 -3774 0
3543 -3773 3774 0
-3543 3773 3774 0
-3774 -3772 -3775 0
3774 3772 -3775 0
3774 -3772 3775 0
-3774 3772 3775 0
-3774 -3772 3776 0
3774 -3776 0
3772 -3776 0
-3543 -3773 3777 0
3543 -3777 0
3773 -3777 0
3776 3777 -3778 0
-3776 3778 0
-3777 3778 0
-170 -3649 3779 0
170 -3779 0
3649 -3779 0
-3549 -3779 -3780 0
3549 3779 -3780 0
3549 -3779 3780 0
-3549 3779 3780 0
-3780 -3778 -3781 0
3780 3778 -3781 0
3780 -3778 3781 0
-3780 3778 3781 0
-3780 -3778 3782 0
3780 -3782 0
3778 -3782 0
-3549 -3779 3783 0
3549 -3783 0
3779 -3783 0
3782 3783 -3784 0
-3782 3784 0
-3783 3784 0
-178 -3649 3785 0
178 -3785 0
3649 -3785 0
-3555 -3785 -3786 0
3555 3785 -3786 0
3555 -3785 3786 0
-3555 3785 3786 0
-3786 -3784 -3787 0
3786 3784 -3787 0
3786 -3784 3787 0
-3786 3784 3787 0
-3786 -3784 3788 0
3786 -3788 0
3784 -3788 0
-3555 -3785 3789 0
3555 -3789 0
3785 -3789 0
3788 3789 -3790 0
-3788 3790 0
-3789 3790 0
-186 -3649 3791 0
186 -3791 0
3649 -3791 0
-3561 -3791 -3792 0
3561 3791 -3792 0
3561 -3791 3792 0
-3561 3791 3792 0
-3792 -3790 -3793 0
3792 3790 -3793 0
3792 -3790 3793 0
-3792 3790 3793 0
-3792 -3790 3794 0
3792 -3794 0
3790 -3794 0
-3561 -3791 3795 0
3561 -3795 0
3791 -3795 0
3794 3795 -3796 0
-3794 3796 0
-3795 3796 0
-194 -3649 3797 0
194 -3797 0
3649 -3797 0
-3567 -3797 -3798 0
3567 3797 -3798 0
3567 -3797 3798 0
-3567 3797 3798 0
-3798 -3796 -3799 0
3798 3796 -3799 0
3798 -3796 3799 0
-3798 3796 3799 0
-3798 -3796 3800 0
3798 -3800 0
3796 -3800 0
-3567 -3797 3801 0
3567 -3801 0
3797 -3801 0
3800 3801 -3802 0
-3800 3802 0
-3801 3802 0
-202 -3649 3803 0
202 -3803 0
3649 -3803 0
-3573 -3803 -3804 0
3573 3803 -3804 0
3573 -3803 3804 0
-3573 3803 3804 0
-3804 -3802 -3805 0
3804 3802 -3805 0
3804 -3802 3805 0
-3804 3802 3805 0
-3804 -3802 3806 0
3804 -3806 0
3802 -3806 0
-3573 -3803 3807 0
3573 -3807 0
3803 -3807 0
3806 3807 -3808 0
-3806 3808 0
-3807 3808 0
-210 -3649 3809 0
210 -3809 0
3649 -3809 0
-3579 -3809 -3810 0
3579 3809 -3810 0
3579 -3809 3810 0
-3579 3809 3810 0
-3810 -3808 -3811 0
3810 3808 -3811 0
3810 -3808 3811 0
-3810 3808 3811 0
-3810 -3808 3812 0
3810 -3812 0
3808 -3812 0
-3579 -3809 3813 0
3579 -3813 0
3809 -3813 0
3812 3813 -3814 0
-3812 3814 0
-3813 3814 0
-218 -3649 3815 0
218 -3815 0
3649 -3815 0
-3585 -3815 -3816 0
3585 3815 -3816 0
3585 -3815 3816 0
-3585 3815 3816 0
-3816 -3814 -3817 0
3816 3814 -3817 0
3816 -3814 3817 0
-3816 3814 3817 0
-3816 -3814 3818 0
3816 -3818 0
3814 -3818 0
-3585 -3815 3819 0
3585 -3819 0
3815 -3819 0
3818 3819 -3820 0
-3818 3820 0
-3819 3820 0
-226 -3649 3821 0
226 -3821 0
3649 -3821 0
-3591 -3821 -3822 0
3591 3821 -3822 0
3591 -3821 3822 0
-3591 3821 3822 0
-3822 -3820 -3823 0
3822 3820 -3823 0
3822 -3820 3823 0
-3822 3820 3823 0
-3822 -3820 3824 0
3822 -3824 0
3820 -3824 0
-3591 -3821 3825 0
3591 -3825 0
3821 -3825 0
3824 3825 -3826 0
-3824 3826 0
-3825 3826 0
-234 -3649 3827 0
234 -3827 0
3649 -3827 0
-3597 -3827 -3828 0
3597 3827 -3828 0
3597 -3827 3828 0
-3597 3827 3828 0
-3828 -3826 -3829 0
3828 3826 -3829 0
3828 -3826 3829 0
-3828 3826 3829 0
-3828 -3826 3830 0
3828 -3830 0
3826 -3830 0
-3597 -3827 3831 0
3597 -3831 0
3827 -3831 0
3830 3831 -3832 0
-3830 3832 0
-3831 3832 0
-242 -3649 3833 0
242 -3833 0
3649 -3833 0
-3603 -3833 -3834 0
3603 3833 -3834 0
3603 -3833 3834 0
-3603 3833 3834 0
-3834 -3832 -3835 0
3834 3832 -3835 0
3834 -3832 3835 0
-3834 3832 3835 0
-3834 -3832 3836 0
3834 -3836 0
3832 -3836 0
-3603 -3833 3837 0
3603 -3837 0
3833 -3837 0
3836 3837 -3838 0
-3836 3838 0
-3837 3838 0
-250 -3649 3839 0
250 -3839 0
3649 -3839 0
-3609 -3839 -3840 0
3609 3839 -3840 0
3609 -3839 3840 0
-3609 3839 3840 0
-3840 -3838 -3841 0
3840 3838 -3841 0
3840 -3838 3841 0
-3840 3838 3841 0
-3840 -3838 3842 0
3840 -3842 0
3838 -3842 0
-3609 -3839 3843 0
3609 -3843 0
3839 -3843 0
3842 3843 -3844 0
-3842 3844 0
-3843 3844 0
-258 -3649 3845 0
258 -3845 0
3649 -3845 0
-3615 -3845 -3846 0
3615 3845 -3846 0
3615 -3845 3846 0
-3615 3845 3846 0
-3846 -3844 -3847 0
3846 3844 -3847 0
3846 -3844 3847 0
-3846 3844 3847 0
-3846 -3844 3848 0
3846 -3848 0
3844 -3848 0
-3615 -3845 3849 0
3615 -3849 0
3845 -3849 0
3848 3849 -3850 0
-3848 3850 0
-3849 3850 0
-266 -3649 3851 0
266 -3851 0
3649 -3851 0
-3621 -3851 -3852 0
3621 3851 -3852 0
3621 -3851 3852 0
-3621 3851 3852 0
-3852 -3850 -3853 0
3852 3850 -3853 0
3852 -3850 3853 0
-3852 3850 3853 0
-3852 -3850 3854 0
3852 -3854 0
3850 -3854 0
-3621 -3851 3855 0
3621 -3855 0
3851 -3855 0
3854 3855 -3856 0
-3854 3856 0
-3855 3856 0
-274 -3649 3857 0
274 -3857 0
3649 -3857 0
-3627 -3857 -3858 0
3627 3857 -3858 0
3627 -3857 3858 0
-3627 3857 3858 0
-3858 -3856 -3859 0
3858 3856 -3859 0
3858 -3856 3859 0
-3858 3856 3859 0
-3858 -3856 3860 0
3858 -3860 0
3856 -3860 0
-3627 -3857 3861 0
3627 -3861 0
3857 -3861 0
3860 3861 -3862 0
-3860 3862 0
-3861 3862 0
-282 -3649 3863 0
282 -3863 0
3649 -3863 0
-3633 -3863 -3864 0
3633 3863 -3864 0
3633 -3863 3864 0
-3633 3863 3864 0
-3864 -3862 -3865 0
3864 3862 -3865 0
3864 -3862 3865 0
-3864 3862 3865 0
-3864 -3862 3866 0
3864 -3866 0
3862 -3866 0
-3633 -3863 3867 0
3633 -3867 0
3863 -3867 0
3866 3867 -3868 0
-3866 3868 0
-3867 3868 0
-290 -3649 3869 0
290 -3869 0
3649 -3869 0
-3639 -3869 -3870 0
3639 3869 -3870 0
3639 -3869 3870 0
-3639 3869 3870 0
-3870 -3868 -3871 0
3870 3868 -3871 0
3870 -3868 3871 0
-3870 3868 3871 0
-3870 -3868 3872 0
3870 -3872 0
3868 -3872 0
-3639 -3869 3873 0
3639 -3873 0
3869 -3873 0
3872 3873 -3874 0
-3872 3874 0
-3873 3874 0
-298 -3649 3875 0
298 -3875 0
3649 -3875 0
-3645 -3875 -3876 0
3645 3875 -3876 0
3645 -3875 3876 0
-3645 3875 3876 0
-3876 -3874 -3877 0
3876 3874 -3877 0
3876 -3874 3877 0
-3876 3874 3877 0
-3876 -3874 3878 0
3876 -3878 0
3874 -3878 0
-3645 -3875 3879 0
3645 -3879 0
3875 -3879 0
3878 3879 -3880 0
-3878 3880 0
-3879 3880 0
-306 -3649 3881 0
306 -3881 0
3649 -3881 0
-3648 -3881 -3882 0
3648 3881 -3882 0
3648 -3881 3882 0
-3648 3881 3882 0
-3882 -3880 -3883 0
3882 3880 -3883 0
3882 -3880 3883 0
-3882 3880 3883 0
-3882 -3880 3884 0
3882 -3884 0
3880 -3884 0
-3648 -3881 3885 0
3648 -3885 0
3881 -3885 0
3884 3885 -3886 0
-3884 3886 0
-3885 3886 0
-1 -3887 3888 0
1 -3888 0
3887 -3888 0
-3655 -3888 -3889 0
3655 3888 -3889 0
3655 -3888 3889 0
-3655 3888 3889 0
-3655 -3888 3890 0
3655 -3890 0
3888 -3890 0
-4 -3887 3891 0
4 -3891 0
3887 -3891 0
-3661 -3891 -3892 0
3661 3891 -3892 0
3661 -3891 3892 0
-3661 3891 3892 0
-3892 -3890 -3893 0
3892 3890 -3893 0
3892 -3890 3893 0
-3892 3890 3893 0
-3892 -3890 3894 0
3892 -3894 0
3890 -3894 0
-3661 -3891 3895 0
3661 -3895 0
3891 -3895 0
3894 3895 -3896 0
-3894 3896 0
-3895 3896 0
-10 -3887 3897 0
10 -3897 0
3887 -3897 0
-3667 -3897 -3898 0
3667 3897 -3898 0
3667 -3897 3898 0
-3667 3897 3898 0
-3898 -3896 -3899 0
3898 3896 -3899 0
3898 -3896 3899 0
-3898 3896 3899 0
-3898 -3896 3900 0
3898 -3900 0
3896 -3900 0
-3667 -3897 3901 0
3667 -3901 0
3897 -3901 0
3900 3901 -3902 0
-3900 3902 0
-3901 3902 0
-18 -3887 3903 0
18 -3903 0
3887 -3903 0
-3673 -3903 -3904 0
3673 3903 -3904 0
3673 -3903 3904 0
-3673 3903 3904 0
-3904 -3902 -3905 0
3904 3902 -3905 0
3904 -3902 3905 0
-3904 3902 3905 0
-3904 -3902 3906 0
3904 -3906 0
3902 -3906 0
-3673 -3903 3907 0
3673 -3907 0
3903 -3907 0
3906 3907 -3908 0
-3906 3908 0
-3907 3908 0
-26 -3887 3909 0
26 -3909 0
3887 -3909 0
-3679 -3909 -3910 0
3679 3909 -3910 0
3679 -3909 3910 0
-3679 3909 3910 0
-3910 -3908 -3911 0
3910 3908 -3911 0
3910 -3908 3911 0
-3910 3908 3911 0
-3910 -3908 3912 0
3910 -3912 0
3908 -3912 0
-3679 -3909 3913 0
3679 -3913 0
3909 -3913 0
3912 3913 -3914 0
-3912 3914 0
-3913 3914 0
-34 -3887 3915 0
34 -3915 0
3887 -3915 0
-3685 -3915 -3916 0
3685 3915 -3916 0
3685 -3915 3916 0
-3685 3915 3916 0
-3916 -3914 -3917 0
3916 3914 -3917 0
3916 -3914 3917 0
-3916 3914 3917 0
-3916 -3914 3918 0
3916 -3918 0
3914 -3918 0
-3685 -3915 3919 0
3685 -3919 0
3915 -3919 0
3918 3919 -3920 0
-3918 3920 0
-3919 3920 0
-42 -3887 3921 0
42 -3921 0
3887 -3921 0
-3691 -3921 -3922 0
3691 3921 -3922 0
3691 -3921 3922 0
-3691 3921 3922 0
-3922 -3920 -3923 0
3922 3920 -3923 0
3922 -3920 3923 0
-3922 3920 3923 0
-3922 -3920 3924 0
3922 -3924 0
3920 -3924 0
-3691 -3921 3925 0
3691 -3925 0
3921 -3925 0
3924 3925 -3926 0
-3924 3926 0
-3925 3926 0
-50 -3887 3927 0
50 -3927 0
3887 -3927 0
-3697 -3927 -3928 0
3697 3927 -3928 0
3697 -3927 3928 0
-3697 3927 3928 0
-3928 -3926 -3929 0
3928 3926 -3929 0
3928 -3926 3929 0
-3928 3926 3929 0
-3928 -3926 3930 0
3928 -3930 0
3926 -3930 0
-3697 -3927 3931 0
3697 -3931 0
3927 -3931 0
3930 3931 -3932 0
-3930 3932 0
-3931 3932 0
-58 -3887 3933 0
58 -3933 0
3887 -3933 0
-3703 -3933 -3934 0
3703 3933 -3934 0
3703 -3933 3934 0
-3703 3933 3934 0
-3934 -3932 -3935 0
3934 3932 -3935 0
3934 -3932 3935 0
-3934 3932 3935 0
-3934 -3932 3936 0
3934 -3936 0
3932 -3936 0
-3703 -3933 3937 0
3703 -3937 0
3933 -3937 0
3936 3937 -3938 0
-3936 3938 0
-3937 3938 0
-66 -3887 3939 0
66 -3939 0
3887 -3939 0
-3709 -3939 -3940 0
3709 3939 -3940 0
3709 -3939 3940 0
-3709 3939 3940 0
-3940 -3938 -3941 0
3940 3938 -3941 0
3940 -3938 3941 0
-3940 3938 3941 0
-3940 -3938 3942 0
3940 -3942 0
3938 -3942 0
-3709 -3939 3943 0
3709 -3943 0
3939 -3943 0
3942 3943 -3944 0
-3942 3944 0
-3943 3944 0
-74 -3887 3945 0
74 -3945 0
3887 -3945 0
-3715 -3945 -3946 0
3715 3945 -3946 0
3715 -3945 3946 0
-3715 3945 3946 0
-3946 -3944 -3947 0
3946 3944 -3947 0
3946 -3944 3947 0
-3946 3944 3947 0
-3946 -3944 3948 0
3946 -3948 0
3944 -3948 0
-3715 -3945 3949 0
3715 -3949 0
3945 -3949 0
3948 3949 -3950 0
-3948 3950 0
-3949 3950 0
-82 -3887 3951 0
82 -3951 0
3887 -3951 0
-3721 -3951 -3952 0
3721 3951 -3952 0
3721 -3951 3952 0
-3721 3951 3952 0
-3952 -3950 -3953 0
3952 3950 -3953 0
3952 -3950 3953 0
-3952 3950 3953 0
-3952 -3950 3954 0
3952 -3954 0
3950 -3954 0
-3721 -3951 3955 0
3721 -3955 0
3951 -3955 0
3954 3955 -3956 0
-3954 3956 0
-3955 3956 0
-90 -3887 3957 0
90 -3957 0
3887 -3957 0
-3727 -3957 -3958 0
3727 3957 -3958 0
3727 -3957 3958 0
-3727 3957 3958 0
-3958 -3956 -3959 0
3958 3956 -3959 0
3958 -3956 3959 0
-3958 3956 3959 0
-3958 -3956 3960 0
3958 -3960 0
3956 -3960 0
-3727 -3957 3961 0
3727 -3961 0
3957 -3961 0
3960 3961 -3962 0
-3960 3962 0
-3961 3962 0
-98 -3887 3963 0
98 -3963 0
3887 -3963 0
-3733 -3963 -3964 0
3733 3963 -3964 0
3733 -3963 3964 0
-3733 3963 3964 0
-3964 -3962 -3965 0
3964 3962 -3965 0
3964 -3962 3965 0
-3964 3962 3965 0
-3964 -3962 3966 0
3964 -3966 0
3962 -3966 0
-3733 -3963 3967 0
3733 -3967 0
3963 -3967 0
3966 3967 -3968 0
-3966 3968 0
-3967 3968 0
-106 -3887 3969 0
106 -3969 0
3887 -3969 0
-3739 -3969 -3970 0
3739 3969 -3970 0
3739 -3969 3970 0
-3739 3969 3970 0
-3970 -3968 -3971 0
3970 3968 -3971 0
3970 -3968 3971 0
-3970 3968 3971 0
-3970 -3968 3972 0
3970 -3972 0
3968 -3972 0
-3739 -3969 3973 0
3739 -3973 0
3969 -3973 0
3972 3973 -3974 0
-3972 3974 0
-3973 3974 0
-114 -3887 3975 0
114 -3975 0
3887 -3975 0
-3745 -3975 -3976 0
3745 3975 -3976 0
3745 -3975 3976 0
-3745 3975 3976 0
-3976 -3974 -3977 0
3976 3974 -3977 0
3976 -3974 3977 0
-3976 3974 3977 0
-3976 -3974 3978 0
3976 -3978 0
3974 -3978 0
-3745 -3975 3979 0
3745 -3979 0
3975 -3979 0
3978 3979 -3980 0
-3978 3980 0
-3979 3980 0
-122 -3887 3981 0
122 -3981 0
3887 -3981 0
-3751 -3981 -3982 0
3751 3981 -3982 0
3751 -3981 3982 0
-3751 3981 3982 0
-3982 -3980 -3983 0
3982 3980 -3983 0
3982 -3980 3983 0
-3982 3980 3983 0
-3982 -3980 3984 0
3982 -3984 0
3980 -3984 0
-3751 -3981 3985 0
3751 -3985 0
3981 -3985 0
3984 3985 -3986 0
-3984 3986 0
-3985 3986 0
-130 -3887 3987 0
130 -3987 0
3887 -3987 0
-3757 -3987 -3988 0
3757 3987 -3988 0
3757 -3987 3988 0
-3757 3987 3988 0
-3988 -3986 -3989 0
3988 3986 -3989 0
3988 -3986 3989 0
-3988 3986 3989 0
-3988 -3986 3990 0
3988 -3990 0
3986 -3990 0
-3757 -3987 3991 0
3757 -3991 0
3987 -3991 0
3990 3991 -3992 0
-3990 3992 0
-3991 3992 0
-138 -3887 3993 0
138 -3993 0
3887 -3993 0
-3763 -3993 -3994 0
3763 3993 -3994 0
3763 -3993 3994 0
-3763 3993 3994 0
-3994 -3992 -3995 0
3994 3992 -3995 0
3994 -3992 3995 0
-3994 3992 3995 0
-3994 -3992 3996 0
3994 -3996 0
3992 -3996 0
-3763 -3993 3997 0
3763 -3997 0
3993 -3997 0
3996 3997 -3998 0
-3996 3998 0
-3997 3998 0
-146 -3887 3999 0
146 -3999 0
3887 -3999 0
-3769 -3999 -4000 0
3769 3999 -4000 0
3769 -3999 4000 0
-3769 3999 4000 0
-4000 -3998 -4001 0
4000 3998 -4001 0
4000 -3998 4001 0
-4000 3998 4001 0
-4000 -3998 4002 0
4000 -4002 0
3998 -4002 0
-3769 -3999 4003 0
3769 -4003 0
3999 -4003 0
4002 4003 -4004 0
-4002 4004 0
-4003 4004 0
-154 -3887 4005 0
154 -4005 0
3887 -4005 0
-3775 -4005 -4006 0
3775 4005 -4006 0
3775 -4005 4006 0
-3775 4005 4006 0
-4006 -4004 -4007 0
4006 4004 -4007 0
4006 -4004 4007 0
-4006 4004 4007 0
-4006 -4004 4008 0
4006 -4008 0
4004 -4008 0
-3775 -4005 4009 0
3775 -4009 0
4005 -4009 0
4008 4009 -4010 0
-4008 4010 0
-4009 4010 0
-162 -3887 4011 0
162 -4011 0
3887 -4011 0
-3781 -4011 -4012 0
3781 4011 -4012 0
3781 -4011 4012 0
-3781 4011 4012 0
-4012 -4010 -4013 0
4012 4010 -4013 0
4012 -4010 4013 0
-4012 4010 4013 0
-4012 -4010 4014 0
4012 -4014 0
4010 -4014 0
-3781 -4011 4015 0
3781 -4015 0
4011 -4015 0
4014 4015 -4016 0
-4014 4016 0
-4015 4016 0
-170 -3887 4017 0
170 -4017 0
3887 -4017 0
-3787 -4017 -4018 0
3787 4017 -4018 0
3787 -4017 4018 0
-3787 4017 4018 0
-4018 -4016 -4019 0
4018 4016 -4019 0
4018 -4016 4019 0
-4018 4016 4019 0
-4018 -4016 4020 0
4018 -4020 0
4016 -4020 0
-3787 -4017 4021 0
3787 -4021 0
4017 -4021 0
4020 4021 -4022 0
-4020 4022 0
-4021 4022 0
-178 -3887 4023 0
178 -4023 0
3887 -4023 0
-3793 -4023 -4024 0
3793 4023 -4024 0
3793 -4023 4024 0
-3793 4023 4024 0
-4024 -4022 -4025 0
4024 4022 -4025 0
4024 -4022 4025 0
-4024 4022 4025 0
-4024 -4022 4026 0
4024 -4026 0
4022 -4026 0
-3793 -4023 4027 0
3793 -4027 0
4023 -4027 0
4026 4027 -4028 0
-4026 4028 0
-4027 4028 0
-186 -3887 4029 0
186 -4029 0
3887 -4029 0
-3799 -4029 -4030 0
3799 4029 -4030 0
3799 -4029 4030 0
-3799 4029 4030 0
-4030 -4028 -4031 0
4030 4028 -4031 0
4030 -4028 4031 0
-4030 4028 4031 0
-4030 -4028 4032 0
4030 -4032 0
4028 -4032 0
-3799 -4029 4033 0
3799 -4033 0
4029 -4033 0
4032 4033 -4034 0
-4032 4034 0
-4033 4034 0
-194 -3887 4035 0
194 -4035 0
3887 -4035 0
-3805 -4035 -4036 0
3805 4035 -4036 0
3805 -4035 4036 0
-3805 4035 4036 0
-4036 -4034 -4037 0
4036 4034 -4037 0
4036 -4034 4037 0
-4036 4034 4037 0
-4036 -4034 4038 0
4036 -4038 0
4034 -4038 0
-3805 -4035 4039 0
3805 -4039 0
4035 -4039 0
4038 4039 -4040 0
-4038 4040 0
-4039 4040 0
-202 -3887 4041 0
202 -4041 0
3887 -4041 0
-3811 -4041 -4042 0
3811 4041 -4042 0
3811 -4041 4042 0
-3811 4041 4042 0
-4042 -4040 -4043 0
4042 4040 -4043 0
4042 -4040 4043 0
-4042 4040 4043 0
-4042 -4040 4044 0
4042 -4044 0
4040 -4044 0
-3811 -4041 4045 0
3811 -4045 0
4041 -4045 0
4044 4045 -4046 0
-4044 4046 0
-4045 4046 0
-210 -3887 4047 0
210 -4047 0
3887 -4047 0
-3817 -4047 -4048 0
3817 4047 -4048 0
3817 -4047 4048 0
-3817 4047 4048 0
-4048 -4046 -4049 0
4048 4046 -4049 0
4048 -4046 4049 0
-4048 4046 4049 0
-4048 -4046 4050 0
4048 -4050 0
4046 -4050 0
-3817 -4047 4051 0
3817 -4051 0
4047 -4051 0
4050 4051 -4052 0
-4050 4052 0
-4051 4052 0
-218 -3887 4053 0
218 -4053 0
3887 -4053 0
-3823 -4053 -4054 0
3823 4053 -4054 0
3823 -4053 4054 0
-3823 4053 4054 0
-4054 -4052 -4055 0
4054 4052 -4055 0
4054 -4052 4055 0
-4054 4052 4055 0
-4054 -4052 4056 0
4054 -4056 0
4052 -4056 0
-3823 -4053 4057 0
3823 -4057 0
4053 -4057 0
4056 4057 -4058 0
-4056 4058 0
-4057 4058 0
-226 -3887 4059 0
226 -4059 0
3887 -4059 0
-3829 -4059 -4060 0
3829 4059 -4060 0
3829 -4059 4060 0
-3829 4059 4060 0
-4060 -4058 -4061 0
4060 4058 -4061 0
4060 -4058 4061 0
-4060 4058 4061 0
-4060 -4058 4062 0
4060 -4062 0
4058 -4062 0
-3829 -4059 4063 0
3829 -4063 0
4059 -4063 0
4062 4063 -4064 0
-4062 4064 0
-4063 4064 0
-234 -3887 4065 0
234 -4065 0
3887 -4065 0
-3835 -4065 -4066 0
3835 4065 -4066 0
3835 -4065 4066 0
-3835 4065 4066 0
-4066 -4064 -4067 0
4066 4064 -4067 0
4066 -4064 4067 0
-4066 4064 4067 0
-4066 -4064 4068 0
4066 -4068 0
4064 -4068 0
-3835 -4065 4069 0
3835 -4069 0
4065 -4069 0
4068 4069 -4070 0
-4068 4070 0
-4069 4070 0
-242 -3887 4071 0
242 -4071 0
3887 -4071 0
-3841 -4071 -4072 0
3841 4071 -4072 0
3841 -4071 4072 0
-3841 4071 4072 0
-4072 -4070 -4073 0
4072 4070 -4073 0
4072 -4070 4073 0
-4072 4070 4073 0
-4072 -4070 4074 0
4072 -4074 0
4070 -4074 0
-3841 -4071 4075 0
3841 -4075 0
4071 -4075 0
4074 4075 -4076 0
-4074 4076 0
-4075 4076 0
-250 -3887 4077 0
250 -4077 0
3887 -4077 0
-3847 -4077 -4078 0
3847 4077 -4078 0
3847 -4077 4078 0
-3847 4077 4078 0
-4078 -4076 -4079 0
4078 4076 -4079 0
4078 -4076 4079 0
-4078 4076 4079 0
-4078 -4076 4080 0
4078 -4080 0
4076 -4080 0
-3847 -4077 4081 0
3847 -4081 0
4077 -4081 0
4080 4081 -4082 0
-4080 4082 0
-4081 4082 0
-258 -3887 4083 0
258 -4083 0
3887 -4083 0
-3853 -4083 -4084 0
3853 4083 -4084 0
3853 -4083 4084 0
-3853 4083 4084 0
-4084 -4082 -4085 0
4084 4082 -4085 0
4084 -4082 4085 0
-4084 4082 4085 0
-4084 -4082 4086 0
4084 -4086 0
4082 -4086 0
-3853 -4083 4087 0
3853 -4087 0
4083 -4087 0
4086 4087 -4088 0
-4086 4088 0
-4087 4088 0
-266 -3887 4089 0
266 -4089 0
3887 -4089 0
-3859 -4089 -4090 0
3859 4089 -4090 0
3859 -4089 4090 0
-3859 4089 4090 0
-4090 -4088 -4091 0
4090 4088 -4091 0
4090 -4088 4091 0
-4090 4088 4091 0
-4090 -4088 4092 0
4090 -4092 0
4088 -4092 0
-3859 -4089 4093 0
3859 -4093 0
4089 -4093 0
4092 4093 -4094 0
-4092 4094 0
-4093 4094 0
-274 -3887 4095 0
274 -4095 0
3887 -4095 0
-3865 -4095 -4096 0
3865 4095 -4096 0
3865 -4095 4096 0
-3865 4095 4096 0
-4096 -4094 -4097 0
4096 4094 -4097 0
4096 -4094 4097 0
-4096 4094 4097 0
-4096 -4094 4098 0
4096 -4098 0
4094 -4098 0
-3865 -4095 4099 0
3865 -4099 0
4095 -4099 0
4098 4099 -4100 0
-4098 4100 0
-4099 4100 0
-282 -3887 4101 0
282 -4101 0
3887 -4101 0
-3871 -4101 -4102 0
3871 4101 -4102 0
3871 -4101 4102 0
-3871 4101 4102 0
-4102 -4100 -4103 0
4102 4100 -4103 0
4102 -4100 4103 0
-4102 4100 4103 0
-4102 -4100 4104 0
4102 -4104 0
4100 -4104 0
-3871 -4101 4105 0
3871 -4105 0
4101 -4105 0
4104 4105 -4106 0
-4104 4106 0
-4105 4106 0
-290 -3887 4107 0
290 -4107 0
3887 -4107 0
-3877 -4107 -4108 0
3877 4107 -4108 0
3877 -4107 4108 0
-3877 4107 4108 0
-4108 -4106 -4109 0
4108 4106 -4109 0
4108 -4106 4109 0
-4108 4106 4109 0
-4108 -4106 4110 0
4108 -4110 0
4106 -4110 0
-3877 -4107 4111 0
3877 -4111 0
4107 -4111 0
4110 4111 -4112 0
-4110 4112 0
-4111 4112 0
-298 -3887 4113 0
298 -4113 0
3887 -4113 0
-3883 -4113 -4114 0
3883 4113 -4114 0
3883 -4113 4114 0
-3883 4113 4114 0
-4114 -4112 -4115 0
4114 4112 -4115 0
4114 -4112 4115 0
-4114 4112 4115 0
-4114 -4112 4116 0
4114 -4116 0
4112 -4116 0
-3883 -4113 4117 0
3883 -4117 0
4113 -4117 0
4116 4117 -4118 0
-4116 4118 0
-4117 4118 0
-306 -3887 4119 0
306 -4119 0
3887 -4119 0
-3886 -4119 -4120 0
3886 4119 -4120 0
3886 -4119 4120 0
-3886 4119 4120 0
-4120 -4118 -4121 0
4120 4118 -4121 0
4120 -4118 4121 0
-4120 4118 4121 0
-4120 -4118 4122 0
4120 -4122 0
4118 -4122 0
-3886 -4119 4123 0
3886 -4123 0
4119 -4123 0
4122 4123 -4124 0
-4122 4124 0
-4123 4124 0
-1 -4125 4126 0
1 -4126 0
4125 -4126 0
-3893 -4126 -4127 0
3893 4126 -4127 0
3893 -4126 4127 0
-3893 4126 4127 0
-3893 -4126 4128 0
3893 -4128 0
4126 -4128 0
-4 -4125 4129 0
4 -4129 0
4125 -4129 0
-3899 -4129 -4130 0
3899 4129 -4130 0
3899 -4129 4130 0
-3899 4129 4130 0
-4130 -4128 -4131 0
4130 4128 -4131 0
4130 -4128 4131 0
-4130 4128 4131 0
-4130 -4128 4132 0
4130 -4132 0
4128 -4132 0
-3899 -4129 4133 0
3899 -4133 0
4129 -4133 0
4132 4133 -4134 0
-4132 4134 0
-4133 4134 0
-10 -4125 4135 0
10 -4135 0
4125 -4135 0
-3905 -4135 -4136 0
3905 4135 -4136 0
3905 -4135 4136 0
-3905 4135 4136 0
-4136 -4134 -4137 0
4136 4134 -4137 0
4136 -4134 4137 0
-4136 4134 4137 0
-4136 -4134 4138 0
4136 -4138 0
4134 -4138 0
-3905 -4135 4139 0
3905 -4139 0
4135 -4139 0
4138 4139 -4140 0
-4138 4140 0
-4139 4140 0
-18 -4125 4141 0
18 -4141 0
4125 -4141 0
-3911 -4141 -4142 0
3911 4141 -4142 0
3911 -4141 4142 0
-3911 4141 4142 0
-4142 -4140 -4143 0
4142 4140 -4143 0
4142 -4140 4143 0
-4142 4140 4143 0
-4142 -4140 4144 0
4142 -4144 0
4140 -4144 0
-3911 -4141 4145 0
3911 -4145 0
4141 -4145 0
4144 4145 -4146 0
-4144 4146 0
-4145 4146 0
-26 -4125 4147 0
26 -4147 0
4125 -4147 0
-3917 -4147 -4148 0
3917 4147 -4148 0
3917 -4147 4148 0
-3917 4147 4148 0
-4148 -4146 -4149 0
4148 4146 -4149 0
4148 -4146 4149 0
-4148 4146 4149 0
-4148 -4146 4150 0
4148 -4150 0
4146 -4150 0
-3917 -4147 4151 0
3917 -4151 0
4147 -4151 0
4150 4151 -4152 0
-4150 4152 0
-4151 4152 0
-34 -4125 4153 0
34 -4153 0
4125 -4153 0
-3923 -4153 -4154 0
3923 4153 -4154 0
3923 -4153 4154 0
-3923 4153 4154 0
-4154 -4152 -4155 0
4154 4152 -4155 0
4154 -4152 4155 0
-4154 4152 4155 0
-4154 -4152 4156 0
4154 -4156 0
4152 -4156 0
-3923 -4153 4157 0
3923 -4157 0
4153 -4157 0
4156 4157 -4158 0
-4156 4158 0
-4157 4158 0
-42 -4125 4159 0
42 -4159 0
4125 -4159 0
-3929 -4159 -4160 0
3929 4159 -4160 0
3929 -4159 4160 0
-3929 4159 4160 0
-4160 -4158 -4161 0
4160 4158 -4161 0
4160 -4158 4161 0
-4160 4158 4161 0
-4160 -4158 4162 0
4160 -4162 0
4158 -4162 0
-3929 -4159 4163 0
3929 -4163 0
4159 -4163 0
4162 4163 -4164 0
-4162 4164 0
-4163 4164 0
-50 -4125 4165 0
50 -4165 0
4125 -4165 0
-3935 -4165 -4166 0
3935 4165 -4166 0
3935 -4165 4166 0
-3935 4165 4166 0
-4166 -4164 -4167 0
4166 4164 -4167 0
4166 -4164 4167 0
-4166 4164 4167 0
-4166 -4164 4168 0
4166 -4168 0
4164 -4168 0
-3935 -4165 4169 0
3935 -4169 0
4165 -4169 0
4168 4169 -4170 0
-4168 4170 0
-4169 4170 0
-58 -4125 4171 0
58 -4171 0
4125 -4171 0
-3941 -4171 -4172 0
3941 4171 -4172 0
3941 -4171 4172 0
-3941 4171 4172 0
-4172 -4170 -4173 0
4172 4170 -4173 0
4172 -4170 4173 0
-4172 4170 4173 0
-4172 -4170 4174 0
4172 -4174 0
4170 -4174 0
-3941 -4171 4175 0
3941 -4175 0
4171 -4175 0
4174 4175 -4176 0
-4174 4176 0
-4175 4176 0
-66 -4125 4177 0
66 -4177 0
4125 -4177 0
-3947 -4177 -4178 0
3947 4177 -4178 0
3947 -4177 4178 0
-3947 4177 4178 0
-4178 -4176 -4179 0
4178 4176 -4179 0
4178 -4176 4179 0
-4178 4176 4179 0
-4178 -4176 4180 0
4178 -4180 0
4176 -4180 0
-3947 -4177 4181 0
3947 -4181 0
4177 -4181 0
4180 4181 -4182 0
-4180 4182 0
-4181 4182 0
-74 -4125 4183 0
74 -4183 0
4125 -4183 0
-3953 -4183 -4184 0
3953 4183 -4184 0
3953 -4183 4184 0
-3953 4183 4184 0
-4184 -4182 -4185 0
4184 4182 -4185 0
4184 -4182 4185 0
-4184 4182 4185 0
-4184 -4182 4186 0
4184 -4186 0
4182 -4186 0
-3953 -4183 4187 0
3953 -4187 0
4183 -4187 0
4186 4187 -4188 0
-4186 4188 0
-4187 4188 0
-82 -4125 4189 0
82 -4189 0
4125 -4189 0
-3959 -4189 -4190 0
3959 4189 -4190 0
3959 -4189 4190 0
-3959 4189 4190 0
-4190 -4188 -4191 0
4190 4188 -4191 0
4190 -4188 4191 0
-4190 4188 4191 0
-4190 -4188 4192 0
4190 -4192 0
4188 -4192 0
-3959 -4189 4193 0
3959 -4193 0
4189 -4193 0
4192 4193 -4194 0
-4192 4194 0
-4193 4194 0
-90 -4125 4195 0
90 -4195 0
4125 -4195 0
-3965 -4195 -4196 0
3965 4195 -4196 0
3965 -4195 4196 0
-3965 4195 4196 0
-4196 -4194 -4197 0
4196 4194 -4197 0
4196 -4194 4197 0
-4196 4194 4197 0
-4196 -4194 4198 0
4196 -4198 0
4194 -4198 0
-3965 -4195 4199 0
3965 -4199 0
4195 -4199 0
4198 4199 -4200 0
-4198 4200 0
-4199 4200 0
-98 -4125 4201 0
98 -4201 0
4125 -4201 0
-3971 -4201 -4202 0
3971 4201 -4202 0
3971 -4201 4202 0
-3971 4201 4202 0
-4202 -4200 -4203 0
4202 4200 -4203 0
4202 -4200 4203 0
-4202 4200 4203 0
-4202 -4200 4204 0
4202 -4204 0
4200 -4204 0
-3971 -4201 4205 0
3971 -4205 0
4201 -4205 0
4204 4205 -4206 0
-4204 4206 0
-4205 4206 0
-106 -4125 4207 0
106 -4207 0
4125 -4207 0
-3977 -4207 -4208 0
3977 4207 -4208 0
3977 -4207 4208 0
-3977 4207 4208 0
-4208 -4206 -4209 0
4208 4206 -4209 0
4208 -4206 4209 0
-4208 4206 4209 0
-4208 -4206 4210 0
4208 -4210 0
4206 -4210 0
-3977 -4207 4211 0
3977 -4211 0
4207 -4211 0
4210 4211 -4212 0
-4210 4212 0
-4211 4212 0
-114 -4125 4213 0
114 -4213 0
4125 -4213 0
-3983 -4213 -4214 0
3983 4213 -4214 0
3983 -4213 4214 0
-3983 4213 4214 0
-4214 -4212 -4215 0
4214 4212 -4215 0
4214 -4212 4215 0
-4214 4212 4215 0
-4214 -4212 4216 0
4214 -4216 0
4212 -4216 0
-3983 -4213 4217 0
3983 -4217 0
4213 -4217 0
4216 4217 -4218 0
-4216 4218 0
-4217 4218 0
-122 -4125 4219 0
122 -4219 0
4125 -4219 0
-3989 -4219 -4220 0
3989 4219 -4220 0
3989 -4219 4220 0
-3989 4219 4220 0
-4220 -4218 -4221 0
4220 4218 -4221 0
4220 -4218 4221 0
-4220 4218 4221 0
-4220 -4218 4222 0
4220 -4222 0
4218 -4222 0
-3989 -4219 4223 0
3989 -4223 0
4219 -4223 0
4222 4223 -4224 0
-4222 4224 0
-4223 4224 0
-130 -4125 4225 0
130 -4225 0
4125 -4225 0
-3995 -4225 -4226 0
3995 4225 -4226 0
3995 -4225 4226 0
-3995 4225 4226 0
-4226 -4224 -4227 0
4226 4224 -4227 0
4226 -4224 4227 0
-4226 4224 4227 0
-4226 -4224 4228 0
4226 -4228 0
4224 -4228 0
-3995 -4225 4229 0
3995 -4229 0
4225 -4229 0
4228 4229 -4230 0
-4228 4230 0
-4229 4230 0
-138 -4125 4231 0
138 -4231 0
4125 -4231 0
-4001 -4231 -4232 0
4001 4231 -4232 0
4001 -4231 4232 0
-4001 4231 4232 0
-4232 -4230 -4233 0
4232 4230 -4233 0
4232 -4230 4233 0
-4232 4230 4233 0
-4232 -4230 4234 0
4232 -4234 0
4230 -4234 0
-4001 -4231 4235 0
4001 -4235 0
4231 -4235 0
4234 4235 -4236 0
-4234 4236 0
-4235 4236 0
-146 -4125 4237 0
146 -4237 0
4125 -4237 0
-4007 -4237 -4238 0
4007 4237 -4238 0
4007 -4237 4238 0
-4007 4237 4238 0
-4238 -4236 -4239 0
4238 4236 -4239 0
4238 -4236 4239 0
-4238 4236 4239 0
-4238 -4236 4240 0
4238 -4240 0
4236 -4240 0
-4007 -4237 4241 0
4007 -4241 0
4237 -4241 0
4240 4241 -4242 0
-4240 4242 0
-4241 4242 0
-154 -4125 4243 0
154 -4243 0
4125 -4243 0
-4013 -4243 -4244 0
4013 4243 -4244 0
4013 -4243 4244 0
-4013 4243 4244 0
-4244 -4242 -4245 0
4244 4242 -4245 0
4244 -4242 4245 0
-4244 4242 4245 0
-4244 -4242 4246 0
4244 -4246 0
4242 -4246 0
-4013 -4243 4247 0
4013 -4247 0
4243 -4247 0
4246 4247 -4248 0
-4246 4248 0
-4247 4248 0
-162 -4125 4249 0
162 -4249 0
4125 -4249 0
-4019 -4249 -4250 0
4019 4249 -4250 0
4019 -4249 4250 0
-4019 4249 4250 0
-4250 -4248 -4251 0
4250 4248 -4251 0
4250 -4248 4251 0
-4250 4248 4251 0
-4250 -4248 4252 0
4250 -4252 0
4248 -4252 0
-4019 -4249 4253 0
4019 -4253 0
4249 -4253 0
4252 4253 -4254 0
-4252 4254 0
-4253 4254 0
-170 -4125 4255 0
170 -4255 0
4125 -4255 0
-4025 -4255 -4256 0
4025 4255 -4256 0
4025 -4255 4256 0
-4025 4255 4256 0
-4256 -4254 -4257 0
4256 4254 -4257 0
4256 -4254 4257 0
-4256 4254 4257 0
-4256 -4254 4258 0
4256 -4258 0
4254 -4258 0
-4025 -4255 4259 0
4025 -4259 0
4255 -4259 0
4258 4259 -4260 0
-4258 4260 0
-4259 4260 0
-178 -4125 4261 0
178 -4261 0
4125 -4261 0
-4031 -4261 -4262 0
4031 4261 -4262 0
4031 -4261 4262 0
-4031 4261 4262 0
-4262 -4260 -4263 0
4262 4260 -4263 0
4262 -4260 4263 0
-4262 4260 4263 0
-4262 -4260 4264 0
4262 -4264 0
4260 -4264 0
-4031 -4261 4265 0
4031 -4265 0
4261 -4265 0
4264 4265 -4266 0
-4264 4266 0
-4265 4266 0
-186 -4125 4267 0
186 -4267 0
4125 -4267 0
-4037 -4267 -4268 0
4037 4267 -4268 0
4037 -4267 4268 0
-4037 4267 4268 0
-4268 -4266 -4269 0
4268 4266 -4269 0
4268 -4266 4269 0
-4268 4266 4269 0
-4268 -4266 4270 0
4268 -4270 0
4266 -4270 0
-4037 -4267 4271 0
4037 -4271 0
4267 -4271 0
4270 4271 -4272 0
-4270 4272 0
-4271 4272 0
-194 -4125 4273 0
194 -4273 0
4125 -4273 0
-4043 -4273 -4274 0
4043 4273 -4274 0
4043 -4273 4274 0
-4043 4273 4274 0
-4274 -4272 -4275 0
4274 4272 -4275 0
4274 -4272 4275 0
-4274 4272 4275 0
-4274 -4272 4276 0
4274 -4276 0
4272 -4276 0
-4043 -4273 4277 0
4043 -4277 0
4273 -4277 0
4276 4277 -4278 0
-4276 4278 0
-4277 4278 0
-202 -4125 4279 0
202 -4279 0
4125 -4279 0
-4049 -4279 -4280 0
4049 4279 -4280 0
4049 -4279 4280 0
-4049 4279 4280 0
-4280 -4278 -4281 0
4280 4278 -4281 0
4280 -4278 4281 0
-4280 4278 4281 0
-4280 -4278 4282 0
4280 -4282 0
4278 -4282 0
-4049 -4279 4283 0
4049 -4283 0
4279 -4283 0
4282 4283 -4284 0
-4282 4284 0
-4283 4284 0
-210 -4125 4285 0
210 -4285 0
4125 -4285 0
-4055 -4285 -4286 0
4055 4285 -4286 0
4055 -4285 4286 0
-4055 4285 4286 0
-4286 -4284 -4287 0
4286 4284 -4287 0
4286 -4284 4287 0
-4286 4284 4287 0
-4286 -4284 4288 0
4286 -4288 0
4284 -4288 0
-4055 -4285 4289 0
4055 -4289 0
4285 -4289 0
4288 4289 -4290 0
-4288 4290 0
-4289 4290 0
-218 -4125 4291 0
218 -4291 0
4125 -4291 0
-4061 -4291 -4292 0
4061 4291 -4292 0
4061 -4291 4292 0
-4061 4291 4292 0
-4292 -4290 -4293 0
4292 4290 -4293 0
4292 -4290 4293 0
-4292 4290 4293 0
-4292 -4290 4294 0
4292 -4294 0
4290 -4294 0
-4061 -4291 4295 0
4061 -4295 0
4291 -4295 0
4294 4295 -4296 0
-4294 4296 0
-4295 4296 0
-226 -4125 4297 0
226 -4297 0
4125 -4297 0
-4067 -4297 -4298 0
4067 4297 -4298 0
4067 -4297 4298 0
-4067 4297 4298 0
-4298 -4296 -4299 0
4298 4296 -4299 0
4298 -4296 4299 0
-4298 4296 4299 0
-4298 -4296 4300 0
4298 -4300 0
4296 -4300 0
-4067 -4297 4301 0
4067 -4301 0
4297 -4301 0
4300 4301 -4302 0
-4300 4302 0
-4301 4302 0
-234 -4125 4303 0
234 -4303 0
4125 -4303 0
-4073 -4303 -4304 0
4073 4303 -4304 0
4073 -4303 4304 0
-4073 4303 4304 0
-4304 -4302 -4305 0
4304 4302 -4305 0
4304 -4302 4305 0
-4304 4302 4305 0
-4304 -4302 4306 0
4304 -4306 0
4302 -4306 0
-4073 -4303 4307 0
4073 -4307 0
4303 -4307 0
4306 4307 -4308 0
-4306 4308 0
-4307 4308 0
-242 -4125 4309 0
242 -4309 0
4125 -4309 0
-4079 -4309 -4310 0
4079 4309 -4310 0
4079 -4309 4310 0
-4079 4309 4310 0
-4310 -4308 -4311 0
4310 4308 -4311 0
4310 -4308 4311 0
-4310 4308 4311 0
-4310 -4308 4312 0
4310 -4312 0
4308 -4312 0
-4079 -4309 4313 0
4079 -4313 0
4309 -4313 0
4312 4313 -4314 0
-4312 4314 0
-4313 4314 0
-250 -4125 4315 0
250 -4315 0
4125 -4315 0
-4085 -4315 -4316 0
4085 4315 -4316 0
4085 -4315 4316 0
-4085 4315 4316 0
-4316 -4314 -4317 0
4316 4314 -4317 0
4316 -4314 4317 0
-4316 4314 4317 0
-4316 -4314 4318 0
4316 -4318 0
4314 -4318 0
-4085 -4315 4319 0
4085 -4319 0
4315 -4319 0
4318 4319 -4320 0
-4318 4320 0
-4319 4320 0
-258 -4125 4321 0
258 -4321 0
4125 -4321 0
-4091 -4321 -4322 0
4091 4321 -4322 0
4091 -4321 4322 0
-4091 4321 4322 0
-4322 -4320 -4323 0
4322 4320 -4323 0
4322 -4320 4323 0
-4322 4320 4323 0
-4322 -4320 4324 0
4322 -4324 0
4320 -4324 0
-4091 -4321 4325 0
4091 -4325 0
4321 -4325 0
4324 4325 -4326 0
-4324 4326 0
-4325 4326 0
-266 -4125 4327 0
266 -4327 0
4125 -4327 0
-4097 -4327 -4328 0
4097 4327 -4328 0
4097 -4327 4328 0
-4097 4327 4328 0
-4328 -4326 -4329 0
4328 4326 -4329 0
4328 -4326 4329 0
-4328 4326 4329 0
-4328 -4326 4330 0
4328 -4330 0
4326 -4330 0
-4097 -4327 4331 0
4097 -4331 0
4327 -4331 0
4330 4331 -4332 0
-4330 4332 0
-4331 4332 0
-274 -4125 4333 0
274 -4333 0
4125 -4333 0
-4103 -4333 -4334 0
4103 4333 -4334 0
4103 -4333 4334 0
-4103 4333 4334 0
-4334 -4332 -4335 0
4334 4332 -4335 0
4334 -4332 4335 0
-4334 4332 4335 0
-4334 -4332 4336 0
4334 -4336 0
4332 -4336 0
-4103 -4333 4337 0
4103 -4337 0
4333 -4337 0
4336 4337 -4338 0
-4336 4338 0
-4337 4338 0
-282 -4125 4339 0
282 -4339 0
4125 -4339 0
-4109 -4339 -4340 0
4109 4339 -4340 0
4109 -4339 4340 0
-4109 4339 4340 0
-4340 -4338 -4341 0
4340 4338 -4341 0
4340 -4338 4341 0
-4340 4338 4341 0
-4340 -4338 4342 0
4340 -4342 0
4338 -4342 0
-4109 -4339 4343 0
4109 -4343 0
4339 -4343 0
4342 4343 -4344 0
-4342 4344 0
-4343 4344 0
-290 -4125 4345 0
290 -4345 0
4125 -4345 0
-4115 -4345 -4346 0
4115 4345 -4346 0
4115 -4345 4346 0
-4115 4345 4346 0
-4346 -4344 -4347 0
4346 4344 -4347 0
4346 -4344 4347 0
-4346 4344 4347 0
-4346 -4344 4348 0
4346 -4348 0
4344 -4348 0
-4115 -4345 4349 0
4115 -4349 0
4345 -4349 0
4348 4349 -4350 0
-4348 4350 0
-4349 4350 0
-298 -4125 4351 0
298 -4351 0
4125 -4351 0
-4121 -4351 -4352 0
4121 4351 -4352 0
4121 -4351 4352 0
-4121 4351 4352 0
-4352 -4350 -4353 0
4352 4350 -4353 0
4352 -4350 4353 0
-4352 4350 4353 0
-4352 -4350 4354 0
4352 -4354 0
4350 -4354 0
-4121 -4351 4355 0
4121 -4355 0
4351 -4355 0
4354 4355 -4356 0
-4354 4356 0
-4355 4356 0
-306 -4125 4357 0
306 -4357 0
4125 -4357 0
-4124 -4357 -4358 0
4124 4357 -4358 0
4124 -4357 4358 0
-4124 4357 4358 0
-4358 -4356 -4359 0
4358 4356 -4359 0
4358 -4356 4359 0
-4358 4356 4359 0
-4358 -4356 4360 0
4358 -4360 0
4356 -4360 0
-4124 -4357 4361 0
4124 -4361 0
4357 -4361 0
4360 4361 -4362 0
-4360 4362 0
-4361 4362 0
-1 -4363 4364 0
1 -4364 0
4363 -4364 0
-4131 -4364 -4365 0
4131 4364 -4365 0
4131 -4364 4365 0
-4131 4364 4365 0
-4131 -4364 4366 0
4131 -4366 0
4364 -4366 0
-4 -4363 4367 0
4 -4367 0
4363 -4367 0
-4137 -4367 -4368 0
4137 4367 -4368 0
4137 -4367 4368 0
-4137 4367 4368 0
-4368 -4366 -4369 0
4368 4366 -4369 0
4368 -4366 4369 0
-4368 4366 4369 0
-4368 -4366 4370 0
4368 -4370 0
4366 -4370 0
-4137 -4367 4371 0
4137 -4371 0
4367 -4371 0
4370 4371 -4372 0
-4370 4372 0
-4371 4372 0
-10 -4363 4373 0
10 -4373 0
4363 -4373 0
-4143 -4373 -4374 0
4143 4373 -4374 0
4143 -4373 4374 0
-4143 4373 4374 0
-4374 -4372 -4375 0
4374 4372 -4375 0
4374 -4372 4375 0
-4374 4372 4375 0
-4374 -4372 4376 0
4374 -4376 0
4372 -4376 0
-4143 -4373 4377 0
4143 -4377 0
4373 -4377 0
4376 4377 -4378 0
-4376 4378 0
-4377 4378 0
-18 -4363 4379 0
18 -4379 0
4363 -4379 0
-4149 -4379 -4380 0
4149 4379 -4380 0
4149 -4379 4380 0
-4149 4379 4380 0
-4380 -4378 -4381 0
4380 4378 -4381 0
4380 -4378 4381 0
-4380 4378 4381 0
-4380 -4378 4382 0
4380 -4382 0
4378 -4382 0
-4149 -4379 4383 0
4149 -4383 0
4379 -4383 0
4382 4383 -4384 0
-4382 4384 0
-4383 4384 0
-26 -4363 4385 0
26 -4385 0
4363 -4385 0
-4155 -4385 -4386 0
4155 4385 -4386 0
4155 -4385 4386 0
-4155 4385 4386 0
-4386 -4384 -4387 0
4386 4384 -4387 0
4386 -4384 4387 0
-4386 4384 4387 0
-4386 -4384 4388 0
4386 -4388 0
4384 -4388 0
-4155 -4385 4389 0
4155 -4389 0
4385 -4389 0
4388 4389 -4390 0
-4388 4390 0
-4389 4390 0
-34 -4363 4391 0
34 -4391 0
4363 -4391 0
-4161 -4391 -4392 0
4161 4391 -4392 0
4161 -4391 4392 0
-4161 4391 4392 0
-4392 -4390 -4393 0
4392 4390 -4393 0
4392 -4390 4393 0
-4392 4390 4393 0
-4392 -4390 4394 0
4392 -4394 0
4390 -4394 0
-4161 -4391 4395 0
4161 -4395 0
4391 -4395 0
4394 4395 -4396 0
-4394 4396 0
-4395 4396 0
-42 -4363 4397 0
42 -4397 0
4363 -4397 0
-4167 -4397 -4398 0
4167 4397 -4398 0
4167 -4397 4398 0
-4167 4397 4398 0
-4398 -4396 -4399 0
4398 4396 -4399 0
4398 -4396 4399 0
-4398 4396 4399 0
-4398 -4396 4400 0
4398 -4400 0
4396 -4400 0
-4167 -4397 4401 0
4167 -4401 0
4397 -4401 0
4400 4401 -4402 0
-4400 4402 0
-4401 4402 0
-50 -4363 4403 0
50 -4403 0
4363 -4403 0
-4173 -4403 -4404 0
4173 4403 -4404 0
4173 -4403 4404 0
-4173 4403 4404 0
-4404 -4402 -4405 0
4404 4402 -4405 0
4404 -4402 4405 0
-4404 4402 4405 0
-4404 -4402 4406 0
4404 -4406 0
4402 -4406 0
-4173 -4403 4407 0
4173 -4407 0
4403 -4407 0
4406 4407 -4408 0
-4406 4408 0
-4407 4408 0
-58 -4363 4409 0
58 -4409 0
4363 -4409 0
-4179 -4409 -4410 0
4179 4409 -4410 0
4179 -4409 4410 0
-4179 4409 4410 0
-4410 -4408 -4411 0
4410 4408 -4411 0
4410 -4408 4411 0
-4410 4408 4411 0
-4410 -4408 4412 0
4410 -4412 0
4408 -4412 0
-4179 -4409 4413 0
4179 -4413 0
4409 -4413 0
4412 4413 -4414 0
-4412 4414 0
-4413 4414 0
-66 -4363 4415 0
66 -4415 0
4363 -4415 0
-4185 -4415 -4416 0
4185 4415 -4416 0
4185 -4415 4416 0
-4185 4415 4416 0
-4416 -4414 -4417 0
4416 4414 -4417 0
4416 -4414 4417 0
-4416 4414 4417 0
-4416 -4414 4418 0
4416 -4418 0
4414 -4418 0
-4185 -4415 4419 0
4185 -4419 0
4415 -4419 0
4418 4419 -4420 0
-4418 4420 0
-4419 4420 0
-74 -4363 4421 0
74 -4421 0
4363 -4421 0
-4191 -4421 -4422 0
4191 4421 -4422 0
4191 -4421 4422 0
-4191 4421 4422 0
-4422 -4420 -4423 0
4422 4420 -4423 0
4422 -4420 4423 0
-4422 4420 4423 0
-4422 -4420 4424 0
4422 -4424 0
4420 -4424 0
-4191 -4421 4425 0
4191 -4425 0
4421 -4425 0
4424 4425 -4426 0
-4424 4426 0
-4425 4426 0
-82 -4363 4427 0
82 -4427 0
4363 -4427 0
-4197 -4427 -4428 0
4197 4427 -4428 0
4197 -4427 4428 0
-4197 4427 4428 0
-4428 -4426 -4429 0
4428 4426 -4429 0
4428 -4426 4429 0
-4428 4426 4429 0
-4428 -4426 4430 0
4428 -4430 0
4426 -4430 0
-4197 -4427 4431 0
4197 -4431 0
4427 -4431 0
4430 4431 -4432 0
-4430 4432 0
-4431 4432 0
-90 -4363 4433 0
90 -4433 0
4363 -4433 0
-4203 -4433 -4434 0
4203 4433 -4434 0
4203 -4433 4434 0
-4203 4433 4434 0
-4434 -4432 -4435 0
4434 4432 -4435 0
4434 -4432 4435 0
-4434 4432 4435 0
-4434 -4432 4436 0
4434 -4436 0
4432 -4436 0
-4203 -4433 4437 0
4203 -4437 0
4433 -4437 0
4436 4437 -4438 0
-4436 4438 0
-4437 4438 0
-98 -4363 4439 0
98 -4439 0
4363 -4439 0
-4209 -4439 -4440 0
4209 4439 -4440 0
4209 -4439 4440 0
-4209 4439 4440 0
-4440 -4438 -4441 0
4440 4438 -4441 0
4440 -4438 4441 0
-4440 4438 4441 0
-4440 -4438 4442 0
4440 -4442 0
4438 -4442 0
-4209 -4439 4443 0
4209 -4443 0
4439 -4443 0
4442 4443 -4444 0
-4442 4444 0
-4443 4444 0
-106 -4363 4445 0
106 -4445 0
4363 -4445 0
-4215 -4445 -4446 0
4215 4445 -4446 0
4215 -4445 4446 0
-4215 4445 4446 0
-4446 -4444 -4447 0
4446 4444 -4447 0
4446 -4444 4447 0
-4446 4444 4447 0
-4446 -4444 4448 0
4446 -4448 0
4444 -4448 0
-4215 -4445 4449 0
4215 -4449 0
4445 -4449 0
4448 4449 -4450 0
-4448 4450 0
-4449 4450 0
-114 -4363 4451 0
114 -4451 0
4363 -4451 0
-4221 -4451 -4452 0
4221 4451 -4452 0
4221 -4451 4452 0
-4221 4451 4452 0
-4452 -4450 -4453 0
4452 4450 -4453 0
4452 -4450 4453 0
-4452 4450 4453 0
-4452 -4450 4454 0
4452 -4454 0
4450 -4454 0
-4221 -4451 4455 0
4221 -4455 0
4451 -4455 0
4454 4455 -4456 0
-4454 4456 0
-4455 4456 0
-122 -4363 4457 0
122 -4457 0
4363 -4457 0
-4227 -4457 -4458 0
4227 4457 -4458 0
4227 -4457 4458 0
-4227 4457 4458 0
-4458 -4456 -4459 0
4458 4456 -4459 0
4458 -4456 4459 0
-4458 4456 4459 0
-4458 -4456 4460 0
4458 -4460 0
4456 -4460 0
-4227 -4457 4461 0
4227 -4461 0
4457 -4461 0
4460 4461 -4462 0
-4460 4462 0
-4461 4462 0
-130 -4363 4463 0
130 -4463 0
4363 -4463 0
-4233 -4463 -4464 0
4233 4463 -4464 0
4233 -4463 4464 0
-4233 4463 4464 0
-4464 -4462 -4465 0
4464 4462 -4465 0
4464 -4462 4465 0
-4464 4462 4465 0
-4464 -4462 4466 0
4464 -4466 0
4462 -4466 0
-4233 -4463 4467 0
4233 -4467 0
4463 -4467 0
4466 4467 -4468 0
-4466 4468 0
-4467 4468 0
-138 -4363 4469 0
138 -4469 0
4363 -4469 0
-4239 -4469 -4470 0
4239 4469 -4470 0
4239 -4469 4470 0
-4239 4469 4470 0
-4470 -4468 -4471 0
4470 4468 -4471 0
4470 -4468 4471 0
-4470 4468 4471 0
-4470 -4468 4472 0
4470 -4472 0
4468 -4472 0
-4239 -4469 4473 0
4239 -4473 0
4469 -4473 0
4472 4473 -4474 0
-4472 4474 0
-4473 4474 0
-146 -4363 4475 0
146 -4475 0
4363 -4475 0
-4245 -4475 -4476 0
4245 4475 -4476 0
4245 -4475 4476 0
-4245 4475 4476 0
-4476 -4474 -4477 0
4476 4474 -4477 0
4476 -4474 4477 0
-4476 4474 4477 0
-4476 -4474 4478 0
4476 -4478 0
4474 -4478 0
-4245 -4475 4479 0
4245 -4479 0
4475 -4479 0
4478 4479 -4480 0
-4478 4480 0
-4479 4480 0
-154 -4363 4481 0
154 -4481 0
4363 -4481 0
-4251 -4481 -4482 0
4251 4481 -4482 0
4251 -4481 4482 0
-4251 4481 4482 0
-4482 -4480 -4483 0
4482 4480 -4483 0
4482 -4480 4483 0
-4482 4480 4483 0
-4482 -4480 4484 0
4482 -4484 0
4480 -4484 0
-4251 -4481 4485 0
4251 -4485 0
4481 -4485 0
4484 4485 -4486 0
-4484 4486 0
-4485 4486 0
-162 -4363 4487 0
162 -4487 0
4363 -4487 0
-4257 -4487 -4488 0
4257 4487 -4488 0
4257 -4487 4488 0
-4257 4487 4488 0
-4488 -4486 -4489 0
4488 4486 -4489 0
4488 -4486 4489 0
-4488 4486 4489 0
-4488 -4486 4490 0
4488 -4490 0
4486 -4490 0
-4257 -4487 4491 0
4257 -4491 0
4487 -4491 0
4490 4491 -4492 0
-4490 4492 0
-4491 4492 0
-170 -4363 4493 0
170 -4493 0
4363 -4493 0
-4263 -4493 -4494 0
4263 4493 -4494 0
4263 -4493 4494 0
-4263 4493 4494 0
-4494 -4492 -4495 0
4494 4492 -4495 0
4494 -4492 4495 0
-4494 4492 4495 0
-4494 -4492 4496 0
4494 -4496 0
4492 -4496 0
-4263 -4493 4497 0
4263 -4497 0
4493 -4497 0
4496 4497 -4498 0
-4496 4498 0
-4497 4498 0
-178 -4363 4499 0
178 -4499 0
4363 -4499 0
-4269 -4499 -4500 0
4269 4499 -4500 0
4269 -4499 4500 0
-4269 4499 4500 0
-4500 -4498 -4501 0
4500 4498 -4501 0
4500 -4498 4501 0
-4500 4498 4501 0
-4500 -4498 4502 0
4500 -4502 0
4498 -4502 0
-4269 -4499 4503 0
4269 -4503 0
4499 -4503 0
4502 4503 -4504 0
-4502 4504 0
-4503 4504 0
-186 -4363 4505 0
186 -4505 0
4363 -4505 0
-4275 -4505 -4506 0
4275 4505 -4506 0
4275 -4505 4506 0
-4275 4505 4506 0
-4506 -4504 -4507 0
4506 4504 -4507 0
4506 -4504 4507 0
-4506 4504 4507 0
-4506 -4504 4508 0
4506 -4508 0
4504 -4508 0
-4275 -4505 4509 0
4275 -4509 0
4505 -4509 0
4508 4509 -4510 0
-4508 4510 0
-4509 4510 0
-194 -4363 4511 0
194 -4511 0
4363 -4511 0
-4281 -4511 -4512 0
4281 4511 -4512 0
4281 -4511 4512 0
-4281 4511 4512 0
-4512 -4510 -4513 0
4512 4510 -4513 0
4512 -4510 4513 0
-4512 4510 4513 0
-4512 -4510 4514 0
4512 -4514 0
4510 -4514 0
-4281 -4511 4515 0
4281 -4515 0
4511 -4515 0
4514 4515 -4516 0
-4514 4516 0
-4515 4516 0
-202 -4363 4517 0
202 -4517 0
4363 -4517 0
-4287 -4517 -4518 0
4287 4517 -4518 0
4287 -4517 4518 0
-4287 4517 4518 0
-4518 -4516 -4519 0
4518 4516 -4519 0
4518 -4516 4519 0
-4518 4516 4519 0
-4518 -4516 4520 0
4518 -4520 0
4516 -4520 0
-4287 -4517 4521 0
4287 -4521 0
4517 -4521 0
4520 4521 -4522 0
-4520 4522 0
-4521 4522 0
-210 -4363 4523 0
210 -4523 0
4363 -4523 0
-4293 -4523 -4524 0
4293 4523 -4524 0
4293 -4523 4524 0
-4293 4523 4524 0
-4524 -4522 -4525 0
4524 4522 -4525 0
4524 -4522 4525 0
-4524 4522 4525 0
-4524 -4522 4526 0
4524 -4526 0
4522 -4526 0
-4293 -4523 4527 0
4293 -4527 0
4523 -4527 0
4526 4527 -4528 0
-4526 4528 0
-4527 4528 0
-218 -4363 4529 0
218 -4529 0
4363 -4529 0
-4299 -4529 -4530 0
4299 4529 -4530 0
4299 -4529 4530 0
-4299 4529 4530 0
-4530 -4528 -4531 0
4530 4528 -4531 0
4530 -4528 4531 0
-4530 4528 4531 0
-4530 -4528 4532 0
4530 -4532 0
4528 -4532 0
-4299 -4529 4533 0
4299 -4533 0
4529 -4533 0
4532 4533 -4534 0
-4532 4534 0
-4533 4534 0
-226 -4363 4535 0
226 -4535 0
4363 -4535 0
-4305 -4535 -4536 0
4305 4535 -4536 0
4305 -4535 4536 0
-4305 4535 4536 0
-4536 -4534 -4537 0
4536 4534 -4537 0
4536 -4534 4537 0
-4536 4534 4537 0
-4536 -4534 4538 0
4536 -4538 0
4534 -4538 0
-4305 -4535 4539 0
4305 -4539 0
4535 -4539 0
4538 4539 -4540 0
-4538 4540 0
-4539 4540 0
-234 -4363 4541 0
234 -4541 0
4363 -4541 0
-4311 -4541 -4542 0
4311 4541 -4542 0
4311 -4541 4542 0
-4311 4541 4542 0
-4542 -4540 -4543 0
4542 4540 -4543 0
4542 -4540 4543 0
-4542 4540 4543 0
-4542 -4540 4544 0
4542 -4544 0
4540 -4544 0
-4311 -4541 4545 0
4311 -4545 0
4541 -4545 0
4544 4545 -4546 0
-4544 4546 0
-4545 4546 0
-242 -4363 4547 0
242 -4547 0
4363 -4547 0
-4317 -4547 -4548 0
4317 4547 -4548 0
4317 -4547 4548 0
-4317 4547 4548 0
-4548 -4546 -4549 0
4548 4546 -4549 0
4548 -4546 4549 0
-4548 4546 4549 0
-4548 -4546 4550 0
4548 -4550 0
4546 -4550 0
-4317 -4547 4551 0
4317 -4551 0
4547 -4551 0
4550 4551 -4552 0
-4550 4552 0
-4551 4552 0
-250 -4363 4553 0
250 -4553 0
4363 -4553 0
-4323 -4553 -4554 0
4323 4553 -4554 0
4323 -4553 4554 0
-4323 4553 4554 0
-4554 -4552 -4555 0
4554 4552 -4555 0
4554 -4552 4555 0
-4554 4552 4555 0
-4554 -4552 4556 0
4554 -4556 0
4552 -4556 0
-4323 -4553 4557 0
4323 -4557 0
4553 -4557 0
4556 4557 -4558 0
-4556 4558 0
-4557 4558 0
-258 -4363 4559 0
258 -4559 0
4363 -4559 0
-4329 -4559 -4560 0
4329 4559 -4560 0
4329 -4559 4560 0
-4329 4559 4560 0
-4560 -4558 -4561 0
4560 4558 -4561 0
4560 -4558 4561 0
-4560 4558 4561 0
-4560 -4558 4562 0
4560 -4562 0
4558 -4562 0
-4329 -4559 4563 0
4329 -4563 0
4559 -4563 0
4562 4563 -4564 0
-4562 4564 0
-4563 4564 0
-266 -4363 4565 0
266 -4565 0
4363 -4565 0
-4335 -4565 -4566 0
4335 4565 -4566 0
4335 -4565 4566 0
-4335 4565 4566 0
-4566 -4564 -4567 0
4566 4564 -4567 0
4566 -4564 4567 0
-4566 4564 4567 0
-4566 -4564 4568 0
4566 -4568 0
4564 -4568 0
-4335 -4565 4569 0
4335 -4569 0
4565 -4569 0
4568 4569 -4570 0
-4568 4570 0
-4569 4570 0
-274 -4363 4571 0
274 -4571 0
4363 -4571 0
-4341 -4571 -4572 0
4341 4571 -4572 0
4341 -4571 4572 0
-4341 4571 4572 0
-4572 -4570 -4573 0
4572 4570 -4573 0
4572 -4570 4573 0
-4572 4570 4573 0
-4572 -4570 4574 0
4572 -4574 0
4570 -4574 0
-4341 -4571 4575 0
4341 -4575 0
4571 -4575 0
4574 4575 -4576 0
-4574 4576 0
-4575 4576 0
-282 -4363 4577 0
282 -4577 0
4363 -4577 0
-4347 -4577 -4578 0
4347 4577 -4578 0
4347 -4577 4578 0
-4347 4577 4578 0
-4578 -4576 -4579 0
4578 4576 -4579 0
4578 -4576 4579 0
-4578 4576 4579 0
-4578 -4576 4580 0
4578 -4580 0
4576 -4580 0
-4347 -4577 4581 0
4347 -4581 0
4577 -4581 0
4580 4581 -4582 0
-4580 4582 0
-4581 4582 0
-290 -4363 4583 0
290 -4583 0
4363 -4583 0
-4353 -4583 -4584 0
4353 4583 -4584 0
4353 -4583 4584 0
-4353 4583 4584 0
-4584 -4582 -4585 0
4584 4582 -4585 0
4584 -4582 4585 0
-4584 4582 4585 0
-4584 -4582 4586 0
4584 -4586 0
4582 -4586 0
-4353 -4583 4587 0
4353 -4587 0
4583 -4587 0
4586 4587 -4588 0
-4586 4588 0
-4587 4588 0
-298 -4363 4589 0
298 -4589 0
4363 -4589 0
-4359 -4589 -4590 0
4359 4589 -4590 0
4359 -4589 4590 0
-4359 4589 4590 0
-4590 -4588 -4591 0
4590 4588 -4591 0
4590 -4588 4591 0
-4590 4588 4591 0
-4590 -4588 4592 0
4590 -4592 0
4588 -4592 0
-4359 -4589 4593 0
4359 -4593 0
4589 -4593 0
4592 4593 -4594 0
-4592 4594 0
-4593 4594 0
-306 -4363 4595 0
306 -4595 0
4363 -4595 0
-4362 -4595 -4596 0
4362 4595 -4596 0
4362 -4595 4596 0
-4362 4595 4596 0
-4596 -4594 -4597 0
4596 4594 -4597 0
4596 -4594 4597 0
-4596 4594 4597 0
-4596 -4594 4598 0
4596 -4598 0
4594 -4598 0
-4362 -4595 4599 0
4362 -4599 0
4595 -4599 0
4598 4599 -4600 0
-4598 4600 0
-4599 4600 0
-1 -4601 4602 0
1 -4602 0
4601 -4602 0
-4369 -4602 -4603 0
4369 4602 -4603 0
4369 -4602 4603 0
-4369 4602 4603 0
-4369 -4602 4604 0
4369 -4604 0
4602 -4604 0
-4 -4601 4605 0
4 -4605 0
4601 -4605 0
-4375 -4605 -4606 0
4375 4605 -4606 0
4375 -4605 4606 0
-4375 4605 4606 0
-4606 -4604 -4607 0
4606 4604 -4607 0
4606 -4604 4607 0
-4606 4604 4607 0
-4606 -4604 4608 0
4606 -4608 0
4604 -4608 0
-4375 -4605 4609 0
4375 -4609 0
4605 -4609 0
4608 4609 -4610 0
-4608 4610 0
-4609 4610 0
-10 -4601 4611 0
10 -4611 0
4601 -4611 0
-4381 -4611 -4612 0
4381 4611 -4612 0
4381 -4611 4612 0
-4381 4611 4612 0
-4612 -4610 -4613 0
4612 4610 -4613 0
4612 -4610 4613 0
-4612 4610 4613 0
-4612 -4610 4614 0
4612 -4614 0
4610 -4614 0
-4381 -4611 4615 0
4381 -4615 0
4611 -4615 0
4614 4615 -4616 0
-4614 4616 0
-4615 4616 0
-18 -4601 4617 0
18 -4617 0
4601 -4617 0
-4387 -4617 -4618 0
4387 4617 -4618 0
4387 -4617 4618 0
-4387 4617 4618 0
-4618 -4616 -4619 0
4618 4616 -4619 0
4618 -4616 4619 0
-4618 4616 4619 0
-4618 -4616 4620 0
4618 -4620 0
4616 -4620 0
-4387 -4617 4621 0
4387 -4621 0
4617 -4621 0
4620 4621 -4622 0
-4620 4622 0
-4621 4622 0
-26 -4601 4623 0
26 -4623 0
4601 -4623 0
-4393 -4623 -4624 0
4393 4623 -4624 0
4393 -4623 4624 0
-4393 4623 4624 0
-4624 -4622 -4625 0
4624 4622 -4625 0
4624 -4622 4625 0
-4624 4622 4625 0
-4624 -4622 4626 0
4624 -4626 0
4622 -4626 0
-4393 -4623 4627 0
4393 -4627 0
4623 -4627 0
4626 4627 -4628 0
-4626 4628 0
-4627 4628 0
-34 -4601 4629 0
34 -4629 0
4601 -4629 0
-4399 -4629 -4630 0
4399 4629 -4630 0
4399 -4629 4630 0
-4399 4629 4630 0
-4630 -4628 -4631 0
4630 4628 -4631 0
4630 -4628 4631 0
-4630 4628 4631 0
-4630 -4628 4632 0
4630 -4632 0
4628 -4632 0
-4399 -4629 4633 0
4399 -4633 0
4629 -4633 0
4632 4633 -4634 0
-4632 4634 0
-4633 4634 0
-42 -4601 4635 0
42 -4635 0
4601 -4635 0
-4405 -4635 -4636 0
4405 4635 -4636 0
4405 -4635 4636 0
-4405 4635 4636 0
-4636 -4634 -4637 0
4636 4634 -4637 0
4636 -4634 4637 0
-4636 4634 4637 0
-4636 -4634 4638 0
4636 -4638 0
4634 -4638 0
-4405 -4635 4639 0
4405 -4639 0
4635 -4639 0
4638 4639 -4640 0
-4638 4640 0
-4639 4640 0
-50 -4601 4641 0
50 -4641 0
4601 -4641 0
-4411 -4641 -4642 0
4411 4641 -4642 0
4411 -4641 4642 0
-4411 4641 4642 0
-4642 -4640 -4643 0
4642 4640 -4643 0
4642 -4640 4643 0
-4642 4640 4643 0
-4642 -4640 4644 0
4642 -4644 0
4640 -4644 0
-4411 -4641 4645 0
4411 -4645 0
4641 -4645 0
4644 4645 -4646 0
-4644 4646 0
-4645 4646 0
-58 -4601 4647 0
58 -4647 0
4601 -4647 0
-4417 -4647 -4648 0
4417 4647 -4648 0
4417 -4647 4648 0
-4417 4647 4648 0
-4648 -4646 -4649 0
4648 4646 -4649 0
4648 -4646 4649 0
-4648 4646 4649 0
-4648 -4646 4650 0
4648 -4650 0
4646 -4650 0
-4417 -4647 4651 0
4417 -4651 0
4647 -4651 0
4650 4651 -4652 0
-4650 4652 0
-4651 4652 0
-66 -4601 4653 0
66 -4653 0
4601 -4653 0
-4423 -4653 -4654 0
4423 4653 -4654 0
4423 -4653 4654 0
-4423 4653 4654 0
-4654 -4652 -4655 0
4654 4652 -4655 0
4654 -4652 4655 0
-4654 4652 4655 0
-4654 -4652 4656 0
4654 -4656 0
4652 -4656 0
-4423 -4653 4657 0
4423 -4657 0
4653 -4657 0
4656 4657 -4658 0
-4656 4658 0
-4657 4658 0
-74 -4601 4659 0
74 -4659 0
4601 -4659 0
-4429 -4659 -4660 0
4429 4659 -4660 0
4429 -4659 4660 0
-4429 4659 4660 0
-4660 -4658 -4661 0
4660 4658 -4661 0
4660 -4658 4661 0
-4660 4658 4661 0
-4660 -4658 4662 0
4660 -4662 0
4658 -4662 0
-4429 -4659 4663 0
4429 -4663 0
4659 -4663 0
4662 4663 -4664 0
-4662 4664 0
-4663 4664 0
-82 -4601 4665 0
82 -4665 0
4601 -4665 0
-4435 -4665 -4666 0
4435 4665 -4666 0
4435 -4665 4666 0
-4435 4665 4666 0
-4666 -4664 -4667 0
4666 4664 -4667 0
4666 -4664 4667 0
-4666 4664 4667 0
-4666 -4664 4668 0
4666 -4668 0
4664 -4668 0
-4435 -4665 4669 0
4435 -4669 0
4665 -4669 0
4668 4669 -4670 0
-4668 4670 0
-4669 4670 0
-90 -4601 4671 0
90 -4671 0
4601 -4671 0
-4441 -4671 -4672 0
4441 4671 -4672 0
4441 -4671 4672 0
-4441 4671 4672 0
-4672 -4670 -4673 0
4672 4670 -4673 0
4672 -4670 4673 0
-4672 4670 4673 0
-4672 -4670 4674 0
4672 -4674 0
4670 -4674 0
-4441 -4671 4675 0
4441 -4675 0
4671 -4675 0
4674 4675 -4676 0
-4674 4676 0
-4675 4676 0
-98 -4601 4677 0
98 -4677 0
4601 -4677 0
-4447 -4677 -4678 0
4447 4677 -4678 0
4447 -4677 4678 0
-4447 4677 4678 0
-4678 -4676 -4679 0
4678 4676 -4679 0
4678 -4676 4679 0
-4678 4676 4679 0
-4678 -4676 4680 0
4678 -4680 0
4676 -4680 0
-4447 -4677 4681 0
4447 -4681 0
4677 -4681 0
4680 4681 -4682 0
-4680 4682 0
-4681 4682 0
-106 -4601 4683 0
106 -4683 0
4601 -4683 0
-4453 -4683 -4684 0
4453 4683 -4684 0
4453 -4683 4684 0
-4453 4683 4684 0
-4684 -4682 -4685 0
4684 4682 -4685 0
4684 -4682 4685 0
-4684 4682 4685 0
-4684 -4682 4686 0
4684 -4686 0
4682 -4686 0
-4453 -4683 4687 0
4453 -4687 0
4683 -4687 0
4686 4687 -4688 0
-4686 4688 0
-4687 4688 0
-114 -4601 4689 0
114 -4689 0
4601 -4689 0
-4459 -4689 -4690 0
4459 4689 -4690 0
4459 -4689 4690 0
-4459 4689 4690 0
-4690 -4688 -4691 0
4690 4688 -4691 0
4690 -4688 4691 0
-4690 4688 4691 0
-4690 -4688 4692 0
4690 -4692 0
4688 -4692 0
-4459 -4689 4693 0
4459 -4693 0
4689 -4693 0
4692 4693 -4694 0
-4692 4694 0
-4693 4694 0
-122 -4601 4695 0
122 -4695 0
4601 -4695 0
-4465 -4695 -4696 0
4465 4695 -4696 0
4465 -4695 4696 0
-4465 4695 4696 0
-4696 -4694 -4697 0
4696 4694 -4697 0
4696 -4694 4697 0
-4696 4694 4697 0
-4696 -4694 4698 0
4696 -4698 0
4694 -4698 0
-4465 -4695 4699 0
4465 -4699 0
4695 -4699 0
4698 4699 -4700 0
-4698 4700 0
-4699 4700 0
-130 -4601 4701 0
130 -4701 0
4601 -4701 0
-4471 -4701 -4702 0
4471 4701 -4702 0
4471 -4701 4702 0
-4471 4701 4702 0
-4702 -4700 -4703 0
4702 4700 -4703 0
4702 -4700 4703 0
-4702 4700 4703 0
-4702 -4700 4704 0
4702 -4704 0
4700 -4704 0
-4471 -4701 4705 0
4471 -4705 0
4701 -4705 0
4704 4705 -4706 0
-4704 4706 0
-4705 4706 0
-138 -4601 4707 0
138 -4707 0
4601 -4707 0
-4477 -4707 -4708 0
4477 4707 -4708 0
4477 -4707 4708 0
-4477 4707 4708 0
-4708 -4706 -4709 0
4708 4706 -4709 0
4708 -4706 4709 0
-4708 4706 4709 0
-4708 -4706 4710 0
4708 -4710 0
4706 -4710 0
-4477 -4707 4711 0
4477 -4711 0
4707 -4711 0
4710 4711 -4712 0
-4710 4712 0
-4711 4712 0
-146 -4601 4713 0
146 -4713 0
4601 -4713 0
-4483 -4713 -4714 0
4483 4713 -4714 0
4483 -4713 4714 0
-4483 4713 4714 0
-4714 -4712 -4715 0
4714 4712 -4715 0
4714 -4712 4715 0
-4714 4712 4715 0
-4714 -4712 4716 0
4714 -4716 0
4712 -4716 0
-4483 -4713 4717 0
4483 -4717 0
4713 -4717 0
4716 4717 -4718 0
-4716 4718 0
-4717 4718 0
-154 -4601 4719 0
154 -4719 0
4601 -4719 0
-4489 -4719 -4720 0
4489 4719 -4720 0
4489 -4719 4720 0
-4489 4719 4720 0
-4720 -4718 -4721 0
4720 4718 -4721 0
4720 -4718 4721 0
-4720 4718 4721 0
-4720 -4718 4722 0
4720 -4722 0
4718 -4722 0
-4489 -4719 4723 0
4489 -4723 0
4719 -4723 0
4722 4723 -4724 0
-4722 4724 0
-4723 4724 0
-162 -4601 4725 0
162 -4725 0
4601 -4725 0
-4495 -4725 -4726 0
4495 4725 -4726 0
4495 -4725 4726 0
-4495 4725 4726 0
-4726 -4724 -4727 0
4726 4724 -4727 0
4726 -4724 4727 0
-4726 4724 4727 0
-4726 -4724 4728 0
4726 -4728 0
4724 -4728 0
-4495 -4725 4729 0
4495 -4729 0
4725 -4729 0
4728 4729 -4730 0
-4728 4730 0
-4729 4730 0
-170 -4601 4731 0
170 -4731 0
4601 -4731 0
-4501 -4731 -4732 0
4501 4731 -4732 0
4501 -4731 4732 0
-4501 4731 4732 0
-4732 -4730 -4733 0
4732 4730 -4733 0
4732 -4730 4733 0
-4732 4730 4733 0
-4732 -4730 4734 0
4732 -4734 0
4730 -4734 0
-4501 -4731 4735 0
4501 -4735 0
4731 -4735 0
4734 4735 -4736 0
-4734 4736 0
-4735 4736 0
-178 -4601 4737 0
178 -4737 0
4601 -4737 0
-4507 -4737 -4738 0
4507 4737 -4738 0
4507 -4737 4738 0
-4507 4737 4738 0
-4738 -4736 -4739 0
4738 4736 -4739 0
4738 -4736 4739 0
-4738 4736 4739 0
-4738 -4736 4740 0
4738 -4740 0
4736 -4740 0
-4507 -4737 4741 0
4507 -4741 0
4737 -4741 0
4740 4741 -4742 0
-4740 4742 0
-4741 4742 0
-186 -4601 4743 0
186 -4743 0
4601 -4743 0
-4513 -4743 -4744 0
4513 4743 -4744 0
4513 -4743 4744 0
-4513 4743 4744 0
-4744 -4742 -4745 0
4744 4742 -4745 0
4744 -4742 4745 0
-4744 4742 4745 0
-4744 -4742 4746 0
4744 -4746 0
4742 -4746 0
-4513 -4743 4747 0
4513 -4747 0
4743 -4747 0
4746 4747 -4748 0
-4746 4748 0
-4747 4748 0
-194 -4601 4749 0
194 -4749 0
4601 -4749 0
-4519 -4749 -4750 0
4519 4749 -4750 0
4519 -4749 4750 0
-4519 4749 4750 0
-4750 -4748 -4751 0
4750 4748 -4751 0
4750 -4748 4751 0
-4750 4748 4751 0
-4750 -4748 4752 0
4750 -4752 0
4748 -4752 0
-4519 -4749 4753 0
4519 -4753 0
4749 -4753 0
4752 4753 -4754 0
-4752 4754 0
-4753 4754 0
-202 -4601 4755 0
202 -4755 0
4601 -4755 0
-4525 -4755 -4756 0
4525 4755 -4756 0
4525 -4755 4756 0
-4525 4755 4756 0
-4756 -4754 -4757 0
4756 4754 -4757 0
4756 -4754 4757 0
-4756 4754 4757 0
-4756 -4754 4758 0
4756 -4758 0
4754 -4758 0
-4525 -4755 4759 0
4525 -4759 0
4755 -4759 0
4758 4759 -4760 0
-4758 4760 0
-4759 4760 0
-210 -4601 4761 0
210 -4761 0
4601 -4761 0
-4531 -4761 -4762 0
4531 4761 -4762 0
4531 -4761 4762 0
-4531 4761 4762 0
-4762 -4760 -4763 0
4762 4760 -4763 0
4762 -4760 4763 0
-4762 4760 4763 0
-4762 -4760 4764 0
4762 -4764 0
4760 -4764 0
-4531 -4761 4765 0
4531 -4765 0
4761 -4765 0
4764 4765 -4766 0
-4764 4766 0
-4765 4766 0
-218 -4601 4767 0
218 -4767 0
4601 -4767 0
-4537 -4767 -4768 0
4537 4767 -4768 0
4537 -4767 4768 0
-4537 4767 4768 0
-4768 -4766 -4769 0
4768 4766 -4769 0
4768 -4766 4769 0
-4768 4766 4769 0
-4768 -4766 4770 0
4768 -4770 0
4766 -4770 0
-4537 -4767 4771 0
4537 -4771 0
4767 -4771 0
4770 4771 -4772 0
-4770 4772 0
-4771 4772 0
-226 -4601 4773 0
226 -4773 0
4601 -4773 0
-4543 -4773 -4774 0
4543 4773 -4774 0
4543 -4773 4774 0
-4543 4773 4774 0
-4774 -4772 -4775 0
4774 4772 -4775 0
4774 -4772 4775 0
-4774 4772 4775 0
-4774 -4772 4776 0
4774 -4776 0
4772 -4776 0
-4543 -4773 4777 0
4543 -4777 0
4773 -4777 0
4776 4777 -4778 0
-4776 4778 0
-4777 4778 0
-234 -4601 4779 0
234 -4779 0
4601 -4779 0
-4549 -4779 -4780 0
4549 4779 -4780 0
4549 -4779 4780 0
-4549 4779 4780 0
-4780 -4778 -4781 0
4780 4778 -4781 0
4780 -4778 4781 0
-4780 4778 4781 0
-4780 -4778 4782 0
4780 -4782 0
4778 -4782 0
-4549 -4779 4783 0
4549 -4783 0
4779 -4783 0
4782 4783 -4784 0
-4782 4784 0
-4783 4784 0
-242 -4601 4785 0
242 -4785 0
4601 -4785 0
-4555 -4785 -4786 0
4555 4785 -4786 0
4555 -4785 4786 0
-4555 4785 4786 0
-4786 -4784 -4787 0
4786 4784 -4787 0
4786 -4784 4787 0
-4786 4784 4787 0
-4786 -4784 4788 0
4786 -4788 0
4784 -4788 0
-4555 -4785 4789 0
4555 -4789 0
4785 -4789 0
4788 4789 -4790 0
-4788 4790 0
-4789 4790 0
-250 -4601 4791 0
250 -4791 0
4601 -4791 0
-4561 -4791 -4792 0
4561 4791 -4792 0
4561 -4791 4792 0
-4561 4791 4792 0
-4792 -4790 -4793 0
4792 4790 -4793 0
4792 -4790 4793 0
-4792 4790 4793 0
-4792 -4790 4794 0
4792 -4794 0
4790 -4794 0
-4561 -4791 4795 0
4561 -4795 0
4791 -4795 0
4794 4795 -4796 0
-4794 4796 0
-4795 4796 0
-258 -4601 4797 0
258 -4797 0
4601 -4797 0
-4567 -4797 -4798 0
4567 4797 -4798 0
4567 -4797 4798 0
-4567 4797 4798 0
-4798 -4796 -4799 0
4798 4796 -4799 0
4798 -4796 4799 0
-4798 4796 4799 0
-4798 -4796 4800 0
4798 -4800 0
4796 -4800 0
-4567 -4797 4801 0
4567 -4801 0
4797 -4801 0
4800 4801 -4802 0
-4800 4802 0
-4801 4802 0
-266 -4601 4803 0
266 -4803 0
4601 -4803 0
-4573 -4803 -4804 0
4573 4803 -4804 0
4573 -4803 4804 0
-4573 4803 4804 0
-4804 -4802 -4805 0
4804 4802 -4805 0
4804 -4802 4805 0
-4804 4802 4805 0
-4804 -4802 4806 0
4804 -4806 0
4802 -4806 0
-4573 -4803 4807 0
4573 -4807 0
4803 -4807 0
4806 4807 -4808 0
-4806 4808 0
-4807 4808 0
-274 -4601 4809 0
274 -4809 0
4601 -4809 0
-4579 -4809 -4810 0
4579 4809 -4810 0
4579 -4809 4810 0
-4579 4809 4810 0
-4810 -4808 -4811 0
4810 4808 -4811 0
4810 -4808 4811 0
-4810 4808 4811 0
-4810 -4808 4812 0
4810 -4812 0
4808 -4812 0
-4579 -4809 4813 0
4579 -4813 0
4809 -4813 0
4812 4813 -4814 0
-4812 4814 0
-4813 4814 0
-282 -4601 4815 0
282 -4815 0
4601 -4815 0
-4585 -4815 -4816 0
4585 4815 -4816 0
4585 -4815 4816 0
-4585 4815 4816 0
-4816 -4814 -4817 0
4816 4814 -4817 0
4816 -4814 4817 0
-4816 4814 4817 0
-4816 -4814 4818 0
4816 -4818 0
4814 -4818 0
-4585 -4815 4819 0
4585 -4819 0
4815 -4819 0
4818 4819 -4820 0
-4818 4820 0
-4819 4820 0
-290 -4601 4821 0
290 -4821 0
4601 -4821 0
-4591 -4821 -4822 0
4591 4821 -4822 0
4591 -4821 4822 0
-4591 4821 4822 0
-4822 -4820 -4823 0
4822 4820 -4823 0
4822 -4820 4823 0
-4822 4820 4823 0
-4822 -4820 4824 0
4822 -4824 0
4820 -4824 0
-4591 -4821 4825 0
4591 -4825 0
4821 -4825 0
4824 4825 -4826 0
-4824 4826 0
-4825 4826 0
-298 -4601 4827 0
298 -4827 0
4601 -4827 0
-4597 -4827 -4828 0
4597 4827 -4828 0
4597 -4827 4828 0
-4597 4827 4828 0
-4828 -4826 -4829 0
4828 4826 -4829 0
4828 -4826 4829 0
-4828 4826 4829 0
-4828 -4826 4830 0
4828 -4830 0
4826 -4830 0
-4597 -4827 4831 0
4597 -4831 0
4827 -4831 0
4830 4831 -4832 0
-4830 4832 0
-4831 4832 0
-306 -4601 4833 0
306 -4833 0
4601 -4833 0
-4600 -4833 -4834 0
4600 4833 -4834 0
4600 -4833 4834 0
-4600 4833 4834 0
-4834 -4832 -4835 0
4834 4832 -4835 0
4834 -4832 4835 0
-4834 4832 4835 0
-4834 -4832 4836 0
4834 -4836 0
4832 -4836 0
-4600 -4833 4837 0
4600 -4837 0
4833 -4837 0
4836 4837 -4838 0
-4836 4838 0
-4837 4838 0
-1 -4839 4840 0
1 -4840 0
4839 -4840 0
-4607 -4840 -4841 0
4607 4840 -4841 0
4607 -4840 4841 0
-4607 4840 4841 0
-4607 -4840 4842 0
4607 -4842 0
4840 -4842 0
-4 -4839 4843 0
4 -4843 0
4839 -4843 0
-4613 -4843 -4844 0
4613 4843 -4844 0
4613 -4843 4844 0
-4613 4843 4844 0
-4844 -4842 -4845 0
4844 4842 -4845 0
4844 -4842 4845 0
-4844 4842 4845 0
-4844 -4842 4846 0
4844 -4846 0
4842 -4846 0
-4613 -4843 4847 0
4613 -4847 0
4843 -4847 0
4846 4847 -4848 0
-4846 4848 0
-4847 4848 0
-10 -4839 4849 0
10 -4849 0
4839 -4849 0
-4619 -4849 -4850 0
4619 4849 -4850 0
4619 -4849 4850 0
-4619 4849 4850 0
-4850 -4848 -4851 0
4850 4848 -4851 0
4850 -4848 4851 0
-4850 4848 4851 0
-4850 -4848 4852 0
4850 -4852 0
4848 -4852 0
-4619 -4849 4853 0
4619 -4853 0
4849 -4853 0
4852 4853 -4854 0
-4852 4854 0
-4853 4854 0
-18 -4839 4855 0
18 -4855 0
4839 -4855 0
-4625 -4855 -4856 0
4625 4855 -4856 0
4625 -4855 4856 0
-4625 4855 4856 0
-4856 -4854 -4857 0
4856 4854 -4857 0
4856 -4854 4857 0
-4856 4854 4857 0
-4856 -4854 4858 0
4856 -4858 0
4854 -4858 0
-4625 -4855 4859 0
4625 -4859 0
4855 -4859 0
4858 4859 -4860 0
-4858 4860 0
-4859 4860 0
-26 -4839 4861 0
26 -4861 0
4839 -4861 0
-4631 -4861 -4862 0
4631 4861 -4862 0
4631 -4861 4862 0
-4631 4861 4862 0
-4862 -4860 -4863 0
4862 4860 -4863 0
4862 -4860 4863 0
-4862 4860 4863 0
-4862 -4860 4864 0
4862 -4864 0
4860 -4864 0
-4631 -4861 4865 0
4631 -4865 0
4861 -4865 0
4864 4865 -4866 0
-4864 4866 0
-4865 4866 0
-34 -4839 4867 0
34 -4867 0
4839 -4867 0
-4637 -4867 -4868 0
4637 4867 -4868 0
4637 -4867 4868 0
-4637 4867 4868 0
-4868 -4866 -4869 0
4868 4866 -4869 0
4868 -4866 4869 0
-4868 4866 4869 0
-4868 -4866 4870 0
4868 -4870 0
4866 -4870 0
-4637 -4867 4871 0
4637 -4871 0
4867 -4871 0
4870 4871 -4872 0
-4870 4872 0
-4871 4872 0
-42 -4839 4873 0
42 -4873 0
4839 -4873 0
-4643 -4873 -4874 0
4643 4873 -4874 0
4643 -4873 4874 0
-4643 4873 4874 0
-4874 -4872 -4875 0
4874 4872 -4875 0
4874 -4872 4875 0
-4874 4872 4875 0
-4874 -4872 4876 0
4874 -4876 0
4872 -4876 0
-4643 -4873 4877 0
4643 -4877 0
4873 -4877 0
4876 4877 -4878 0
-4876 4878 0
-4877 4878 0
-50 -4839 4879 0
50 -4879 0
4839 -4879 0
-4649 -4879 -4880 0
4649 4879 -4880 0
4649 -4879 4880 0
-4649 4879 4880 0
-4880 -4878 -4881 0
4880 4878 -4881 0
4880 -4878 4881 0
-4880 4878 4881 0
-4880 -4878 4882 0
4880 -4882 0
4878 -4882 0
-4649 -4879 4883 0
4649 -4883 0
4879 -4883 0
4882 4883 -4884 0
-4882 4884 0
-4883 4884 0
-58 -4839 4885 0
58 -4885 0
4839 -4885 0
-4655 -4885 -4886 0
4655 4885 -4886 0
4655 -4885 4886 0
-4655 4885 4886 0
-4886 -4884 -4887 0
4886 4884 -4887 0
4886 -4884 4887 0
-4886 4884 4887 0
-4886 -4884 4888 0
4886 -4888 0
4884 -4888 0
-4655 -4885 4889 0
4655 -4889 0
4885 -4889 0
4888 4889 -4890 0
-4888 4890 0
-4889 4890 0
-66 -4839 4891 0
66 -4891 0
4839 -4891 0
-4661 -4891 -4892 0
4661 4891 -4892 0
4661 -4891 4892 0
-4661 4891 4892 0
-4892 -4890 -4893 0
4892 4890 -4893 0
4892 -4890 4893 0
-4892 4890 4893 0
-4892 -4890 4894 0
4892 -4894 0
4890 -4894 0
-4661 -4891 4895 0
4661 -4895 0
4891 -4895 0
4894 4895 -4896 0
-4894 4896 0
-4895 4896 0
-74 -4839 4897 0
74 -4897 0
4839 -4897 0
-4667 -4897 -4898 0
4667 4897 -4898 0
4667 -4897 4898 0
-4667 4897 4898 0
-4898 -4896 -4899 0
4898 4896 -4899 0
4898 -4896 4899 0
-4898 4896 4899 0
-4898 -4896 4900 0
4898 -4900 0
4896 -4900 0
-4667 -4897 4901 0
4667 -4901 0
4897 -4901 0
4900 4901 -4902 0
-4900 4902 0
-4901 4902 0
-82 -4839 4903 0
82 -4903 0
4839 -4903 0
-4673 -4903 -4904 0
4673 4903 -4904 0
4673 -4903 4904 0
-4673 4903 4904 0
-4904 -4902 -4905 0
4904 4902 -4905 0
4904 -4902 4905 0
-4904 4902 4905 0
-4904 -4902 4906 0
4904 -4906 0
4902 -4906 0
-4673 -4903 4907 0
4673 -4907 0
4903 -4907 0
4906 4907 -4908 0
-4906 4908 0
-4907 4908 0
-90 -4839 4909 0
90 -4909 0
4839 -4909 0
-4679 -4909 -4910 0
4679 4909 -4910 0
4679 -4909 4910 0
-4679 4909 4910 0
-4910 -4908 -4911 0
4910 4908 -4911 0
4910 -4908 4911 0
-4910 4908 4911 0
-4910 -4908 4912 0
4910 -4912 0
4908 -4912 0
-4679 -4909 4913 0
4679 -4913 0
4909 -4913 0
4912 4913 -4914 0
-4912 4914 0
-4913 4914 0
-98 -4839 4915 0
98 -4915 0
4839 -4915 0
-4685 -4915 -4916 0
4685 4915 -4916 0
4685 -4915 4916 0
-4685 4915 4916 0
-4916 -4914 -4917 0
4916 4914 -4917 0
4916 -4914 4917 0
-4916 4914 4917 0
-4916 -4914 4918 0
4916 -4918 0
4914 -4918 0
-4685 -4915 4919 0
4685 -4919 0
4915 -4919 0
4918 4919 -4920 0
-4918 4920 0
-4919 4920 0
-106 -4839 4921 0
106 -4921 0
4839 -4921 0
-4691 -4921 -4922 0
4691 4921 -4922 0
4691 -4921 4922 0
-4691 4921 4922 0
-4922 -4920 -4923 0
4922 4920 -4923 0
4922 -4920 4923 0
-4922 4920 4923 0
-4922 -4920 4924 0
4922 -4924 0
4920 -4924 0
-4691 -4921 4925 0
4691 -4925 0
4921 -4925 0
4924 4925 -4926 0
-4924 4926 0
-4925 4926 0
-114 -4839 4927 0
114 -4927 0
4839 -4927 0
-4697 -4927 -4928 0
4697 4927 -4928 0
4697 -4927 4928 0
-4697 4927 4928 0
-4928 -4926 -4929 0
4928 4926 -4929 0
4928 -4926 4929 0
-4928 4926 4929 0
-4928 -4926 4930 0
4928 -4930 0
4926 -4930 0
-4697 -4927 4931 0
4697 -4931 0
4927 -4931 0
4930 4931 -4932 0
-4930 4932 0
-4931 4932 0
-122 -4839 4933 0
122 -4933 0
4839 -4933 0
-4703 -4933 -4934 0
4703 4933 -4934 0
4703 -4933 4934 0
-4703 4933 4934 0
-4934 -4932 -4935 0
4934 4932 -4935 0
4934 -4932 4935 0
-4934 4932 4935 0
-4934 -4932 4936 0
4934 -4936 0
4932 -4936 0
-4703 -4933 4937 0
4703 -4937 0
4933 -4937 0
4936 4937 -4938 0
-4936 4938 0
-4937 4938 0
-130 -4839 4939 0
130 -4939 0
4839 -4939 0
-4709 -4939 -4940 0
4709 4939 -4940 0
4709 -4939 4940 0
-4709 4939 4940 0
-4940 -4938 -4941 0
4940 4938 -4941 0
4940 -4938 4941 0
-4940 4938 4941 0
-4940 -4938 4942 0
4940 -4942 0
4938 -4942 0
-4709 -4939 4943 0
4709 -4943 0
4939 -4943 0
4942 4943 -4944 0
-4942 4944 0
-4943 4944 0
-138 -4839 4945 0
138 -4945 0
4839 -4945 0
-4715 -4945 -4946 0
4715 4945 -4946 0
4715 -4945 4946 0
-4715 4945 4946 0
-4946 -4944 -4947 0
4946 4944 -4947 0
4946 -4944 4947 0
-4946 4944 4947 0
-4946 -4944 4948 0
4946 -4948 0
4944 -4948 0
-4715 -4945 4949 0
4715 -4949 0
4945 -4949 0
4948 4949 -4950 0
-4948 4950 0
-4949 4950 0
-146 -4839 4951 0
146 -4951 0
4839 -4951 0
-4721 -4951 -4952 0
4721 4951 -4952 0
4721 -4951 4952 0
-4721 4951 4952 0
-4952 -4950 -4953 0
4952 4950 -4953 0
4952 -4950 4953 0
-4952 4950 4953 0
-4952 -4950 4954 0
4952 -4954 0
4950 -4954 0
-4721 -4951 4955 0
4721 -4955 0
4951 -4955 0
4954 4955 -4956 0
-4954 4956 0
-4955 4956 0
-154 -4839 4957 0
154 -4957 0
4839 -4957 0
-4727 -4957 -4958 0
4727 4957 -4958 0
4727 -4957 4958 0
-4727 4957 4958 0
-4958 -4956 -4959 0
4958 4956 -4959 0
4958 -4956 4959 0
-4958 4956 4959 0
-4958 -4956 4960 0
4958 -4960 0
4956 -4960 0
-4727 -4957 4961 0
4727 -4961 0
4957 -4961 0
4960 4961 -4962 0
-4960 4962 0
-4961 4962 0
-162 -4839 4963 0
162 -4963 0
4839 -4963 0
-4733 -4963 -4964 0
4733 4963 -4964 0
4733 -4963 4964 0
-4733 4963 4964 0
-4964 -4962 -4965 0
4964 4962 -4965 0
4964 -4962 4965 0
-4964 4962 4965 0
-4964 -4962 4966 0
4964 -4966 0
4962 -4966 0
-4733 -4963 4967 0
4733 -4967 0
4963 -4967 0
4966 4967 -4968 0
-4966 4968 0
-4967 4968 0
-170 -4839 4969 0
170 -4969 0
4839 -4969 0
-4739 -4969 -4970 0
4739 4969 -4970 0
4739 -4969 4970 0
-4739 4969 4970 0
-4970 -4968 -4971 0
4970 4968 -4971 0
4970 -4968 4971 0
-4970 4968 4971 0
-4970 -4968 4972 0
4970 -4972 0
4968 -4972 0
-4739 -4969 4973 0
4739 -4973 0
4969 -4973 0
4972 4973 -4974 0
-4972 4974 0
-4973 4974 0
-178 -4839 4975 0
178 -4975 0
4839 -4975 0
-4745 -4975 -4976 0
4745 4975 -4976 0
4745 -4975 4976 0
-4745 4975 4976 0
-4976 -4974 -4977 0
4976 4974 -4977 0
4976 -4974 4977 0
-4976 4974 4977 0
-4976 -4974 4978 0
4976 -4978 0
4974 -4978 0
-4745 -4975 4979 0
4745 -4979 0
4975 -4979 0
4978 4979 -4980 0
-4978 4980 0
-4979 4980 0
-186 -4839 4981 0
186 -4981 0
4839 -4981 0
-4751 -4981 -4982 0
4751 4981 -4982 0
4751 -4981 4982 0
-4751 4981 4982 0
-4982 -4980 -4983 0
4982 4980 -4983 0
4982 -4980 4983 0
-4982 4980 4983 0
-4982 -4980 4984 0
4982 -4984 0
4980 -4984 0
-4751 -4981 4985 0
4751 -4985 0
4981 -4985 0
4984 4985 -4986 0
-4984 4986 0
-4985 4986 0
-194 -4839 4987 0
194 -4987 0
4839 -4987 0
-4757 -4987 -4988 0
4757 4987 -4988 0
4757 -4987 4988 0
-4757 4987 4988 0
-4988 -4986 -4989 0
4988 4986 -4989 0
4988 -4986 4989 0
-4988 4986 4989 0
-4988 -4986 4990 0
4988 -4990 0
4986 -4990 0
-4757 -4987 4991 0
4757 -4991 0
4987 -4991 0
4990 4991 -4992 0
-4990 4992 0
-4991 4992 0
-202 -4839 4993 0
202 -4993 0
4839 -4993 0
-4763 -4993 -4994 0
4763 4993 -4994 0
4763 -4993 4994 0
-4763 4993 4994 0
-4994 -4992 -4995 0
4994 4992 -4995 0
4994 -4992 4995 0
-4994 4992 4995 0
-4994 -4992 4996 0
4994 -4996 0
4992 -4996 0
-4763 -4993 4997 0
4763 -4997 0
4993 -4997 0
4996 4997 -4998 0
-4996 4998 0
-4997 4998 0
-210 -4839 4999 0
210 -4999 0
4839 -4999 0
-4769 -4999 -5000 0
4769 4999 -5000 0
4769 -4999 5000 0
-4769 4999 5000 0
-5000 -4998 -5001 0
5000 4998 -5001 0
5000 -4998 5001 0
-5000 4998 5001 0
-5000 -4998 5002 0
5000 -5002 0
4998 -5002 0
-4769 -4999 5003 0
4769 -5003 0
4999 -5003 0
5002 5003 -5004 0
-5002 5004 0
-5003 5004 0
-218 -4839 5005 0
218 -5005 0
4839 -5005 0
-4775 -5005 -5006 0
4775 5005 -5006 0
4775 -5005 5006 0
-4775 5005 5006 0
-5006 -5004 -5007 0
5006 5004 -5007 0
5006 -5004 5007 0
-5006 5004 5007 0
-5006 -5004 5008 0
5006 -5008 0
5004 -5008 0
-4775 -5005 5009 0
4775 -5009 0
5005 -5009 0
5008 5009 -5010 0
-5008 5010 0
-5009 5010 0
-226 -4839 5011 0
226 -5011 0
4839 -5011 0
-4781 -5011 -5012 0
4781 5011 -5012 0
4781 -5011 5012 0
-4781 5011 5012 0
-5012 -5010 -5013 0
5012 5010 -5013 0
5012 -5010 5013 0
-5012 5010 5013 0
-5012 -5010 5014 0
5012 -5014 0
5010 -5014 0
-4781 -5011 5015 0
4781 -5015 0
5011 -5015 0
5014 5015 -5016 0
-5014 5016 0
-5015 5016 0
-234 -4839 5017 0
234 -5017 0
4839 -5017 0
-4787 -5017 -5018 0
4787 5017 -5018 0
4787 -5017 5018 0
-4787 5017 5018 0
-5018 -5016 -5019 0
5018 5016 -5019 0
5018 -5016 5019 0
-5018 5016 5019 0
-5018 -5016 5020 0
5018 -5020 0
5016 -5020 0
-4787 -5017 5021 0
4787 -5021 0
5017 -5021 0
5020 5021 -5022 0
-5020 5022 0
-5021 5022 0
-242 -4839 5023 0
242 -5023 0
4839 -5023 0
-4793 -5023 -5024 0
4793 5023 -5024 0
4793 -5023 5024 0
-4793 5023 5024 0
-5024 -5022 -5025 0
5024 5022 -5025 0
5024 -5022 5025 0
-5024 5022 5025 0
-5024 -5022 5026 0
5024 -5026 0
5022 -5026 0
-4793 -5023 5027 0
4793 -5027 0
5023 -5027 0
5026 5027 -5028 0
-5026 5028 0
-5027 5028 0
-250 -4839 5029 0
250 -5029 0
4839 -5029 0
-4799 -5029 -5030 0
4799 5029 -5030 0
4799 -5029 5030 0
-4799 5029 5030 0
-5030 -5028 -5031 0
5030 5028 -5031 0
5030 -5028 5031 0
-5030 5028 5031 0
-5030 -5028 5032 0
5030 -5032 0
5028 -5032 0
-4799 -5029 5033 0
4799 -5033 0
5029 -5033 0
5032 5033 -5034 0
-5032 5034 0
-5033 5034 0
-258 -4839 5035 0
258 -5035 0
4839 -5035 0
-4805 -5035 -5036 0
4805 5035 -5036 0
4805 -5035 5036 0
-4805 5035 5036 0
-5036 -5034 -5037 0
5036 5034 -5037 0
5036 -5034 5037 0
-5036 5034 5037 0
-5036 -5034 5038 0
5036 -5038 0
5034 -5038 0
-4805 -5035 5039 0
4805 -5039 0
5035 -5039 0
5038 5039 -5040 0
-5038 5040 0
-5039 5040 0
-266 -4839 5041 0
266 -5041 0
4839 -5041 0
-4811 -5041 -5042 0
4811 5041 -5042 0
4811 -5041 5042 0
-4811 5041 5042 0
-5042 -5040 -5043 0
5042 5040 -5043 0
5042 -5040 5043 0
-5042 5040 5043 0
-5042 -5040 5044 0
5042 -5044 0
5040 -5044 0
-4811 -5041 5045 0
4811 -5045 0
5041 -5045 0
5044 5045 -5046 0
-5044 5046 0
-5045 5046 0
-274 -4839 5047 0
274 -5047 0
4839 -5047 0
-4817 -5047 -5048 0
4817 5047 -5048 0
4817 -5047 5048 0
-4817 5047 5048 0
-5048 -5046 -5049 0
5048 5046 -5049 0
5048 -5046 5049 0
-5048 5046 5049 0
-5048 -5046 5050 0
5048 -5050 0
5046 -5050 0
-4817 -5047 5051 0
4817 -5051 0
5047 -5051 0
5050 5051 -5052 0
-5050 5052 0
-5051 5052 0
-282 -4839 5053 0
282 -5053 0
4839 -5053 0
-4823 -5053 -5054 0
4823 5053 -5054 0
4823 -5053 5054 0
-4823 5053 5054 0
-5054 -5052 -5055 0
5054 5052 -5055 0
5054 -5052 5055 0
-5054 5052 5055 0
-5054 -5052 5056 0
5054 -5056 0
5052 -5056 0
-4823 -5053 5057 0
4823 -5057 0
5053 -5057 0
5056 5057 -5058 0
-5056 5058 0
-5057 5058 0
-290 -4839 5059 0
290 -5059 0
4839 -5059 0
-4829 -5059 -5060 0
4829 5059 -5060 0
4829 -5059 5060 0
-4829 5059 5060 0
-5060 -5058 -5061 0
5060 5058 -5061 0
5060 -5058 5061 0
-5060 5058 5061 0
-5060 -5058 5062 0
5060 -5062 0
5058 -5062 0
-4829 -5059 5063 0
4829 -5063 0
5059 -5063 0
5062 5063 -5064 0
-5062 5064 0
-5063 5064 0
-298 -4839 5065 0
298 -5065 0
4839 -5065 0
-4835 -5065 -5066 0
4835 5065 -5066 0
4835 -5065 5066 0
-4835 5065 5066 0
-5066 -5064 -5067 0
5066 5064 -5067 0
5066 -5064 5067 0
-5066 5064 5067 0
-5066 -5064 5068 0
5066 -5068 0
5064 -5068 0
-4835 -5065 5069 0
4835 -5069 0
5065 -5069 0
5068 5069 -5070 0
-5068 5070 0
-5069 5070 0
-306 -4839 5071 0
306 -5071 0
4839 -5071 0
-4838 -5071 -5072 0
4838 5071 -5072 0
4838 -5071 5072 0
-4838 5071 5072 0
-5072 -5070 -5073 0
5072 5070 -5073 0
5072 -5070 5073 0
-5072 5070 5073 0
-5072 -5070 5074 0
5072 -5074 0
5070 -5074 0
-4838 -5071 5075 0
4838 -5075 0
5071 -5075 0
5074 5075 -5076 0
-5074 5076 0
-5075 5076 0
-1 -5077 5078 0
1 -5078 0
5077 -5078 0
-4845 -5078 -5079 0
4845 5078 -5079 0
4845 -5078 5079 0
-4845 5078 5079 0
-4845 -5078 5080 0
4845 -5080 0
5078 -5080 0
-4 -5077 5081 0
4 -5081 0
5077 -5081 0
-4851 -5081 -5082 0
4851 5081 -5082 0
4851 -5081 5082 0
-4851 5081 5082 0
-5082 -5080 -5083 0
5082 5080 -5083 0
5082 -5080 5083 0
-5082 5080 5083 0
-5082 -5080 5084 0
5082 -5084 0
5080 -5084 0
-4851 -5081 5085 0
4851 -5085 0
5081 -5085 0
5084 5085 -5086 0
-5084 5086 0
-5085 5086 0
-10 -5077 5087 0
10 -5087 0
5077 -5087 0
-4857 -5087 -5088 0
4857 5087 -5088 0
4857 -5087 5088 0
-4857 5087 5088 0
-5088 -5086 -5089 0
5088 5086 -5089 0
5088 -5086 5089 0
-5088 5086 5089 0
-5088 -5086 5090 0
5088 -5090 0
5086 -5090 0
-4857 -5087 5091 0
4857 -5091 0
5087 -5091 0
5090 5091 -5092 0
-5090 5092 0
-5091 5092 0
-18 -5077 5093 0
18 -5093 0
5077 -5093 0
-4863 -5093 -5094 0
4863 5093 -5094 0
4863 -5093 5094 0
-4863 5093 5094 0
-5094 -5092 -5095 0
5094 5092 -5095 0
5094 -5092 5095 0
-5094 5092 5095 0
-5094 -5092 5096 0
5094 -5096 0
5092 -5096 0
-4863 -5093 5097 0
4863 -5097 0
5093 -5097 0
5096 5097 -5098 0
-5096 5098 0
-5097 5098 0
-26 -5077 5099 0
26 -5099 0
5077 -5099 0
-4869 -5099 -5100 0
4869 5099 -5100 0
4869 -5099 5100 0
-4869 5099 5100 0
-5100 -5098 -5101 0
5100 5098 -5101 0
5100 -5098 5101 0
-5100 5098 5101 0
-5100 -5098 5102 0
5100 -5102 0
5098 -5102 0
-4869 -5099 5103 0
4869 -5103 0
5099 -5103 0
5102 5103 -5104 0
-5102 5104 0
-5103 5104 0
-34 -5077 5105 0
34 -5105 0
5077 -5105 0
-4875 -5105 -5106 0
4875 5105 -5106 0
4875 -5105 5106 0
-4875 5105 5106 0
-5106 -5104 -5107 0
5106 5104 -5107 0
5106 -5104 5107 0
-5106 5104 5107 0
-5106 -5104 5108 0
5106 -5108 0
5104 -5108 0
-4875 -5105 5109 0
4875 -5109 0
5105 -5109 0
5108 5109 -5110 0
-5108 5110 0
-5109 5110 0
-42 -5077 5111 0
42 -5111 0
5077 -5111 0
-4881 -5111 -5112 0
4881 5111 -5112 0
4881 -5111 5112 0
-4881 5111 5112 0
-5112 -5110 -5113 0
5112 5110 -5113 0
5112 -5110 5113 0
-5112 5110 5113 0
-5112 -5110 5114 0
5112 -5114 0
5110 -5114 0
-4881 -5111 5115 0
4881 -5115 0
5111 -5115 0
5114 5115 -5116 0
-5114 5116 0
-5115 5116 0
-50 -5077 5117 0
50 -5117 0
5077 -5117 0
-4887 -5117 -5118 0
4887 5117 -5118 0
4887 -5117 5118 0
-4887 5117 5118 0
-5118 -5116 -5119 0
5118 5116 -5119 0
5118 -5116 5119 0
-5118 5116 5119 0
-5118 -5116 5120 0
5118 -5120 0
5116 -5120 0
-4887 -5117 5121 0
4887 -5121 0
5117 -5121 0
5120 5121 -5122 0
-5120 5122 0
-5121 5122 0
-58 -5077 5123 0
58 -5123 0
5077 -5123 0
-4893 -5123 -5124 0
4893 5123 -5124 0
4893 -5123 5124 0
-4893 5123 5124 0
-5124 -5122 -5125 0
5124 5122 -5125 0
5124 -5122 5125 0
-5124 5122 5125 0
-5124 -5122 5126 0
5124 -5126 0
5122 -5126 0
-4893 -5123 5127 0
4893 -5127 0
5123 -5127 0
5126 5127 -5128 0
-5126 5128 0
-5127 5128 0
-66 -5077 5129 0
66 -5129 0
5077 -5129 0
-4899 -5129 -5130 0
4899 5129 -5130 0
4899 -5129 5130 0
-4899 5129 5130 0
-5130 -5128 -5131 0
5130 5128 -5131 0
5130 -5128 5131 0
-5130 5128 5131 0
-5130 -5128 5132 0
5130 -5132 0
5128 -5132 0
-4899 -5129 5133 0
4899 -5133 0
5129 -5133 0
5132 5133 -5134 0
-5132 5134 0
-5133 5134 0
-74 -5077 5135 0
74 -5135 0
5077 -5135 0
-4905 -5135 -5136 0
4905 5135 -5136 0
4905 -5135 5136 0
-4905 5135 5136 0
-5136 -5134 -5137 0
5136 5134 -5137 0
5136 -5134 5137 0
-5136 5134 5137 0
-5136 -5134 5138 0
5136 -5138 0
5134 -5138 0
-4905 -5135 5139 0
4905 -5139 0
5135 -5139 0
5138 5139 -5140 0
-5138 5140 0
-5139 5140 0
-82 -5077 5141 0
82 -5141 0
5077 -5141 0
-4911 -5141 -5142 0
4911 5141 -5142 0
4911 -5141 5142 0
-4911 5141 5142 0
-5142 -5140 -5143 0
5142 5140 -5143 0
5142 -5140 5143 0
-5142 5140 5143 0
-5142 -5140 5144 0
5142 -5144 0
5140 -5144 0
-4911 -5141 5145 0
4911 -5145 0
5141 -5145 0
5144 5145 -5146 0
-5144 5146 0
-5145 5146 0
-90 -5077 5147 0
90 -5147 0
5077 -5147 0
-4917 -5147 -5148 0
4917 5147 -5148 0
4917 -5147 5148 0
-4917 5147 5148 0
-5148 -5146 -5149 0
5148 5146 -5149 0
5148 -5146 5149 0
-5148 5146 5149 0
-5148 -5146 5150 0
5148 -5150 0
5146 -5150 0
-4917 -5147 5151 0
4917 -5151 0
5147 -5151 0
5150 5151 -5152 0
-5150 5152 0
-5151 5152 0
-98 -5077 5153 0
98 -5153 0
5077 -5153 0
-4923 -5153 -5154 0
4923 5153 -5154 0
4923 -5153 5154 0
-4923 5153 5154 0
-5154 -5152 -5155 0
5154 5152 -5155 0
5154 -5152 5155 0
-5154 5152 5155 0
-5154 -5152 5156 0
5154 -5156 0
5152 -5156 0
-4923 -5153 5157 0
4923 -5157 0
5153 -5157 0
5156 5157 -5158 0
-5156 5158 0
-5157 5158 0
-106 -5077 5159 0
106 -5159 0
5077 -5159 0
-4929 -5159 -5160 0
4929 5159 -5160 0
4929 -5159 5160 0
-4929 5159 5160 0
-5160 -5158 -5161 0
5160 5158 -5161 0
5160 -5158 5161 0
-5160 5158 5161 0
-5160 -5158 5162 0
5160 -5162 0
5158 -5162 0
-4929 -5159 5163 0
4929 -5163 0
5159 -5163 0
5162 5163 -5164 0
-5162 5164 0
-5163 5164 0
-114 -5077 5165 0
114 -5165 0
5077 -5165 0
-4935 -5165 -5166 0
4935 5165 -5166 0
4935 -5165 5166 0
-4935 5165 5166 0
-5166 -5164 -5167 0
5166 5164 -5167 0
5166 -5164 5167 0
-5166 5164 5167 0
-5166 -5164 5168 0
5166 -5168 0
5164 -5168 0
-4935 -5165 5169 0
4935 -5169 0
5165 -5169 0
5168 5169 -5170 0
-5168 5170 0
-5169 5170 0
-122 -5077 5171 0
122 -5171 0
5077 -5171 0
-4941 -5171 -5172 0
4941 5171 -5172 0
4941 -5171 5172 0
-4941 5171 5172 0
-5172 -5170 -5173 0
5172 5170 -5173 0
5172 -5170 5173 0
-5172 5170 5173 0
-5172 -5170 5174 0
5172 -5174 0
5170 -5174 0
-4941 -5171 5175 0
4941 -5175 0
5171 -5175 0
5174 5175 -5176 0
-5174 5176 0
-5175 5176 0
-130 -5077 5177 0
130 -5177 0
5077 -5177 0
-4947 -5177 -5178 0
4947 5177 -5178 0
4947 -5177 5178 0
-4947 5177 5178 0
-5178 -5176 -5179 0
5178 5176 -5179 0
5178 -5176 5179 0
-5178 5176 5179 0
-5178 -5176 5180 0
5178 -5180 0
5176 -5180 0
-4947 -5177 5181 0
4947 -5181 0
5177 -5181 0
5180 5181 -5182 0
-5180 5182 0
-5181 5182 0
-138 -5077 5183 0
138 -5183 0
5077 -5183 0
-4953 -5183 -5184 0
4953 5183 -5184 0
4953 -5183 5184 0
-4953 5183 5184 0
-5184 -5182 -5185 0
5184 5182 -5185 0
5184 -5182 5185 0
-5184 5182 5185 0
-5184 -5182 5186 0
5184 -5186 0
5182 -5186 0
-4953 -5183 5187 0
4953 -5187 0
5183 -5187 0
5186 5187 -5188 0
-5186 5188 0
-5187 5188 0
-146 -5077 5189 0
146 -5189 0
5077 -5189 0
-4959 -5189 -5190 0
4959 5189 -5190 0
4959 -5189 5190 0
-4959 5189 5190 0
-5190 -5188 -5191 0
5190 5188 -5191 0
5190 -5188 5191 0
-5190 5188 5191 0
-5190 -5188 5192 0
5190 -5192 0
5188 -5192 0
-4959 -5189 5193 0
4959 -5193 0
5189 -5193 0
5192 5193 -5194 0
-5192 5194 0
-5193 5194 0
-154 -5077 5195 0
154 -5195 0
5077 -5195 0
-4965 -5195 -5196 0
4965 5195 -5196 0
4965 -5195 5196 0
-4965 5195 5196 0
-5196 -5194 -5197 0
5196 5194 -5197 0
5196 -5194 5197 0
-5196 5194 5197 0
-5196 -5194 5198 0
5196 -5198 0
5194 -5198 0
-4965 -5195 5199 0
4965 -5199 0
5195 -5199 0
5198 5199 -5200 0
-5198 5200 0
-5199 5200 0
-162 -5077 5201 0
162 -5201 0
5077 -5201 0
-4971 -5201 -5202 0
4971 5201 -5202 0
4971 -5201 5202 0
-4971 5201 5202 0
-5202 -5200 -5203 0
5202 5200 -5203 0
5202 -5200 5203 0
-5202 5200 5203 0
-5202 -5200 5204 0
5202 -5204 0
5200 -5204 0
-4971 -5201 5205 0
4971 -5205 0
5201 -5205 0
5204 5205 -5206 0
-5204 5206 0
-5205 5206 0
-170 -5077 5207 0
170 -5207 0
5077 -5207 0
-4977 -5207 -5208 0
4977 5207 -5208 0
4977 -5207 5208 0
-4977 5207 5208 0
-5208 -5206 -5209 0
5208 5206 -5209 0
5208 -5206 5209 0
-5208 5206 5209 0
-5208 -5206 5210 0
5208 -5210 0
5206 -5210 0
-4977 -5207 5211 0
4977 -5211 0
5207 -5211 0
5210 5211 -5212 0
-5210 5212 0
-5211 5212 0
-178 -5077 5213 0
178 -5213 0
5077 -5213 0
-4983 -5213 -5214 0
4983 5213 -5214 0
4983 -5213 5214 0
-4983 5213 5214 0
-5214 -5212 -5215 0
5214 5212 -5215 0
5214 -5212 5215 0
-5214 5212 5215 0
-5214 -5212 5216 0
5214 -5216 0
5212 -5216 0
-4983 -5213 5217 0
4983 -5217 0
5213 -5217 0
5216 5217 -5218 0
-5216 5218 0
-5217 5218 0
-186 -5077 5219 0
186 -5219 0
5077 -5219 0
-4989 -5219 -5220 0
4989 5219 -5220 0
4989 -5219 5220 0
-4989 5219 5220 0
-5220 -5218 -5221 0
5220 5218 -5221 0
5220 -5218 5221 0
-5220 5218 5221 0
-5220 -5218 5222 0
5220 -5222 0
5218 -5222 0
-4989 -5219 5223 0
4989 -5223 0
5219 -5223 0
5222 5223 -5224 0
-5222 5224 0
-5223 5224 0
-194 -5077 5225 0
194 -5225 0
5077 -5225 0
-4995 -5225 -5226 0
4995 5225 -5226 0
4995 -5225 5226 0
-4995 5225 5226 0
-5226 -5224 -5227 0
5226 5224 -5227 0
5226 -5224 5227 0
-5226 5224 5227 0
-5226 -5224 5228 0
5226 -5228 0
5224 -5228 0
-4995 -5225 5229 0
4995 -5229 0
5225 -5229 0
5228 5229 -5230 0
-5228 5230 0
-5229 5230 0
-202 -5077 5231 0
202 -5231 0
5077 -5231 0
-5001 -5231 -5232 0
5001 5231 -5232 0
5001 -5231 5232 0
-5001 5231 5232 0
-5232 -5230 -5233 0
5232 5230 -5233 0
5232 -5230 5233 0
-5232 5230 5233 0
-5232 -5230 5234 0
5232 -5234 0
5230 -5234 0
-5001 -5231 5235 0
5001 -5235 0
5231 -5235 0
5234 5235 -5236 0
-5234 5236 0
-5235 5236 0
-210 -5077 5237 0
210 -5237 0
5077 -5237 0
-5007 -5237 -5238 0
5007 5237 -5238 0
5007 -5237 5238 0
-5007 5237 5238 0
-5238 -5236 -5239 0
5238 5236 -5239 0
5238 -5236 5239 0
-5238 5236 5239 0
-5238 -5236 5240 0
5238 -5240 0
5236 -5240 0
-5007 -5237 5241 0
5007 -5241 0
5237 -5241 0
5240 5241 -5242 0
-5240 5242 0
-5241 5242 0
-218 -5077 5243 0
218 -5243 0
5077 -5243 0
-5013 -5243 -5244 0
5013 5243 -5244 0
5013 -5243 5244 0
-5013 5243 5244 0
-5244 -5242 -5245 0
5244 5242 -5245 0
5244 -5242 5245 0
-5244 5242 5245 0
-5244 -5242 5246 0
5244 -5246 0
5242 -5246 0
-5013 -5243 5247 0
5013 -5247 0
5243 -5247 0
5246 5247 -5248 0
-5246 5248 0
-5247 5248 0
-226 -5077 5249 0
226 -5249 0
5077 -5249 0
-5019 -5249 -5250 0
5019 5249 -5250 0
5019 -5249 5250 0
-5019 5249 5250 0
-5250 -5248 -5251 0
5250 5248 -5251 0
5250 -5248 5251 0
-5250 5248 5251 0
-5250 -5248 5252 0
5250 -5252 0
5248 -5252 0
-5019 -5249 5253 0
5019 -5253 0
5249 -5253 0
5252 5253 -5254 0
-5252 5254 0
-5253 5254 0
-234 -5077 5255 0
234 -5255 0
5077 -5255 0
-5025 -5255 -5256 0
5025 5255 -5256 0
5025 -5255 5256 0
-5025 5255 5256 0
-5256 -5254 -5257 0
5256 5254 -5257 0
5256 -5254 5257 0
-5256 5254 5257 0
-5256 -5254 5258 0
5256 -5258 0
5254 -5258 0
-5025 -5255 5259 0
5025 -5259 0
5255 -5259 0
5258 5259 -5260 0
-5258 5260 0
-5259 5260 0
-242 -5077 5261 0
242 -5261 0
5077 -5261 0
-5031 -5261 -5262 0
5031 5261 -5262 0
5031 -5261 5262 0
-5031 5261 5262 0
-5262 -5260 -5263 0
5262 5260 -5263 0
5262 -5260 5263 0
-5262 5260 5263 0
-5262 -5260 5264 0
5262 -5264 0
5260 -5264 0
-5031 -5261 5265 0
5031 -5265 0
5261 -5265 0
5264 5265 -5266 0
-5264 5266 0
-5265 5266 0
-250 -5077 5267 0
250 -5267 0
5077 -5267 0
-5037 -5267 -5268 0
5037 5267 -5268 0
5037 -5267 5268 0
-5037 5267 5268 0
-5268 -5266 -5269 0
5268 5266 -5269 0
5268 -5266 5269 0
-5268 5266 5269 0
-5268 -5266 5270 0
5268 -5270 0
5266 -5270 0
-5037 -5267 5271 0
5037 -5271 0
5267 -5271 0
5270 5271 -5272 0
-5270 5272 0
-5271 5272 0
-258 -5077 5273 0
258 -5273 0
5077 -5273 0
-5043 -5273 -5274 0
5043 5273 -5274 0
5043 -5273 5274 0
-5043 5273 5274 0
-5274 -5272 -5275 0
5274 5272 -5275 0
5274 -5272 5275 0
-5274 5272 5275 0
-5274 -5272 5276 0
5274 -5276 0
5272 -5276 0
-5043 -5273 5277 0
5043 -5277 0
5273 -5277 0
5276 5277 -5278 0
-5276 5278 0
-5277 5278 0
-266 -5077 5279 0
266 -5279 0
5077 -5279 0
-5049 -5279 -5280 0
5049 5279 -5280 0
5049 -5279 5280 0
-5049 5279 5280 0
-5280 -5278 -5281 0
5280 5278 -5281 0
5280 -5278 5281 0
-5280 5278 5281 0
-5280 -5278 5282 0
5280 -5282 0
5278 -5282 0
-5049 -5279 5283 0
5049 -5283 0
5279 -5283 0
5282 5283 -5284 0
-5282 5284 0
-5283 5284 0
-274 -5077 5285 0
274 -5285 0
5077 -5285 0
-5055 -5285 -5286 0
5055 5285 -5286 0
5055 -5285 5286 0
-5055 5285 5286 0
-5286 -5284 -5287 0
5286 5284 -5287 0
5286 -5284 5287 0
-5286 5284 5287 0
-5286 -5284 5288 0
5286 -5288 0
5284 -5288 0
-5055 -5285 5289 0
5055 -5289 0
5285 -5289 0
5288 5289 -5290 0
-5288 5290 0
-5289 5290 0
-282 -5077 5291 0
282 -5291 0
5077 -5291 0
-5061 -5291 -5292 0
5061 5291 -5292 0
5061 -5291 5292 0
-5061 5291 5292 0
-5292 -5290 -5293 0
5292 5290 -5293 0
5292 -5290 5293 0
-5292 5290 5293 0
-5292 -5290 5294 0
5292 -5294 0
5290 -5294 0
-5061 -5291 5295 0
5061 -5295 0
5291 -5295 0
5294 5295 -5296 0
-5294 5296 0
-5295 5296 0
-290 -5077 5297 0
290 -5297 0
5077 -5297 0
-5067 -5297 -5298 0
5067 5297 -5298 0
5067 -5297 5298 0
-5067 5297 5298 0
-5298 -5296 -5299 0
5298 5296 -5299 0
5298 -5296 5299 0
-5298 5296 5299 0
-5298 -5296 5300 0
5298 -5300 0
5296 -5300 0
-5067 -5297 5301 0
5067 -5301 0
5297 -5301 0
5300 5301 -5302 0
-5300 5302 0
-5301 5302 0
-298 -5077 5303 0
298 -5303 0
5077 -5303 0
-5073 -5303 -5304 0
5073 5303 -5304 0
5073 -5303 5304 0
-5073 5303 5304 0
-5304 -5302 -5305 0
5304 5302 -5305 0
5304 -5302 5305 0
-5304 5302 5305 0
-5304 -5302 5306 0
5304 -5306 0
5302 -5306 0
-5073 -5303 5307 0
5073 -5307 0
5303 -5307 0
5306 5307 -5308 0
-5306 5308 0
-5307 5308 0
-306 -5077 5309 0
306 -5309 0
5077 -5309 0
-5076 -5309 -5310 0
5076 5309 -5310 0
5076 -5309 5310 0
-5076 5309 5310 0
-5310 -5308 -5311 0
5310 5308 -5311 0
5310 -5308 5311 0
-5310 5308 5311 0
-5310 -5308 5312 0
5310 -5312 0
5308 -5312 0
-5076 -5309 5313 0
5076 -5313 0
5309 -5313 0
5312 5313 -5314 0
-5312 5314 0
-5313 5314 0
-1 -5315 5316 0
1 -5316 0
5315 -5316 0
-5083 -5316 -5317 0
5083 5316 -5317 0
5083 -5316 5317 0
-5083 5316 5317 0
-5083 -5316 5318 0
5083 -5318 0
5316 -5318 0
-4 -5315 5319 0
4 -5319 0
5315 -5319 0
-5089 -5319 -5320 0
5089 5319 -5320 0
5089 -5319 5320 0
-5089 5319 5320 0
-5320 -5318 -5321 0
5320 5318 -5321 0
5320 -5318 5321 0
-5320 5318 5321 0
-5320 -5318 5322 0
5320 -5322 0
5318 -5322 0
-5089 -5319 5323 0
5089 -5323 0
5319 -5323 0
5322 5323 -5324 0
-5322 5324 0
-5323 5324 0
-10 -5315 5325 0
10 -5325 0
5315 -5325 0
-5095 -5325 -5326 0
5095 5325 -5326 0
5095 -5325 5326 0
-5095 5325 5326 0
-5326 -5324 -5327 0
5326 5324 -5327 0
5326 -5324 5327 0
-5326 5324 5327 0
-5326 -5324 5328 0
5326 -5328 0
5324 -5328 0
-5095 -5325 5329 0
5095 -5329 0
5325 -5329 0
5328 5329 -5330 0
-5328 5330 0
-5329 5330 0
-18 -5315 5331 0
18 -5331 0
5315 -5331 0
-5101 -5331 -5332 0
5101 5331 -5332 0
5101 -5331 5332 0
-5101 5331 5332 0
-5332 -5330 -5333 0
5332 5330 -5333 0
5332 -5330 5333 0
-5332 5330 5333 0
-5332 -5330 5334 0
5332 -5334 0
5330 -5334 0
-5101 -5331 5335 0
5101 -5335 0
5331 -5335 0
5334 5335 -5336 0
-5334 5336 0
-5335 5336 0
-26 -5315 5337 0
26 -5337 0
5315 -5337 0
-5107 -5337 -5338 0
5107 5337 -5338 0
5107 -5337 5338 0
-5107 5337 5338 0
-5338 -5336 -5339 0
5338 5336 -5339 0
5338 -5336 5339 0
-5338 5336 5339 0
-5338 -5336 5340 0
5338 -5340 0
5336 -5340 0
-5107 -5337 5341 0
5107 -5341 0
5337 -5341 0
5340 5341 -5342 0
-5340 5342 0
-5341 5342 0
-34 -5315 5343 0
34 -5343 0
5315 -5343 0
-5113 -5343 -5344 0
5113 5343 -5344 0
5113 -5343 5344 0
-5113 5343 5344 0
-5344 -5342 -5345 0
5344 5342 -5345 0
5344 -5342 5345 0
-5344 5342 5345 0
-5344 -5342 5346 0
5344 -5346 0
5342 -5346 0
-5113 -5343 5347 0
5113 -5347 0
5343 -5347 0
5346 5347 -5348 0
-5346 5348 0
-5347 5348 0
-42 -5315 5349 0
42 -5349 0
5315 -5349 0
-5119 -5349 -5350 0
5119 5349 -5350 0
5119 -5349 5350 0
-5119 5349 5350 0
-5350 -5348 -5351 0
5350 5348 -5351 0
5350 -5348 5351 0
-5350 5348 5351 0
-5350 -5348 5352 0
5350 -5352 0
5348 -5352 0
-5119 -5349 5353 0
5119 -5353 0
5349 -5353 0
5352 5353 -5354 0
-5352 5354 0
-5353 5354 0
-50 -5315 5355 0
50 -5355 0
5315 -5355 0
-5125 -5355 -5356 0
5125 5355 -5356 0
5125 -5355 5356 0
-5125 5355 5356 0
-5356 -5354 -5357 0
5356 5354 -5357 0
5356 -5354 5357 0
-5356 5354 5357 0
-5356 -5354 5358 0
5356 -5358 0
5354 -5358 0
-5125 -5355 5359 0
5125 -5359 0
5355 -5359 0
5358 5359 -5360 0
-5358 5360 0
-5359 5360 0
-58 -5315 5361 0
58 -5361 0
5315 -5361 0
-5131 -5361 -5362 0
5131 5361 -5362 0
5131 -5361 5362 0
-5131 5361 5362 0
-5362 -5360 -5363 0
5362 5360 -5363 0
5362 -5360 5363 0
-5362 5360 5363 0
-5362 -5360 5364 0
5362 -5364 0
5360 -5364 0
-5131 -5361 5365 0
5131 -5365 0
5361 -5365 0
5364 5365 -5366 0
-5364 5366 0
-5365 5366 0
-66 -5315 5367 0
66 -5367 0
5315 -5367 0
-5137 -5367 -5368 0
5137 5367 -5368 0
5137 -5367 5368 0
-5137 5367 5368 0
-5368 -5366 -5369 0
5368 5366 -5369 0
5368 -5366 5369 0
-5368 5366 5369 0
-5368 -5366 5370 0
5368 -5370 0
5366 -5370 0
-5137 -5367 5371 0
5137 -5371 0
5367 -5371 0
5370 5371 -5372 0
-5370 5372 0
-5371 5372 0
-74 -5315 5373 0
74 -5373 0
5315 -5373 0
-5143 -5373 -5374 0
5143 5373 -5374 0
5143 -5373 5374 0
-5143 5373 5374 0
-5374 -5372 -5375 0
5374 5372 -5375 0
5374 -5372 5375 0
-5374 5372 5375 0
-5374 -5372 5376 0
5374 -5376 0
5372 -5376 0
-5143 -5373 5377 0
5143 -5377 0
5373 -5377 0
5376 5377 -5378 0
-5376 5378 0
-5377 5378 0
-82 -5315 5379 0
82 -5379 0
5315 -5379 0
-5149 -5379 -5380 0
5149 5379 -5380 0
5149 -5379 5380 0
-5149 5379 5380 0
-5380 -5378 -5381 0
5380 5378 -5381 0
5380 -5378 5381 0
-5380 5378 5381 0
-5380 -5378 5382 0
5380 -5382 0
5378 -5382 0
-5149 -5379 5383 0
5149 -5383 0
5379 -5383 0
5382 5383 -5384 0
-5382 5384 0
-5383 5384 0
-90 -5315 5385 0
90 -5385 0
5315 -5385 0
-5155 -5385 -5386 0
5155 5385 -5386 0
5155 -5385 5386 0
-5155 5385 5386 0
-5386 -5384 -5387 0
5386 5384 -5387 0
5386 -5384 5387 0
-5386 5384 5387 0
-5386 -5384 5388 0
5386 -5388 0
5384 -5388 0
-5155 -5385 5389 0
5155 -5389 0
5385 -5389 0
5388 5389 -5390 0
-5388 5390 0
-5389 5390 0
-98 -5315 5391 0
98 -5391 0
5315 -5391 0
-5161 -5391 -5392 0
5161 5391 -5392 0
5161 -5391 5392 0
-5161 5391 5392 0
-5392 -5390 -5393 0
5392 5390 -5393 0
5392 -5390 5393 0
-5392 5390 5393 0
-5392 -5390 5394 0
5392 -5394 0
5390 -5394 0
-5161 -5391 5395 0
5161 -5395 0
5391 -5395 0
5394 5395 -5396 0
-5394 5396 0
-5395 5396 0
-106 -5315 5397 0
106 -5397 0
5315 -5397 0
-5167 -5397 -5398 0
5167 5397 -5398 0
5167 -5397 5398 0
-5167 5397 5398 0
-5398 -5396 -5399 0
5398 5396 -5399 0
5398 -5396 5399 0
-5398 5396 5399 0
-5398 -5396 5400 0
5398 -5400 0
5396 -5400 0
-5167 -5397 5401 0
5167 -5401 0
5397 -5401 0
5400 5401 -5402 0
-5400 5402 0
-5401 5402 0
-114 -5315 5403 0
114 -5403 0
5315 -5403 0
-5173 -5403 -5404 0
5173 5403 -5404 0
5173 -5403 5404 0
-5173 5403 5404 0
-5404 -5402 -5405 0
5404 5402 -5405 0
5404 -5402 5405 0
-5404 5402 5405 0
-5404 -5402 5406 0
5404 -5406 0
5402 -5406 0
-5173 -5403 5407 0
5173 -5407 0
5403 -5407 0
5406 5407 -5408 0
-5406 5408 0
-5407 5408 0
-122 -5315 5409 0
122 -5409 0
5315 -5409 0
-5179 -5409 -5410 0
5179 5409 -5410 0
5179 -5409 5410 0
-5179 5409 5410 0
-5410 -5408 -5411 0
5410 5408 -5411 0
5410 -5408 5411 0
-5410 5408 5411 0
-5410 -5408 5412 0
5410 -5412 0
5408 -5412 0
-5179 -5409 5413 0
5179 -5413 0
5409 -5413 0
5412 5413 -5414 0
-5412 5414 0
-5413 5414 0
-130 -5315 5415 0
130 -5415 0
5315 -5415 0
-5185 -5415 -5416 0
5185 5415 -5416 0
5185 -5415 5416 0
-5185 5415 5416 0
-5416 -5414 -5417 0
5416 5414 -5417 0
5416 -5414 5417 0
-5416 5414 5417 0
-5416 -5414 5418 0
5416 -5418 0
5414 -5418 0
-5185 -5415 5419 0
5185 -5419 0
5415 -5419 0
5418 5419 -5420 0
-5418 5420 0
-5419 5420 0
-138 -5315 5421 0
138 -5421 0
5315 -5421 0
-5191 -5421 -5422 0
5191 5421 -5422 0
5191 -5421 5422 0
-5191 5421 5422 0
-5422 -5420 -5423 0
5422 5420 -5423 0
5422 -5420 5423 0
-5422 5420 5423 0
-5422 -5420 5424 0
5422 -5424 0
5420 -5424 0
-5191 -5421 5425 0
5191 -5425 0
5421 -5425 0
5424 5425 -5426 0
-5424 5426 0
-5425 5426 0
-146 -5315 5427 0
146 -5427 0
5315 -5427 0
-5197 -5427 -5428 0
5197 5427 -5428 0
5197 -5427 5428 0
-5197 5427 5428 0
-5428 -5426 -5429 0
5428 5426 -5429 0
5428 -5426 5429 0
-5428 5426 5429 0
-5428 -5426 5430 0
5428 -5430 0
5426 -5430 0
-5197 -5427 5431 0
5197 -5431 0
5427 -5431 0
5430 5431 -5432 0
-5430 5432 0
-5431 5432 0
-154 -5315 5433 0
154 -5433 0
5315 -5433 0
-5203 -5433 -5434 0
5203 5433 -5434 0
5203 -5433 5434 0
-5203 5433 5434 0
-5434 -5432 -5435 0
5434 5432 -5435 0
5434 -5432 5435 0
-5434 5432 5435 0
-5434 -5432 5436 0
5434 -5436 0
5432 -5436 0
-5203 -5433 5437 0
5203 -5437 0
5433 -5437 0
5436 5437 -5438 0
-5436 5438 0
-5437 5438 0
-162 -5315 5439 0
162 -5439 0
5315 -5439 0
-5209 -5439 -5440 0
5209 5439 -5440 0
5209 -5439 5440 0
-5209 5439 5440 0
-5440 -5438 -5441 0
5440 5438 -5441 0
5440 -5438 5441 0
-5440 5438 5441 0
-5440 -5438 5442 0
5440 -5442 0
5438 -5442 0
-5209 -5439 5443 0
5209 -5443 0
5439 -5443 0
5442 5443 -5444 0
-5442 5444 0
-5443 5444 0
-170 -5315 5445 0
170 -5445 0
5315 -5445 0
-5215 -5445 -5446 0
5215 5445 -5446 0
5215 -5445 5446 0
-5215 5445 5446 0
-5446 -5444 -5447 0
5446 5444 -5447 0
5446 -5444 5447 0
-5446 5444 5447 0
-5446 -5444 5448 0
5446 -5448 0
5444 -5448 0
-5215 -5445 5449 0
5215 -5449 0
5445 -5449 0
5448 5449 -5450 0
-5448 5450 0
-5449 5450 0
-178 -5315 5451 0
178 -5451 0
5315 -5451 0
-5221 -5451 -5452 0
5221 5451 -5452 0
5221 -5451 5452 0
-5221 5451 5452 0
-5452 -5450 -5453 0
5452 5450 -5453 0
5452 -5450 5453 0
-5452 5450 5453 0
-5452 -5450 5454 0
5452 -5454 0
5450 -5454 0
-5221 -5451 5455 0
5221 -5455 0
5451 -5455 0
5454 5455 -5456 0
-5454 5456 0
-5455 5456 0
-186 -5315 5457 0
186 -5457 0
5315 -5457 0
-5227 -5457 -5458 0
5227 5457 -5458 0
5227 -5457 5458 0
-5227 5457 5458 0
-5458 -5456 -5459 0
5458 5456 -5459 0
5458 -5456 5459 0
-5458 5456 5459 0
-5458 -5456 5460 0
5458 -5460 0
5456 -5460 0
-5227 -5457 5461 0
5227 -5461 0
5457 -5461 0
5460 5461 -5462 0
-5460 5462 0
-5461 5462 0
-194 -5315 5463 0
194 -5463 0
5315 -5463 0
-5233 -5463 -5464 0
5233 5463 -5464 0
5233 -5463 5464 0
-5233 5463 5464 0
-5464 -5462 -5465 0
5464 5462 -5465 0
5464 -5462 5465 0
-5464 5462 5465 0
-5464 -5462 5466 0
5464 -5466 0
5462 -5466 0
-5233 -5463 5467 0
5233 -5467 0
5463 -5467 0
5466 5467 -5468 0
-5466 5468 0
-5467 5468 0
-202 -5315 5469 0
202 -5469 0
5315 -5469 0
-5239 -5469 -5470 0
5239 5469 -5470 0
5239 -5469 5470 0
-5239 5469 5470 0
-5470 -5468 -5471 0
5470 5468 -5471 0
5470 -5468 5471 0
-5470 5468 5471 0
-5470 -5468 5472 0
5470 -5472 0
5468 -5472 0
-5239 -5469 5473 0
5239 -5473 0
5469 -5473 0
5472 5473 -5474 0
-5472 5474 0
-5473 5474 0
-210 -5315 5475 0
210 -5475 0
5315 -5475 0
-5245 -5475 -5476 0
5245 5475 -5476 0
5245 -5475 5476 0
-5245 5475 5476 0
-5476 -5474 -5477 0
5476 5474 -5477 0
5476 -5474 5477 0
-5476 5474 5477 0
-5476 -5474 5478 0
5476 -5478 0
5474 -5478 0
-5245 -5475 5479 0
5245 -5479 0
5475 -5479 0
5478 5479 -5480 0
-5478 5480 0
-5479 5480 0
-218 -5315 5481 0
218 -5481 0
5315 -5481 0
-5251 -5481 -5482 0
5251 5481 -5482 0
5251 -5481 5482 0
-5251 5481 5482 0
-5482 -5480 -5483 0
5482 5480 -5483 0
5482 -5480 5483 0
-5482 5480 5483 0
-5482 -5480 5484 0
5482 -5484 0
5480 -5484 0
-5251 -5481 5485 0
5251 -5485 0
5481 -5485 0
5484 5485 -5486 0
-5484 5486 0
-5485 5486 0
-226 -5315 5487 0
226 -5487 0
5315 -5487 0
-5257 -5487 -5488 0
5257 5487 -5488 0
5257 -5487 5488 0
-5257 5487 5488 0
-5488 -5486 -5489 0
5488 5486 -5489 0
5488 -5486 5489 0
-5488 5486 5489 0
-5488 -5486 5490 0
5488 -5490 0
5486 -5490 0
-5257 -5487 5491 0
5257 -5491 0
5487 -5491 0
5490 5491 -5492 0
-5490 5492 0
-5491 5492 0
-234 -5315 5493 0
234 -5493 0
5315 -5493 0
-5263 -5493 -5494 0
5263 5493 -5494 0
5263 -5493 5494 0
-5263 5493 5494 0
-5494 -5492 -5495 0
5494 5492 -5495 0
5494 -5492 5495 0
-5494 5492 5495 0
-5494 -5492 5496 0
5494 -5496 0
5492 -5496 0
-5263 -5493 5497 0
5263 -5497 0
5493 -5497 0
5496 5497 -5498 0
-5496 5498 0
-5497 5498 0
-242 -5315 5499 0
242 -5499 0
5315 -5499 0
-5269 -5499 -5500 0
5269 5499 -5500 0
5269 -5499 5500 0
-5269 5499 5500 0
-5500 -5498 -5501 0
5500 5498 -5501 0
5500 -5498 5501 0
-5500 5498 5501 0
-5500 -5498 5502 0
5500 -5502 0
5498 -5502 0
-5269 -5499 5503 0
5269 -5503 0
5499 -5503 0
5502 5503 -5504 0
-5502 5504 0
-5503 5504 0
-250 -5315 5505 0
250 -5505 0
5315 -5505 0
-5275 -5505 -5506 0
5275 5505 -5506 0
5275 -5505 5506 0
-5275 5505 5506 0
-5506 -5504 -5507 0
5506 5504 -5507 0
5506 -5504 5507 0
-5506 5504 5507 0
-5506 -5504 5508 0
5506 -5508 0
5504 -5508 0
-5275 -5505 5509 0
5275 -5509 0
5505 -5509 0
5508 5509 -5510 0
-5508 5510 0
-5509 5510 0
-258 -5315 5511 0
258 -5511 0
5315 -5511 0
-5281 -5511 -5512 0
5281 5511 -5512 0
5281 -5511 5512 0
-5281 5511 5512 0
-5512 -5510 -5513 0
5512 5510 -5513 0
5512 -5510 5513 0
-5512 5510 5513 0
-5512 -5510 5514 0
5512 -5514 0
5510 -5514 0
-5281 -5511 5515 0
5281 -5515 0
5511 -5515 0
5514 5515 -5516 0
-5514 5516 0
-5515 5516 0
-266 -5315 5517 0
266 -5517 0
5315 -5517 0
-5287 -5517 -5518 0
5287 5517 -5518 0
5287 -5517 5518 0
-5287 5517 5518 0
-5518 -5516 -5519 0
5518 5516 -5519 0
5518 -5516 5519 0
-5518 5516 5519 0
-5518 -5516 5520 0
5518 -5520 0
5516 -5520 0
-5287 -5517 5521 0
5287 -5521 0
5517 -5521 0
5520 5521 -5522 0
-5520 5522 0
-5521 5522 0
-274 -5315 5523 0
274 -5523 0
5315 -5523 0
-5293 -5523 -5524 0
5293 5523 -5524 0
5293 -5523 5524 0
-5293 5523 5524 0
-5524 -5522 -5525 0
5524 5522 -5525 0
5524 -5522 5525 0
-5524 5522 5525 0
-5524 -5522 5526 0
5524 -5526 0
5522 -5526 0
-5293 -5523 5527 0
5293 -5527 0
5523 -5527 0
5526 5527 -5528 0
-5526 5528 0
-5527 5528 0
-282 -5315 5529 0
282 -5529 0
5315 -5529 0
-5299 -5529 -5530 0
5299 5529 -5530 0
5299 -5529 5530 0
-5299 5529 5530 0
-5530 -5528 -5531 0
5530 5528 -5531 0
5530 -5528 5531 0
-5530 5528 5531 0
-5530 -5528 5532 0
5530 -5532 0
5528 -5532 0
-5299 -5529 5533 0
5299 -5533 0
5529 -5533 0
5532 5533 -5534 0
-5532 5534 0
-5533 5534 0
-290 -5315 5535 0
290 -5535 0
5315 -5535 0
-5305 -5535 -5536 0
5305 5535 -5536 0
5305 -5535 5536 0
-5305 5535 5536 0
-5536 -5534 -5537 0
5536 5534 -5537 0
5536 -5534 5537 0
-5536 5534 5537 0
-5536 -5534 5538 0
5536 -5538 0
5534 -5538 0
-5305 -5535 5539 0
5305 -5539 0
5535 -5539 0
5538 5539 -5540 0
-5538 5540 0
-5539 5540 0
-298 -5315 5541 0
298 -5541 0
5315 -5541 0
-5311 -5541 -5542 0
5311 5541 -5542 0
5311 -5541 5542 0
-5311 5541 5542 0
-5542 -5540 -5543 0
5542 5540 -5543 0
5542 -5540 5543 0
-5542 5540 5543 0
-5542 -5540 5544 0
5542 -5544 0
5540 -5544 0
-5311 -5541 5545 0
5311 -5545 0
5541 -5545 0
5544 5545 -5546 0
-5544 5546 0
-5545 5546 0
-306 -5315 5547 0
306 -5547 0
5315 -5547 0
-5314 -5547 -5548 0
5314 5547 -5548 0
5314 -5547 5548 0
-5314 5547 5548 0
-5548 -5546 -5549 0
5548 5546 -5549 0
5548 -5546 5549 0
-5548 5546 5549 0
-5548 -5546 5550 0
5548 -5550 0
5546 -5550 0
-5314 -5547 5551 0
5314 -5551 0
5547 -5551 0
5550 5551 -5552 0
-5550 5552 0
-5551 5552 0
-1 -5553 5554 0
1 -5554 0
5553 -5554 0
-5321 -5554 -5555 0
5321 5554 -5555 0
5321 -5554 5555 0
-5321 5554 5555 0
-5321 -5554 5556 0
5321 -5556 0
5554 -5556 0
-4 -5553 5557 0
4 -5557 0
5553 -5557 0
-5327 -5557 -5558 0
5327 5557 -5558 0
5327 -5557 5558 0
-5327 5557 5558 0
-5558 -5556 -5559 0
5558 5556 -5559 0
5558 -5556 5559 0
-5558 5556 5559 0
-5558 -5556 5560 0
5558 -5560 0
5556 -5560 0
-5327 -5557 5561 0
5327 -5561 0
5557 -5561 0
5560 5561 -5562 0
-5560 5562 0
-5561 5562 0
-10 -5553 5563 0
10 -5563 0
5553 -5563 0
-5333 -5563 -5564 0
5333 5563 -5564 0
5333 -5563 5564 0
-5333 5563 5564 0
-5564 -5562 -5565 0
5564 5562 -5565 0
5564 -5562 5565 0
-5564 5562 5565 0
-5564 -5562 5566 0
5564 -5566 0
5562 -5566 0
-5333 -5563 5567 0
5333 -5567 0
5563 -5567 0
5566 5567 -5568 0
-5566 5568 0
-5567 5568 0
-18 -5553 5569 0
18 -5569 0
5553 -5569 0
-5339 -5569 -5570 0
5339 5569 -5570 0
5339 -5569 5570 0
-5339 5569 5570 0
-5570 -5568 -5571 0
5570 5568 -5571 0
5570 -5568 5571 0
-5570 5568 5571 0
-5570 -5568 5572 0
5570 -5572 0
5568 -5572 0
-5339 -5569 5573 0
5339 -5573 0
5569 -5573 0
5572 5573 -5574 0
-5572 5574 0
-5573 5574 0
-26 -5553 5575 0
26 -5575 0
5553 -5575 0
-5345 -5575 -5576 0
5345 5575 -5576 0
5345 -5575 5576 0
-5345 5575 5576 0
-5576 -5574 -5577 0
5576 5574 -5577 0
5576 -5574 5577 0
-5576 5574 5577 0
-5576 -5574 5578 0
5576 -5578 0
5574 -5578 0
-5345 -5575 5579 0
5345 -5579 0
5575 -5579 0
5578 5579 -5580 0
-5578 5580 0
-5579 5580 0
-34 -5553 5581 0
34 -5581 0
5553 -5581 0
-5351 -5581 -5582 0
5351 5581 -5582 0
5351 -5581 5582 0
-5351 5581 5582 0
-5582 -5580 -5583 0
5582 5580 -5583 0
5582 -5580 5583 0
-5582 5580 5583 0
-5582 -5580 5584 0
5582 -5584 0
5580 -5584 0
-5351 -5581 5585 0
5351 -5585 0
5581 -5585 0
5584 5585 -5586 0
-5584 5586 0
-5585 5586 0
-42 -5553 5587 0
42 -5587 0
5553 -5587 0
-5357 -5587 -5588 0
5357 5587 -5588 0
5357 -5587 5588 0
-5357 5587 5588 0
-5588 -5586 -5589 0
5588 5586 -5589 0
5588 -5586 5589 0
-5588 5586 5589 0
-5588 -5586 5590 0
5588 -5590 0
5586 -5590 0
-5357 -5587 5591 0
5357 -5591 0
5587 -5591 0
5590 5591 -5592 0
-5590 5592 0
-5591 5592 0
-50 -5553 5593 0
50 -5593 0
5553 -5593 0
-5363 -5593 -5594 0
5363 5593 -5594 0
5363 -5593 5594 0
-5363 5593 5594 0
-5594 -5592 -5595 0
5594 5592 -5595 0
5594 -5592 5595 0
-5594 5592 5595 0
-5594 -5592 5596 0
5594 -5596 0
5592 -5596 0
-5363 -5593 5597 0
5363 -5597 0
5593 -5597 0
5596 5597 -5598 0
-5596 5598 0
-5597 5598 0
-58 -5553 5599 0
58 -5599 0
5553 -5599 0
-5369 -5599 -5600 0
5369 5599 -5600 0
5369 -5599 5600 0
-5369 5599 5600 0
-5600 -5598 -5601 0
5600 5598 -5601 0
5600 -5598 5601 0
-5600 5598 5601 0
-5600 -5598 5602 0
5600 -5602 0
5598 -5602 0
-5369 -5599 5603 0
5369 -5603 0
5599 -5603 0
5602 5603 -5604 0
-5602 5604 0
-5603 5604 0
-66 -5553 5605 0
66 -5605 0
5553 -5605 0
-5375 -5605 -5606 0
5375 5605 -5606 0
5375 -5605 5606 0
-5375 5605 5606 0
-5606 -5604 -5607 0
5606 5604 -5607 0
5606 -5604 5607 0
-5606 5604 5607 0
-5606 -5604 5608 0
5606 -5608 0
5604 -5608 0
-5375 -5605 5609 0
5375 -5609 0
5605 -5609 0
5608 5609 -5610 0
-5608 5610 0
-5609 5610 0
-74 -5553 5611 0
74 -5611 0
5553 -5611 0
-5381 -5611 -5612 0
5381 5611 -5612 0
5381 -5611 5612 0
-5381 5611 5612 0
-5612 -5610 -5613 0
5612 5610 -5613 0
5612 -5610 5613 0
-5612 5610 5613 0
-5612 -5610 5614 0
5612 -5614 0
5610 -5614 0
-5381 -5611 5615 0
5381 -5615 0
5611 -5615 0
5614 5615 -5616 0
-5614 5616 0
-5615 5616 0
-82 -5553 5617 0
82 -5617 0
5553 -5617 0
-5387 -5617 -5618 0
5387 5617 -5618 0
5387 -5617 5618 0
-5387 5617 5618 0
-5618 -5616 -5619 0
5618 5616 -5619 0
5618 -5616 5619 0
-5618 5616 5619 0
-5618 -5616 5620 0
5618 -5620 0
5616 -5620 0
-5387 -5617 5621 0
5387 -5621 0
5617 -5621 0
5620 5621 -5622 0
-5620 5622 0
-5621 5622 0
-90 -5553 5623 0
90 -5623 0
5553 -5623 0
-5393 -5623 -5624 0
5393 5623 -5624 0
5393 -5623 5624 0
-5393 5623 5624 0
-5624 -5622 -5625 0
5624 5622 -5625 0
5624 -5622 5625 0
-5624 5622 5625 0
-5624 -5622 5626 0
5624 -5626 0
5622 -5626 0
-5393 -5623 5627 0
5393 -5627 0
5623 -5627 0
5626 5627 -5628 0
-5626 5628 0
-5627 5628 0
-98 -5553 5629 0
98 -5629 0
5553 -5629 0
-5399 -5629 -5630 0
5399 5629 -5630 0
5399 -5629 5630 0
-5399 5629 5630 0
-5630 -5628 -5631 0
5630 5628 -5631 0
5630 -5628 5631 0
-5630 5628 5631 0
-5630 -5628 5632 0
5630 -5632 0
5628 -5632 0
-5399 -5629 5633 0
5399 -5633 0
5629 -5633 0
5632 5633 -5634 0
-5632 5634 0
-5633 5634 0
-106 -5553 5635 0
106 -5635 0
5553 -5635 0
-5405 -5635 -5636 0
5405 5635 -5636 0
5405 -5635 5636 0
-5405 5635 5636 0
-5636 -5634 -5637 0
5636 5634 -5637 0
5636 -5634 5637 0
-5636 5634 5637 0
-5636 -5634 5638 0
5636 -5638 0
5634 -5638 0
-5405 -5635 5639 0
5405 -5639 0
5635 -5639 0
5638 5639 -5640 0
-5638 5640 0
-5639 5640 0
-114 -5553 5641 0
114 -5641 0
5553 -5641 0
-5411 -5641 -5642 0
5411 5641 -5642 0
5411 -5641 5642 0
-5411 5641 5642 0
-5642 -5640 -5643 0
5642 5640 -5643 0
5642 -5640 5643 0
-5642 5640 5643 0
-5642 -5640 5644 0
5642 -5644 0
5640 -5644 0
-5411 -5641 5645 0
5411 -5645 0
5641 -5645 0
5644 5645 -5646 0
-5644 5646 0
-5645 5646 0
-122 -5553 5647 0
122 -5647 0
5553 -5647 0
-5417 -5647 -5648 0
5417 5647 -5648 0
5417 -5647 5648 0
-5417 5647 5648 0
-5648 -5646 -5649 0
5648 5646 -5649 0
5648 -5646 5649 0
-5648 5646 5649 0
-5648 -5646 5650 0
5648 -5650 0
5646 -5650 0
-5417 -5647 5651 0
5417 -5651 0
5647 -5651 0
5650 5651 -5652 0
-5650 5652 0
-5651 5652 0
-130 -5553 5653 0
130 -5653 0
5553 -5653 0
-5423 -5653 -5654 0
5423 5653 -5654 0
5423 -5653 5654 0
-5423 5653 5654 0
-5654 -5652 -5655 0
5654 5652 -5655 0
5654 -5652 5655 0
-5654 5652 5655 0
-5654 -5652 5656 0
5654 -5656 0
5652 -5656 0
-5423 -5653 5657 0
5423 -5657 0
5653 -5657 0
5656 5657 -5658 0
-5656 5658 0
-5657 5658 0
-138 -5553 5659 0
138 -5659 0
5553 -5659 0
-5429 -5659 -5660 0
5429 5659 -5660 0
5429 -5659 5660 0
-5429 5659 5660 0
-5660 -5658 -5661 0
5660 5658 -5661 0
5660 -5658 5661 0
-5660 5658 5661 0
-5660 -5658 5662 0
5660 -5662 0
5658 -5662 0
-5429 -5659 5663 0
5429 -5663 0
5659 -5663 0
5662 5663 -5664 0
-5662 5664 0
-5663 5664 0
-146 -5553 5665 0
146 -5665 0
5553 -5665 0
-5435 -5665 -5666 0
5435 5665 -5666 0
5435 -5665 5666 0
-5435 5665 5666 0
-5666 -5664 -5667 0
5666 5664 -5667 0
5666 -5664 5667 0
-5666 5664 5667 0
-5666 -5664 5668 0
5666 -5668 0
5664 -5668 0
-5435 -5665 5669 0
5435 -5669 0
5665 -5669 0
5668 5669 -5670 0
-5668 5670 0
-5669 5670 0
-154 -5553 5671 0
154 -5671 0
5553 -5671 0
-5441 -5671 -5672 0
5441 5671 -5672 0
5441 -5671 5672 0
-5441 5671 5672 0
-5672 -5670 -5673 0
5672 5670 -5673 0
5672 -5670 5673 0
-5672 5670 5673 0
-5672 -5670 5674 0
5672 -5674 0
5670 -5674 0
-5441 -5671 5675 0
5441 -5675 0
5671 -5675 0
5674 5675 -5676 0
-5674 5676 0
-5675 5676 0
-162 -5553 5677 0
162 -5677 0
5553 -5677 0
-5447 -5677 -5678 0
5447 5677 -5678 0
5447 -5677 5678 0
-5447 5677 5678 0
-5678 -5676 -5679 0
5678 5676 -5679 0
5678 -5676 5679 0
-5678 5676 5679 0
-5678 -5676 5680 0
5678 -5680 0
5676 -5680 0
-5447 -5677 5681 0
5447 -5681 0
5677 -5681 0
5680 5681 -5682 0
-5680 5682 0
-5681 5682 0
-170 -5553 5683 0
170 -5683 0
5553 -5683 0
-5453 -5683 -5684 0
5453 5683 -5684 0
5453 -5683 5684 0
-5453 5683 5684 0
-5684 -5682 -5685 0
5684 5682 -5685 0
5684 -5682 5685 0
-5684 5682 5685 0
-5684 -5682 5686 0
5684 -5686 0
5682 -5686 0
-5453 -5683 5687 0
5453 -5687 0
5683 -5687 0
5686 5687 -5688 0
-5686 5688 0
-5687 5688 0
-178 -5553 5689 0
178 -5689 0
5553 -5689 0
-5459 -5689 -5690 0
5459 5689 -5690 0
5459 -5689 5690 0
-5459 5689 5690 0
-5690 -5688 -5691 0
5690 5688 -5691 0
5690 -5688 5691 0
-5690 5688 5691 0
-5690 -5688 5692 0
5690 -5692 0
5688 -5692 0
-5459 -5689 5693 0
5459 -5693 0
5689 -5693 0
5692 5693 -5694 0
-5692 5694 0
-5693 5694 0
-186 -5553 5695 0
186 -5695 0
5553 -5695 0
-5465 -5695 -5696 0
5465 5695 -5696 0
5465 -5695 5696 0
-5465 5695 5696 0
-5696 -5694 -5697 0
5696 5694 -5697 0
5696 -5694 5697 0
-5696 5694 5697 0
-5696 -5694 5698 0
5696 -5698 0
5694 -5698 0
-5465 -5695 5699 0
5465 -5699 0
5695 -5699 0
5698 5699 -5700 0
-5698 5700 0
-5699 5700 0
-194 -5553 5701 0
194 -5701 0
5553 -5701 0
-5471 -5701 -5702 0
5471 5701 -5702 0
5471 -5701 5702 0
-5471 5701 5702 0
-5702 -5700 -5703 0
5702 5700 -5703 0
5702 -5700 5703 0
-5702 5700 5703 0
-5702 -5700 5704 0
5702 -5704 0
5700 -5704 0
-5471 -5701 5705 0
5471 -5705 0
5701 -5705 0
5704 5705 -5706 0
-5704 5706 0
-5705 5706 0
-202 -5553 5707 0
202 -5707 0
5553 -5707 0
-5477 -5707 -5708 0
5477 5707 -5708 0
5477 -5707 5708 0
-5477 5707 5708 0
-5708 -5706 -5709 0
5708 5706 -5709 0
5708 -5706 5709 0
-5708 5706 5709 0
-5708 -5706 5710 0
5708 -5710 0
5706 -5710 0
-5477 -5707 5711 0
5477 -5711 0
5707 -5711 0
5710 5711 -5712 0
-5710 5712 0
-5711 5712 0
-210 -5553 5713 0
210 -5713 0
5553 -5713 0
-5483 -5713 -5714 0
5483 5713 -5714 0
5483 -5713 5714 0
-5483 5713 5714 0
-5714 -5712 -5715 0
5714 5712 -5715 0
5714 -5712 5715 0
-5714 5712 5715 0
-5714 -5712 5716 0
5714 -5716 0
5712 -5716 0
-5483 -5713 5717 0
5483 -5717 0
5713 -5717 0
5716 5717 -5718 0
-5716 5718 0
-5717 5718 0
-218 -5553 5719 0
218 -5719 0
5553 -5719 0
-5489 -5719 -5720 0
5489 5719 -5720 0
5489 -5719 5720 0
-5489 5719 5720 0
-5720 -5718 -5721 0
5720 5718 -5721 0
5720 -5718 5721 0
-5720 5718 5721 0
-5720 -5718 5722 0
5720 -5722 0
5718 -5722 0
-5489 -5719 5723 0
5489 -5723 0
5719 -5723 0
5722 5723 -5724 0
-5722 5724 0
-5723 5724 0
-226 -5553 5725 0
226 -5725 0
5553 -5725 0
-5495 -5725 -5726 0
5495 5725 -5726 0
5495 -5725 5726 0
-5495 5725 5726 0
-5726 -5724 -5727 0
5726 5724 -5727 0
5726 -5724 5727 0
-5726 5724 5727 0
-5726 -5724 5728 0
5726 -5728 0
5724 -5728 0
-5495 -5725 5729 0
5495 -5729 0
5725 -5729 0
5728 5729 -5730 0
-5728 5730 0
-5729 5730 0
-234 -5553 5731 0
234 -5731 0
5553 -5731 0
-5501 -5731 -5732 0
5501 5731 -5732 0
5501 -5731 5732 0
-5501 5731 5732 0
-5732 -5730 -5733 0
5732 5730 -5733 0
5732 -5730 5733 0
-5732 5730 5733 0
-5732 -5730 5734 0
5732 -5734 0
5730 -5734 0
-5501 -5731 5735 0
5501 -5735 0
5731 -5735 0
5734 5735 -5736 0
-5734 5736 0
-5735 5736 0
-242 -5553 5737 0
242 -5737 0
5553 -5737 0
-5507 -5737 -5738 0
5507 5737 -5738 0
5507 -5737 5738 0
-5507 5737 5738 0
-5738 -5736 -5739 0
5738 5736 -5739 0
5738 -5736 5739 0
-5738 5736 5739 0
-5738 -5736 5740 0
5738 -5740 0
5736 -5740 0
-5507 -5737 5741 0
5507 -5741 0
5737 -5741 0
5740 5741 -5742 0
-5740 5742 0
-5741 5742 0
-250 -5553 5743 0
250 -5743 0
5553 -5743 0
-5513 -5743 -5744 0
5513 5743 -5744 0
5513 -5743 5744 0
-5513 5743 5744 0
-5744 -5742 -5745 0
5744 5742 -5745 0
5744 -5742 5745 0
-5744 5742 5745 0
-5744 -5742 5746 0
5744 -5746 0
5742 -5746 0
-5513 -5743 5747 0
5513 -5747 0
5743 -5747 0
5746 5747 -5748 0
-5746 5748 0
-5747 5748 0
-258 -5553 5749 0
258 -5749 0
5553 -5749 0
-5519 -5749 -5750 0
5519 5749 -5750 0
5519 -5749 5750 0
-5519 5749 5750 0
-5750 -5748 -5751 0
5750 5748 -5751 0
5750 -5748 5751 0
-5750 5748 5751 0
-5750 -5748 5752 0
5750 -5752 0
5748 -5752 0
-5519 -5749 5753 0
5519 -5753 0
5749 -5753 0
5752 5753 -5754 0
-5752 5754 0
-5753 5754 0
-266 -5553 5755 0
266 -5755 0
5553 -5755 0
-5525 -5755 -5756 0
5525 5755 -5756 0
5525 -5755 5756 0
-5525 5755 5756 0
-5756 -5754 -5757 0
5756 5754 -5757 0
5756 -5754 5757 0
-5756 5754 5757 0
-5756 -5754 5758 0
5756 -5758 0
5754 -5758 0
-5525 -5755 5759 0
5525 -5759 0
5755 -5759 0
5758 5759 -5760 0
-5758 5760 0
-5759 5760 0
-274 -5553 5761 0
274 -5761 0
5553 -5761 0
-5531 -5761 -5762 0
5531 5761 -5762 0
5531 -5761 5762 0
-5531 5761 5762 0
-5762 -5760 -5763 0
5762 5760 -5763 0
5762 -5760 5763 0
-5762 5760 5763 0
-5762 -5760 5764 0
5762 -5764 0
5760 -5764 0
-5531 -5761 5765 0
5531 -5765 0
5761 -5765 0
5764 5765 -5766 0
-5764 5766 0
-5765 5766 0
-282 -5553 5767 0
282 -5767 0
5553 -5767 0
-5537 -5767 -5768 0
5537 5767 -5768 0
5537 -5767 5768 0
-5537 5767 5768 0
-5768 -5766 -5769 0
5768 5766 -5769 0
5768 -5766 5769 0
-5768 5766 5769 0
-5768 -5766 5770 0
5768 -5770 0
5766 -5770 0
-5537 -5767 5771 0
5537 -5771 0
5767 -5771 0
5770 5771 -5772 0
-5770 5772 0
-5771 5772 0
-290 -5553 5773 0
290 -5773 0
5553 -5773 0
-5543 -5773 -5774 0
5543 5773 -5774 0
5543 -5773 5774 0
-5543 5773 5774 0
-5774 -5772 -5775 0
5774 5772 -5775 0
5774 -5772 5775 0
-5774 5772 5775 0
-5774 -5772 5776 0
5774 -5776 0
5772 -5776 0
-5543 -5773 5777 0
5543 -5777 0
5773 -5777 0
5776 5777 -5778 0
-5776 5778 0
-5777 5778 0
-298 -5553 5779 0
298 -5779 0
5553 -5779 0
-5549 -5779 -5780 0
5549 5779 -5780 0
5549 -5779 5780 0
-5549 5779 5780 0
-5780 -5778 -5781 0
5780 5778 -5781 0
5780 -5778 5781 0
-5780 5778 5781 0
-5780 -5778 5782 0
5780 -5782 0
5778 -5782 0
-5549 -5779 5783 0
5549 -5783 0
5779 -5783 0
5782 5783 -5784 0
-5782 5784 0
-5783 5784 0
-306 -5553 5785 0
306 -5785 0
5553 -5785 0
-5552 -5785 -5786 0
5552 5785 -5786 0
5552 -5785 5786 0
-5552 5785 5786 0
-5786 -5784 -5787 0
5786 5784 -5787 0
5786 -5784 5787 0
-5786 5784 5787 0
-5786 -5784 5788 0
5786 -5788 0
5784 -5788 0
-5552 -5785 5789 0
5552 -5789 0
5785 -5789 0
5788 5789 -5790 0
-5788 5790 0
-5789 5790 0
-1 -5791 5792 0
1 -5792 0
5791 -5792 0
-5559 -5792 -5793 0
5559 5792 -5793 0
5559 -5792 5793 0
-5559 5792 5793 0
-5559 -5792 5794 0
5559 -5794 0
5792 -5794 0
-4 -5791 5795 0
4 -5795 0
5791 -5795 0
-5565 -5795 -5796 0
5565 5795 -5796 0
5565 -5795 5796 0
-5565 5795 5796 0
-5796 -5794 -5797 0
5796 5794 -5797 0
5796 -5794 5797 0
-5796 5794 5797 0
-5796 -5794 5798 0
5796 -5798 0
5794 -5798 0
-5565 -5795 5799 0
5565 -5799 0
5795 -5799 0
5798 5799 -5800 0
-5798 5800 0
-5799 5800 0
-10 -5791 5801 0
10 -5801 0
5791 -5801 0
-5571 -5801 -5802 0
5571 5801 -5802 0
5571 -5801 5802 0
-5571 5801 5802 0
-5802 -5800 -5803 0
5802 5800 -5803 0
5802 -5800 5803 0
-5802 5800 5803 0
-5802 -5800 5804 0
5802 -5804 0
5800 -5804 0
-5571 -5801 5805 0
5571 -5805 0
5801 -5805 0
5804 5805 -5806 0
-5804 5806 0
-5805 5806 0
-18 -5791 5807 0
18 -5807 0
5791 -5807 0
-5577 -5807 -5808 0
5577 5807 -5808 0
5577 -5807 5808 0
-5577 5807 5808 0
-5808 -5806 -5809 0
5808 5806 -5809 0
5808 -5806 5809 0
-5808 5806 5809 0
-5808 -5806 5810 0
5808 -5810 0
5806 -5810 0
-5577 -5807 5811 0
5577 -5811 0
5807 -5811 0
5810 5811 -5812 0
-5810 5812 0
-5811 5812 0
-26 -5791 5813 0
26 -5813 0
5791 -5813 0
-5583 -5813 -5814 0
5583 5813 -5814 0
5583 -5813 5814 0
-5583 5813 5814 0
-5814 -5812 -5815 0
5814 5812 -5815 0
5814 -5812 5815 0
-5814 5812 5815 0
-5814 -5812 5816 0
5814 -5816 0
5812 -5816 0
-5583 -5813 5817 0
5583 -5817 0
5813 -5817 0
5816 5817 -5818 0
-5816 5818 0
-5817 5818 0
-34 -5791 5819 0
34 -5819 0
5791 -5819 0
-5589 -5819 -5820 0
5589 5819 -5820 0
5589 -5819 5820 0
-5589 5819 5820 0
-5820 -5818 -5821 0
5820 5818 -5821 0
5820 -5818 5821 0
-5820 5818 5821 0
-5820 -5818 5822 0
5820 -5822 0
5818 -5822 0
-5589 -5819 5823 0
5589 -5823 0
5819 -5823 0
5822 5823 -5824 0
-5822 5824 0
-5823 5824 0
-42 -5791 5825 0
42 -5825 0
5791 -5825 0
-5595 -5825 -5826 0
5595 5825 -5826 0
5595 -5825 5826 0
-5595 5825 5826 0
-5826 -5824 -5827 0
5826 5824 -5827 0
5826 -5824 5827 0
-5826 5824 5827 0
-5826 -5824 5828 0
5826 -5828 0
5824 -5828 0
-5595 -5825 5829 0
5595 -5829 0
5825 -5829 0
5828 5829 -5830 0
-5828 5830 0
-5829 5830 0
-50 -5791 5831 0
50 -5831 0
5791 -5831 0
-5601 -5831 -5832 0
5601 5831 -5832 0
5601 -5831 5832 0
-5601 5831 5832 0
-5832 -5830 -5833 0
5832 5830 -5833 0
5832 -5830 5833 0
-5832 5830 5833 0
-5832 -5830 5834 0
5832 -5834 0
5830 -5834 0
-5601 -5831 5835 0
5601 -5835 0
5831 -5835 0
5834 5835 -5836 0
-5834 5836 0
-5835 5836 0
-58 -5791 5837 0
58 -5837 0
5791 -5837 0
-5607 -5837 -5838 0
5607 5837 -5838 0
5607 -5837 5838 0
-5607 5837 5838 0
-5838 -5836 -5839 0
5838 5836 -5839 0
5838 -5836 5839 0
-5838 5836 5839 0
-5838 -5836 5840 0
5838 -5840 0
5836 -5840 0
-5607 -5837 5841 0
5607 -5841 0
5837 -5841 0
5840 5841 -5842 0
-5840 5842 0
-5841 5842 0
-66 -5791 5843 0
66 -5843 0
5791 -5843 0
-5613 -5843 -5844 0
5613 5843 -5844 0
5613 -5843 5844 0
-5613 5843 5844 0
-5844 -5842 -5845 0
5844 5842 -5845 0
5844 -5842 5845 0
-5844 5842 5845 0
-5844 -5842 5846 0
5844 -5846 0
5842 -5846 0
-5613 -5843 5847 0
5613 -5847 0
5843 -5847 0
5846 5847 -5848 0
-5846 5848 0
-5847 5848 0
-74 -5791 5849 0
74 -5849 0
5791 -5849 0
-5619 -5849 -5850 0
5619 5849 -5850 0
5619 -5849 5850 0
-5619 5849 5850 0
-5850 -5848 -5851 0
5850 5848 -5851 0
5850 -5848 5851 0
-5850 5848 5851 0
-5850 -5848 5852 0
5850 -5852 0
5848 -5852 0
-5619 -5849 5853 0
5619 -5853 0
5849 -5853 0
5852 5853 -5854 0
-5852 5854 0
-5853 5854 0
-82 -5791 5855 0
82 -5855 0
5791 -5855 0
-5625 -5855 -5856 0
5625 5855 -5856 0
5625 -5855 5856 0
-5625 5855 5856 0
-5856 -5854 -5857 0
5856 5854 -5857 0
5856 -5854 5857 0
-5856 5854 5857 0
-5856 -5854 5858 0
5856 -5858 0
5854 -5858 0
-5625 -5855 5859 0
5625 -5859 0
5855 -5859 0
5858 5859 -5860 0
-5858 5860 0
-5859 5860 0
-90 -5791 5861 0
90 -5861 0
5791 -5861 0
-5631 -5861 -5862 0
5631 5861 -5862 0
5631 -5861 5862 0
-5631 5861 5862 0
-5862 -5860 -5863 0
5862 5860 -5863 0
5862 -5860 5863 0
-5862 5860 5863 0
-5862 -5860 5864 0
5862 -5864 0
5860 -5864 0
-5631 -5861 5865 0
5631 -5865 0
5861 -5865 0
5864 5865 -5866 0
-5864 5866 0
-5865 5866 0
-98 -5791 5867 0
98 -5867 0
5791 -5867 0
-5637 -5867 -5868 0
5637 5867 -5868 0
5637 -5867 5868 0
-5637 5867 5868 0
-5868 -5866 -5869 0
5868 5866 -5869 0
5868 -5866 5869 0
-5868 5866 5869 0
-5868 -5866 5870 0
5868 -5870 0
5866 -5870 0
-5637 -5867 5871 0
5637 -5871 0
5867 -5871 0
5870 5871 -5872 0
-5870 5872 0
-5871 5872 0
-106 -5791 5873 0
106 -5873 0
5791 -5873 0
-5643 -5873 -5874 0
5643 5873 -5874 0
5643 -5873 5874 0
-5643 5873 5874 0
-5874 -5872 -5875 0
5874 5872 -5875 0
5874 -5872 5875 0
-5874 5872 5875 0
-5874 -5872 5876 0
5874 -5876 0
5872 -5876 0
-5643 -5873 5877 0
5643 -5877 0
5873 -5877 0
5876 5877 -5878 0
-5876 5878 0
-5877 5878 0
-114 -5791 5879 0
114 -5879 0
5791 -5879 0
-5649 -5879 -5880 0
5649 5879 -5880 0
5649 -5879 5880 0
-5649 5879 5880 0
-5880 -5878 -5881 0
5880 5878 -5881 0
5880 -5878 5881 0
-5880 5878 5881 0
-5880 -5878 5882 0
5880 -5882 0
5878 -5882 0
-5649 -5879 5883 0
5649 -5883 0
5879 -5883 0
5882 5883 -5884 0
-5882 5884 0
-5883 5884 0
-122 -5791 5885 0
122 -5885 0
5791 -5885 0
-5655 -5885 -5886 0
5655 5885 -5886 0
5655 -5885 5886 0
-5655 5885 5886 0
-5886 -5884 -5887 0
5886 5884 -5887 0
5886 -5884 5887 0
-5886 5884 5887 0
-5886 -5884 5888 0
5886 -5888 0
5884 -5888 0
-5655 -5885 5889 0
5655 -5889 0
5885 -5889 0
5888 5889 -5890 0
-5888 5890 0
-5889 5890 0
-130 -5791 5891 0
130 -5891 0
5791 -5891 0
-5661 -5891 -5892 0
5661 5891 -5892 0
5661 -5891 5892 0
-5661 5891 5892 0
-5892 -5890 -5893 0
5892 5890 -5893 0
5892 -5890 5893 0
-5892 5890 5893 0
-5892 -5890 5894 0
5892 -5894 0
5890 -5894 0
-5661 -5891 5895 0
5661 -5895 0
5891 -5895 0
5894 5895 -5896 0
-5894 5896 0
-5895 5896 0
-138 -5791 5897 0
138 -5897 0
5791 -5897 0
-5667 -5897 -5898 0
5667 5897 -5898 0
5667 -5897 5898 0
-5667 5897 5898 0
-5898 -5896 -5899 0
5898 5896 -5899 0
5898 -5896 5899 0
-5898 5896 5899 0
-5898 -5896 5900 0
5898 -5900 0
5896 -5900 0
-5667 -5897 5901 0
5667 -5901 0
5897 -5901 0
5900 5901 -5902 0
-5900 5902 0
-5901 5902 0
-146 -5791 5903 0
146 -5903 0
5791 -5903 0
-5673 -5903 -5904 0
5673 5903 -5904 0
5673 -5903 5904 0
-5673 5903 5904 0
-5904 -5902 -5905 0
5904 5902 -5905 0
5904 -5902 5905 0
-5904 5902 5905 0
-5904 -5902 5906 0
5904 -5906 0
5902 -5906 0
-5673 -5903 5907 0
5673 -5907 0
5903 -5907 0
5906 5907 -5908 0
-5906 5908 0
-5907 5908 0
-154 -5791 5909 0
154 -5909 0
5791 -5909 0
-5679 -5909 -5910 0
5679 5909 -5910 0
5679 -5909 5910 0
-5679 5909 5910 0
-5910 -5908 -5911 0
5910 5908 -5911 0
5910 -5908 5911 0
-5910 5908 5911 0
-5910 -5908 5912 0
5910 -5912 0
5908 -5912 0
-5679 -5909 5913 0
5679 -5913 0
5909 -5913 0
5912 5913 -5914 0
-5912 5914 0
-5913 5914 0
-162 -5791 5915 0
162 -5915 0
5791 -5915 0
-5685 -5915 -5916 0
5685 5915 -5916 0
5685 -5915 5916 0
-5685 5915 5916 0
-5916 -5914 -5917 0
5916 5914 -5917 0
5916 -5914 5917 0
-5916 5914 5917 0
-5916 -5914 5918 0
5916 -5918 0
5914 -5918 0
-5685 -5915 5919 0
5685 -5919 0
5915 -5919 0
5918 5919 -5920 0
-5918 5920 0
-5919 5920 0
-170 -5791 5921 0
170 -5921 0
5791 -5921 0
-5691 -5921 -5922 0
5691 5921 -5922 0
5691 -5921 5922 0
-5691 5921 5922 0
-5922 -5920 -5923 0
5922 5920 -5923 0
5922 -5920 5923 0
-5922 5920 5923 0
-5922 -5920 5924 0
5922 -5924 0
5920 -5924 0
-5691 -5921 5925 0
5691 -5925 0
5921 -5925 0
5924 5925 -5926 0
-5924 5926 0
-5925 5926 0
-178 -5791 5927 0
178 -5927 0
5791 -5927 0
-5697 -5927 -5928 0
5697 5927 -5928 0
5697 -5927 5928 0
-5697 5927 5928 0
-5928 -5926 -5929 0
5928 5926 -5929 0
5928 -5926 5929 0
-5928 5926 5929 0
-5928 -5926 5930 0
5928 -5930 0
5926 -5930 0
-5697 -5927 5931 0
5697 -5931 0
5927 -5931 0
5930 5931 -5932 0
-5930 5932 0
-5931 5932 0
-186 -5791 5933 0
186 -5933 0
5791 -5933 0
-5703 -5933 -5934 0
5703 5933 -5934 0
5703 -5933 5934 0
-5703 5933 5934 0
-5934 -5932 -5935 0
5934 5932 -5935 0
5934 -5932 5935 0
-5934 5932 5935 0
-5934 -5932 5936 0
5934 -5936 0
5932 -5936 0
-5703 -5933 5937 0
5703 -5937 0
5933 -5937 0
5936 5937 -5938 0
-5936 5938 0
-5937 5938 0
-194 -5791 5939 0
194 -5939 0
5791 -5939 0
-5709 -5939 -5940 0
5709 5939 -5940 0
5709 -5939 5940 0
-5709 5939 5940 0
-5940 -5938 -5941 0
5940 5938 -5941 0
5940 -5938 5941 0
-5940 5938 5941 0
-5940 -5938 5942 0
5940 -5942 0
5938 -5942 0
-5709 -5939 5943 0
5709 -5943 0
5939 -5943 0
5942 5943 -5944 0
-5942 5944 0
-5943 5944 0
-202 -5791 5945 0
202 -5945 0
5791 -5945 0
-5715 -5945 -5946 0
5715 5945 -5946 0
5715 -5945 5946 0
-5715 5945 5946 0
-5946 -5944 -5947 0
5946 5944 -5947 0
5946 -5944 5947 0
-5946 5944 5947 0
-5946 -5944 5948 0
5946 -5948 0
5944 -5948 0
-5715 -5945 5949 0
5715 -5949 0
5945 -5949 0
5948 5949 -5950 0
-5948 5950 0
-5949 5950 0
-210 -5791 5951 0
210 -5951 0
5791 -5951 0
-5721 -5951 -5952 0
5721 5951 -5952 0
5721 -5951 5952 0
-5721 5951 5952 0
-5952 -5950 -5953 0
5952 5950 -5953 0
5952 -5950 5953 0
-5952 5950 5953 0
-5952 -5950 5954 0
5952 -5954 0
5950 -5954 0
-5721 -5951 5955 0
5721 -5955 0
5951 -5955 0
5954 5955 -5956 0
-5954 5956 0
-5955 5956 0
-218 -5791 5957 0
218 -5957 0
5791 -5957 0
-5727 -5957 -5958 0
5727 5957 -5958 0
5727 -5957 5958 0
-5727 5957 5958 0
-5958 -5956 -5959 0
5958 5956 -5959 0
5958 -5956 5959 0
-5958 5956 5959 0
-5958 -5956 5960 0
5958 -5960 0
5956 -5960 0
-5727 -5957 5961 0
5727 -5961 0
5957 -5961 0
5960 5961 -5962 0
-5960 5962 0
-5961 5962 0
-226 -5791 5963 0
226 -5963 0
5791 -5963 0
-5733 -5963 -5964 0
5733 5963 -5964 0
5733 -5963 5964 0
-5733 5963 5964 0
-5964 -5962 -5965 0
5964 5962 -5965 0
5964 -5962 5965 0
-5964 5962 5965 0
-5964 -5962 5966 0
5964 -5966 0
5962 -5966 0
-5733 -5963 5967 0
5733 -5967 0
5963 -5967 0
5966 5967 -5968 0
-5966 5968 0
-5967 5968 0
-234 -5791 5969 0
234 -5969 0
5791 -5969 0
-5739 -5969 -5970 0
5739 5969 -5970 0
5739 -5969 5970 0
-5739 5969 5970 0
-5970 -5968 -5971 0
5970 5968 -5971 0
5970 -5968 5971 0
-5970 5968 5971 0
-5970 -5968 5972 0
5970 -5972 0
5968 -5972 0
-5739 -5969 5973 0
5739 -5973 0
5969 -5973 0
5972 5973 -5974 0
-5972 5974 0
-5973 5974 0
-242 -5791 5975 0
242 -5975 0
5791 -5975 0
-5745 -5975 -5976 0
5745 5975 -5976 0
5745 -5975 5976 0
-5745 5975 5976 0
-5976 -5974 -5977 0
5976 5974 -5977 0
5976 -5974 5977 0
-5976 5974 5977 0
-5976 -5974 5978 0
5976 -5978 0
5974 -5978 0
-5745 -5975 5979 0
5745 -5979 0
5975 -5979 0
5978 5979 -5980 0
-5978 5980 0
-5979 5980 0
-250 -5791 5981 0
250 -5981 0
5791 -5981 0
-5751 -5981 -5982 0
5751 5981 -5982 0
5751 -5981 5982 0
-5751 5981 5982 0
-5982 -5980 -5983 0
5982 5980 -5983 0
5982 -5980 5983 0
-5982 5980 5983 0
-5982 -5980 5984 0
5982 -5984 0
5980 -5984 0
-5751 -5981 5985 0
5751 -5985 0
5981 -5985 0
5984 5985 -5986 0
-5984 5986 0
-5985 5986 0
-258 -5791 5987 0
258 -5987 0
5791 -5987 0
-5757 -5987 -5988 0
5757 5987 -5988 0
5757 -5987 5988 0
-5757 5987 5988 0
-5988 -5986 -5989 0
5988 5986 -5989 0
5988 -5986 5989 0
-5988 5986 5989 0
-5988 -5986 5990 0
5988 -5990 0
5986 -5990 0
-5757 -5987 5991 0
5757 -5991 0
5987 -5991 0
5990 5991 -5992 0
-5990 5992 0
-5991 5992 0
-266 -5791 5993 0
266 -5993 0
5791 -5993 0
-5763 -5993 -5994 0
5763 5993 -5994 0
5763 -5993 5994 0
-5763 5993 5994 0
-5994 -5992 -5995 0
5994 5992 -5995 0
5994 -5992 5995 0
-5994 5992 5995 0
-5994 -5992 5996 0
5994 -5996 0
5992 -5996 0
-5763 -5993 5997 0
5763 -5997 0
5993 -5997 0
5996 5997 -5998 0
-5996 5998 0
-5997 5998 0
-274 -5791 5999 0
274 -5999 0
5791 -5999 0
-5769 -5999 -6000 0
5769 5999 -6000 0
5769 -5999 6000 0
-5769 5999 6000 0
-6000 -5998 -6001 0
6000 5998 -6001 0
6000 -5998 6001 0
-6000 5998 6001 0
-6000 -5998 6002 0
6000 -6002 0
5998 -6002 0
-5769 -5999 6003 0
5769 -6003 0
5999 -6003 0
6002 6003 -6004 0
-6002 6004 0
-6003 6004 0
-282 -5791 6005 0
282 -6005 0
5791 -6005 0
-5775 -6005 -6006 0
5775 6005 -6006 0
5775 -6005 6006 0
-5775 6005 6006 0
-6006 -6004 -6007 0
6006 6004 -6007 0
6006 -6004 6007 0
-6006 6004 6007 0
-6006 -6004 6008 0
6006 -6008 0
6004 -6008 0
-5775 -6005 6009 0
5775 -6009 0
6005 -6009 0
6008 6009 -6010 0
-6008 6010 0
-6009 6010 0
-290 -5791 6011 0
290 -6011 0
5791 -6011 0
-5781 -6011 -6012 0
5781 6011 -6012 0
5781 -6011 6012 0
-5781 6011 6012 0
-6012 -6010 -6013 0
6012 6010 -6013 0
6012 -6010 6013 0
-6012 6010 6013 0
-6012 -6010 6014 0
6012 -6014 0
6010 -6014 0
-5781 -6011 6015 0
5781 -6015 0
6011 -6015 0
6014 6015 -6016 0
-6014 6016 0
-6015 6016 0
-298 -5791 6017 0
298 -6017 0
5791 -6017 0
-5787 -6017 -6018 0
5787 6017 -6018 0
5787 -6017 6018 0
-5787 6017 6018 0
-6018 -6016 -6019 0
6018 6016 -6019 0
6018 -6016 6019 0
-6018 6016 6019 0
-6018 -6016 6020 0
6018 -6020 0
6016 -6020 0
-5787 -6017 6021 0
5787 -6021 0
6017 -6021 0
6020 6021 -6022 0
-6020 6022 0
-6021 6022 0
-306 -5791 6023 0
306 -6023 0
5791 -6023 0
-5790 -6023 -6024 0
5790 6023 -6024 0
5790 -6023 6024 0
-5790 6023 6024 0
-6024 -6022 -6025 0
6024 6022 -6025 0
6024 -6022 6025 0
-6024 6022 6025 0
-6024 -6022 6026 0
6024 -6026 0
6022 -6026 0
-5790 -6023 6027 0
5790 -6027 0
6023 -6027 0
6026 6027 -6028 0
-6026 6028 0
-6027 6028 0
-1 -6029 6030 0
1 -6030 0
6029 -6030 0
-5797 -6030 -6031 0
5797 6030 -6031 0
5797 -6030 6031 0
-5797 6030 6031 0
-5797 -6030 6032 0
5797 -6032 0
6030 -6032 0
-4 -6029 6033 0
4 -6033 0
6029 -6033 0
-5803 -6033 -6034 0
5803 6033 -6034 0
5803 -6033 6034 0
-5803 6033 6034 0
-6034 -6032 -6035 0
6034 6032 -6035 0
6034 -6032 6035 0
-6034 6032 6035 0
-6034 -6032 6036 0
6034 -6036 0
6032 -6036 0
-5803 -6033 6037 0
5803 -6037 0
6033 -6037 0
6036 6037 -6038 0
-6036 6038 0
-6037 6038 0
-10 -6029 6039 0
10 -6039 0
6029 -6039 0
-5809 -6039 -6040 0
5809 6039 -6040 0
5809 -6039 6040 0
-5809 6039 6040 0
-6040 -6038 -6041 0
6040 6038 -6041 0
6040 -6038 6041 0
-6040 6038 6041 0
-6040 -6038 6042 0
6040 -6042 0
6038 -6042 0
-5809 -6039 6043 0
5809 -6043 0
6039 -6043 0
6042 6043 -6044 0
-6042 6044 0
-6043 6044 0
-18 -6029 6045 0
18 -6045 0
6029 -6045 0
-5815 -6045 -6046 0
5815 6045 -6046 0
5815 -6045 6046 0
-5815 6045 6046 0
-6046 -6044 -6047 0
6046 6044 -6047 0
6046 -6044 6047 0
-6046 6044 6047 0
-6046 -6044 6048 0
6046 -6048 0
6044 -6048 0
-5815 -6045 6049 0
5815 -6049 0
6045 -6049 0
6048 6049 -6050 0
-6048 6050 0
-6049 6050 0
-26 -6029 6051 0
26 -6051 0
6029 -6051 0
-5821 -6051 -6052 0
5821 6051 -6052 0
5821 -6051 6052 0
-5821 6051 6052 0
-6052 -6050 -6053 0
6052 6050 -6053 0
6052 -6050 6053 0
-6052 6050 6053 0
-6052 -6050 6054 0
6052 -6054 0
6050 -6054 0
-5821 -6051 6055 0
5821 -6055 0
6051 -6055 0
6054 6055 -6056 0
-6054 6056 0
-6055 6056 0
-34 -6029 6057 0
34 -6057 0
6029 -6057 0
-5827 -6057 -6058 0
5827 6057 -6058 0
5827 -6057 6058 0
-5827 6057 6058 0
-6058 -6056 -6059 0
6058 6056 -6059 0
6058 -6056 6059 0
-6058 6056 6059 0
-6058 -6056 6060 0
6058 -6060 0
6056 -6060 0
-5827 -6057 6061 0
5827 -6061 0
6057 -6061 0
6060 6061 -6062 0
-6060 6062 0
-6061 6062 0
-42 -6029 6063 0
42 -6063 0
6029 -6063 0
-5833 -6063 -6064 0
5833 6063 -6064 0
5833 -6063 6064 0
-5833 6063 6064 0
-6064 -6062 -6065 0
6064 6062 -6065 0
6064 -6062 6065 0
-6064 6062 6065 0
-6064 -6062 6066 0
6064 -6066 0
6062 -6066 0
-5833 -6063 6067 0
5833 -6067 0
6063 -6067 0
6066 6067 -6068 0
-6066 6068 0
-6067 6068 0
-50 -6029 6069 0
50 -6069 0
6029 -6069 0
-5839 -6069 -6070 0
5839 6069 -6070 0
5839 -6069 6070 0
-5839 6069 6070 0
-6070 -6068 -6071 0
6070 6068 -6071 0
6070 -6068 6071 0
-6070 6068 6071 0
-6070 -6068 6072 0
6070 -6072 0
6068 -6072 0
-5839 -6069 6073 0
5839 -6073 0
6069 -6073 0
6072 6073 -6074 0
-6072 6074 0
-6073 6074 0
-58 -6029 6075 0
58 -6075 0
6029 -6075 0
-5845 -6075 -6076 0
5845 6075 -6076 0
5845 -6075 6076 0
-5845 6075 6076 0
-6076 -6074 -6077 0
6076 6074 -6077 0
6076 -6074 6077 0
-6076 6074 6077 0
-6076 -6074 6078 0
6076 -6078 0
6074 -6078 0
-5845 -6075 6079 0
5845 -6079 0
6075 -6079 0
6078 6079 -6080 0
-6078 6080 0
-6079 6080 0
-66 -6029 6081 0
66 -6081 0
6029 -6081 0
-5851 -6081 -6082 0
5851 6081 -6082 0
5851 -6081 6082 0
-5851 6081 6082 0
-6082 -6080 -6083 0
6082 6080 -6083 0
6082 -6080 6083 0
-6082 6080 6083 0
-6082 -6080 6084 0
6082 -6084 0
6080 -6084 0
-5851 -6081 6085 0
5851 -6085 0
6081 -6085 0
6084 6085 -6086 0
-6084 6086 0
-6085 6086 0
-74 -6029 6087 0
74 -6087 0
6029 -6087 0
-5857 -6087 -6088 0
5857 6087 -6088 0
5857 -6087 6088 0
-5857 6087 6088 0
-6088 -6086 -6089 0
6088 6086 -6089 0
6088 -6086 6089 0
-6088 6086 6089 0
-6088 -6086 6090 0
6088 -6090 0
6086 -6090 0
-5857 -6087 6091 0
5857 -6091 0
6087 -6091 0
6090 6091 -6092 0
-6090 6092 0
-6091 6092 0
-82 -6029 6093 0
82 -6093 0
6029 -6093 0
-5863 -6093 -6094 0
5863 6093 -6094 0
5863 -6093 6094 0
-5863 6093 6094 0
-6094 -6092 -6095 0
6094 6092 -6095 0
6094 -6092 6095 0
-6094 6092 6095 0
-6094 -6092 6096 0
6094 -6096 0
6092 -6096 0
-5863 -6093 6097 0
5863 -6097 0
6093 -6097 0
6096 6097 -6098 0
-6096 6098 0
-6097 6098 0
-90 -6029 6099 0
90 -6099 0
6029 -6099 0
-5869 -6099 -6100 0
5869 6099 -6100 0
5869 -6099 6100 0
-5869 6099 6100 0
-6100 -6098 -6101 0
6100 6098 -6101 0
6100 -6098 6101 0
-6100 6098 6101 0
-6100 -6098 6102 0
6100 -6102 0
6098 -6102 0
-5869 -6099 6103 0
5869 -6103 0
6099 -6103 0
6102 6103 -6104 0
-6102 6104 0
-6103 6104 0
-98 -6029 6105 0
98 -6105 0
6029 -6105 0
-5875 -6105 -6106 0
5875 6105 -6106 0
5875 -6105 6106 0
-5875 6105 6106 0
-6106 -6104 -6107 0
6106 6104 -6107 0
6106 -6104 6107 0
-6106 6104 6107 0
-6106 -6104 6108 0
6106 -6108 0
6104 -6108 0
-5875 -6105 6109 0
5875 -6109 0
6105 -6109 0
6108 6109 -6110 0
-6108 6110 0
-6109 6110 0
-106 -6029 6111 0
106 -6111 0
6029 -6111 0
-5881 -6111 -6112 0
5881 6111 -6112 0
5881 -6111 6112 0
-5881 6111 6112 0
-6112 -6110 -6113 0
6112 6110 -6113 0
6112 -6110 6113 0
-6112 6110 6113 0
-6112 -6110 6114 0
6112 -6114 0
6110 -6114 0
-5881 -6111 6115 0
5881 -6115 0
6111 -6115 0
6114 6115 -6116 0
-6114 6116 0
-6115 6116 0
-114 -6029 6117 0
114 -6117 0
6029 -6117 0
-5887 -6117 -6118 0
5887 6117 -6118 0
5887 -6117 6118 0
-5887 6117 6118 0
-6118 -6116 -6119 0
6118 6116 -6119 0
6118 -6116 6119 0
-6118 6116 6119 0
-6118 -6116 6120 0
6118 -6120 0
6116 -6120 0
-5887 -6117 6121 0
5887 -6121 0
6117 -6121 0
6120 6121 -6122 0
-6120 6122 0
-6121 6122 0
-122 -6029 6123 0
122 -6123 0
6029 -6123 0
-5893 -6123 -6124 0
5893 6123 -6124 0
5893 -6123 6124 0
-5893 6123 6124 0
-6124 -6122 -6125 0
6124 6122 -6125 0
6124 -6122 6125 0
-6124 6122 6125 0
-6124 -6122 6126 0
6124 -6126 0
6122 -6126 0
-5893 -6123 6127 0
5893 -6127 0
6123 -6127 0
6126 6127 -6128 0
-6126 6128 0
-6127 6128 0
-130 -6029 6129 0
130 -6129 0
6029 -6129 0
-5899 -6129 -6130 0
5899 6129 -6130 0
5899 -6129 6130 0
-5899 6129 6130 0
-6130 -6128 -6131 0
6130 6128 -6131 0
6130 -6128 6131 0
-6130 6128 6131 0
-6130 -6128 6132 0
6130 -6132 0
6128 -6132 0
-5899 -6129 6133 0
5899 -6133 0
6129 -6133 0
6132 6133 -6134 0
-6132 6134 0
-6133 6134 0
-138 -6029 6135 0
138 -6135 0
6029 -6135 0
-5905 -6135 -6136 0
5905 6135 -6136 0
5905 -6135 6136 0
-5905 6135 6136 0
-6136 -6134 -6137 0
6136 6134 -6137 0
6136 -6134 6137 0
-6136 6134 6137 0
-6136 -6134 6138 0
6136 -6138 0
6134 -6138 0
-5905 -6135 6139 0
5905 -6139 0
6135 -6139 0
6138 6139 -6140 0
-6138 6140 0
-6139 6140 0
-146 -6029 6141 0
146 -6141 0
6029 -6141 0
-5911 -6141 -6142 0
5911 6141 -6142 0
5911 -6141 6142 0
-5911 6141 6142 0
-6142 -6140 -6143 0
6142 6140 -6143 0
6142 -6140 6143 0
-6142 6140 6143 0
-6142 -6140 6144 0
6142 -6144 0
6140 -6144 0
-5911 -6141 6145 0
5911 -6145 0
6141 -6145 0
6144 6145 -6146 0
-6144 6146 0
-6145 6146 0
-154 -6029 6147 0
154 -6147 0
6029 -6147 0
-5917 -6147 -6148 0
5917 6147 -6148 0
5917 -6147 6148 0
-5917 6147 6148 0
-6148 -6146 -6149 0
6148 6146 -6149 0
6148 -6146 6149 0
-6148 6146 6149 0
-6148 -6146 6150 0
6148 -6150 0
6146 -6150 0
-5917 -6147 6151 0
5917 -6151 0
6147 -6151 0
6150 6151 -6152 0
-6150 6152 0
-6151 6152 0
-162 -6029 6153 0
162 -6153 0
6029 -6153 0
-5923 -6153 -6154 0
5923 6153 -6154 0
5923 -6153 6154 0
-5923 6153 6154 0
-6154 -6152 -6155 0
6154 6152 -6155 0
6154 -6152 6155 0
-6154 6152 6155 0
-6154 -6152 6156 0
6154 -6156 0
6152 -6156 0
-5923 -6153 6157 0
5923 -6157 0
6153 -6157 0
6156 6157 -6158 0
-6156 6158 0
-6157 6158 0
-170 -6029 6159 0
170 -6159 0
6029 -6159 0
-5929 -6159 -6160 0
5929 6159 -6160 0
5929 -6159 6160 0
-5929 6159 6160 0
-6160 -6158 -6161 0
6160 6158 -6161 0
6160 -6158 6161 0
-6160 6158 6161 0
-6160 -6158 6162 0
6160 -6162 0
6158 -6162 0
-5929 -6159 6163 0
5929 -6163 0
6159 -6163 0
6162 6163 -6164 0
-6162 6164 0
-6163 6164 0
-178 -6029 6165 0
178 -6165 0
6029 -6165 0
-5935 -6165 -6166 0
5935 6165 -6166 0
5935 -6165 6166 0
-5935 6165 6166 0
-6166 -6164 -6167 0
6166 6164 -6167 0
6166 -6164 6167 0
-6166 6164 6167 0
-6166 -6164 6168 0
6166 -6168 0
6164 -6168 0
-5935 -6165 6169 0
5935 -6169 0
6165 -6169 0
6168 6169 -6170 0
-6168 6170 0
-6169 6170 0
-186 -6029 6171 0
186 -6171 0
6029 -6171 0
-5941 -6171 -6172 0
5941 6171 -6172 0
5941 -6171 6172 0
-5941 6171 6172 0
-6172 -6170 -6173 0
6172 6170 -6173 0
6172 -6170 6173 0
-6172 6170 6173 0
-6172 -6170 6174 0
6172 -6174 0
6170 -6174 0
-5941 -6171 6175 0
5941 -6175 0
6171 -6175 0
6174 6175 -6176 0
-6174 6176 0
-6175 6176 0
-194 -6029 6177 0
194 -6177 0
6029 -6177 0
-5947 -6177 -6178 0
5947 6177 -6178 0
5947 -6177 6178 0
-5947 6177 6178 0
-6178 -6176 -6179 0
6178 6176 -6179 0
6178 -6176 6179 0
-6178 6176 6179 0
-6178 -6176 6180 0
6178 -6180 0
6176 -6180 0
-5947 -6177 6181 0
5947 -6181 0
6177 -6181 0
6180 6181 -6182 0
-6180 6182 0
-6181 6182 0
-202 -6029 6183 0
202 -6183 0
6029 -6183 0
-5953 -6183 -6184 0
5953 6183 -6184 0
5953 -6183 6184 0
-5953 6183 6184 0
-6184 -6182 -6185 0
6184 6182 -6185 0
6184 -6182 6185 0
-6184 6182 6185 0
-6184 -6182 6186 0
6184 -6186 0
6182 -6186 0
-5953 -6183 6187 0
5953 -6187 0
6183 -6187 0
6186 6187 -6188 0
-6186 6188 0
-6187 6188 0
-210 -6029 6189 0
210 -6189 0
6029 -6189 0
-5959 -6189 -6190 0
5959 6189 -6190 0
5959 -6189 6190 0
-5959 6189 6190 0
-6190 -6188 -6191 0
6190 6188 -6191 0
6190 -6188 6191 0
-6190 6188 6191 0
-6190 -6188 6192 0
6190 -6192 0
6188 -6192 0
-5959 -6189 6193 0
5959 -6193 0
6189 -6193 0
6192 6193 -6194 0
-6192 6194 0
-6193 6194 0
-218 -6029 6195 0
218 -6195 0
6029 -6195 0
-5965 -6195 -6196 0
5965 6195 -6196 0
5965 -6195 6196 0
-5965 6195 6196 0
-6196 -6194 -6197 0
6196 6194 -6197 0
6196 -6194 6197 0
-6196 6194 6197 0
-6196 -6194 6198 0
6196 -6198 0
6194 -6198 0
-5965 -6195 6199 0
5965 -6199 0
6195 -6199 0
6198 6199 -6200 0
-6198 6200 0
-6199 6200 0
-226 -6029 6201 0
226 -6201 0
6029 -6201 0
-5971 -6201 -6202 0
5971 6201 -6202 0
5971 -6201 6202 0
-5971 6201 6202 0
-6202 -6200 -6203 0
6202 6200 -6203 0
6202 -6200 6203 0
-6202 6200 6203 0
-6202 -6200 6204 0
6202 -6204 0
6200 -6204 0
-5971 -6201 6205 0
5971 -6205 0
6201 -6205 0
6204 6205 -6206 0
-6204 6206 0
-6205 6206 0
-234 -6029 6207 0
234 -6207 0
6029 -6207 0
-5977 -6207 -6208 0
5977 6207 -6208 0
5977 -6207 6208 0
-5977 6207 6208 0
-6208 -6206 -6209 0
6208 6206 -6209 0
6208 -6206 6209 0
-6208 6206 6209 0
-6208 -6206 6210 0
6208 -6210 0
6206 -6210 0
-5977 -6207 6211 0
5977 -6211 0
6207 -6211 0
6210 6211 -6212 0
-6210 6212 0
-6211 6212 0
-242 -6029 6213 0
242 -6213 0
6029 -6213 0
-5983 -6213 -6214 0
5983 6213 -6214 0
5983 -6213 6214 0
-5983 6213 6214 0
-6214 -6212 -6215 0
6214 6212 -6215 0
6214 -6212 6215 0
-6214 6212 6215 0
-6214 -6212 6216 0
6214 -6216 0
6212 -6216 0
-5983 -6213 6217 0
5983 -6217 0
6213 -6217 0
6216 6217 -6218 0
-6216 6218 0
-6217 6218 0
-250 -6029 6219 0
250 -6219 0
6029 -6219 0
-5989 -6219 -6220 0
5989 6219 -6220 0
5989 -6219 6220 0
-5989 6219 6220 0
-6220 -6218 -6221 0
6220 6218 -6221 0
6220 -6218 6221 0
-6220 6218 6221 0
-6220 -6218 6222 0
6220 -6222 0
6218 -6222 0
-5989 -6219 6223 0
5989 -6223 0
6219 -6223 0
6222 6223 -6224 0
-6222 6224 0
-6223 6224 0
-258 -6029 6225 0
258 -6225 0
6029 -6225 0
-5995 -6225 -6226 0
5995 6225 -6226 0
5995 -6225 6226 0
-5995 6225 6226 0
-6226 -6224 -6227 0
6226 6224 -6227 0
6226 -6224 6227 0
-6226 6224 6227 0
-6226 -6224 6228 0
6226 -6228 0
6224 -6228 0
-5995 -6225 6229 0
5995 -6229 0
6225 -6229 0
6228 6229 -6230 0
-6228 6230 0
-6229 6230 0
-266 -6029 6231 0
266 -6231 0
6029 -6231 0
-6001 -6231 -6232 0
6001 6231 -6232 0
6001 -6231 6232 0
-6001 6231 6232 0
-6232 -6230 -6233 0
6232 6230 -6233 0
6232 -6230 6233 0
-6232 6230 6233 0
-6232 -6230 6234 0
6232 -6234 0
6230 -6234 0
-6001 -6231 6235 0
6001 -6235 0
6231 -6235 0
6234 6235 -6236 0
-6234 6236 0
-6235 6236 0
-274 -6029 6237 0
274 -6237 0
6029 -6237 0
-6007 -6237 -6238 0
6007 6237 -6238 0
6007 -6237 6238 0
-6007 6237 6238 0
-6238 -6236 -6239 0
6238 6236 -6239 0
6238 -6236 6239 0
-6238 6236 6239 0
-6238 -6236 6240 0
6238 -6240 0
6236 -6240 0
-6007 -6237 6241 0
6007 -6241 0
6237 -6241 0
6240 6241 -6242 0
-6240 6242 0
-6241 6242 0
-282 -6029 6243 0
282 -6243 0
6029 -6243 0
-6013 -6243 -6244 0
6013 6243 -6244 0
6013 -6243 6244 0
-6013 6243 6244 0
-6244 -6242 -6245 0
6244 6242 -6245 0
6244 -6242 6245 0
-6244 6242 6245 0
-6244 -6242 6246 0
6244 -6246 0
6242 -6246 0
-6013 -6243 6247 0
6013 -6247 0
6243 -6247 0
6246 6247 -6248 0
-6246 6248 0
-6247 6248 0
-290 -6029 6249 0
290 -6249 0
6029 -6249 0
-6019 -6249 -6250 0
6019 6249 -6250 0
6019 -6249 6250 0
-6019 6249 6250 0
-6250 -6248 -6251 0
6250 6248 -6251 0
6250 -6248 6251 0
-6250 6248 6251 0
-6250 -6248 6252 0
6250 -6252 0
6248 -6252 0
-6019 -6249 6253 0
6019 -6253 0
6249 -6253 0
6252 6253 -6254 0
-6252 6254 0
-6253 6254 0
-298 -6029 6255 0
298 -6255 0
6029 -6255 0
-6025 -6255 -6256 0
6025 6255 -6256 0
6025 -6255 6256 0
-6025 6255 6256 0
-6256 -6254 -6257 0
6256 6254 -6257 0
6256 -6254 6257 0
-6256 6254 6257 0
-6256 -6254 6258 0
6256 -6258 0
6254 -6258 0
-6025 -6255 6259 0
6025 -6259 0
6255 -6259 0
6258 6259 -6260 0
-6258 6260 0
-6259 6260 0
-306 -6029 6261 0
306 -6261 0
6029 -6261 0
-6028 -6261 -6262 0
6028 6261 -6262 0
6028 -6261 6262 0
-6028 6261 6262 0
-6262 -6260 -6263 0
6262 6260 -6263 0
6262 -6260 6263 0
-6262 6260 6263 0
-6262 -6260 6264 0
6262 -6264 0
6260 -6264 0
-6028 -6261 6265 0
6028 -6265 0
6261 -6265 0
6264 6265 -6266 0
-6264 6266 0
-6265 6266 0
-1 -6267 6268 0
1 -6268 0
6267 -6268 0
-6035 -6268 -6269 0
6035 6268 -6269 0
6035 -6268 6269 0
-6035 6268 6269 0
-6035 -6268 6270 0
6035 -6270 0
6268 -6270 0
-4 -6267 6271 0
4 -6271 0
6267 -6271 0
-6041 -6271 -6272 0
6041 6271 -6272 0
6041 -6271 6272 0
-6041 6271 6272 0
-6272 -6270 -6273 0
6272 6270 -6273 0
6272 -6270 6273 0
-6272 6270 6273 0
-6272 -6270 6274 0
6272 -6274 0
6270 -6274 0
-6041 -6271 6275 0
6041 -6275 0
6271 -6275 0
6274 6275 -6276 0
-6274 6276 0
-6275 6276 0
-10 -6267 6277 0
10 -6277 0
6267 -6277 0
-6047 -6277 -6278 0
6047 6277 -6278 0
6047 -6277 6278 0
-6047 6277 6278 0
-6278 -6276 -6279 0
6278 6276 -6279 0
6278 -6276 6279 0
-6278 6276 6279 0
-6278 -6276 6280 0
6278 -6280 0
6276 -6280 0
-6047 -6277 6281 0
6047 -6281 0
6277 -6281 0
6280 6281 -6282 0
-6280 6282 0
-6281 6282 0
-18 -6267 6283 0
18 -6283 0
6267 -6283 0
-6053 -6283 -6284 0
6053 6283 -6284 0
6053 -6283 6284 0
-6053 6283 6284 0
-6284 -6282 -6285 0
6284 6282 -6285 0
6284 -6282 6285 0
-6284 6282 6285 0
-6284 -6282 6286 0
6284 -6286 0
6282 -6286 0
-6053 -6283 6287 0
6053 -6287 0
6283 -6287 0
6286 6287 -6288 0
-6286 6288 0
-6287 6288 0
-26 -6267 6289 0
26 -6289 0
6267 -6289 0
-6059 -6289 -6290 0
6059 6289 -6290 0
6059 -6289 6290 0
-6059 6289 6290 0
-6290 -6288 -6291 0
6290 6288 -6291 0
6290 -6288 6291 0
-6290 6288 6291 0
-6290 -6288 6292 0
6290 -6292 0
6288 -6292 0
-6059 -6289 6293 0
6059 -6293 0
6289 -6293 0
6292 6293 -6294 0
-6292 6294 0
-6293 6294 0
-34 -6267 6295 0
34 -6295 0
6267 -6295 0
-6065 -6295 -6296 0
6065 6295 -6296 0
6065 -6295 6296 0
-6065 6295 6296 0
-6296 -6294 -6297 0
6296 6294 -6297 0
6296 -6294 6297 0
-6296 6294 6297 0
-6296 -6294 6298 0
6296 -6298 0
6294 -6298 0
-6065 -6295 6299 0
6065 -6299 0
6295 -6299 0
6298 6299 -6300 0
-6298 6300 0
-6299 6300 0
-42 -6267 6301 0
42 -6301 0
6267 -6301 0
-6071 -6301 -6302 0
6071 6301 -6302 0
6071 -6301 6302 0
-6071 6301 6302 0
-6302 -6300 -6303 0
6302 6300 -6303 0
6302 -6300 6303 0
-6302 6300 6303 0
-6302 -6300 6304 0
6302 -6304 0
6300 -6304 0
-6071 -6301 6305 0
6071 -6305 0
6301 -6305 0
6304 6305 -6306 0
-6304 6306 0
-6305 6306 0
-50 -6267 6307 0
50 -6307 0
6267 -6307 0
-6077 -6307 -6308 0
6077 6307 -6308 0
6077 -6307 6308 0
-6077 6307 6308 0
-6308 -6306 -6309 0
6308 6306 -6309 0
6308 -6306 6309 0
-6308 6306 6309 0
-6308 -6306 6310 0
6308 -6310 0
6306 -6310 0
-6077 -6307 6311 0
6077 -6311 0
6307 -6311 0
6310 6311 -6312 0
-6310 6312 0
-6311 6312 0
-58 -6267 6313 0
58 -6313 0
6267 -6313 0
-6083 -6313 -6314 0
6083 6313 -6314 0
6083 -6313 6314 0
-6083 6313 6314 0
-6314 -6312 -6315 0
6314 6312 -6315 0
6314 -6312 6315 0
-6314 6312 6315 0
-6314 -6312 6316 0
6314 -6316 0
6312 -6316 0
-6083 -6313 6317 0
6083 -6317 0
6313 -6317 0
6316 6317 -6318 0
-6316 6318 0
-6317 6318 0
-66 -6267 6319 0
66 -6319 0
6267 -6319 0
-6089 -6319 -6320 0
6089 6319 -6320 0
6089 -6319 6320 0
-6089 6319 6320 0
-6320 -6318 -6321 0
6320 6318 -6321 0
6320 -6318 6321 0
-6320 6318 6321 0
-6320 -6318 6322 0
6320 -6322 0
6318 -6322 0
-6089 -6319 6323 0
6089 -6323 0
6319 -6323 0
6322 6323 -6324 0
-6322 6324 0
-6323 6324 0
-74 -6267 6325 0
74 -6325 0
6267 -6325 0
-6095 -6325 -6326 0
6095 6325 -6326 0
6095 -6325 6326 0
-6095 6325 6326 0
-6326 -6324 -6327 0
6326 6324 -6327 0
6326 -6324 6327 0
-6326 6324 6327 0
-6326 -6324 6328 0
6326 -6328 0
6324 -6328 0
-6095 -6325 6329 0
6095 -6329 0
6325 -6329 0
6328 6329 -6330 0
-6328 6330 0
-6329 6330 0
-82 -6267 6331 0
82 -6331 0
6267 -6331 0
-6101 -6331 -6332 0
6101 6331 -6332 0
6101 -6331 6332 0
-6101 6331 6332 0
-6332 -6330 -6333 0
6332 6330 -6333 0
6332 -6330 6333 0
-6332 6330 6333 0
-6332 -6330 6334 0
6332 -6334 0
6330 -6334 0
-6101 -6331 6335 0
6101 -6335 0
6331 -6335 0
6334 6335 -6336 0
-6334 6336 0
-6335 6336 0
-90 -6267 6337 0
90 -6337 0
6267 -6337 0
-6107 -6337 -6338 0
6107 6337 -6338 0
6107 -6337 6338 0
-6107 6337 6338 0
-6338 -6336 -6339 0
6338 6336 -6339 0
6338 -6336 6339 0
-6338 6336 6339 0
-6338 -6336 6340 0
6338 -6340 0
6336 -6340 0
-6107 -6337 6341 0
6107 -6341 0
6337 -6341 0
6340 6341 -6342 0
-6340 6342 0
-6341 6342 0
-98 -6267 6343 0
98 -6343 0
6267 -6343 0
-6113 -6343 -6344 0
6113 6343 -6344 0
6113 -6343 6344 0
-6113 6343 6344 0
-6344 -6342 -6345 0
6344 6342 -6345 0
6344 -6342 6345 0
-6344 6342 6345 0
-6344 -6342 6346 0
6344 -6346 0
6342 -6346 0
-6113 -6343 6347 0
6113 -6347 0
6343 -6347 0
6346 6347 -6348 0
-6346 6348 0
-6347 6348 0
-106 -6267 6349 0
106 -6349 0
6267 -6349 0
-6119 -6349 -6350 0
6119 6349 -6350 0
6119 -6349 6350 0
-6119 6349 6350 0
-6350 -6348 -6351 0
6350 6348 -6351 0
6350 -6348 6351 0
-6350 6348 6351 0
-6350 -6348 6352 0
6350 -6352 0
6348 -6352 0
-6119 -6349 6353 0
6119 -6353 0
6349 -6353 0
6352 6353 -6354 0
-6352 6354 0
-6353 6354 0
-114 -6267 6355 0
114 -6355 0
6267 -6355 0
-6125 -6355 -6356 0
6125 6355 -6356 0
6125 -6355 6356 0
-6125 6355 6356 0
-6356 -6354 -6357 0
6356 6354 -6357 0
6356 -6354 6357 0
-6356 6354 6357 0
-6356 -6354 6358 0
6356 -6358 0
6354 -6358 0
-6125 -6355 6359 0
6125 -6359 0
6355 -6359 0
6358 6359 -6360 0
-6358 6360 0
-6359 6360 0
-122 -6267 6361 0
122 -6361 0
6267 -6361 0
-6131 -6361 -6362 0
6131 6361 -6362 0
6131 -6361 6362 0
-6131 6361 6362 0
-6362 -6360 -6363 0
6362 6360 -6363 0
6362 -6360 6363 0
-6362 6360 6363 0
-6362 -6360 6364 0
6362 -6364 0
6360 -6364 0
-6131 -6361 6365 0
6131 -6365 0
6361 -6365 0
6364 6365 -6366 0
-6364 6366 0
-6365 6366 0
-130 -6267 6367 0
130 -6367 0
6267 -6367 0
-6137 -6367 -6368 0
6137 6367 -6368 0
6137 -6367 6368 0
-6137 6367 6368 0
-6368 -6366 -6369 0
6368 6366 -6369 0
6368 -6366 6369 0
-6368 6366 6369 0
-6368 -6366 6370 0
6368 -6370 0
6366 -6370 0
-6137 -6367 6371 0
6137 -6371 0
6367 -6371 0
6370 6371 -6372 0
-6370 6372 0
-6371 6372 0
-138 -6267 6373 0
138 -6373 0
6267 -6373 0
-6143 -6373 -6374 0
6143 6373 -6374 0
6143 -6373 6374 0
-6143 6373 6374 0
-6374 -6372 -6375 0
6374 6372 -6375 0
6374 -6372 6375 0
-6374 6372 6375 0
-6374 -6372 6376 0
6374 -6376 0
6372 -6376 0
-6143 -6373 6377 0
6143 -6377 0
6373 -6377 0
6376 6377 -6378 0
-6376 6378 0
-6377 6378 0
-146 -6267 6379 0
146 -6379 0
6267 -6379 0
-6149 -6379 -6380 0
6149 6379 -6380 0
6149 -6379 6380 0
-6149 6379 6380 0
-6380 -6378 -6381 0
6380 6378 -6381 0
6380 -6378 6381 0
-6380 6378 6381 0
-6380 -6378 6382 0
6380 -6382 0
6378 -6382 0
-6149 -6379 6383 0
6149 -6383 0
6379 -6383 0
6382 6383 -6384 0
-6382 6384 0
-6383 6384 0
-154 -6267 6385 0
154 -6385 0
6267 -6385 0
-6155 -6385 -6386 0
6155 6385 -6386 0
6155 -6385 6386 0
-6155 6385 6386 0
-6386 -6384 -6387 0
6386 6384 -6387 0
6386 -6384 6387 0
-6386 6384 6387 0
-6386 -6384 6388 0
6386 -6388 0
6384 -6388 0
-6155 -6385 6389 0
6155 -6389 0
6385 -6389 0
6388 6389 -6390 0
-6388 6390 0
-6389 6390 0
-162 -6267 6391 0
162 -6391 0
6267 -6391 0
-6161 -6391 -6392 0
6161 6391 -6392 0
6161 -6391 6392 0
-6161 6391 6392 0
-6392 -6390 -6393 0
6392 6390 -6393 0
6392 -6390 6393 0
-6392 6390 6393 0
-6392 -6390 6394 0
6392 -6394 0
6390 -6394 0
-6161 -6391 6395 0
6161 -6395 0
6391 -6395 0
6394 6395 -6396 0
-6394 6396 0
-6395 6396 0
-170 -6267 6397 0
170 -6397 0
6267 -6397 0
-6167 -6397 -6398 0
6167 6397 -6398 0
6167 -6397 6398 0
-6167 6397 6398 0
-6398 -6396 -6399 0
6398 6396 -6399 0
6398 -6396 6399 0
-6398 6396 6399 0
-6398 -6396 6400 0
6398 -6400 0
6396 -6400 0
-6167 -6397 6401 0
6167 -6401 0
6397 -6401 0
6400 6401 -6402 0
-6400 6402 0
-6401 6402 0
-178 -6267 6403 0
178 -6403 0
6267 -6403 0
-6173 -6403 -6404 0
6173 6403 -6404 0
6173 -6403 6404 0
-6173 6403 6404 0
-6404 -6402 -6405 0
6404 6402 -6405 0
6404 -6402 6405 0
-6404 6402 6405 0
-6404 -6402 6406 0
6404 -6406 0
6402 -6406 0
-6173 -6403 6407 0
6173 -6407 0
6403 -6407 0
6406 6407 -6408 0
-6406 6408 0
-6407 6408 0
-186 -6267 6409 0
186 -6409 0
6267 -6409 0
-6179 -6409 -6410 0
6179 6409 -6410 0
6179 -6409 6410 0
-6179 6409 6410 0
-6410 -6408 -6411 0
6410 6408 -6411 0
6410 -6408 6411 0
-6410 6408 6411 0
-6410 -6408 6412 0
6410 -6412 0
6408 -6412 0
-6179 -6409 6413 0
6179 -6413 0
6409 -6413 0
6412 6413 -6414 0
-6412 6414 0
-6413 6414 0
-194 -6267 6415 0
194 -6415 0
6267 -6415 0
-6185 -6415 -6416 0
6185 6415 -6416 0
6185 -6415 6416 0
-6185 6415 6416 0
-6416 -6414 -6417 0
6416 6414 -6417 0
6416 -6414 6417 0
-6416 6414 6417 0
-6416 -6414 6418 0
6416 -6418 0
6414 -6418 0
-6185 -6415 6419 0
6185 -6419 0
6415 -6419 0
6418 6419 -6420 0
-6418 6420 0
-6419 6420 0
-202 -6267 6421 0
202 -6421 0
6267 -6421 0
-6191 -6421 -6422 0
6191 6421 -6422 0
6191 -6421 6422 0
-6191 6421 6422 0
-6422 -6420 -6423 0
6422 6420 -6423 0
6422 -6420 6423 0
-6422 6420 6423 0
-6422 -6420 6424 0
6422 -6424 0
6420 -6424 0
-6191 -6421 6425 0
6191 -6425 0
6421 -6425 0
6424 6425 -6426 0
-6424 6426 0
-6425 6426 0
-210 -6267 6427 0
210 -6427 0
6267 -6427 0
-6197 -6427 -6428 0
6197 6427 -6428 0
6197 -6427 6428 0
-6197 6427 6428 0
-6428 -6426 -6429 0
6428 6426 -6429 0
6428 -6426 6429 0
-6428 6426 6429 0
-6428 -6426 6430 0
6428 -6430 0
6426 -6430 0
-6197 -6427 6431 0
6197 -6431 0
6427 -6431 0
6430 6431 -6432 0
-6430 6432 0
-6431 6432 0
-218 -6267 6433 0
218 -6433 0
6267 -6433 0
-6203 -6433 -6434 0
6203 6433 -6434 0
6203 -6433 6434 0
-6203 6433 6434 0
-6434 -6432 -6435 0
6434 6432 -6435 0
6434 -6432 6435 0
-6434 6432 6435 0
-6434 -6432 6436 0
6434 -6436 0
6432 -6436 0
-6203 -6433 6437 0
6203 -6437 0
6433 -6437 0
6436 6437 -6438 0
-6436 6438 0
-6437 6438 0
-226 -6267 6439 0
226 -6439 0
6267 -6439 0
-6209 -6439 -6440 0
6209 6439 -6440 0
6209 -6439 6440 0
-6209 6439 6440 0
-6440 -6438 -6441 0
6440 6438 -6441 0
6440 -6438 6441 0
-6440 6438 6441 0
-6440 -6438 6442 0
6440 -6442 0
6438 -6442 0
-6209 -6439 6443 0
6209 -6443 0
6439 -6443 0
6442 6443 -6444 0
-6442 6444 0
-6443 6444 0
-234 -6267 6445 0
234 -6445 0
6267 -6445 0
-6215 -6445 -6446 0
6215 6445 -6446 0
6215 -6445 6446 0
-6215 6445 6446 0
-6446 -6444 -6447 0
6446 6444 -6447 0
6446 -6444 6447 0
-6446 6444 6447 0
-6446 -6444 6448 0
6446 -6448 0
6444 -6448 0
-6215 -6445 6449 0
6215 -6449 0
6445 -6449 0
6448 6449 -6450 0
-6448 6450 0
-6449 6450 0
-242 -6267 6451 0
242 -6451 0
6267 -6451 0
-6221 -6451 -6452 0
6221 6451 -6452 0
6221 -6451 6452 0
-6221 6451 6452 0
-6452 -6450 -6453 0
6452 6450 -6453 0
6452 -6450 6453 0
-6452 6450 6453 0
-6452 -6450 6454 0
6452 -6454 0
6450 -6454 0
-6221 -6451 6455 0
6221 -6455 0
6451 -6455 0
6454 6455 -6456 0
-6454 6456 0
-6455 6456 0
-250 -6267 6457 0
250 -6457 0
6267 -6457 0
-6227 -6457 -6458 0
6227 6457 -6458 0
6227 -6457 6458 0
-6227 6457 6458 0
-6458 -6456 -6459 0
6458 6456 -6459 0
6458 -6456 6459 0
-6458 6456 6459 0
-6458 -6456 6460 0
6458 -6460 0
6456 -6460 0
-6227 -6457 6461 0
6227 -6461 0
6457 -6461 0
6460 6461 -6462 0
-6460 6462 0
-6461 6462 0
-258 -6267 6463 0
258 -6463 0
6267 -6463 0
-6233 -6463 -6464 0
6233 6463 -6464 0
6233 -6463 6464 0
-6233 6463 6464 0
-6464 -6462 -6465 0
6464 6462 -6465 0
6464 -6462 6465 0
-6464 6462 6465 0
-6464 -6462 6466 0
6464 -6466 0
6462 -6466 0
-6233 -6463 6467 0
6233 -6467 0
6463 -6467 0
6466 6467 -6468 0
-6466 6468 0
-6467 6468 0
-266 -6267 6469 0
266 -6469 0
6267 -6469 0
-6239 -6469 -6470 0
6239 6469 -6470 0
6239 -6469 6470 0
-6239 6469 6470 0
-6470 -6468 -6471 0
6470 6468 -6471 0
6470 -6468 6471 0
-6470 6468 6471 0
-6470 -6468 6472 0
6470 -6472 0
6468 -6472 0
-6239 -6469 6473 0
6239 -6473 0
6469 -6473 0
6472 6473 -6474 0
-6472 6474 0
-6473 6474 0
-274 -6267 6475 0
274 -6475 0
6267 -6475 0
-6245 -6475 -6476 0
6245 6475 -6476 0
6245 -6475 6476 0
-6245 6475 6476 0
-6476 -6474 -6477 0
6476 6474 -6477 0
6476 -6474 6477 0
-6476 6474 6477 0
-6476 -6474 6478 0
6476 -6478 0
6474 -6478 0
-6245 -6475 6479 0
6245 -6479 0
6475 -6479 0
6478 6479 -6480 0
-6478 6480 0
-6479 6480 0
-282 -6267 6481 0
282 -6481 0
6267 -6481 0
-6251 -6481 -6482 0
6251 6481 -6482 0
6251 -6481 6482 0
-6251 6481 6482 0
-6482 -6480 -6483 0
6482 6480 -6483 0
6482 -6480 6483 0
-6482 6480 6483 0
-6482 -6480 6484 0
6482 -6484 0
6480 -6484 0
-6251 -6481 6485 0
6251 -6485 0
6481 -6485 0
6484 6485 -6486 0
-6484 6486 0
-6485 6486 0
-290 -6267 6487 0
290 -6487 0
6267 -6487 0
-6257 -6487 -6488 0
6257 6487 -6488 0
6257 -6487 6488 0
-6257 6487 6488 0
-6488 -6486 -6489 0
6488 6486 -6489 0
6488 -6486 6489 0
-6488 6486 6489 0
-6488 -6486 6490 0
6488 -6490 0
6486 -6490 0
-6257 -6487 6491 0
6257 -6491 0
6487 -6491 0
6490 6491 -6492 0
-6490 6492 0
-6491 6492 0
-298 -6267 6493 0
298 -6493 0
6267 -6493 0
-6263 -6493 -6494 0
6263 6493 -6494 0
6263 -6493 6494 0
-6263 6493 6494 0
-6494 -6492 -6495 0
6494 6492 -6495 0
6494 -6492 6495 0
-6494 6492 6495 0
-6494 -6492 6496 0
6494 -6496 0
6492 -6496 0
-6263 -6493 6497 0
6263 -6497 0
6493 -6497 0
6496 6497 -6498 0
-6496 6498 0
-6497 6498 0
-306 -6267 6499 0
306 -6499 0
6267 -6499 0
-6266 -6499 -6500 0
6266 6499 -6500 0
6266 -6499 6500 0
-6266 6499 6500 0
-6500 -6498 -6501 0
6500 6498 -6501 0
6500 -6498 6501 0
-6500 6498 6501 0
-6500 -6498 6502 0
6500 -6502 0
6498 -6502 0
-6266 -6499 6503 0
6266 -6503 0
6499 -6503 0
6502 6503 -6504 0
-6502 6504 0
-6503 6504 0
-1 -6505 6506 0
1 -6506 0
6505 -6506 0
-6273 -6506 -6507 0
6273 6506 -6507 0
6273 -6506 6507 0
-6273 6506 6507 0
-6273 -6506 6508 0
6273 -6508 0
6506 -6508 0
-4 -6505 6509 0
4 -6509 0
6505 -6509 0
-6279 -6509 -6510 0
6279 6509 -6510 0
6279 -6509 6510 0
-6279 6509 6510 0
-6510 -6508 -6511 0
6510 6508 -6511 0
6510 -6508 6511 0
-6510 6508 6511 0
-6510 -6508 6512 0
6510 -6512 0
6508 -6512 0
-6279 -6509 6513 0
6279 -6513 0
6509 -6513 0
6512 6513 -6514 0
-6512 6514 0
-6513 6514 0
-10 -6505 6515 0
10 -6515 0
6505 -6515 0
-6285 -6515 -6516 0
6285 6515 -6516 0
6285 -6515 6516 0
-6285 6515 6516 0
-6516 -6514 -6517 0
6516 6514 -6517 0
6516 -6514 6517 0
-6516 6514 6517 0
-6516 -6514 6518 0
6516 -6518 0
6514 -6518 0
-6285 -6515 6519 0
6285 -6519 0
6515 -6519 0
6518 6519 -6520 0
-6518 6520 0
-6519 6520 0
-18 -6505 6521 0
18 -6521 0
6505 -6521 0
-6291 -6521 -6522 0
6291 6521 -6522 0
6291 -6521 6522 0
-6291 6521 6522 0
-6522 -6520 -6523 0
6522 6520 -6523 0
6522 -6520 6523 0
-6522 6520 6523 0
-6522 -6520 6524 0
6522 -6524 0
6520 -6524 0
-6291 -6521 6525 0
6291 -6525 0
6521 -6525 0
6524 6525 -6526 0
-6524 6526 0
-6525 6526 0
-26 -6505 6527 0
26 -6527 0
6505 -6527 0
-6297 -6527 -6528 0
6297 6527 -6528 0
6297 -6527 6528 0
-6297 6527 6528 0
-6528 -6526 -6529 0
6528 6526 -6529 0
6528 -6526 6529 0
-6528 6526 6529 0
-6528 -6526 6530 0
6528 -6530 0
6526 -6530 0
-6297 -6527 6531 0
6297 -6531 0
6527 -6531 0
6530 6531 -6532 0
-6530 6532 0
-6531 6532 0
-34 -6505 6533 0
34 -6533 0
6505 -6533 0
-6303 -6533 -6534 0
6303 6533 -6534 0
6303 -6533 6534 0
-6303 6533 6534 0
-6534 -6532 -6535 0
6534 6532 -6535 0
6534 -6532 6535 0
-6534 6532 6535 0
-6534 -6532 6536 0
6534 -6536 0
6532 -6536 0
-6303 -6533 6537 0
6303 -6537 0
6533 -6537 0
6536 6537 -6538 0
-6536 6538 0
-6537 6538 0
-42 -6505 6539 0
42 -6539 0
6505 -6539 0
-6309 -6539 -6540 0
6309 6539 -6540 0
6309 -6539 6540 0
-6309 6539 6540 0
-6540 -6538 -6541 0
6540 6538 -6541 0
6540 -6538 6541 0
-6540 6538 6541 0
-6540 -6538 6542 0
6540 -6542 0
6538 -6542 0
-6309 -6539 6543 0
6309 -6543 0
6539 -6543 0
6542 6543 -6544 0
-6542 6544 0
-6543 6544 0
-50 -6505 6545 0
50 -6545 0
6505 -6545 0
-6315 -6545 -6546 0
6315 6545 -6546 0
6315 -6545 6546 0
-6315 6545 6546 0
-6546 -6544 -6547 0
6546 6544 -6547 0
6546 -6544 6547 0
-6546 6544 6547 0
-6546 -6544 6548 0
6546 -6548 0
6544 -6548 0
-6315 -6545 6549 0
6315 -6549 0
6545 -6549 0
6548 6549 -6550 0
-6548 6550 0
-6549 6550 0
-58 -6505 6551 0
58 -6551 0
6505 -6551 0
-6321 -6551 -6552 0
6321 6551 -6552 0
6321 -6551 6552 0
-6321 6551 6552 0
-6552 -6550 -6553 0
6552 6550 -6553 0
6552 -6550 6553 0
-6552 6550 6553 0
-6552 -6550 6554 0
6552 -6554 0
6550 -6554 0
-6321 -6551 6555 0
6321 -6555 0
6551 -6555 0
6554 6555 -6556 0
-6554 6556 0
-6555 6556 0
-66 -6505 6557 0
66 -6557 0
6505 -6557 0
-6327 -6557 -6558 0
6327 6557 -6558 0
6327 -6557 6558 0
-6327 6557 6558 0
-6558 -6556 -6559 0
6558 6556 -6559 0
6558 -6556 6559 0
-6558 6556 6559 0
-6558 -6556 6560 0
6558 -6560 0
6556 -6560 0
-6327 -6557 6561 0
6327 -6561 0
6557 -6561 0
6560 6561 -6562 0
-6560 6562 0
-6561 6562 0
-74 -6505 6563 0
74 -6563 0
6505 -6563 0
-6333 -6563 -6564 0
6333 6563 -6564 0
6333 -6563 6564 0
-6333 6563 6564 0
-6564 -6562 -6565 0
6564 6562 -6565 0
6564 -6562 6565 0
-6564 6562 6565 0
-6564 -6562 6566 0
6564 -6566 0
6562 -6566 0
-6333 -6563 6567 0
6333 -6567 0
6563 -6567 0
6566 6567 -6568 0
-6566 6568 0
-6567 6568 0
-82 -6505 6569 0
82 -6569 0
6505 -6569 0
-6339 -6569 -6570 0
6339 6569 -6570 0
6339 -6569 6570 0
-6339 6569 6570 0
-6570 -6568 -6571 0
6570 6568 -6571 0
6570 -6568 6571 0
-6570 6568 6571 0
-6570 -6568 6572 0
6570 -6572 0
6568 -6572 0
-6339 -6569 6573 0
6339 -6573 0
6569 -6573 0
6572 6573 -6574 0
-6572 6574 0
-6573 6574 0
-90 -6505 6575 0
90 -6575 0
6505 -6575 0
-6345 -6575 -6576 0
6345 6575 -6576 0
6345 -6575 6576 0
-6345 6575 6576 0
-6576 -6574 -6577 0
6576 6574 -6577 0
6576 -6574 6577 0
-6576 6574 6577 0
-6576 -6574 6578 0
6576 -6578 0
6574 -6578 0
-6345 -6575 6579 0
6345 -6579 0
6575 -6579 0
6578 6579 -6580 0
-6578 6580 0
-6579 6580 0
-98 -6505 6581 0
98 -6581 0
6505 -6581 0
-6351 -6581 -6582 0
6351 6581 -6582 0
6351 -6581 6582 0
-6351 6581 6582 0
-6582 -6580 -6583 0
6582 6580 -6583 0
6582 -6580 6583 0
-6582 6580 6583 0
-6582 -6580 6584 0
6582 -6584 0
6580 -6584 0
-6351 -6581 6585 0
6351 -6585 0
6581 -6585 0
6584 6585 -6586 0
-6584 6586 0
-6585 6586 0
-106 -6505 6587 0
106 -6587 0
6505 -6587 0
-6357 -6587 -6588 0
6357 6587 -6588 0
6357 -6587 6588 0
-6357 6587 6588 0
-6588 -6586 -6589 0
6588 6586 -6589 0
6588 -6586 6589 0
-6588 6586 6589 0
-6588 -6586 6590 0
6588 -6590 0
6586 -6590 0
-6357 -6587 6591 0
6357 -6591 0
6587 -6591 0
6590 6591 -6592 0
-6590 6592 0
-6591 6592 0
-114 -6505 6593 0
114 -6593 0
6505 -6593 0
-6363 -6593 -6594 0
6363 6593 -6594 0
6363 -6593 6594 0
-6363 6593 6594 0
-6594 -6592 -6595 0
6594 6592 -6595 0
6594 -6592 6595 0
-6594 6592 6595 0
-6594 -6592 6596 0
6594 -6596 0
6592 -6596 0
-6363 -6593 6597 0
6363 -6597 0
6593 -6597 0
6596 6597 -6598 0
-6596 6598 0
-6597 6598 0
-122 -6505 6599 0
122 -6599 0
6505 -6599 0
-6369 -6599 -6600 0
6369 6599 -6600 0
6369 -6599 6600 0
-6369 6599 6600 0
-6600 -6598 -6601 0
6600 6598 -6601 0
6600 -6598 6601 0
-6600 6598 6601 0
-6600 -6598 6602 0
6600 -6602 0
6598 -6602 0
-6369 -6599 6603 0
6369 -6603 0
6599 -6603 0
6602 6603 -6604 0
-6602 6604 0
-6603 6604 0
-130 -6505 6605 0
130 -6605 0
6505 -6605 0
-6375 -6605 -6606 0
6375 6605 -6606 0
6375 -6605 6606 0
-6375 6605 6606 0
-6606 -6604 -6607 0
6606 6604 -6607 0
6606 -6604 6607 0
-6606 6604 6607 0
-6606 -6604 6608 0
6606 -6608 0
6604 -6608 0
-6375 -6605 6609 0
6375 -6609 0
6605 -6609 0
6608 6609 -6610 0
-6608 6610 0
-6609 6610 0
-138 -6505 6611 0
138 -6611 0
6505 -6611 0
-6381 -6611 -6612 0
6381 6611 -6612 0
6381 -6611 6612 0
-6381 6611 6612 0
-6612 -6610 -6613 0
6612 6610 -6613 0
6612 -6610 6613 0
-6612 6610 6613 0
-6612 -6610 6614 0
6612 -6614 0
6610 -6614 0
-6381 -6611 6615 0
6381 -6615 0
6611 -6615 0
6614 6615 -6616 0
-6614 6616 0
-6615 6616 0
-146 -6505 6617 0
146 -6617 0
6505 -6617 0
-6387 -6617 -6618 0
6387 6617 -6618 0
6387 -6617 6618 0
-6387 6617 6618 0
-6618 -6616 -6619 0
6618 6616 -6619 0
6618 -6616 6619 0
-6618 6616 6619 0
-6618 -6616 6620 0
6618 -6620 0
6616 -6620 0
-6387 -6617 6621 0
6387 -6621 0
6617 -6621 0
6620 6621 -6622 0
-6620 6622 0
-6621 6622 0
-154 -6505 6623 0
154 -6623 0
6505 -6623 0
-6393 -6623 -6624 0
6393 6623 -6624 0
6393 -6623 6624 0
-6393 6623 6624 0
-6624 -6622 -6625 0
6624 6622 -6625 0
6624 -6622 6625 0
-6624 6622 6625 0
-6624 -6622 6626 0
6624 -6626 0
6622 -6626 0
-6393 -6623 6627 0
6393 -6627 0
6623 -6627 0
6626 6627 -6628 0
-6626 6628 0
-6627 6628 0
-162 -6505 6629 0
162 -6629 0
6505 -6629 0
-6399 -6629 -6630 0
6399 6629 -6630 0
6399 -6629 6630 0
-6399 6629 6630 0
-6630 -6628 -6631 0
6630 6628 -6631 0
6630 -6628 6631 0
-6630 6628 6631 0
-6630 -6628 6632 0
6630 -6632 0
6628 -6632 0
-6399 -6629 6633 0
6399 -6633 0
6629 -6633 0
6632 6633 -6634 0
-6632 6634 0
-6633 6634 0
-170 -6505 6635 0
170 -6635 0
6505 -6635 0
-6405 -6635 -6636 0
6405 6635 -6636 0
6405 -6635 6636 0
-6405 6635 6636 0
-6636 -6634 -6637 0
6636 6634 -6637 0
6636 -6634 6637 0
-6636 6634 6637 0
-6636 -6634 6638 0
6636 -6638 0
6634 -6638 0
-6405 -6635 6639 0
6405 -6639 0
6635 -6639 0
6638 6639 -6640 0
-6638 6640 0
-6639 6640 0
-178 -6505 6641 0
178 -6641 0
6505 -6641 0
-6411 -6641 -6642 0
6411 6641 -6642 0
6411 -6641 6642 0
-6411 6641 6642 0
-6642 -6640 -6643 0
6642 6640 -6643 0
6642 -6640 6643 0
-6642 6640 6643 0
-6642 -6640 6644 0
6642 -6644 0
6640 -6644 0
-6411 -6641 6645 0
6411 -6645 0
6641 -6645 0
6644 6645 -6646 0
-6644 6646 0
-6645 6646 0
-186 -6505 6647 0
186 -6647 0
6505 -6647 0
-6417 -6647 -6648 0
6417 6647 -6648 0
6417 -6647 6648 0
-6417 6647 6648 0
-6648 -6646 -6649 0
6648 6646 -6649 0
6648 -6646 6649 0
-6648 6646 6649 0
-6648 -6646 6650 0
6648 -6650 0
6646 -6650 0
-6417 -6647 6651 0
6417 -6651 0
6647 -6651 0
6650 6651 -6652 0
-6650 6652 0
-6651 6652 0
-194 -6505 6653 0
194 -6653 0
6505 -6653 0
-6423 -6653 -6654 0
6423 6653 -6654 0
6423 -6653 6654 0
-6423 6653 6654 0
-6654 -6652 -6655 0
6654 6652 -6655 0
6654 -6652 6655 0
-6654 6652 6655 0
-6654 -6652 6656 0
6654 -6656 0
6652 -6656 0
-6423 -6653 6657 0
6423 -6657 0
6653 -6657 0
6656 6657 -6658 0
-6656 6658 0
-6657 6658 0
-202 -6505 6659 0
202 -6659 0
6505 -6659 0
-6429 -6659 -6660 0
6429 6659 -6660 0
6429 -6659 6660 0
-6429 6659 6660 0
-6660 -6658 -6661 0
6660 6658 -6661 0
6660 -6658 6661 0
-6660 6658 6661 0
-6660 -6658 6662 0
6660 -6662 0
6658 -6662 0
-6429 -6659 6663 0
6429 -6663 0
6659 -6663 0
6662 6663 -6664 0
-6662 6664 0
-6663 6664 0
-210 -6505 6665 0
210 -6665 0
6505 -6665 0
-6435 -6665 -6666 0
6435 6665 -6666 0
6435 -6665 6666 0
-6435 6665 6666 0
-6666 -6664 -6667 0
6666 6664 -6667 0
6666 -6664 6667 0
-6666 6664 6667 0
-6666 -6664 6668 0
6666 -6668 0
6664 -6668 0
-6435 -6665 6669 0
6435 -6669 0
6665 -6669 0
6668 6669 -6670 0
-6668 6670 0
-6669 6670 0
-218 -6505 6671 0
218 -6671 0
6505 -6671 0
-6441 -6671 -6672 0
6441 6671 -6672 0
6441 -6671 6672 0
-6441 6671 6672 0
-6672 -6670 -6673 0
6672 6670 -6673 0
6672 -6670 6673 0
-6672 6670 6673 0
-6672 -6670 6674 0
6672 -6674 0
6670 -6674 0
-6441 -6671 6675 0
6441 -6675 0
6671 -6675 0
6674 6675 -6676 0
-6674 6676 0
-6675 6676 0
-226 -6505 6677 0
226 -6677 0
6505 -6677 0
-6447 -6677 -6678 0
6447 6677 -6678 0
6447 -6677 6678 0
-6447 6677 6678 0
-6678 -6676 -6679 0
6678 6676 -6679 0
6678 -6676 6679 0
-6678 6676 6679 0
-6678 -6676 6680 0
6678 -6680 0
6676 -6680 0
-6447 -6677 6681 0
6447 -6681 0
6677 -6681 0
6680 6681 -6682 0
-6680 6682 0
-6681 6682 0
-234 -6505 6683 0
234 -6683 0
6505 -6683 0
-6453 -6683 -6684 0
6453 6683 -6684 0
6453 -6683 6684 0
-6453 6683 6684 0
-6684 -6682 -6685 0
6684 6682 -6685 0
6684 -6682 6685 0
-6684 6682 6685 0
-6684 -6682 6686 0
6684 -6686 0
6682 -6686 0
-6453 -6683 6687 0
6453 -6687 0
6683 -6687 0
6686 6687 -6688 0
-6686 6688 0
-6687 6688 0
-242 -6505 6689 0
242 -6689 0
6505 -6689 0
-6459 -6689 -6690 0
6459 6689 -6690 0
6459 -6689 6690 0
-6459 6689 6690 0
-6690 -6688 -6691 0
6690 6688 -6691 0
6690 -6688 6691 0
-6690 6688 6691 0
-6690 -6688 6692 0
6690 -6692 0
6688 -6692 0
-6459 -6689 6693 0
6459 -6693 0
6689 -6693 0
6692 6693 -6694 0
-6692 6694 0
-6693 6694 0
-250 -6505 6695 0
250 -6695 0
6505 -6695 0
-6465 -6695 -6696 0
6465 6695 -6696 0
6465 -6695 6696 0
-6465 6695 6696 0
-6696 -6694 -6697 0
6696 6694 -6697 0
6696 -6694 6697 0
-6696 6694 6697 0
-6696 -6694 6698 0
6696 -6698 0
6694 -6698 0
-6465 -6695 6699 0
6465 -6699 0
6695 -6699 0
6698 6699 -6700 0
-6698 6700 0
-6699 6700 0
-258 -6505 6701 0
258 -6701 0
6505 -6701 0
-6471 -6701 -6702 0
6471 6701 -6702 0
6471 -6701 6702 0
-6471 6701 6702 0
-6702 -6700 -6703 0
6702 6700 -6703 0
6702 -6700 6703 0
-6702 6700 6703 0
-6702 -6700 6704 0
6702 -6704 0
6700 -6704 0
-6471 -6701 6705 0
6471 -6705 0
6701 -6705 0
6704 6705 -6706 0
-6704 6706 0
-6705 6706 0
-266 -6505 6707 0
266 -6707 0
6505 -6707 0
-6477 -6707 -6708 0
6477 6707 -6708 0
6477 -6707 6708 0
-6477 6707 6708 0
-6708 -6706 -6709 0
6708 6706 -6709 0
6708 -6706 6709 0
-6708 6706 6709 0
-6708 -6706 6710 0
6708 -6710 0
6706 -6710 0
-6477 -6707 6711 0
6477 -6711 0
6707 -6711 0
6710 6711 -6712 0
-6710 6712 0
-6711 6712 0
-274 -6505 6713 0
274 -6713 0
6505 -6713 0
-6483 -6713 -6714 0
6483 6713 -6714 0
6483 -6713 6714 0
-6483 6713 6714 0
-6714 -6712 -6715 0
6714 6712 -6715 0
6714 -6712 6715 0
-6714 6712 6715 0
-6714 -6712 6716 0
6714 -6716 0
6712 -6716 0
-6483 -6713 6717 0
6483 -6717 0
6713 -6717 0
6716 6717 -6718 0
-6716 6718 0
-6717 6718 0
-282 -6505 6719 0
282 -6719 0
6505 -6719 0
-6489 -6719 -6720 0
6489 6719 -6720 0
6489 -6719 6720 0
-6489 6719 6720 0
-6720 -6718 -6721 0
6720 6718 -6721 0
6720 -6718 6721 0
-6720 6718 6721 0
-6720 -6718 6722 0
6720 -6722 0
6718 -6722 0
-6489 -6719 6723 0
6489 -6723 0
6719 -6723 0
6722 6723 -6724 0
-6722 6724 0
-6723 6724 0
-290 -6505 6725 0
290 -6725 0
6505 -6725 0
-6495 -6725 -6726 0
6495 6725 -6726 0
6495 -6725 6726 0
-6495 6725 6726 0
-6726 -6724 -6727 0
6726 6724 -6727 0
6726 -6724 6727 0
-6726 6724 6727 0
-6726 -6724 6728 0
6726 -6728 0
6724 -6728 0
-6495 -6725 6729 0
6495 -6729 0
6725 -6729 0
6728 6729 -6730 0
-6728 6730 0
-6729 6730 0
-298 -6505 6731 0
298 -6731 0
6505 -6731 0
-6501 -6731 -6732 0
6501 6731 -6732 0
6501 -6731 6732 0
-6501 6731 6732 0
-6732 -6730 -6733 0
6732 6730 -6733 0
6732 -6730 6733 0
-6732 6730 6733 0
-6732 -6730 6734 0
6732 -6734 0
6730 -6734 0
-6501 -6731 6735 0
6501 -6735 0
6731 -6735 0
6734 6735 -6736 0
-6734 6736 0
-6735 6736 0
-306 -6505 6737 0
306 -6737 0
6505 -6737 0
-6504 -6737 -6738 0
6504 6737 -6738 0
6504 -6737 6738 0
-6504 6737 6738 0
-6738 -6736 -6739 0
6738 6736 -6739 0
6738 -6736 6739 0
-6738 6736 6739 0
-6738 -6736 6740 0
6738 -6740 0
6736 -6740 0
-6504 -6737 6741 0
6504 -6741 0
6737 -6741 0
6740 6741 -6742 0
-6740 6742 0
-6741 6742 0
-1 -6743 6744 0
1 -6744 0
6743 -6744 0
-6511 -6744 -6745 0
6511 6744 -6745 0
6511 -6744 6745 0
-6511 6744 6745 0
-6511 -6744 6746 0
6511 -6746 0
6744 -6746 0
-4 -6743 6747 0
4 -6747 0
6743 -6747 0
-6517 -6747 -6748 0
6517 6747 -6748 0
6517 -6747 6748 0
-6517 6747 6748 0
-6748 -6746 -6749 0
6748 6746 -6749 0
6748 -6746 6749 0
-6748 6746 6749 0
-6748 -6746 6750 0
6748 -6750 0
6746 -6750 0
-6517 -6747 6751 0
6517 -6751 0
6747 -6751 0
6750 6751 -6752 0
-6750 6752 0
-6751 6752 0
-10 -6743 6753 0
10 -6753 0
6743 -6753 0
-6523 -6753 -6754 0
6523 6753 -6754 0
6523 -6753 6754 0
-6523 6753 6754 0
-6754 -6752 -6755 0
6754 6752 -6755 0
6754 -6752 6755 0
-6754 6752 6755 0
-6754 -6752 6756 0
6754 -6756 0
6752 -6756 0
-6523 -6753 6757 0
6523 -6757 0
6753 -6757 0
6756 6757 -6758 0
-6756 6758 0
-6757 6758 0
-18 -6743 6759 0
18 -6759 0
6743 -6759 0
-6529 -6759 -6760 0
6529 6759 -6760 0
6529 -6759 6760 0
-6529 6759 6760 0
-6760 -6758 -6761 0
6760 6758 -6761 0
6760 -6758 6761 0
-6760 6758 6761 0
-6760 -6758 6762 0
6760 -6762 0
6758 -6762 0
-6529 -6759 6763 0
6529 -6763 0
6759 -6763 0
6762 6763 -6764 0
-6762 6764 0
-6763 6764 0
-26 -6743 6765 0
26 -6765 0
6743 -6765 0
-6535 -6765 -6766 0
6535 6765 -6766 0
6535 -6765 6766 0
-6535 6765 6766 0
-6766 -6764 -6767 0
6766 6764 -6767 0
6766 -6764 6767 0
-6766 6764 6767 0
-6766 -6764 6768 0
6766 -6768 0
6764 -6768 0
-6535 -6765 6769 0
6535 -6769 0
6765 -6769 0
6768 6769 -6770 0
-6768 6770 0
-6769 6770 0
-34 -6743 6771 0
34 -6771 0
6743 -6771 0
-6541 -6771 -6772 0
6541 6771 -6772 0
6541 -6771 6772 0
-6541 6771 6772 0
-6772 -6770 -6773 0
6772 6770 -6773 0
6772 -6770 6773 0
-6772 6770 6773 0
-6772 -6770 6774 0
6772 -6774 0
6770 -6774 0
-6541 -6771 6775 0
6541 -6775 0
6771 -6775 0
6774 6775 -6776 0
-6774 6776 0
-6775 6776 0
-42 -6743 6777 0
42 -6777 0
6743 -6777 0
-6547 -6777 -6778 0
6547 6777 -6778 0
6547 -6777 6778 0
-6547 6777 6778 0
-6778 -6776 -6779 0
6778 6776 -6779 0
6778 -6776 6779 0
-6778 6776 6779 0
-6778 -6776 6780 0
6778 -6780 0
6776 -6780 0
-6547 -6777 6781 0
6547 -6781 0
6777 -6781 0
6780 6781 -6782 0
-6780 6782 0
-6781 6782 0
-50 -6743 6783 0
50 -6783 0
6743 -6783 0
-6553 -6783 -6784 0
6553 6783 -6784 0
6553 -6783 6784 0
-6553 6783 6784 0
-6784 -6782 -6785 0
6784 6782 -6785 0
6784 -6782 6785 0
-6784 6782 6785 0
-6784 -6782 6786 0
6784 -6786 0
6782 -6786 0
-6553 -6783 6787 0
6553 -6787 0
6783 -6787 0
6786 6787 -6788 0
-6786 6788 0
-6787 6788 0
-58 -6743 6789 0
58 -6789 0
6743 -6789 0
-6559 -6789 -6790 0
6559 6789 -6790 0
6559 -6789 6790 0
-6559 6789 6790 0
-6790 -6788 -6791 0
6790 6788 -6791 0
6790 -6788 6791 0
-6790 6788 6791 0
-6790 -6788 6792 0
6790 -6792 0
6788 -6792 0
-6559 -6789 6793 0
6559 -6793 0
6789 -6793 0
6792 6793 -6794 0
-6792 6794 0
-6793 6794 0
-66 -6743 6795 0
66 -6795 0
6743 -6795 0
-6565 -6795 -6796 0
6565 6795 -6796 0
6565 -6795 6796 0
-6565 6795 6796 0
-6796 -6794 -6797 0
6796 6794 -6797 0
6796 -6794 6797 0
-6796 6794 6797 0
-6796 -6794 6798 0
6796 -6798 0
6794 -6798 0
-6565 -6795 6799 0
6565 -6799 0
6795 -6799 0
6798 6799 -6800 0
-6798 6800 0
-6799 6800 0
-74 -6743 6801 0
74 -6801 0
6743 -6801 0
-6571 -6801 -6802 0
6571 6801 -6802 0
6571 -6801 6802 0
-6571 6801 6802 0
-6802 -6800 -6803 0
6802 6800 -6803 0
6802 -6800 6803 0
-6802 6800 6803 0
-6802 -6800 6804 0
6802 -6804 0
6800 -6804 0
-6571 -6801 6805 0
6571 -6805 0
6801 -6805 0
6804 6805 -6806 0
-6804 6806 0
-6805 6806 0
-82 -6743 6807 0
82 -6807 0
6743 -6807 0
-6577 -6807 -6808 0
6577 6807 -6808 0
6577 -6807 6808 0
-6577 6807 6808 0
-6808 -6806 -6809 0
6808 6806 -6809 0
6808 -6806 6809 0
-6808 6806 6809 0
-6808 -6806 6810 0
6808 -6810 0
6806 -6810 0
-6577 -6807 6811 0
6577 -6811 0
6807 -6811 0
6810 6811 -6812 0
-6810 6812 0
-6811 6812 0
-90 -6743 6813 0
90 -6813 0
6743 -6813 0
-6583 -6813 -6814 0
6583 6813 -6814 0
6583 -6813 6814 0
-6583 6813 6814 0
-6814 -6812 -6815 0
6814 6812 -6815 0
6814 -6812 6815 0
-6814 6812 6815 0
-6814 -6812 6816 0
6814 -6816 0
6812 -6816 0
-6583 -6813 6817 0
6583 -6817 0
6813 -6817 0
6816 6817 -6818 0
-6816 6818 0
-6817 6818 0
-98 -6743 6819 0
98 -6819 0
6743 -6819 0
-6589 -6819 -6820 0
6589 6819 -6820 0
6589 -6819 6820 0
-6589 6819 6820 0
-6820 -6818 -6821 0
6820 6818 -6821 0
6820 -6818 6821 0
-6820 6818 6821 0
-6820 -6818 6822 0
6820 -6822 0
6818 -6822 0
-6589 -6819 6823 0
6589 -6823 0
6819 -6823 0
6822 6823 -6824 0
-6822 6824 0
-6823 6824 0
-106 -6743 6825 0
106 -6825 0
6743 -6825 0
-6595 -6825 -6826 0
6595 6825 -6826 0
6595 -6825 6826 0
-6595 6825 6826 0
-6826 -6824 -6827 0
6826 6824 -6827 0
6826 -6824 6827 0
-6826 6824 6827 0
-6826 -6824 6828 0
6826 -6828 0
6824 -6828 0
-6595 -6825 6829 0
6595 -6829 0
6825 -6829 0
6828 6829 -6830 0
-6828 6830 0
-6829 6830 0
-114 -6743 6831 0
114 -6831 0
6743 -6831 0
-6601 -6831 -6832 0
6601 6831 -6832 0
6601 -6831 6832 0
-6601 6831 6832 0
-6832 -6830 -6833 0
6832 6830 -6833 0
6832 -6830 6833 0
-6832 6830 6833 0
-6832 -6830 6834 0
6832 -6834 0
6830 -6834 0
-6601 -6831 6835 0
6601 -6835 0
6831 -6835 0
6834 6835 -6836 0
-6834 6836 0
-6835 6836 0
-122 -6743 6837 0
122 -6837 0
6743 -6837 0
-6607 -6837 -6838 0
6607 6837 -6838 0
6607 -6837 6838 0
-6607 6837 6838 0
-6838 -6836 -6839 0
6838 6836 -6839 0
6838 -6836 6839 0
-6838 6836 6839 0
-6838 -6836 6840 0
6838 -6840 0
6836 -6840 0
-6607 -6837 6841 0
6607 -6841 0
6837 -6841 0
6840 6841 -6842 0
-6840 6842 0
-6841 6842 0
-130 -6743 6843 0
130 -6843 0
6743 -6843 0
-6613 -6843 -6844 0
6613 6843 -6844 0
6613 -6843 6844 0
-6613 6843 6844 0
-6844 -6842 -6845 0
6844 6842 -6845 0
6844 -6842 6845 0
-6844 6842 6845 0
-6844 -6842 6846 0
6844 -6846 0
6842 -6846 0
-6613 -6843 6847 0
6613 -6847 0
6843 -6847 0
6846 6847 -6848 0
-6846 6848 0
-6847 6848 0
-138 -6743 6849 0
138 -6849 0
6743 -6849 0
-6619 -6849 -6850 0
6619 6849 -6850 0
6619 -6849 6850 0
-6619 6849 6850 0
-6850 -6848 -6851 0
6850 6848 -6851 0
6850 -6848 6851 0
-6850 6848 6851 0
-6850 -6848 6852 0
6850 -6852 0
6848 -6852 0
-6619 -6849 6853 0
6619 -6853 0
6849 -6853 0
6852 6853 -6854 0
-6852 6854 0
-6853 6854 0
-146 -6743 6855 0
146 -6855 0
6743 -6855 0
-6625 -6855 -6856 0
6625 6855 -6856 0
6625 -6855 6856 0
-6625 6855 6856 0
-6856 -6854 -6857 0
6856 6854 -6857 0
6856 -6854 6857 0
-6856 6854 6857 0
-6856 -6854 6858 0
6856 -6858 0
6854 -6858 0
-6625 -6855 6859 0
6625 -6859 0
6855 -6859 0
6858 6859 -6860 0
-6858 6860 0
-6859 6860 0
-154 -6743 6861 0
154 -6861 0
6743 -6861 0
-6631 -6861 -6862 0
6631 6861 -6862 0
6631 -6861 6862 0
-6631 6861 6862 0
-6862 -6860 -6863 0
6862 6860 -6863 0
6862 -6860 6863 0
-6862 6860 6863 0
-6862 -6860 6864 0
6862 -6864 0
6860 -6864 0
-6631 -6861 6865 0
6631 -6865 0
6861 -6865 0
6864 6865 -6866 0
-6864 6866 0
-6865 6866 0
-162 -6743 6867 0
162 -6867 0
6743 -6867 0
-6637 -6867 -6868 0
6637 6867 -6868 0
6637 -6867 6868 0
-6637 6867 6868 0
-6868 -6866 -6869 0
6868 6866 -6869 0
6868 -6866 6869 0
-6868 6866 6869 0
-6868 -6866 6870 0
6868 -6870 0
6866 -6870 0
-6637 -6867 6871 0
6637 -6871 0
6867 -6871 0
6870 6871 -6872 0
-6870 6872 0
-6871 6872 0
-170 -6743 6873 0
170 -6873 0
6743 -6873 0
-6643 -6873 -6874 0
6643 6873 -6874 0
6643 -6873 6874 0
-6643 6873 6874 0
-6874 -6872 -6875 0
6874 6872 -6875 0
6874 -6872 6875 0
-6874 6872 6875 0
-6874 -6872 6876 0
6874 -6876 0
6872 -6876 0
-6643 -6873 6877 0
6643 -6877 0
6873 -6877 0
6876 6877 -6878 0
-6876 6878 0
-6877 6878 0
-178 -6743 6879 0
178 -6879 0
6743 -6879 0
-6649 -6879 -6880 0
6649 6879 -6880 0
6649 -6879 6880 0
-6649 6879 6880 0
-6880 -6878 -6881 0
6880 6878 -6881 0
6880 -6878 6881 0
-6880 6878 6881 0
-6880 -6878 6882 0
6880 -6882 0
6878 -6882 0
-6649 -6879 6883 0
6649 -6883 0
6879 -6883 0
6882 6883 -6884 0
-6882 6884 0
-6883 6884 0
-186 -6743 6885 0
186 -6885 0
6743 -6885 0
-6655 -6885 -6886 0
6655 6885 -6886 0
6655 -6885 6886 0
-6655 6885 6886 0
-6886 -6884 -6887 0
6886 6884 -6887 0
6886 -6884 6887 0
-6886 6884 6887 0
-6886 -6884 6888 0
6886 -6888 0
6884 -6888 0
-6655 -6885 6889 0
6655 -6889 0
6885 -6889 0
6888 6889 -6890 0
-6888 6890 0
-6889 6890 0
-194 -6743 6891 0
194 -6891 0
6743 -6891 0
-6661 -6891 -6892 0
6661 6891 -6892 0
6661 -6891 6892 0
-6661 6891 6892 0
-6892 -6890 -6893 0
6892 6890 -6893 0
6892 -6890 6893 0
-6892 6890 6893 0
-6892 -6890 6894 0
6892 -6894 0
6890 -6894 0
-6661 -6891 6895 0
6661 -6895 0
6891 -6895 0
6894 6895 -6896 0
-6894 6896 0
-6895 6896 0
-202 -6743 6897 0
202 -6897 0
6743 -6897 0
-6667 -6897 -6898 0
6667 6897 -6898 0
6667 -6897 6898 0
-6667 6897 6898 0
-6898 -6896 -6899 0
6898 6896 -6899 0
6898 -6896 6899 0
-6898 6896 6899 0
-6898 -6896 6900 0
6898 -6900 0
6896 -6900 0
-6667 -6897 6901 0
6667 -6901 0
6897 -6901 0
6900 6901 -6902 0
-6900 6902 0
-6901 6902 0
-210 -6743 6903 0
210 -6903 0
6743 -6903 0
-6673 -6903 -6904 0
6673 6903 -6904 0
6673 -6903 6904 0
-6673 6903 6904 0
-6904 -6902 -6905 0
6904 6902 -6905 0
6904 -6902 6905 0
-6904 6902 6905 0
-6904 -6902 6906 0
6904 -6906 0
6902 -6906 0
-6673 -6903 6907 0
6673 -6907 0
6903 -6907 0
6906 6907 -6908 0
-6906 6908 0
-6907 6908 0
-218 -6743 6909 0
218 -6909 0
6743 -6909 0
-6679 -6909 -6910 0
6679 6909 -6910 0
6679 -6909 6910 0
-6679 6909 6910 0
-6910 -6908 -6911 0
6910 6908 -6911 0
6910 -6908 6911 0
-6910 6908 6911 0
-6910 -6908 6912 0
6910 -6912 0
6908 -6912 0
-6679 -6909 6913 0
6679 -6913 0
6909 -6913 0
6912 6913 -6914 0
-6912 6914 0
-6913 6914 0
-226 -6743 6915 0
226 -6915 0
6743 -6915 0
-6685 -6915 -6916 0
6685 6915 -6916 0
6685 -6915 6916 0
-6685 6915 6916 0
-6916 -6914 -6917 0
6916 6914 -6917 0
6916 -6914 6917 0
-6916 6914 6917 0
-6916 -6914 6918 0
6916 -6918 0
6914 -6918 0
-6685 -6915 6919 0
6685 -6919 0
6915 -6919 0
6918 6919 -6920 0
-6918 6920 0
-6919 6920 0
-234 -6743 6921 0
234 -6921 0
6743 -6921 0
-6691 -6921 -6922 0
6691 6921 -6922 0
6691 -6921 6922 0
-6691 6921 6922 0
-6922 -6920 -6923 0
6922 6920 -6923 0
6922 -6920 6923 0
-6922 6920 6923 0
-6922 -6920 6924 0
6922 -6924 0
6920 -6924 0
-6691 -6921 6925 0
6691 -6925 0
6921 -6925 0
6924 6925 -6926 0
-6924 6926 0
-6925 6926 0
-242 -6743 6927 0
242 -6927 0
6743 -6927 0
-6697 -6927 -6928 0
6697 6927 -6928 0
6697 -6927 6928 0
-6697 6927 6928 0
-6928 -6926 -6929 0
6928 6926 -6929 0
6928 -6926 6929 0
-6928 6926 6929 0
-6928 -6926 6930 0
6928 -6930 0
6926 -6930 0
-6697 -6927 6931 0
6697 -6931 0
6927 -6931 0
6930 6931 -6932 0
-6930 6932 0
-6931 6932 0
-250 -6743 6933 0
250 -6933 0
6743 -6933 0
-6703 -6933 -6934 0
6703 6933 -6934 0
6703 -6933 6934 0
-6703 6933 6934 0
-6934 -6932 -6935 0
6934 6932 -6935 0
6934 -6932 6935 0
-6934 6932 6935 0
-6934 -6932 6936 0
6934 -6936 0
6932 -6936 0
-6703 -6933 6937 0
6703 -6937 0
6933 -6937 0
6936 6937 -6938 0
-6936 6938 0
-6937 6938 0
-258 -6743 6939 0
258 -6939 0
6743 -6939 0
-6709 -6939 -6940 0
6709 6939 -6940 0
6709 -6939 6940 0
-6709 6939 6940 0
-6940 -6938 -6941 0
6940 6938 -6941 0
6940 -6938 6941 0
-6940 6938 6941 0
-6940 -6938 6942 0
6940 -6942 0
6938 -6942 0
-6709 -6939 6943 0
6709 -6943 0
6939 -6943 0
6942 6943 -6944 0
-6942 6944 0
-6943 6944 0
-266 -6743 6945 0
266 -6945 0
6743 -6945 0
-6715 -6945 -6946 0
6715 6945 -6946 0
6715 -6945 6946 0
-6715 6945 6946 0
-6946 -6944 -6947 0
6946 6944 -6947 0
6946 -6944 6947 0
-6946 6944 6947 0
-6946 -6944 6948 0
6946 -6948 0
6944 -6948 0
-6715 -6945 6949 0
6715 -6949 0
6945 -6949 0
6948 6949 -6950 0
-6948 6950 0
-6949 6950 0
-274 -6743 6951 0
274 -6951 0
6743 -6951 0
-6721 -6951 -6952 0
6721 6951 -6952 0
6721 -6951 6952 0
-6721 6951 6952 0
-6952 -6950 -6953 0
6952 6950 -6953 0
6952 -6950 6953 0
-6952 6950 6953 0
-6952 -6950 6954 0
6952 -6954 0
6950 -6954 0
-6721 -6951 6955 0
6721 -6955 0
6951 -6955 0
6954 6955 -6956 0
-6954 6956 0
-6955 6956 0
-282 -6743 6957 0
282 -6957 0
6743 -6957 0
-6727 -6957 -6958 0
6727 6957 -6958 0
6727 -6957 6958 0
-6727 6957 6958 0
-6958 -6956 -6959 0
6958 6956 -6959 0
6958 -6956 6959 0
-6958 6956 6959 0
-6958 -6956 6960 0
6958 -6960 0
6956 -6960 0
-6727 -6957 6961 0
6727 -6961 0
6957 -6961 0
6960 6961 -6962 0
-6960 6962 0
-6961 6962 0
-290 -6743 6963 0
290 -6963 0
6743 -6963 0
-6733 -6963 -6964 0
6733 6963 -6964 0
6733 -6963 6964 0
-6733 6963 6964 0
-6964 -6962 -6965 0
6964 6962 -6965 0
6964 -6962 6965 0
-6964 6962 6965 0
-6964 -6962 6966 0
6964 -6966 0
6962 -6966 0
-6733 -6963 6967 0
6733 -6967 0
6963 -6967 0
6966 6967 -6968 0
-6966 6968 0
-6967 6968 0
-298 -6743 6969 0
298 -6969 0
6743 -6969 0
-6739 -6969 -6970 0
6739 6969 -6970 0
6739 -6969 6970 0
-6739 6969 6970 0
-6970 -6968 -6971 0
6970 6968 -6971 0
6970 -6968 6971 0
-6970 6968 6971 0
-6970 -6968 6972 0
6970 -6972 0
6968 -6972 0
-6739 -6969 6973 0
6739 -6973 0
6969 -6973 0
6972 6973 -6974 0
-6972 6974 0
-6973 6974 0
-306 -6743 6975 0
306 -6975 0
6743 -6975 0
-6742 -6975 -6976 0
6742 6975 -6976 0
6742 -6975 6976 0
-6742 6975 6976 0
-6976 -6974 -6977 0
6976 6974 -6977 0
6976 -6974 6977 0
-6976 6974 6977 0
-6976 -6974 6978 0
6976 -6978 0
6974 -6978 0
-6742 -6975 6979 0
6742 -6979 0
6975 -6979 0
6978 6979 -6980 0
-6978 6980 0
-6979 6980 0
-1 -6981 6982 0
1 -6982 0
6981 -6982 0
-6749 -6982 -6983 0
6749 6982 -6983 0
6749 -6982 6983 0
-6749 6982 6983 0
-6749 -6982 6984 0
6749 -6984 0
6982 -6984 0
-4 -6981 6985 0
4 -6985 0
6981 -6985 0
-6755 -6985 -6986 0
6755 6985 -6986 0
6755 -6985 6986 0
-6755 6985 6986 0
-6986 -6984 -6987 0
6986 6984 -6987 0
6986 -6984 6987 0
-6986 6984 6987 0
-6986 -6984 6988 0
6986 -6988 0
6984 -6988 0
-6755 -6985 6989 0
6755 -6989 0
6985 -6989 0
6988 6989 -6990 0
-6988 6990 0
-6989 6990 0
-10 -6981 6991 0
10 -6991 0
6981 -6991 0
-6761 -6991 -6992 0
6761 6991 -6992 0
6761 -6991 6992 0
-6761 6991 6992 0
-6992 -6990 -6993 0
6992 6990 -6993 0
6992 -6990 6993 0
-6992 6990 6993 0
-6992 -6990 6994 0
6992 -6994 0
6990 -6994 0
-6761 -6991 6995 0
6761 -6995 0
6991 -6995 0
6994 6995 -6996 0
-6994 6996 0
-6995 6996 0
-18 -6981 6997 0
18 -6997 0
6981 -6997 0
-6767 -6997 -6998 0
6767 6997 -6998 0
6767 -6997 6998 0
-6767 6997 6998 0
-6998 -6996 -6999 0
6998 6996 -6999 0
6998 -6996 6999 0
-6998 6996 6999 0
-6998 -6996 7000 0
6998 -7000 0
6996 -7000 0
-6767 -6997 7001 0
6767 -7001 0
6997 -7001 0
7000 7001 -7002 0
-7000 7002 0
-7001 7002 0
-26 -6981 7003 0
26 -7003 0
6981 -7003 0
-6773 -7003 -7004 0
6773 7003 -7004 0
6773 -7003 7004 0
-6773 7003 7004 0
-7004 -7002 -7005 0
7004 7002 -7005 0
7004 -7002 7005 0
-7004 7002 7005 0
-7004 -7002 7006 0
7004 -7006 0
7002 -7006 0
-6773 -7003 7007 0
6773 -7007 0
7003 -7007 0
7006 7007 -7008 0
-7006 7008 0
-7007 7008 0
-34 -6981 7009 0
34 -7009 0
6981 -7009 0
-6779 -7009 -7010 0
6779 7009 -7010 0
6779 -7009 7010 0
-6779 7009 7010 0
-7010 -7008 -7011 0
7010 7008 -7011 0
7010 -7008 7011 0
-7010 7008 7011 0
-7010 -7008 7012 0
7010 -7012 0
7008 -7012 0
-6779 -7009 7013 0
6779 -7013 0
7009 -7013 0
7012 7013 -7014 0
-7012 7014 0
-7013 7014 0
-42 -6981 7015 0
42 -7015 0
6981 -7015 0
-6785 -7015 -7016 0
6785 7015 -7016 0
6785 -7015 7016 0
-6785 7015 7016 0
-7016 -7014 -7017 0
7016 7014 -7017 0
7016 -7014 7017 0
-7016 7014 7017 0
-7016 -7014 7018 0
7016 -7018 0
7014 -7018 0
-6785 -7015 7019 0
6785 -7019 0
7015 -7019 0
7018 7019 -7020 0
-7018 7020 0
-7019 7020 0
-50 -6981 7021 0
50 -7021 0
6981 -7021 0
-6791 -7021 -7022 0
6791 7021 -7022 0
6791 -7021 7022 0
-6791 7021 7022 0
-7022 -7020 -7023 0
7022 7020 -7023 0
7022 -7020 7023 0
-7022 7020 7023 0
-7022 -7020 7024 0
7022 -7024 0
7020 -7024 0
-6791 -7021 7025 0
6791 -7025 0
7021 -7025 0
7024 7025 -7026 0
-7024 7026 0
-7025 7026 0
-58 -6981 7027 0
58 -7027 0
6981 -7027 0
-6797 -7027 -7028 0
6797 7027 -7028 0
6797 -7027 7028 0
-6797 7027 7028 0
-7028 -7026 -7029 0
7028 7026 -7029 0
7028 -7026 7029 0
-7028 7026 7029 0
-7028 -7026 7030 0
7028 -7030 0
7026 -7030 0
-6797 -7027 7031 0
6797 -7031 0
7027 -7031 0
7030 7031 -7032 0
-7030 7032 0
-7031 7032 0
-66 -6981 7033 0
66 -7033 0
6981 -7033 0
-6803 -7033 -7034 0
6803 7033 -7034 0
6803 -7033 7034 0
-6803 7033 7034 0
-7034 -7032 -7035 0
7034 7032 -7035 0
7034 -7032 7035 0
-7034 7032 7035 0
-7034 -7032 7036 0
7034 -7036 0
7032 -7036 0
-6803 -7033 7037 0
6803 -7037 0
7033 -7037 0
7036 7037 -7038 0
-7036 7038 0
-7037 7038 0
-74 -6981 7039 0
74 -7039 0
6981 -7039 0
-6809 -7039 -7040 0
6809 7039 -7040 0
6809 -7039 7040 0
-6809 7039 7040 0
-7040 -7038 -7041 0
7040 7038 -7041 0
7040 -7038 7041 0
-7040 7038 7041 0
-7040 -7038 7042 0
7040 -7042 0
7038 -7042 0
-6809 -7039 7043 0
6809 -7043 0
7039 -7043 0
7042 7043 -7044 0
-7042 7044 0
-7043 7044 0
-82 -6981 7045 0
82 -7045 0
6981 -7045 0
-6815 -7045 -7046 0
6815 7045 -7046 0
6815 -7045 7046 0
-6815 7045 7046 0
-7046 -7044 -7047 0
7046 7044 -7047 0
7046 -7044 7047 0
-7046 7044 7047 0
-7046 -7044 7048 0
7046 -7048 0
7044 -7048 0
-6815 -7045 7049 0
6815 -7049 0
7045 -7049 0
7048 7049 -7050 0
-7048 7050 0
-7049 7050 0
-90 -6981 7051 0
90 -7051 0
6981 -7051 0
-6821 -7051 -7052 0
6821 7051 -7052 0
6821 -7051 7052 0
-6821 7051 7052 0
-7052 -7050 -7053 0
7052 7050 -7053 0
7052 -7050 7053 0
-7052 7050 7053 0
-7052 -7050 7054 0
7052 -7054 0
7050 -7054 0
-6821 -7051 7055 0
6821 -7055 0
7051 -7055 0
7054 7055 -7056 0
-7054 7056 0
-7055 7056 0
-98 -6981 7057 0
98 -7057 0
6981 -7057 0
-6827 -7057 -7058 0
6827 7057 -7058 0
6827 -7057 7058 0
-6827 7057 7058 0
-7058 -7056 -7059 0
7058 7056 -7059 0
7058 -7056 7059 0
-7058 7056 7059 0
-7058 -7056 7060 0
7058 -7060 0
7056 -7060 0
-6827 -7057 7061 0
6827 -7061 0
7057 -7061 0
7060 7061 -7062 0
-7060 7062 0
-7061 7062 0
-106 -6981 7063 0
106 -7063 0
6981 -7063 0
-6833 -7063 -7064 0
6833 7063 -7064 0
6833 -7063 7064 0
-6833 7063 7064 0
-7064 -7062 -7065 0
7064 7062 -7065 0
7064 -7062 7065 0
-7064 7062 7065 0
-7064 -7062 7066 0
7064 -7066 0
7062 -7066 0
-6833 -7063 7067 0
6833 -7067 0
7063 -7067 0
7066 7067 -7068 0
-7066 7068 0
-7067 7068 0
-114 -6981 7069 0
114 -7069 0
6981 -7069 0
-6839 -7069 -7070 0
6839 7069 -7070 0
6839 -7069 7070 0
-6839 7069 7070 0
-7070 -7068 -7071 0
7070 7068 -7071 0
7070 -7068 7071 0
-7070 7068 7071 0
-7070 -7068 7072 0
7070 -7072 0
7068 -7072 0
-6839 -7069 7073 0
6839 -7073 0
7069 -7073 0
7072 7073 -7074 0
-7072 7074 0
-7073 7074 0
-122 -6981 7075 0
122 -7075 0
6981 -7075 0
-6845 -7075 -7076 0
6845 7075 -7076 0
6845 -7075 7076 0
-6845 7075 7076 0
-7076 -7074 -7077 0
7076 7074 -7077 0
7076 -7074 7077 0
-7076 7074 7077 0
-7076 -7074 7078 0
7076 -7078 0
7074 -7078 0
-6845 -7075 7079 0
6845 -7079 0
7075 -7079 0
7078 7079 -7080 0
-7078 7080 0
-7079 7080 0
-130 -6981 7081 0
130 -7081 0
6981 -7081 0
-6851 -7081 -7082 0
6851 7081 -7082 0
6851 -7081 7082 0
-6851 7081 7082 0
-7082 -7080 -7083 0
7082 7080 -7083 0
7082 -7080 7083 0
-7082 7080 7083 0
-7082 -7080 7084 0
7082 -7084 0
7080 -7084 0
-6851 -7081 7085 0
6851 -7085 0
7081 -7085 0
7084 7085 -7086 0
-7084 7086 0
-7085 7086 0
-138 -6981 7087 0
138 -7087 0
6981 -7087 0
-6857 -7087 -7088 0
6857 7087 -7088 0
6857 -7087 7088 0
-6857 7087 7088 0
-7088 -7086 -7089 0
7088 7086 -7089 0
7088 -7086 7089 0
-7088 7086 7089 0
-7088 -7086 7090 0
7088 -7090 0
7086 -7090 0
-6857 -7087 7091 0
6857 -7091 0
7087 -7091 0
7090 7091 -7092 0
-7090 7092 0
-7091 7092 0
-146 -6981 7093 0
146 -7093 0
6981 -7093 0
-6863 -7093 -7094 0
6863 7093 -7094 0
6863 -7093 7094 0
-6863 7093 7094 0
-7094 -7092 -7095 0
7094 7092 -7095 0
7094 -7092 7095 0
-7094 7092 7095 0
-7094 -7092 7096 0
7094 -7096 0
7092 -7096 0
-6863 -7093 7097 0
6863 -7097 0
7093 -7097 0
7096 7097 -7098 0
-7096 7098 0
-7097 7098 0
-154 -6981 7099 0
154 -7099 0
6981 -7099 0
-6869 -7099 -7100 0
6869 7099 -7100 0
6869 -7099 7100 0
-6869 7099 7100 0
-7100 -7098 -7101 0
7100 7098 -7101 0
7100 -7098 7101 0
-7100 7098 7101 0
-7100 -7098 7102 0
7100 -7102 0
7098 -7102 0
-6869 -7099 7103 0
6869 -7103 0
7099 -7103 0
7102 7103 -7104 0
-7102 7104 0
-7103 7104 0
-162 -6981 7105 0
162 -7105 0
6981 -7105 0
-6875 -7105 -7106 0
6875 7105 -7106 0
6875 -7105 7106 0
-6875 7105 7106 0
-7106 -7104 -7107 0
7106 7104 -7107 0
7106 -7104 7107 0
-7106 7104 7107 0
-7106 -7104 7108 0
7106 -7108 0
7104 -7108 0
-6875 -7105 7109 0
6875 -7109 0
7105 -7109 0
7108 7109 -7110 0
-7108 7110 0
-7109 7110 0
-170 -6981 7111 0
170 -7111 0
6981 -7111 0
-6881 -7111 -7112 0
6881 7111 -7112 0
6881 -7111 7112 0
-6881 7111 7112 0
-7112 -7110 -7113 0
7112 7110 -7113 0
7112 -7110 7113 0
-7112 7110 7113 0
-7112 -7110 7114 0
7112 -7114 0
7110 -7114 0
-6881 -7111 7115 0
6881 -7115 0
7111 -7115 0
7114 7115 -7116 0
-7114 7116 0
-7115 7116 0
-178 -6981 7117 0
178 -7117 0
6981 -7117 0
-6887 -7117 -7118 0
6887 7117 -7118 0
6887 -7117 7118 0
-6887 7117 7118 0
-7118 -7116 -7119 0
7118 7116 -7119 0
7118 -7116 7119 0
-7118 7116 7119 0
-7118 -7116 7120 0
7118 -7120 0
7116 -7120 0
-6887 -7117 7121 0
6887 -7121 0
7117 -7121 0
7120 7121 -7122 0
-7120 7122 0
-7121 7122 0
-186 -6981 7123 0
186 -7123 0
6981 -7123 0
-6893 -7123 -7124 0
6893 7123 -7124 0
6893 -7123 7124 0
-6893 7123 7124 0
-7124 -7122 -7125 0
7124 7122 -7125 0
7124 -7122 7125 0
-7124 7122 7125 0
-7124 -7122 7126 0
7124 -7126 0
7122 -7126 0
-6893 -7123 7127 0
6893 -7127 0
7123 -7127 0
7126 7127 -7128 0
-7126 7128 0
-7127 7128 0
-194 -6981 7129 0
194 -7129 0
6981 -7129 0
-6899 -7129 -7130 0
6899 7129 -7130 0
6899 -7129 7130 0
-6899 7129 7130 0
-7130 -7128 -7131 0
7130 7128 -7131 0
7130 -7128 7131 0
-7130 7128 7131 0
-7130 -7128 7132 0
7130 -7132 0
7128 -7132 0
-6899 -7129 7133 0
6899 -7133 0
7129 -7133 0
7132 7133 -7134 0
-7132 7134 0
-7133 7134 0
-202 -6981 7135 0
202 -7135 0
6981 -7135 0
-6905 -7135 -7136 0
6905 7135 -7136 0
6905 -7135 7136 0
-6905 7135 7136 0
-7136 -7134 -7137 0
7136 7134 -7137 0
7136 -7134 7137 0
-7136 7134 7137 0
-7136 -7134 7138 0
7136 -7138 0
7134 -7138 0
-6905 -7135 7139 0
6905 -7139 0
7135 -7139 0
7138 7139 -7140 0
-7138 7140 0
-7139 7140 0
-210 -6981 7141 0
210 -7141 0
6981 -7141 0
-6911 -7141 -7142 0
6911 7141 -7142 0
6911 -7141 7142 0
-6911 7141 7142 0
-7142 -7140 -7143 0
7142 7140 -7143 0
7142 -7140 7143 0
-7142 7140 7143 0
-7142 -7140 7144 0
7142 -7144 0
7140 -7144 0
-6911 -7141 7145 0
6911 -7145 0
7141 -7145 0
7144 7145 -7146 0
-7144 7146 0
-7145 7146 0
-218 -6981 7147 0
218 -7147 0
6981 -7147 0
-6917 -7147 -7148 0
6917 7147 -7148 0
6917 -7147 7148 0
-6917 7147 7148 0
-7148 -7146 -7149 0
7148 7146 -7149 0
7148 -7146 7149 0
-7148 7146 7149 0
-7148 -7146 7150 0
7148 -7150 0
7146 -7150 0
-6917 -7147 7151 0
6917 -7151 0
7147 -7151 0
7150 7151 -7152 0
-7150 7152 0
-7151 7152 0
-226 -6981 7153 0
226 -7153 0
6981 -7153 0
-6923 -7153 -7154 0
6923 7153 -7154 0
6923 -7153 7154 0
-6923 7153 7154 0
-7154 -7152 -7155 0
7154 7152 -7155 0
7154 -7152 7155 0
-7154 7152 7155 0
-7154 -7152 7156 0
7154 -7156 0
7152 -7156 0
-6923 -7153 7157 0
6923 -7157 0
7153 -7157 0
7156 7157 -7158 0
-7156 7158 0
-7157 7158 0
-234 -6981 7159 0
234 -7159 0
6981 -7159 0
-6929 -7159 -7160 0
6929 7159 -7160 0
6929 -7159 7160 0
-6929 7159 7160 0
-7160 -7158 -7161 0
7160 7158 -7161 0
7160 -7158 7161 0
-7160 7158 7161 0
-7160 -7158 7162 0
7160 -7162 0
7158 -7162 0
-6929 -7159 7163 0
6929 -7163 0
7159 -7163 0
7162 7163 -7164 0
-7162 7164 0
-7163 7164 0
-242 -6981 7165 0
242 -7165 0
6981 -7165 0
-6935 -7165 -7166 0
6935 7165 -7166 0
6935 -7165 7166 0
-6935 7165 7166 0
-7166 -7164 -7167 0
7166 7164 -7167 0
7166 -7164 7167 0
-7166 7164 7167 0
-7166 -7164 7168 0
7166 -7168 0
7164 -7168 0
-6935 -7165 7169 0
6935 -7169 0
7165 -7169 0
7168 7169 -7170 0
-7168 7170 0
-7169 7170 0
-250 -6981 7171 0
250 -7171 0
6981 -7171 0
-6941 -7171 -7172 0
6941 7171 -7172 0
6941 -7171 7172 0
-6941 7171 7172 0
-7172 -7170 -7173 0
7172 7170 -7173 0
7172 -7170 7173 0
-7172 7170 7173 0
-7172 -7170 7174 0
7172 -7174 0
7170 -7174 0
-6941 -7171 7175 0
6941 -7175 0
7171 -7175 0
7174 7175 -7176 0
-7174 7176 0
-7175 7176 0
-258 -6981 7177 0
258 -7177 0
6981 -7177 0
-6947 -7177 -7178 0
6947 7177 -7178 0
6947 -7177 7178 0
-6947 7177 7178 0
-7178 -7176 -7179 0
7178 7176 -7179 0
7178 -7176 7179 0
-7178 7176 7179 0
-7178 -7176 7180 0
7178 -7180 0
7176 -7180 0
-6947 -7177 7181 0
6947 -7181 0
7177 -7181 0
7180 7181 -7182 0
-7180 7182 0
-7181 7182 0
-266 -6981 7183 0
266 -7183 0
6981 -7183 0
-6953 -7183 -7184 0
6953 7183 -7184 0
6953 -7183 7184 0
-6953 7183 7184 0
-7184 -7182 -7185 0
7184 7182 -7185 0
7184 -7182 7185 0
-7184 7182 7185 0
-7184 -7182 7186 0
7184 -7186 0
7182 -7186 0
-6953 -7183 7187 0
6953 -7187 0
7183 -7187 0
7186 7187 -7188 0
-7186 7188 0
-7187 7188 0
-274 -6981 7189 0
274 -7189 0
6981 -7189 0
-6959 -7189 -7190 0
6959 7189 -7190 0
6959 -7189 7190 0
-6959 7189 7190 0
-7190 -7188 -7191 0
7190 7188 -7191 0
7190 -7188 7191 0
-7190 7188 7191 0
-7190 -7188 7192 0
7190 -7192 0
7188 -7192 0
-6959 -7189 7193 0
6959 -7193 0
7189 -7193 0
7192 7193 -7194 0
-7192 7194 0
-7193 7194 0
-282 -6981 7195 0
282 -7195 0
6981 -7195 0
-6965 -7195 -7196 0
6965 7195 -7196 0
6965 -7195 7196 0
-6965 7195 7196 0
-7196 -7194 -7197 0
7196 7194 -7197 0
7196 -7194 7197 0
-7196 7194 7197 0
-7196 -7194 7198 0
7196 -7198 0
7194 -7198 0
-6965 -7195 7199 0
6965 -7199 0
7195 -7199 0
7198 7199 -7200 0
-7198 7200 0
-7199 7200 0
-290 -6981 7201 0
290 -7201 0
6981 -7201 0
-6971 -7201 -7202 0
6971 7201 -7202 0
6971 -7201 7202 0
-6971 7201 7202 0
-7202 -7200 -7203 0
7202 7200 -7203 0
7202 -7200 7203 0
-7202 7200 7203 0
-7202 -7200 7204 0
7202 -7204 0
7200 -7204 0
-6971 -7201 7205 0
6971 -7205 0
7201 -7205 0
7204 7205 -7206 0
-7204 7206 0
-7205 7206 0
-298 -6981 7207 0
298 -7207 0
6981 -7207 0
-6977 -7207 -7208 0
6977 7207 -7208 0
6977 -7207 7208 0
-6977 7207 7208 0
-7208 -7206 -7209 0
7208 7206 -7209 0
7208 -7206 7209 0
-7208 7206 7209 0
-7208 -7206 7210 0
7208 -7210 0
7206 -7210 0
-6977 -7207 7211 0
6977 -7211 0
7207 -7211 0
7210 7211 -7212 0
-7210 7212 0
-7211 7212 0
-306 -6981 7213 0
306 -7213 0
6981 -7213 0
-6980 -7213 -7214 0
6980 7213 -7214 0
6980 -7213 7214 0
-6980 7213 7214 0
-7214 -7212 -7215 0
7214 7212 -7215 0
7214 -7212 7215 0
-7214 7212 7215 0
-7214 -7212 7216 0
7214 -7216 0
7212 -7216 0
-6980 -7213 7217 0
6980 -7217 0
7213 -7217 0
7216 7217 -7218 0
-7216 7218 0
-7217 7218 0
-1 -7219 7220 0
1 -7220 0
7219 -7220 0
-6987 -7220 -7221 0
6987 7220 -7221 0
6987 -7220 7221 0
-6987 7220 7221 0
-6987 -7220 7222 0
6987 -7222 0
7220 -7222 0
-4 -7219 7223 0
4 -7223 0
7219 -7223 0
-6993 -7223 -7224 0
6993 7223 -7224 0
6993 -7223 7224 0
-6993 7223 7224 0
-7224 -7222 -7225 0
7224 7222 -7225 0
7224 -7222 7225 0
-7224 7222 7225 0
-7224 -7222 7226 0
7224 -7226 0
7222 -7226 0
-6993 -7223 7227 0
6993 -7227 0
7223 -7227 0
7226 7227 -7228 0
-7226 7228 0
-7227 7228 0
-10 -7219 7229 0
10 -7229 0
7219 -7229 0
-6999 -7229 -7230 0
6999 7229 -7230 0
6999 -7229 7230 0
-6999 7229 7230 0
-7230 -7228 -7231 0
7230 7228 -7231 0
7230 -7228 7231 0
-7230 7228 7231 0
-7230 -7228 7232 0
7230 -7232 0
7228 -7232 0
-6999 -7229 7233 0
6999 -7233 0
7229 -7233 0
7232 7233 -7234 0
-7232 7234 0
-7233 7234 0
-18 -7219 7235 0
18 -7235 0
7219 -7235 0
-7005 -7235 -7236 0
7005 7235 -7236 0
7005 -7235 7236 0
-7005 7235 7236 0
-7236 -7234 -7237 0
7236 7234 -7237 0
7236 -7234 7237 0
-7236 7234 7237 0
-7236 -7234 7238 0
7236 -7238 0
7234 -7238 0
-7005 -7235 7239 0
7005 -7239 0
7235 -7239 0
7238 7239 -7240 0
-7238 7240 0
-7239 7240 0
-26 -7219 7241 0
26 -7241 0
7219 -7241 0
-7011 -7241 -7242 0
7011 7241 -7242 0
7011 -7241 7242 0
-7011 7241 7242 0
-7242 -7240 -7243 0
7242 7240 -7243 0
7242 -7240 7243 0
-7242 7240 7243 0
-7242 -7240 7244 0
7242 -7244 0
7240 -7244 0
-7011 -7241 7245 0
7011 -7245 0
7241 -7245 0
7244 7245 -7246 0
-7244 7246 0
-7245 7246 0
-34 -7219 7247 0
34 -7247 0
7219 -7247 0
-7017 -7247 -7248 0
7017 7247 -7248 0
7017 -7247 7248 0
-7017 7247 7248 0
-7248 -7246 -7249 0
7248 7246 -7249 0
7248 -7246 7249 0
-7248 7246 7249 0
-7248 -7246 7250 0
7248 -7250 0
7246 -7250 0
-7017 -7247 7251 0
7017 -7251 0
7247 -7251 0
7250 7251 -7252 0
-7250 7252 0
-7251 7252 0
-42 -7219 7253 0
42 -7253 0
7219 -7253 0
-7023 -7253 -7254 0
7023 7253 -7254 0
7023 -7253 7254 0
-7023 7253 7254 0
-7254 -7252 -7255 0
7254 7252 -7255 0
7254 -7252 7255 0
-7254 7252 7255 0
-7254 -7252 7256 0
7254 -7256 0
7252 -7256 0
-7023 -7253 7257 0
7023 -7257 0
7253 -7257 0
7256 7257 -7258 0
-7256 7258 0
-7257 7258 0
-50 -7219 7259 0
50 -7259 0
7219 -7259 0
-7029 -7259 -7260 0
7029 7259 -7260 0
7029 -7259 7260 0
-7029 7259 7260 0
-7260 -7258 -7261 0
7260 7258 -7261 0
7260 -7258 7261 0
-7260 7258 7261 0
-7260 -7258 7262 0
7260 -7262 0
7258 -7262 0
-7029 -7259 7263 0
7029 -7263 0
7259 -7263 0
7262 7263 -7264 0
-7262 7264 0
-7263 7264 0
-58 -7219 7265 0
58 -7265 0
7219 -7265 0
-7035 -7265 -7266 0
7035 7265 -7266 0
7035 -7265 7266 0
-7035 7265 7266 0
-7266 -7264 -7267 0
7266 7264 -7267 0
7266 -7264 7267 0
-7266 7264 7267 0
-7266 -7264 7268 0
7266 -7268 0
7264 -7268 0
-7035 -7265 7269 0
7035 -7269 0
7265 -7269 0
7268 7269 -7270 0
-7268 7270 0
-7269 7270 0
-66 -7219 7271 0
66 -7271 0
7219 -7271 0
-7041 -7271 -7272 0
7041 7271 -7272 0
7041 -7271 7272 0
-7041 7271 7272 0
-7272 -7270 -7273 0
7272 7270 -7273 0
7272 -7270 7273 0
-7272 7270 7273 0
-7272 -7270 7274 0
7272 -7274 0
7270 -7274 0
-7041 -7271 7275 0
7041 -7275 0
7271 -7275 0
7274 7275 -7276 0
-7274 7276 0
-7275 7276 0
-74 -7219 7277 0
74 -7277 0
7219 -7277 0
-7047 -7277 -7278 0
7047 7277 -7278 0
7047 -7277 7278 0
-7047 7277 7278 0
-7278 -7276 -7279 0
7278 7276 -7279 0
7278 -7276 7279 0
-7278 7276 7279 0
-7278 -7276 7280 0
7278 -7280 0
7276 -7280 0
-7047 -7277 7281 0
7047 -7281 0
7277 -7281 0
7280 7281 -7282 0
-7280 7282 0
-7281 7282 0
-82 -7219 7283 0
82 -7283 0
7219 -7283 0
-7053 -7283 -7284 0
7053 7283 -7284 0
7053 -7283 7284 0
-7053 7283 7284 0
-7284 -7282 -7285 0
7284 7282 -7285 0
7284 -7282 7285 0
-7284 7282 7285 0
-7284 -7282 7286 0
7284 -7286 0
7282 -7286 0
-7053 -7283 7287 0
7053 -7287 0
7283 -7287 0
7286 7287 -7288 0
-7286 7288 0
-7287 7288 0
-90 -7219 7289 0
90 -7289 0
7219 -7289 0
-7059 -7289 -7290 0
7059 7289 -7290 0
7059 -7289 7290 0
-7059 7289 7290 0
-7290 -7288 -7291 0
7290 7288 -7291 0
7290 -7288 7291 0
-7290 7288 7291 0
-7290 -7288 7292 0
7290 -7292 0
7288 -7292 0
-7059 -7289 7293 0
7059 -7293 0
7289 -7293 0
7292 7293 -7294 0
-7292 7294 0
-7293 7294 0
-98 -7219 7295 0
98 -7295 0
7219 -7295 0
-7065 -7295 -7296 0
7065 7295 -7296 0
7065 -7295 7296 0
-7065 7295 7296 0
-7296 -7294 -7297 0
7296 7294 -7297 0
7296 -7294 7297 0
-7296 7294 7297 0
-7296 -7294 7298 0
7296 -7298 0
7294 -7298 0
-7065 -7295 7299 0
7065 -7299 0
7295 -7299 0
7298 7299 -7300 0
-7298 7300 0
-7299 7300 0
-106 -7219 7301 0
106 -7301 0
7219 -7301 0
-7071 -7301 -7302 0
7071 7301 -7302 0
7071 -7301 7302 0
-7071 7301 7302 0
-7302 -7300 -7303 0
7302 7300 -7303 0
7302 -7300 7303 0
-7302 7300 7303 0
-7302 -7300 7304 0
7302 -7304 0
7300 -7304 0
-7071 -7301 7305 0
7071 -7305 0
7301 -7305 0
7304 7305 -7306 0
-7304 7306 0
-7305 7306 0
-114 -7219 7307 0
114 -7307 0
7219 -7307 0
-7077 -7307 -7308 0
7077 7307 -7308 0
7077 -7307 7308 0
-7077 7307 7308 0
-7308 -7306 -7309 0
7308 7306 -7309 0
7308 -7306 7309 0
-7308 7306 7309 0
-7308 -7306 7310 0
7308 -7310 0
7306 -7310 0
-7077 -7307 7311 0
7077 -7311 0
7307 -7311 0
7310 7311 -7312 0
-7310 7312 0
-7311 7312 0
-122 -7219 7313 0
122 -7313 0
7219 -7313 0
-7083 -7313 -7314 0
7083 7313 -7314 0
7083 -7313 7314 0
-7083 7313 7314 0
-7314 -7312 -7315 0
7314 7312 -7315 0
7314 -7312 7315 0
-7314 7312 7315 0
-7314 -7312 7316 0
7314 -7316 0
7312 -7316 0
-7083 -7313 7317 0
7083 -7317 0
7313 -7317 0
7316 7317 -7318 0
-7316 7318 0
-7317 7318 0
-130 -7219 7319 0
130 -7319 0
7219 -7319 0
-7089 -7319 -7320 0
7089 7319 -7320 0
7089 -7319 7320 0
-7089 7319 7320 0
-7320 -7318 -7321 0
7320 7318 -7321 0
7320 -7318 7321 0
-7320 7318 7321 0
-7320 -7318 7322 0
7320 -7322 0
7318 -7322 0
-7089 -7319 7323 0
7089 -7323 0
7319 -7323 0
7322 7323 -7324 0
-7322 7324 0
-7323 7324 0
-138 -7219 7325 0
138 -7325 0
7219 -7325 0
-7095 -7325 -7326 0
7095 7325 -7326 0
7095 -7325 7326 0
-7095 7325 7326 0
-7326 -7324 -7327 0
7326 7324 -7327 0
7326 -7324 7327 0
-7326 7324 7327 0
-7326 -7324 7328 0
7326 -7328 0
7324 -7328 0
-7095 -7325 7329 0
7095 -7329 0
7325 -7329 0
7328 7329 -7330 0
-7328 7330 0
-7329 7330 0
-146 -7219 7331 0
146 -7331 0
7219 -7331 0
-7101 -7331 -7332 0
7101 7331 -7332 0
7101 -7331 7332 0
-7101 7331 7332 0
-7332 -7330 -7333 0
7332 7330 -7333 0
7332 -7330 7333 0
-7332 7330 7333 0
-7332 -7330 7334 0
7332 -7334 0
7330 -7334 0
-7101 -7331 7335 0
7101 -7335 0
7331 -7335 0
7334 7335 -7336 0
-7334 7336 0
-7335 7336 0
-154 -7219 7337 0
154 -7337 0
7219 -7337 0
-7107 -7337 -7338 0
7107 7337 -7338 0
7107 -7337 7338 0
-7107 7337 7338 0
-7338 -7336 -7339 0
7338 7336 -7339 0
7338 -7336 7339 0
-7338 7336 7339 0
-7338 -7336 7340 0
7338 -7340 0
7336 -7340 0
-7107 -7337 7341 0
7107 -7341 0
7337 -7341 0
7340 7341 -7342 0
-7340 7342 0
-7341 7342 0
-162 -7219 7343 0
162 -7343 0
7219 -7343 0
-7113 -7343 -7344 0
7113 7343 -7344 0
7113 -7343 7344 0
-7113 7343 7344 0
-7344 -7342 -7345 0
7344 7342 -7345 0
7344 -7342 7345 0
-7344 7342 7345 0
-7344 -7342 7346 0
7344 -7346 0
7342 -7346 0
-7113 -7343 7347 0
7113 -7347 0
7343 -7347 0
7346 7347 -7348 0
-7346 7348 0
-7347 7348 0
-170 -7219 7349 0
170 -7349 0
7219 -7349 0
-7119 -7349 -7350 0
7119 7349 -7350 0
7119 -7349 7350 0
-7119 7349 7350 0
-7350 -7348 -7351 0
7350 7348 -7351 0
7350 -7348 7351 0
-7350 7348 7351 0
-7350 -7348 7352 0
7350 -7352 0
7348 -7352 0
-7119 -7349 7353 0
7119 -7353 0
7349 -7353 0
7352 7353 -7354 0
-7352 7354 0
-7353 7354 0
-178 -7219 7355 0
178 -7355 0
7219 -7355 0
-7125 -7355 -7356 0
7125 7355 -7356 0
7125 -7355 7356 0
-7125 7355 7356 0
-7356 -7354 -7357 0
7356 7354 -7357 0
7356 -7354 7357 0
-7356 7354 7357 0
-7356 -7354 7358 0
7356 -7358 0
7354 -7358 0
-7125 -7355 7359 0
7125 -7359 0
7355 -7359 0
7358 7359 -7360 0
-7358 7360 0
-7359 7360 0
-186 -7219 7361 0
186 -7361 0
7219 -7361 0
-7131 -7361 -7362 0
7131 7361 -7362 0
7131 -7361 7362 0
-7131 7361 7362 0
-7362 -7360 -7363 0
7362 7360 -7363 0
7362 -7360 7363 0
-7362 7360 7363 0
-7362 -7360 7364 0
7362 -7364 0
7360 -7364 0
-7131 -7361 7365 0
7131 -7365 0
7361 -7365 0
7364 7365 -7366 0
-7364 7366 0
-7365 7366 0
-194 -7219 7367 0
194 -7367 0
7219 -7367 0
-7137 -7367 -7368 0
7137 7367 -7368 0
7137 -7367 7368 0
-7137 7367 7368 0
-7368 -7366 -7369 0
7368 7366 -7369 0
7368 -7366 7369 0
-7368 7366 7369 0
-7368 -7366 7370 0
7368 -7370 0
7366 -7370 0
-7137 -7367 7371 0
7137 -7371 0
7367 -7371 0
7370 7371 -7372 0
-7370 7372 0
-7371 7372 0
-202 -7219 7373 0
202 -7373 0
7219 -7373 0
-7143 -7373 -7374 0
7143 7373 -7374 0
7143 -7373 7374 0
-7143 7373 7374 0
-7374 -7372 -7375 0
7374 7372 -7375 0
7374 -7372 7375 0
-7374 7372 7375 0
-7374 -7372 7376 0
7374 -7376 0
7372 -7376 0
-7143 -7373 7377 0
7143 -7377 0
7373 -7377 0
7376 7377 -7378 0
-7376 7378 0
-7377 7378 0
-210 -7219 7379 0
210 -7379 0
7219 -7379 0
-7149 -7379 -7380 0
7149 7379 -7380 0
7149 -7379 7380 0
-7149 7379 7380 0
-7380 -7378 -7381 0
7380 7378 -7381 0
7380 -7378 7381 0
-7380 7378 7381 0
-7380 -7378 7382 0
7380 -7382 0
7378 -7382 0
-7149 -7379 7383 0
7149 -7383 0
7379 -7383 0
7382 7383 -7384 0
-7382 7384 0
-7383 7384 0
-218 -7219 7385 0
218 -7385 0
7219 -7385 0
-7155 -7385 -7386 0
7155 7385 -7386 0
7155 -7385 7386 0
-7155 7385 7386 0
-7386 -7384 -7387 0
7386 7384 -7387 0
7386 -7384 7387 0
-7386 7384 7387 0
-7386 -7384 7388 0
7386 -7388 0
7384 -7388 0
-7155 -7385 7389 0
7155 -7389 0
7385 -7389 0
7388 7389 -7390 0
-7388 7390 0
-7389 7390 0
-226 -7219 7391 0
226 -7391 0
7219 -7391 0
-7161 -7391 -7392 0
7161 7391 -7392 0
7161 -7391 7392 0
-7161 7391 7392 0
-7392 -7390 -7393 0
7392 7390 -7393 0
7392 -7390 7393 0
-7392 7390 7393 0
-7392 -7390 7394 0
7392 -7394 0
7390 -7394 0
-7161 -7391 7395 0
7161 -7395 0
7391 -7395 0
7394 7395 -7396 0
-7394 7396 0
-7395 7396 0
-234 -7219 7397 0
234 -7397 0
7219 -7397 0
-7167 -7397 -7398 0
7167 7397 -7398 0
7167 -7397 7398 0
-7167 7397 7398 0
-7398 -7396 -7399 0
7398 7396 -7399 0
7398 -7396 7399 0
-7398 7396 7399 0
-7398 -7396 7400 0
7398 -7400 0
7396 -7400 0
-7167 -7397 7401 0
7167 -7401 0
7397 -7401 0
7400 7401 -7402 0
-7400 7402 0
-7401 7402 0
-242 -7219 7403 0
242 -7403 0
7219 -7403 0
-7173 -7403 -7404 0
7173 7403 -7404 0
7173 -7403 7404 0
-7173 7403 7404 0
-7404 -7402 -7405 0
7404 7402 -7405 0
7404 -7402 7405 0
-7404 7402 7405 0
-7404 -7402 7406 0
7404 -7406 0
7402 -7406 0
-7173 -7403 7407 0
7173 -7407 0
7403 -7407 0
7406 7407 -7408 0
-7406 7408 0
-7407 7408 0
-250 -7219 7409 0
250 -7409 0
7219 -7409 0
-7179 -7409 -7410 0
7179 7409 -7410 0
7179 -7409 7410 0
-7179 7409 7410 0
-7410 -7408 -7411 0
7410 7408 -7411 0
7410 -7408 7411 0
-7410 7408 7411 0
-7410 -7408 7412 0
7410 -7412 0
7408 -7412 0
-7179 -7409 7413 0
7179 -7413 0
7409 -7413 0
7412 7413 -7414 0
-7412 7414 0
-7413 7414 0
-258 -7219 7415 0
258 -7415 0
7219 -7415 0
-7185 -7415 -7416 0
7185 7415 -7416 0
7185 -7415 7416 0
-7185 7415 7416 0
-7416 -7414 -7417 0
7416 7414 -7417 0
7416 -7414 7417 0
-7416 7414 7417 0
-7416 -7414 7418 0
7416 -7418 0
7414 -7418 0
-7185 -7415 7419 0
7185 -7419 0
7415 -7419 0
7418 7419 -7420 0
-7418 7420 0
-7419 7420 0
-266 -7219 7421 0
266 -7421 0
7219 -7421 0
-7191 -7421 -7422 0
7191 7421 -7422 0
7191 -7421 7422 0
-7191 7421 7422 0
-7422 -7420 -7423 0
7422 7420 -7423 0
7422 -7420 7423 0
-7422 7420 7423 0
-7422 -7420 7424 0
7422 -7424 0
7420 -7424 0
-7191 -7421 7425 0
7191 -7425 0
7421 -7425 0
7424 7425 -7426 0
-7424 7426 0
-7425 7426 0
-274 -7219 7427 0
274 -7427 0
7219 -7427 0
-7197 -7427 -7428 0
7197 7427 -7428 0
7197 -7427 7428 0
-7197 7427 7428 0
-7428 -7426 -7429 0
7428 7426 -7429 0
7428 -7426 7429 0
-7428 7426 7429 0
-7428 -7426 7430 0
7428 -7430 0
7426 -7430 0
-7197 -7427 7431 0
7197 -7431 0
7427 -7431 0
7430 7431 -7432 0
-7430 7432 0
-7431 7432 0
-282 -7219 7433 0
282 -7433 0
7219 -7433 0
-7203 -7433 -7434 0
7203 7433 -7434 0
7203 -7433 7434 0
-7203 7433 7434 0
-7434 -7432 -7435 0
7434 7432 -7435 0
7434 -7432 7435 0
-7434 7432 7435 0
-7434 -7432 7436 0
7434 -7436 0
7432 -7436 0
-7203 -7433 7437 0
7203 -7437 0
7433 -7437 0
7436 7437 -7438 0
-7436 7438 0
-7437 7438 0
-290 -7219 7439 0
290 -7439 0
7219 -7439 0
-7209 -7439 -7440 0
7209 7439 -7440 0
7209 -7439 7440 0
-7209 7439 7440 0
-7440 -7438 -7441 0
7440 7438 -7441 0
7440 -7438 7441 0
-7440 7438 7441 0
-7440 -7438 7442 0
7440 -7442 0
7438 -7442 0
-7209 -7439 7443 0
7209 -7443 0
7439 -7443 0
7442 7443 -7444 0
-7442 7444 0
-7443 7444 0
-298 -7219 7445 0
298 -7445 0
7219 -7445 0
-7215 -7445 -7446 0
7215 7445 -7446 0
7215 -7445 7446 0
-7215 7445 7446 0
-7446 -7444 -7447 0
7446 7444 -7447 0
7446 -7444 7447 0
-7446 7444 7447 0
-7446 -7444 7448 0
7446 -7448 0
7444 -7448 0
-7215 -7445 7449 0
7215 -7449 0
7445 -7449 0
7448 7449 -7450 0
-7448 7450 0
-7449 7450 0
-306 -7219 7451 0
306 -7451 0
7219 -7451 0
-7218 -7451 -7452 0
7218 7451 -7452 0
7218 -7451 7452 0
-7218 7451 7452 0
-7452 -7450 -7453 0
7452 7450 -7453 0
7452 -7450 7453 0
-7452 7450 7453 0
-7452 -7450 7454 0
7452 -7454 0
7450 -7454 0
-7218 -7451 7455 0
7218 -7455 0
7451 -7455 0
7454 7455 -7456 0
-7454 7456 0
-7455 7456 0
-1 -7457 7458 0
1 -7458 0
7457 -7458 0
-7225 -7458 -7459 0
7225 7458 -7459 0
7225 -7458 7459 0
-7225 7458 7459 0
-7225 -7458 7460 0
7225 -7460 0
7458 -7460 0
-4 -7457 7461 0
4 -7461 0
7457 -7461 0
-7231 -7461 -7462 0
7231 7461 -7462 0
7231 -7461 7462 0
-7231 7461 7462 0
-7462 -7460 -7463 0
7462 7460 -7463 0
7462 -7460 7463 0
-7462 7460 7463 0
-7462 -7460 7464 0
7462 -7464 0
7460 -7464 0
-7231 -7461 7465 0
7231 -7465 0
7461 -7465 0
7464 7465 -7466 0
-7464 7466 0
-7465 7466 0
-10 -7457 7467 0
10 -7467 0
7457 -7467 0
-7237 -7467 -7468 0
7237 7467 -7468 0
7237 -7467 7468 0
-7237 7467 7468 0
-7468 -7466 -7469 0
7468 7466 -7469 0
7468 -7466 7469 0
-7468 7466 7469 0
-7468 -7466 7470 0
7468 -7470 0
7466 -7470 0
-7237 -7467 7471 0
7237 -7471 0
7467 -7471 0
7470 7471 -7472 0
-7470 7472 0
-7471 7472 0
-18 -7457 7473 0
18 -7473 0
7457 -7473 0
-7243 -7473 -7474 0
7243 7473 -7474 0
7243 -7473 7474 0
-7243 7473 7474 0
-7474 -7472 -7475 0
7474 7472 -7475 0
7474 -7472 7475 0
-7474 7472 7475 0
-7474 -7472 7476 0
7474 -7476 0
7472 -7476 0
-7243 -7473 7477 0
7243 -7477 0
7473 -7477 0
7476 7477 -7478 0
-7476 7478 0
-7477 7478 0
-26 -7457 7479 0
26 -7479 0
7457 -7479 0
-7249 -7479 -7480 0
7249 7479 -7480 0
7249 -7479 7480 0
-7249 7479 7480 0
-7480 -7478 -7481 0
7480 7478 -7481 0
7480 -7478 7481 0
-7480 7478 7481 0
-7480 -7478 7482 0
7480 -7482 0
7478 -7482 0
-7249 -7479 7483 0
7249 -7483 0
7479 -7483 0
7482 7483 -7484 0
-7482 7484 0
-7483 7484 0
-34 -7457 7485 0
34 -7485 0
7457 -7485 0
-7255 -7485 -7486 0
7255 7485 -7486 0
7255 -7485 7486 0
-7255 7485 7486 0
-7486 -7484 -7487 0
7486 7484 -7487 0
7486 -7484 7487 0
-7486 7484 7487 0
-7486 -7484 7488 0
7486 -7488 0
7484 -7488 0
-7255 -7485 7489 0
7255 -7489 0
7485 -7489 0
7488 7489 -7490 0
-7488 7490 0
-7489 7490 0
-42 -7457 7491 0
42 -7491 0
7457 -7491 0
-7261 -7491 -7492 0
7261 7491 -7492 0
7261 -7491 7492 0
-7261 7491 7492 0
-7492 -7490 -7493 0
7492 7490 -7493 0
7492 -7490 7493 0
-7492 7490 7493 0
-7492 -7490 7494 0
7492 -7494 0
7490 -7494 0
-7261 -7491 7495 0
7261 -7495 0
7491 -7495 0
7494 7495 -7496 0
-7494 7496 0
-7495 7496 0
-50 -7457 7497 0
50 -7497 0
7457 -7497 0
-7267 -7497 -7498 0
7267 7497 -7498 0
7267 -7497 7498 0
-7267 7497 7498 0
-7498 -7496 -7499 0
7498 7496 -7499 0
7498 -7496 7499 0
-7498 7496 7499 0
-7498 -7496 7500 0
7498 -7500 0
7496 -7500 0
-7267 -7497 7501 0
7267 -7501 0
7497 -7501 0
7500 7501 -7502 0
-7500 7502 0
-7501 7502 0
-58 -7457 7503 0
58 -7503 0
7457 -7503 0
-7273 -7503 -7504 0
7273 7503 -7504 0
7273 -7503 7504 0
-7273 7503 7504 0
-7504 -7502 -7505 0
7504 7502 -7505 0
7504 -7502 7505 0
-7504 7502 7505 0
-7504 -7502 7506 0
7504 -7506 0
7502 -7506 0
-7273 -7503 7507 0
7273 -7507 0
7503 -7507 0
7506 7507 -7508 0
-7506 7508 0
-7507 7508 0
-66 -7457 7509 0
66 -7509 0
7457 -7509 0
-7279 -7509 -7510 0
7279 7509 -7510 0
7279 -7509 7510 0
-7279 7509 7510 0
-7510 -7508 -7511 0
7510 7508 -7511 0
7510 -7508 7511 0
-7510 7508 7511 0
-7510 -7508 7512 0
7510 -7512 0
7508 -7512 0
-7279 -7509 7513 0
7279 -7513 0
7509 -7513 0
7512 7513 -7514 0
-7512 7514 0
-7513 7514 0
-74 -7457 7515 0
74 -7515 0
7457 -7515 0
-7285 -7515 -7516 0
7285 7515 -7516 0
7285 -7515 7516 0
-7285 7515 7516 0
-7516 -7514 -7517 0
7516 7514 -7517 0
7516 -7514 7517 0
-7516 7514 7517 0
-7516 -7514 7518 0
7516 -7518 0
7514 -7518 0
-7285 -7515 7519 0
7285 -7519 0
7515 -7519 0
7518 7519 -7520 0
-7518 7520 0
-7519 7520 0
-82 -7457 7521 0
82 -7521 0
7457 -7521 0
-7291 -7521 -7522 0
7291 7521 -7522 0
7291 -7521 7522 0
-7291 7521 7522 0
-7522 -7520 -7523 0
7522 7520 -7523 0
7522 -7520 7523 0
-7522 7520 7523 0
-7522 -7520 7524 0
7522 -7524 0
7520 -7524 0
-7291 -7521 7525 0
7291 -7525 0
7521 -7525 0
7524 7525 -7526 0
-7524 7526 0
-7525 7526 0
-90 -7457 7527 0
90 -7527 0
7457 -7527 0
-7297 -7527 -7528 0
7297 7527 -7528 0
7297 -7527 7528 0
-7297 7527 7528 0
-7528 -7526 -7529 0
7528 7526 -7529 0
7528 -7526 7529 0
-7528 7526 7529 0
-7528 -7526 7530 0
7528 -7530 0
7526 -7530 0
-7297 -7527 7531 0
7297 -7531 0
7527 -7531 0
7530 7531 -7532 0
-7530 7532 0
-7531 7532 0
-98 -7457 7533 0
98 -7533 0
7457 -7533 0
-7303 -7533 -7534 0
7303 7533 -7534 0
7303 -7533 7534 0
-7303 7533 7534 0
-7534 -7532 -7535 0
7534 7532 -7535 0
7534 -7532 7535 0
-7534 7532 7535 0
-7534 -7532 7536 0
7534 -7536 0
7532 -7536 0
-7303 -7533 7537 0
7303 -7537 0
7533 -7537 0
7536 7537 -7538 0
-7536 7538 0
-7537 7538 0
-106 -7457 7539 0
106 -7539 0
7457 -7539 0
-7309 -7539 -7540 0
7309 7539 -7540 0
7309 -7539 7540 0
-7309 7539 7540 0
-7540 -7538 -7541 0
7540 7538 -7541 0
7540 -7538 7541 0
-7540 7538 7541 0
-7540 -7538 7542 0
7540 -7542 0
7538 -7542 0
-7309 -7539 7543 0
7309 -7543 0
7539 -7543 0
7542 7543 -7544 0
-7542 7544 0
-7543 7544 0
-114 -7457 7545 0
114 -7545 0
7457 -7545 0
-7315 -7545 -7546 0
7315 7545 -7546 0
7315 -7545 7546 0
-7315 7545 7546 0
-7546 -7544 -7547 0
7546 7544 -7547 0
7546 -7544 7547 0
-7546 7544 7547 0
-7546 -7544 7548 0
7546 -7548 0
7544 -7548 0
-7315 -7545 7549 0
7315 -7549 0
7545 -7549 0
7548 7549 -7550 0
-7548 7550 0
-7549 7550 0
-122 -7457 7551 0
122 -7551 0
7457 -7551 0
-7321 -7551 -7552 0
7321 7551 -7552 0
7321 -7551 7552 0
-7321 7551 7552 0
-7552 -7550 -7553 0
7552 7550 -7553 0
7552 -7550 7553 0
-7552 7550 7553 0
-7552 -7550 7554 0
7552 -7554 0
7550 -7554 0
-7321 -7551 7555 0
7321 -7555 0
7551 -7555 0
7554 7555 -7556 0
-7554 7556 0
-7555 7556 0
-130 -7457 7557 0
130 -7557 0
7457 -7557 0
-7327 -7557 -7558 0
7327 7557 -7558 0
7327 -7557 7558 0
-7327 7557 7558 0
-7558 -7556 -7559 0
7558 7556 -7559 0
7558 -7556 7559 0
-7558 7556 7559 0
-7558 -7556 7560 0
7558 -7560 0
7556 -7560 0
-7327 -7557 7561 0
7327 -7561 0
7557 -7561 0
7560 7561 -7562 0
-7560 7562 0
-7561 7562 0
-138 -7457 7563 0
138 -7563 0
7457 -7563 0
-7333 -7563 -7564 0
7333 7563 -7564 0
7333 -7563 7564 0
-7333 7563 7564 0
-7564 -7562 -7565 0
7564 7562 -7565 0
7564 -7562 7565 0
-7564 7562 7565 0
-7564 -7562 7566 0
7564 -7566 0
7562 -7566 0
-7333 -7563 7567 0
7333 -7567 0
7563 -7567 0
7566 7567 -7568 0
-7566 7568 0
-7567 7568 0
-146 -7457 7569 0
146 -7569 0
7457 -7569 0
-7339 -7569 -7570 0
7339 7569 -7570 0
7339 -7569 7570 0
-7339 7569 7570 0
-7570 -7568 -7571 0
7570 7568 -7571 0
7570 -7568 7571 0
-7570 7568 7571 0
-7570 -7568 7572 0
7570 -7572 0
7568 -7572 0
-7339 -7569 7573 0
7339 -7573 0
7569 -7573 0
7572 7573 -7574 0
-7572 7574 0
-7573 7574 0
-154 -7457 7575 0
154 -7575 0
7457 -7575 0
-7345 -7575 -7576 0
7345 7575 -7576 0
7345 -7575 7576 0
-7345 7575 7576 0
-7576 -7574 -7577 0
7576 7574 -7577 0
7576 -7574 7577 0
-7576 7574 7577 0
-7576 -7574 7578 0
7576 -7578 0
7574 -7578 0
-7345 -7575 7579 0
7345 -7579 0
7575 -7579 0
7578 7579 -7580 0
-7578 7580 0
-7579 7580 0
-162 -7457 7581 0
162 -7581 0
7457 -7581 0
-7351 -7581 -7582 0
7351 7581 -7582 0
7351 -7581 7582 0
-7351 7581 7582 0
-7582 -7580 -7583 0
7582 7580 -7583 0
7582 -7580 7583 0
-7582 7580 7583 0
-7582 -7580 7584 0
7582 -7584 0
7580 -7584 0
-7351 -7581 7585 0
7351 -7585 0
7581 -7585 0
7584 7585 -7586 0
-7584 7586 0
-7585 7586 0
-170 -7457 7587 0
170 -7587 0
7457 -7587 0
-7357 -7587 -7588 0
7357 7587 -7588 0
7357 -7587 7588 0
-7357 7587 7588 0
-7588 -7586 -7589 0
7588 7586 -7589 0
7588 -7586 7589 0
-7588 7586 7589 0
-7588 -7586 7590 0
7588 -7590 0
7586 -7590 0
-7357 -7587 7591 0
7357 -7591 0
7587 -7591 0
7590 7591 -7592 0
-7590 7592 0
-7591 7592 0
-178 -7457 7593 0
178 -7593 0
7457 -7593 0
-7363 -7593 -7594 0
7363 7593 -7594 0
7363 -7593 7594 0
-7363 7593 7594 0
-7594 -7592 -7595 0
7594 7592 -7595 0
7594 -7592 7595 0
-7594 7592 7595 0
-7594 -7592 7596 0
7594 -7596 0
7592 -7596 0
-7363 -7593 7597 0
7363 -7597 0
7593 -7597 0
7596 7597 -7598 0
-7596 7598 0
-7597 7598 0
-186 -7457 7599 0
186 -7599 0
7457 -7599 0
-7369 -7599 -7600 0
7369 7599 -7600 0
7369 -7599 7600 0
-7369 7599 7600 0
-7600 -7598 -7601 0
7600 7598 -7601 0
7600 -7598 7601 0
-7600 7598 7601 0
-7600 -7598 7602 0
7600 -7602 0
7598 -7602 0
-7369 -7599 7603 0
7369 -7603 0
7599 -7603 0
7602 7603 -7604 0
-7602 7604 0
-7603 7604 0
-194 -7457 7605 0
194 -7605 0
7457 -7605 0
-7375 -7605 -7606 0
7375 7605 -7606 0
7375 -7605 7606 0
-7375 7605 7606 0
-7606 -7604 -7607 0
7606 7604 -7607 0
7606 -7604 7607 0
-7606 7604 7607 0
-7606 -7604 7608 0
7606 -7608 0
7604 -7608 0
-7375 -7605 7609 0
7375 -7609 0
7605 -7609 0
7608 7609 -7610 0
-7608 7610 0
-7609 7610 0
-202 -7457 7611 0
202 -7611 0
7457 -7611 0
-7381 -7611 -7612 0
7381 7611 -7612 0
7381 -7611 7612 0
-7381 7611 7612 0
-7612 -7610 -7613 0
7612 7610 -7613 0
7612 -7610 7613 0
-7612 7610 7613 0
-7612 -7610 7614 0
7612 -7614 0
7610 -7614 0
-7381 -7611 7615 0
7381 -7615 0
7611 -7615 0
7614 7615 -7616 0
-7614 7616 0
-7615 7616 0
-210 -7457 7617 0
210 -7617 0
7457 -7617 0
-7387 -7617 -7618 0
7387 7617 -7618 0
7387 -7617 7618 0
-7387 7617 7618 0
-7618 -7616 -7619 0
7618 7616 -7619 0
7618 -7616 7619 0
-7618 7616 7619 0
-7618 -7616 7620 0
7618 -7620 0
7616 -7620 0
-7387 -7617 7621 0
7387 -7621 0
7617 -7621 0
7620 7621 -7622 0
-7620 7622 0
-7621 7622 0
-218 -7457 7623 0
218 -7623 0
7457 -7623 0
-7393 -7623 -7624 0
7393 7623 -7624 0
7393 -7623 7624 0
-7393 7623 7624 0
-7624 -7622 -7625 0
7624 7622 -7625 0
7624 -7622 7625 0
-7624 7622 7625 0
-7624 -7622 7626 0
7624 -7626 0
7622 -7626 0
-7393 -7623 7627 0
7393 -7627 0
7623 -7627 0
7626 7627 -7628 0
-7626 7628 0
-7627 7628 0
-226 -7457 7629 0
226 -7629 0
7457 -7629 0
-7399 -7629 -7630 0
7399 7629 -7630 0
7399 -7629 7630 0
-7399 7629 7630 0
-7630 -7628 -7631 0
7630 7628 -7631 0
7630 -7628 7631 0
-7630 7628 7631 0
-7630 -7628 7632 0
7630 -7632 0
7628 -7632 0
-7399 -7629 7633 0
7399 -7633 0
7629 -7633 0
7632 7633 -7634 0
-7632 7634 0
-7633 7634 0
-234 -7457 7635 0
234 -7635 0
7457 -7635 0
-7405 -7635 -7636 0
7405 7635 -7636 0
7405 -7635 7636 0
-7405 7635 7636 0
-7636 -7634 -7637 0
7636 7634 -7637 0
7636 -7634 7637 0
-7636 7634 7637 0
-7636 -7634 7638 0
7636 -7638 0
7634 -7638 0
-7405 -7635 7639 0
7405 -7639 0
7635 -7639 0
7638 7639 -7640 0
-7638 7640 0
-7639 7640 0
-242 -7457 7641 0
242 -7641 0
7457 -7641 0
-7411 -7641 -7642 0
7411 7641 -7642 0
7411 -7641 7642 0
-7411 7641 7642 0
-7642 -7640 -7643 0
7642 7640 -7643 0
7642 -7640 7643 0
-7642 7640 7643 0
-7642 -7640 7644 0
7642 -7644 0
7640 -7644 0
-7411 -7641 7645 0
7411 -7645 0
7641 -7645 0
7644 7645 -7646 0
-7644 7646 0
-7645 7646 0
-250 -7457 7647 0
250 -7647 0
7457 -7647 0
-7417 -7647 -7648 0
7417 7647 -7648 0
7417 -7647 7648 0
-7417 7647 7648 0
-7648 -7646 -7649 0
7648 7646 -7649 0
7648 -7646 7649 0
-7648 7646 7649 0
-7648 -7646 7650 0
7648 -7650 0
7646 -7650 0
-7417 -7647 7651 0
7417 -7651 0
7647 -7651 0
7650 7651 -7652 0
-7650 7652 0
-7651 7652 0
-258 -7457 7653 0
258 -7653 0
7457 -7653 0
-7423 -7653 -7654 0
7423 7653 -7654 0
7423 -7653 7654 0
-7423 7653 7654 0
-7654 -7652 -7655 0
7654 7652 -7655 0
7654 -7652 7655 0
-7654 7652 7655 0
-7654 -7652 7656 0
7654 -7656 0
7652 -7656 0
-7423 -7653 7657 0
7423 -7657 0
7653 -7657 0
7656 7657 -7658 0
-7656 7658 0
-7657 7658 0
-266 -7457 7659 0
266 -7659 0
7457 -7659 0
-7429 -7659 -7660 0
7429 7659 -7660 0
7429 -7659 7660 0
-7429 7659 7660 0
-7660 -7658 -7661 0
7660 7658 -7661 0
7660 -7658 7661 0
-7660 7658 7661 0
-7660 -7658 7662 0
7660 -7662 0
7658 -7662 0
-7429 -7659 7663 0
7429 -7663 0
7659 -7663 0
7662 7663 -7664 0
-7662 7664 0
-7663 7664 0
-274 -7457 7665 0
274 -7665 0
7457 -7665 0
-7435 -7665 -7666 0
7435 7665 -7666 0
7435 -7665 7666 0
-7435 7665 7666 0
-7666 -7664 -7667 0
7666 7664 -7667 0
7666 -7664 7667 0
-7666 7664 7667 0
-7666 -7664 7668 0
7666 -7668 0
7664 -7668 0
-7435 -7665 7669 0
7435 -7669 0
7665 -7669 0
7668 7669 -7670 0
-7668 7670 0
-7669 7670 0
-282 -7457 7671 0
282 -7671 0
7457 -7671 0
-7441 -7671 -7672 0
7441 7671 -7672 0
7441 -7671 7672 0
-7441 7671 7672 0
-7672 -7670 -7673 0
7672 7670 -7673 0
7672 -7670 7673 0
-7672 7670 7673 0
-7672 -7670 7674 0
7672 -7674 0
7670 -7674 0
-7441 -7671 7675 0
7441 -7675 0
7671 -7675 0
7674 7675 -7676 0
-7674 7676 0
-7675 7676 0
-290 -7457 7677 0
290 -7677 0
7457 -7677 0
-7447 -7677 -7678 0
7447 7677 -7678 0
7447 -7677 7678 0
-7447 7677 7678 0
-7678 -7676 -7679 0
7678 7676 -7679 0
7678 -7676 7679 0
-7678 7676 7679 0
-7678 -7676 7680 0
7678 -7680 0
7676 -7680 0
-7447 -7677 7681 0
7447 -7681 0
7677 -7681 0
7680 7681 -7682 0
-7680 7682 0
-7681 7682 0
-298 -7457 7683 0
298 -7683 0
7457 -7683 0
-7453 -7683 -7684 0
7453 7683 -7684 0
7453 -7683 7684 0
-7453 7683 7684 0
-7684 -7682 -7685 0
7684 7682 -7685 0
7684 -7682 7685 0
-7684 7682 7685 0
-7684 -7682 7686 0
7684 -7686 0
7682 -7686 0
-7453 -7683 7687 0
7453 -7687 0
7683 -7687 0
7686 7687 -7688 0
-7686 7688 0
-7687 7688 0
-306 -7457 7689 0
306 -7689 0
7457 -7689 0
-7456 -7689 -7690 0
7456 7689 -7690 0
7456 -7689 7690 0
-7456 7689 7690 0
-7690 -7688 -7691 0
7690 7688 -7691 0
7690 -7688 7691 0
-7690 7688 7691 0
-7690 -7688 7692 0
7690 -7692 0
7688 -7692 0
-7456 -7689 7693 0
7456 -7693 0
7689 -7693 0
7692 7693 -7694 0
-7692 7694 0
-7693 7694 0
-1 -7695 7696 0
1 -7696 0
7695 -7696 0
-7463 -7696 -7697 0
7463 7696 -7697 0
7463 -7696 7697 0
-7463 7696 7697 0
-7463 -7696 7698 0
7463 -7698 0
7696 -7698 0
-4 -7695 7699 0
4 -7699 0
7695 -7699 0
-7469 -7699 -7700 0
7469 7699 -7700 0
7469 -7699 7700 0
-7469 7699 7700 0
-7700 -7698 -7701 0
7700 7698 -7701 0
7700 -7698 7701 0
-7700 7698 7701 0
-7700 -7698 7702 0
7700 -7702 0
7698 -7702 0
-7469 -7699 7703 0
7469 -7703 0
7699 -7703 0
7702 7703 -7704 0
-7702 7704 0
-7703 7704 0
-10 -7695 7705 0
10 -7705 0
7695 -7705 0
-7475 -7705 -7706 0
7475 7705 -7706 0
7475 -7705 7706 0
-7475 7705 7706 0
-7706 -7704 -7707 0
7706 7704 -7707 0
7706 -7704 7707 0
-7706 7704 7707 0
-7706 -7704 7708 0
7706 -7708 0
7704 -7708 0
-7475 -7705 7709 0
7475 -7709 0
7705 -7709 0
7708 7709 -7710 0
-7708 7710 0
-7709 7710 0
-18 -7695 7711 0
18 -7711 0
7695 -7711 0
-7481 -7711 -7712 0
7481 7711 -7712 0
7481 -7711 7712 0
-7481 7711 7712 0
-7712 -7710 -7713 0
7712 7710 -7713 0
7712 -7710 7713 0
-7712 7710 7713 0
-7712 -7710 7714 0
7712 -7714 0
7710 -7714 0
-7481 -7711 7715 0
7481 -7715 0
7711 -7715 0
7714 7715 -7716 0
-7714 7716 0
-7715 7716 0
-26 -7695 7717 0
26 -7717 0
7695 -7717 0
-7487 -7717 -7718 0
7487 7717 -7718 0
7487 -7717 7718 0
-7487 7717 7718 0
-7718 -7716 -7719 0
7718 7716 -7719 0
7718 -7716 7719 0
-7718 7716 7719 0
-7718 -7716 7720 0
7718 -7720 0
7716 -7720 0
-7487 -7717 7721 0
7487 -7721 0
7717 -7721 0
7720 7721 -7722 0
-7720 7722 0
-7721 7722 0
-34 -7695 7723 0
34 -7723 0
7695 -7723 0
-7493 -7723 -7724 0
7493 7723 -7724 0
7493 -7723 7724 0
-7493 7723 7724 0
-7724 -7722 -7725 0
7724 7722 -7725 0
7724 -7722 7725 0
-7724 7722 7725 0
-7724 -7722 7726 0
7724 -7726 0
7722 -7726 0
-7493 -7723 7727 0
7493 -7727 0
7723 -7727 0
7726 7727 -7728 0
-7726 7728 0
-7727 7728 0
-42 -7695 7729 0
42 -7729 0
7695 -7729 0
-7499 -7729 -7730 0
7499 7729 -7730 0
7499 -7729 7730 0
-7499 7729 7730 0
-7730 -7728 -7731 0
7730 7728 -7731 0
7730 -7728 7731 0
-7730 7728 7731 0
-7730 -7728 7732 0
7730 -7732 0
7728 -7732 0
-7499 -7729 7733 0
7499 -7733 0
7729 -7733 0
7732 7733 -7734 0
-7732 7734 0
-7733 7734 0
-50 -7695 7735 0
50 -7735 0
7695 -7735 0
-7505 -7735 -7736 0
7505 7735 -7736 0
7505 -7735 7736 0
-7505 7735 7736 0
-7736 -7734 -7737 0
7736 7734 -7737 0
7736 -7734 7737 0
-7736 7734 7737 0
-7736 -7734 7738 0
7736 -7738 0
7734 -7738 0
-7505 -7735 7739 0
7505 -7739 0
7735 -7739 0
7738 7739 -7740 0
-7738 7740 0
-7739 7740 0
-58 -7695 7741 0
58 -7741 0
7695 -7741 0
-7511 -7741 -7742 0
7511 7741 -7742 0
7511 -7741 7742 0
-7511 7741 7742 0
-7742 -7740 -7743 0
7742 7740 -7743 0
7742 -7740 7743 0
-7742 7740 7743 0
-7742 -7740 7744 0
7742 -7744 0
7740 -7744 0
-7511 -7741 7745 0
7511 -7745 0
7741 -7745 0
7744 7745 -7746 0
-7744 7746 0
-7745 7746 0
-66 -7695 7747 0
66 -7747 0
7695 -7747 0
-7517 -7747 -7748 0
7517 7747 -7748 0
7517 -7747 7748 0
-7517 7747 7748 0
-7748 -7746 -7749 0
7748 7746 -7749 0
7748 -7746 7749 0
-7748 7746 7749 0
-7748 -7746 7750 0
7748 -7750 0
7746 -7750 0
-7517 -7747 7751 0
7517 -7751 0
7747 -7751 0
7750 7751 -7752 0
-7750 7752 0
-7751 7752 0
-74 -7695 7753 0
74 -7753 0
7695 -7753 0
-7523 -7753 -7754 0
7523 7753 -7754 0
7523 -7753 7754 0
-7523 7753 7754 0
-7754 -7752 -7755 0
7754 7752 -7755 0
7754 -7752 7755 0
-7754 7752 7755 0
-7754 -7752 7756 0
7754 -7756 0
7752 -7756 0
-7523 -7753 7757 0
7523 -7757 0
7753 -7757 0
7756 7757 -7758 0
-7756 7758 0
-7757 7758 0
-82 -7695 7759 0
82 -7759 0
7695 -7759 0
-7529 -7759 -7760 0
7529 7759 -7760 0
7529 -7759 7760 0
-7529 7759 7760 0
-7760 -7758 -7761 0
7760 7758 -7761 0
7760 -7758 7761 0
-7760 7758 7761 0
-7760 -7758 7762 0
7760 -7762 0
7758 -7762 0
-7529 -7759 7763 0
7529 -7763 0
7759 -7763 0
7762 7763 -7764 0
-7762 7764 0
-7763 7764 0
-90 -7695 7765 0
90 -7765 0
7695 -7765 0
-7535 -7765 -7766 0
7535 7765 -7766 0
7535 -7765 7766 0
-7535 7765 7766 0
-7766 -7764 -7767 0
7766 7764 -7767 0
7766 -7764 7767 0
-7766 7764 7767 0
-7766 -7764 7768 0
7766 -7768 0
7764 -7768 0
-7535 -7765 7769 0
7535 -7769 0
7765 -7769 0
7768 7769 -7770 0
-7768 7770 0
-7769 7770 0
-98 -7695 7771 0
98 -7771 0
7695 -7771 0
-7541 -7771 -7772 0
7541 7771 -7772 0
7541 -7771 7772 0
-7541 7771 7772 0
-7772 -7770 -7773 0
7772 7770 -7773 0
7772 -7770 7773 0
-7772 7770 7773 0
-7772 -7770 7774 0
7772 -7774 0
7770 -7774 0
-7541 -7771 7775 0
7541 -7775 0
7771 -7775 0
7774 7775 -7776 0
-7774 7776 0
-7775 7776 0
-106 -7695 7777 0
106 -7777 0
7695 -7777 0
-7547 -7777 -7778 0
7547 7777 -7778 0
7547 -7777 7778 0
-7547 7777 7778 0
-7778 -7776 -7779 0
7778 7776 -7779 0
7778 -7776 7779 0
-7778 7776 7779 0
-7778 -7776 7780 0
7778 -7780 0
7776 -7780 0
-7547 -7777 7781 0
7547 -7781 0
7777 -7781 0
7780 7781 -7782 0
-7780 7782 0
-7781 7782 0
-114 -7695 7783 0
114 -7783 0
7695 -7783 0
-7553 -7783 -7784 0
7553 7783 -7784 0
7553 -7783 7784 0
-7553 7783 7784 0
-7784 -7782 -7785 0
7784 7782 -7785 0
7784 -7782 7785 0
-7784 7782 7785 0
-7784 -7782 7786 0
7784 -7786 0
7782 -7786 0
-7553 -7783 7787 0
7553 -7787 0
7783 -7787 0
7786 7787 -7788 0
-7786 7788 0
-7787 7788 0
-122 -7695 7789 0
122 -7789 0
7695 -7789 0
-7559 -7789 -7790 0
7559 7789 -7790 0
7559 -7789 7790 0
-7559 7789 7790 0
-7790 -7788 -7791 0
7790 7788 -7791 0
7790 -7788 7791 0
-7790 7788 7791 0
-7790 -7788 7792 0
7790 -7792 0
7788 -7792 0
-7559 -7789 7793 0
7559 -7793 0
7789 -7793 0
7792 7793 -7794 0
-7792 7794 0
-7793 7794 0
-130 -7695 7795 0
130 -7795 0
7695 -7795 0
-7565 -7795 -7796 0
7565 7795 -7796 0
7565 -7795 7796 0
-7565 7795 7796 0
-7796 -7794 -7797 0
7796 7794 -7797 0
7796 -7794 7797 0
-7796 7794 7797 0
-7796 -7794 7798 0
7796 -7798 0
7794 -7798 0
-7565 -7795 7799 0
7565 -7799 0
7795 -7799 0
7798 7799 -7800 0
-7798 7800 0
-7799 7800 0
-138 -7695 7801 0
138 -7801 0
7695 -7801 0
-7571 -7801 -7802 0
7571 7801 -7802 0
7571 -7801 7802 0
-7571 7801 7802 0
-7802 -7800 -7803 0
7802 7800 -7803 0
7802 -7800 7803 0
-7802 7800 7803 0
-7802 -7800 7804 0
7802 -7804 0
7800 -7804 0
-7571 -7801 7805 0
7571 -7805 0
7801 -7805 0
7804 7805 -7806 0
-7804 7806 0
-7805 7806 0
-146 -7695 7807 0
146 -7807 0
7695 -7807 0
-7577 -7807 -7808 0
7577 7807 -7808 0
7577 -7807 7808 0
-7577 7807 7808 0
-7808 -7806 -7809 0
7808 7806 -7809 0
7808 -7806 7809 0
-7808 7806 7809 0
-7808 -7806 7810 0
7808 -7810 0
7806 -7810 0
-7577 -7807 7811 0
7577 -7811 0
7807 -7811 0
7810 7811 -7812 0
-7810 7812 0
-7811 7812 0
-154 -7695 7813 0
154 -7813 0
7695 -7813 0
-7583 -7813 -7814 0
7583 7813 -7814 0
7583 -7813 7814 0
-7583 7813 7814 0
-7814 -7812 -7815 0
7814 7812 -7815 0
7814 -7812 7815 0
-7814 7812 7815 0
-7814 -7812 7816 0
7814 -7816 0
7812 -7816 0
-7583 -7813 7817 0
7583 -7817 0
7813 -7817 0
7816 7817 -7818 0
-7816 7818 0
-7817 7818 0
-162 -7695 7819 0
162 -7819 0
7695 -7819 0
-7589 -7819 -7820 0
7589 7819 -7820 0
7589 -7819 7820 0
-7589 7819 7820 0
-7820 -7818 -7821 0
7820 7818 -7821 0
7820 -7818 7821 0
-7820 7818 7821 0
-7820 -7818 7822 0
7820 -7822 0
7818 -7822 0
-7589 -7819 7823 0
7589 -7823 0
7819 -7823 0
7822 7823 -7824 0
-7822 7824 0
-7823 7824 0
-170 -7695 7825 0
170 -7825 0
7695 -7825 0
-7595 -7825 -7826 0
7595 7825 -7826 0
7595 -7825 7826 0
-7595 7825 7826 0
-7826 -7824 -7827 0
7826 7824 -7827 0
7826 -7824 7827 0
-7826 7824 7827 0
-7826 -7824 7828 0
7826 -7828 0
7824 -7828 0
-7595 -7825 7829 0
7595 -7829 0
7825 -7829 0
7828 7829 -7830 0
-7828 7830 0
-7829 7830 0
-178 -7695 7831 0
178 -7831 0
7695 -7831 0
-7601 -7831 -7832 0
7601 7831 -7832 0
7601 -7831 7832 0
-7601 7831 7832 0
-7832 -7830 -7833 0
7832 7830 -7833 0
7832 -7830 7833 0
-7832 7830 7833 0
-7832 -7830 7834 0
7832 -7834 0
7830 -7834 0
-7601 -7831 7835 0
7601 -7835 0
7831 -7835 0
7834 7835 -7836 0
-7834 7836 0
-7835 7836 0
-186 -7695 7837 0
186 -7837 0
7695 -7837 0
-7607 -7837 -7838 0
7607 7837 -7838 0
7607 -7837 7838 0
-7607 7837 7838 0
-7838 -7836 -7839 0
7838 7836 -7839 0
7838 -7836 7839 0
-7838 7836 7839 0
-7838 -7836 7840 0
7838 -7840 0
7836 -7840 0
-7607 -7837 7841 0
7607 -7841 0
7837 -7841 0
7840 7841 -7842 0
-7840 7842 0
-7841 7842 0
-194 -7695 7843 0
194 -7843 0
7695 -7843 0
-7613 -7843 -7844 0
7613 7843 -7844 0
7613 -7843 7844 0
-7613 7843 7844 0
-7844 -7842 -7845 0
7844 7842 -7845 0
7844 -7842 7845 0
-7844 7842 7845 0
-7844 -7842 7846 0
7844 -7846 0
7842 -7846 0
-7613 -7843 7847 0
7613 -7847 0
7843 -7847 0
7846 7847 -7848 0
-7846 7848 0
-7847 7848 0
-202 -7695 7849 0
202 -7849 0
7695 -7849 0
-7619 -7849 -7850 0
7619 7849 -7850 0
7619 -7849 7850 0
-7619 7849 7850 0
-7850 -7848 -7851 0
7850 7848 -7851 0
7850 -7848 7851 0
-7850 7848 7851 0
-7850 -7848 7852 0
7850 -7852 0
7848 -7852 0
-7619 -7849 7853 0
7619 -7853 0
7849 -7853 0
7852 7853 -7854 0
-7852 7854 0
-7853 7854 0
-210 -7695 7855 0
210 -7855 0
7695 -7855 0
-7625 -7855 -7856 0
7625 7855 -7856 0
7625 -7855 7856 0
-7625 7855 7856 0
-7856 -7854 -7857 0
7856 7854 -7857 0
7856 -7854 7857 0
-7856 7854 7857 0
-7856 -7854 7858 0
7856 -7858 0
7854 -7858 0
-7625 -7855 7859 0
7625 -7859 0
7855 -7859 0
7858 7859 -7860 0
-7858 7860 0
-7859 7860 0
-218 -7695 7861 0
218 -7861 0
7695 -7861 0
-7631 -7861 -7862 0
7631 7861 -7862 0
7631 -7861 7862 0
-7631 7861 7862 0
-7862 -7860 -7863 0
7862 7860 -7863 0
7862 -7860 7863 0
-7862 7860 7863 0
-7862 -7860 7864 0
7862 -7864 0
7860 -7864 0
-7631 -7861 7865 0
7631 -7865 0
7861 -7865 0
7864 7865 -7866 0
-7864 7866 0
-7865 7866 0
-226 -7695 7867 0
226 -7867 0
7695 -7867 0
-7637 -7867 -7868 0
7637 7867 -7868 0
7637 -7867 7868 0
-7637 7867 7868 0
-7868 -7866 -7869 0
7868 7866 -7869 0
7868 -7866 7869 0
-7868 7866 7869 0
-7868 -7866 7870 0
7868 -7870 0
7866 -7870 0
-7637 -7867 7871 0
7637 -7871 0
7867 -7871 0
7870 7871 -7872 0
-7870 7872 0
-7871 7872 0
-234 -7695 7873 0
234 -7873 0
7695 -7873 0
-7643 -7873 -7874 0
7643 7873 -7874 0
7643 -7873 7874 0
-7643 7873 7874 0
-7874 -7872 -7875 0
7874 7872 -7875 0
7874 -7872 7875 0
-7874 7872 7875 0
-7874 -7872 7876 0
7874 -7876 0
7872 -7876 0
-7643 -7873 7877 0
7643 -7877 0
7873 -7877 0
7876 7877 -7878 0
-7876 7878 0
-7877 7878 0
-242 -7695 7879 0
242 -7879 0
7695 -7879 0
-7649 -7879 -7880 0
7649 7879 -7880 0
7649 -7879 7880 0
-7649 7879 7880 0
-7880 -7878 -7881 0
7880 7878 -7881 0
7880 -7878 7881 0
-7880 7878 7881 0
-7880 -7878 7882 0
7880 -7882 0
7878 -7882 0
-7649 -7879 7883 0
7649 -7883 0
7879 -7883 0
7882 7883 -7884 0
-7882 7884 0
-7883 7884 0
-250 -7695 7885 0
250 -7885 0
7695 -7885 0
-7655 -7885 -7886 0
7655 7885 -7886 0
7655 -7885 7886 0
-7655 7885 7886 0
-7886 -7884 -7887 0
7886 7884 -7887 0
7886 -7884 7887 0
-7886 7884 7887 0
-7886 -7884 7888 0
7886 -7888 0
7884 -7888 0
-7655 -7885 7889 0
7655 -7889 0
7885 -7889 0
7888 7889 -7890 0
-7888 7890 0
-7889 7890 0
-258 -7695 7891 0
258 -7891 0
7695 -7891 0
-7661 -7891 -7892 0
7661 7891 -7892 0
7661 -7891 7892 0
-7661 7891 7892 0
-7892 -7890 -7893 0
7892 7890 -7893 0
7892 -7890 7893 0
-7892 7890 7893 0
-7892 -7890 7894 0
7892 -7894 0
7890 -7894 0
-7661 -7891 7895 0
7661 -7895 0
7891 -7895 0
7894 7895 -7896 0
-7894 7896 0
-7895 7896 0
-266 -7695 7897 0
266 -7897 0
7695 -7897 0
-7667 -7897 -7898 0
7667 7897 -7898 0
7667 -7897 7898 0
-7667 7897 7898 0
-7898 -7896 -7899 0
7898 7896 -7899 0
7898 -7896 7899 0
-7898 7896 7899 0
-7898 -7896 7900 0
7898 -7900 0
7896 -7900 0
-7667 -7897 7901 0
7667 -7901 0
7897 -7901 0
7900 7901 -7902 0
-7900 7902 0
-7901 7902 0
-274 -7695 7903 0
274 -7903 0
7695 -7903 0
-7673 -7903 -7904 0
7673 7903 -7904 0
7673 -7903 7904 0
-7673 7903 7904 0
-7904 -7902 -7905 0
7904 7902 -7905 0
7904 -7902 7905 0
-7904 7902 7905 0
-7904 -7902 7906 0
7904 -7906 0
7902 -7906 0
-7673 -7903 7907 0
7673 -7907 0
7903 -7907 0
7906 7907 -7908 0
-7906 7908 0
-7907 7908 0
-282 -7695 7909 0
282 -7909 0
7695 -7909 0
-7679 -7909 -7910 0
7679 7909 -7910 0
7679 -7909 7910 0
-7679 7909 7910 0
-7910 -7908 -7911 0
7910 7908 -7911 0
7910 -7908 7911 0
-7910 7908 7911 0
-7910 -7908 7912 0
7910 -7912 0
7908 -7912 0
-7679 -7909 7913 0
7679 -7913 0
7909 -7913 0
7912 7913 -7914 0
-7912 7914 0
-7913 7914 0
-290 -7695 7915 0
290 -7915 0
7695 -7915 0
-7685 -7915 -7916 0
7685 7915 -7916 0
7685 -7915 7916 0
-7685 7915 7916 0
-7916 -7914 -7917 0
7916 7914 -7917 0
7916 -7914 7917 0
-7916 7914 7917 0
-7916 -7914 7918 0
7916 -7918 0
7914 -7918 0
-7685 -7915 7919 0
7685 -7919 0
7915 -7919 0
7918 7919 -7920 0
-7918 7920 0
-7919 7920 0
-298 -7695 7921 0
298 -7921 0
7695 -7921 0
-7691 -7921 -7922 0
7691 7921 -7922 0
7691 -7921 7922 0
-7691 7921 7922 0
-7922 -7920 -7923 0
7922 7920 -7923 0
7922 -7920 7923 0
-7922 7920 7923 0
-7922 -7920 7924 0
7922 -7924 0
7920 -7924 0
-7691 -7921 7925 0
7691 -7925 0
7921 -7925 0
7924 7925 -7926 0
-7924 7926 0
-7925 7926 0
-306 -7695 7927 0
306 -7927 0
7695 -7927 0
-7694 -7927 -7928 0
7694 7927 -7928 0
7694 -7927 7928 0
-7694 7927 7928 0
-7928 -7926 -7929 0
7928 7926 -7929 0
7928 -7926 7929 0
-7928 7926 7929 0
-7928 -7926 7930 0
7928 -7930 0
7926 -7930 0
-7694 -7927 7931 0
7694 -7931 0
7927 -7931 0
7930 7931 -7932 0
-7930 7932 0
-7931 7932 0
-1 -7933 7934 0
1 -7934 0
7933 -7934 0
-7701 -7934 -7935 0
7701 7934 -7935 0
7701 -7934 7935 0
-7701 7934 7935 0
-7701 -7934 7936 0
7701 -7936 0
7934 -7936 0
-4 -7933 7937 0
4 -7937 0
7933 -7937 0
-7707 -7937 -7938 0
7707 7937 -7938 0
7707 -7937 7938 0
-7707 7937 7938 0
-7938 -7936 -7939 0
7938 7936 -7939 0
7938 -7936 7939 0
-7938 7936 7939 0
-7938 -7936 7940 0
7938 -7940 0
7936 -7940 0
-7707 -7937 7941 0
7707 -7941 0
7937 -7941 0
7940 7941 -7942 0
-7940 7942 0
-7941 7942 0
-10 -7933 7943 0
10 -7943 0
7933 -7943 0
-7713 -7943 -7944 0
7713 7943 -7944 0
7713 -7943 7944 0
-7713 7943 7944 0
-7944 -7942 -7945 0
7944 7942 -7945 0
7944 -7942 7945 0
-7944 7942 7945 0
-7944 -7942 7946 0
7944 -7946 0
7942 -7946 0
-7713 -7943 7947 0
7713 -7947 0
7943 -7947 0
7946 7947 -7948 0
-7946 7948 0
-7947 7948 0
-18 -7933 7949 0
18 -7949 0
7933 -7949 0
-7719 -7949 -7950 0
7719 7949 -7950 0
7719 -7949 7950 0
-7719 7949 7950 0
-7950 -7948 -7951 0
7950 7948 -7951 0
7950 -7948 7951 0
-7950 7948 7951 0
-7950 -7948 7952 0
7950 -7952 0
7948 -7952 0
-7719 -7949 7953 0
7719 -7953 0
7949 -7953 0
7952 7953 -7954 0
-7952 7954 0
-7953 7954 0
-26 -7933 7955 0
26 -7955 0
7933 -7955 0
-7725 -7955 -7956 0
7725 7955 -7956 0
7725 -7955 7956 0
-7725 7955 7956 0
-7956 -7954 -7957 0
7956 7954 -7957 0
7956 -7954 7957 0
-7956 7954 7957 0
-7956 -7954 7958 0
7956 -7958 0
7954 -7958 0
-7725 -7955 7959 0
7725 -7959 0
7955 -7959 0
7958 7959 -7960 0
-7958 7960 0
-7959 7960 0
-34 -7933 7961 0
34 -7961 0
7933 -7961 0
-7731 -7961 -7962 0
7731 7961 -7962 0
7731 -7961 7962 0
-7731 7961 7962 0
-7962 -7960 -7963 0
7962 7960 -7963 0
7962 -7960 7963 0
-7962 7960 7963 0
-7962 -7960 7964 0
7962 -7964 0
7960 -7964 0
-7731 -7961 7965 0
7731 -7965 0
7961 -7965 0
7964 7965 -7966 0
-7964 7966 0
-7965 7966 0
-42 -7933 7967 0
42 -7967 0
7933 -7967 0
-7737 -7967 -7968 0
7737 7967 -7968 0
7737 -7967 7968 0
-7737 7967 7968 0
-7968 -7966 -7969 0
7968 7966 -7969 0
7968 -7966 7969 0
-7968 7966 7969 0
-7968 -7966 7970 0
7968 -7970 0
7966 -7970 0
-7737 -7967 7971 0
7737 -7971 0
7967 -7971 0
7970 7971 -7972 0
-7970 7972 0
-7971 7972 0
-50 -7933 7973 0
50 -7973 0
7933 -7973 0
-7743 -7973 -7974 0
7743 7973 -7974 0
7743 -7973 7974 0
-7743 7973 7974 0
-7974 -7972 -7975 0
7974 7972 -7975 0
7974 -7972 7975 0
-7974 7972 7975 0
-7974 -7972 7976 0
7974 -7976 0
7972 -7976 0
-7743 -7973 7977 0
7743 -7977 0
7973 -7977 0
7976 7977 -7978 0
-7976 7978 0
-7977 7978 0
-58 -7933 7979 0
58 -7979 0
7933 -7979 0
-7749 -7979 -7980 0
7749 7979 -7980 0
7749 -7979 7980 0
-7749 7979 7980 0
-7980 -7978 -7981 0
7980 7978 -7981 0
7980 -7978 7981 0
-7980 7978 7981 0
-7980 -7978 7982 0
7980 -7982 0
7978 -7982 0
-7749 -7979 7983 0
7749 -7983 0
7979 -7983 0
7982 7983 -7984 0
-7982 7984 0
-7983 7984 0
-66 -7933 7985 0
66 -7985 0
7933 -7985 0
-7755 -7985 -7986 0
7755 7985 -7986 0
7755 -7985 7986 0
-7755 7985 7986 0
-7986 -7984 -7987 0
7986 7984 -7987 0
7986 -7984 7987 0
-7986 7984 7987 0
-7986 -7984 7988 0
7986 -7988 0
7984 -7988 0
-7755 -7985 7989 0
7755 -7989 0
7985 -7989 0
7988 7989 -7990 0
-7988 7990 0
-7989 7990 0
-74 -7933 7991 0
74 -7991 0
7933 -7991 0
-7761 -7991 -7992 0
7761 7991 -7992 0
7761 -7991 7992 0
-7761 7991 7992 0
-7992 -7990 -7993 0
7992 7990 -7993 0
7992 -7990 7993 0
-7992 7990 7993 0
-7992 -7990 7994 0
7992 -7994 0
7990 -7994 0
-7761 -7991 7995 0
7761 -7995 0
7991 -7995 0
7994 7995 -7996 0
-7994 7996 0
-7995 7996 0
-82 -7933 7997 0
82 -7997 0
7933 -7997 0
-7767 -7997 -7998 0
7767 7997 -7998 0
7767 -7997 7998 0
-7767 7997 7998 0
-7998 -7996 -7999 0
7998 7996 -7999 0
7998 -7996 7999 0
-7998 7996 7999 0
-7998 -7996 8000 0
7998 -8000 0
7996 -8000 0
-7767 -7997 8001 0
7767 -8001 0
7997 -8001 0
8000 8001 -8002 0
-8000 8002 0
-8001 8002 0
-90 -7933 8003 0
90 -8003 0
7933 -8003 0
-7773 -8003 -8004 0
7773 8003 -8004 0
7773 -8003 8004 0
-7773 8003 8004 0
-8004 -8002 -8005 0
8004 8002 -8005 0
8004 -8002 8005 0
-8004 8002 8005 0
-8004 -8002 8006 0
8004 -8006 0
8002 -8006 0
-7773 -8003 8007 0
7773 -8007 0
8003 -8007 0
8006 8007 -8008 0
-8006 8008 0
-8007 8008 0
-98 -7933 8009 0
98 -8009 0
7933 -8009 0
-7779 -8009 -8010 0
7779 8009 -8010 0
7779 -8009 8010 0
-7779 8009 8010 0
-8010 -8008 -8011 0
8010 8008 -8011 0
8010 -8008 8011 0
-8010 8008 8011 0
-8010 -8008 8012 0
8010 -8012 0
8008 -8012 0
-7779 -8009 8013 0
7779 -8013 0
8009 -8013 0
8012 8013 -8014 0
-8012 8014 0
-8013 8014 0
-106 -7933 8015 0
106 -8015 0
7933 -8015 0
-7785 -8015 -8016 0
7785 8015 -8016 0
7785 -8015 8016 0
-7785 8015 8016 0
-8016 -8014 -8017 0
8016 8014 -8017 0
8016 -8014 8017 0
-8016 8014 8017 0
-8016 -8014 8018 0
8016 -8018 0
8014 -8018 0
-7785 -8015 8019 0
7785 -8019 0
8015 -8019 0
8018 8019 -8020 0
-8018 8020 0
-8019 8020 0
-114 -7933 8021 0
114 -8021 0
7933 -8021 0
-7791 -8021 -8022 0
7791 8021 -8022 0
7791 -8021 8022 0
-7791 8021 8022 0
-8022 -8020 -8023 0
8022 8020 -8023 0
8022 -8020 8023 0
-8022 8020 8023 0
-8022 -8020 8024 0
8022 -8024 0
8020 -8024 0
-7791 -8021 8025 0
7791 -8025 0
8021 -8025 0
8024 8025 -8026 0
-8024 8026 0
-8025 8026 0
-122 -7933 8027 0
122 -8027 0
7933 -8027 0
-7797 -8027 -8028 0
7797 8027 -8028 0
7797 -8027 8028 0
-7797 8027 8028 0
-8028 -8026 -8029 0
8028 8026 -8029 0
8028 -8026 8029 0
-8028 8026 8029 0
-8028 -8026 8030 0
8028 -8030 0
8026 -8030 0
-7797 -8027 8031 0
7797 -8031 0
8027 -8031 0
8030 8031 -8032 0
-8030 8032 0
-8031 8032 0
-130 -7933 8033 0
130 -8033 0
7933 -8033 0
-7803 -8033 -8034 0
7803 8033 -8034 0
7803 -8033 8034 0
-7803 8033 8034 0
-8034 -8032 -8035 0
8034 8032 -8035 0
8034 -8032 8035 0
-8034 8032 8035 0
-8034 -8032 8036 0
8034 -8036 0
8032 -8036 0
-7803 -8033 8037 0
7803 -8037 0
8033 -8037 0
8036 8037 -8038 0
-8036 8038 0
-8037 8038 0
-138 -7933 8039 0
138 -8039 0
7933 -8039 0
-7809 -8039 -8040 0
7809 8039 -8040 0
7809 -8039 8040 0
-7809 8039 8040 0
-8040 -8038 -8041 0
8040 8038 -8041 0
8040 -8038 8041 0
-8040 8038 8041 0
-8040 -8038 8042 0
8040 -8042 0
8038 -8042 0
-7809 -8039 8043 0
7809 -8043 0
8039 -8043 0
8042 8043 -8044 0
-8042 8044 0
-8043 8044 0
-146 -7933 8045 0
146 -8045 0
7933 -8045 0
-7815 -8045 -8046 0
7815 8045 -8046 0
7815 -8045 8046 0
-7815 8045 8046 0
-8046 -8044 -8047 0
8046 8044 -8047 0
8046 -8044 8047 0
-8046 8044 8047 0
-8046 -8044 8048 0
8046 -8048 0
8044 -8048 0
-7815 -8045 8049 0
7815 -8049 0
8045 -8049 0
8048 8049 -8050 0
-8048 8050 0
-8049 8050 0
-154 -7933 8051 0
154 -8051 0
7933 -8051 0
-7821 -8051 -8052 0
7821 8051 -8052 0
7821 -8051 8052 0
-7821 8051 8052 0
-8052 -8050 -8053 0
8052 8050 -8053 0
8052 -8050 8053 0
-8052 8050 8053 0
-8052 -8050 8054 0
8052 -8054 0
8050 -8054 0
-7821 -8051 8055 0
7821 -8055 0
8051 -8055 0
8054 8055 -8056 0
-8054 8056 0
-8055 8056 0
-162 -7933 8057 0
162 -8057 0
7933 -8057 0
-7827 -8057 -8058 0
7827 8057 -8058 0
7827 -8057 8058 0
-7827 8057 8058 0
-8058 -8056 -8059 0
8058 8056 -8059 0
8058 -8056 8059 0
-8058 8056 8059 0
-8058 -8056 8060 0
8058 -8060 0
8056 -8060 0
-7827 -8057 8061 0
7827 -8061 0
8057 -8061 0
8060 8061 -8062 0
-8060 8062 0
-8061 8062 0
-170 -7933 8063 0
170 -8063 0
7933 -8063 0
-7833 -8063 -8064 0
7833 8063 -8064 0
7833 -8063 8064 0
-7833 8063 8064 0
-8064 -8062 -8065 0
8064 8062 -8065 0
8064 -8062 8065 0
-8064 8062 8065 0
-8064 -8062 8066 0
8064 -8066 0
8062 -8066 0
-7833 -8063 8067 0
7833 -8067 0
8063 -8067 0
8066 8067 -8068 0
-8066 8068 0
-8067 8068 0
-178 -7933 8069 0
178 -8069 0
7933 -8069 0
-7839 -8069 -8070 0
7839 8069 -8070 0
7839 -8069 8070 0
-7839 8069 8070 0
-8070 -8068 -8071 0
8070 8068 -8071 0
8070 -8068 8071 0
-8070 8068 8071 0
-8070 -8068 8072 0
8070 -8072 0
8068 -8072 0
-7839 -8069 8073 0
7839 -8073 0
8069 -8073 0
8072 8073 -8074 0
-8072 8074 0
-8073 8074 0
-186 -7933 8075 0
186 -8075 0
7933 -8075 0
-7845 -8075 -8076 0
7845 8075 -8076 0
7845 -8075 8076 0
-7845 8075 8076 0
-8076 -8074 -8077 0
8076 8074 -8077 0
8076 -8074 8077 0
-8076 8074 8077 0
-8076 -8074 8078 0
8076 -8078 0
8074 -8078 0
-7845 -8075 8079 0
7845 -8079 0
8075 -8079 0
8078 8079 -8080 0
-8078 8080 0
-8079 8080 0
-194 -7933 8081 0
194 -8081 0
7933 -8081 0
-7851 -8081 -8082 0
7851 8081 -8082 0
7851 -8081 8082 0
-7851 8081 8082 0
-8082 -8080 -8083 0
8082 8080 -8083 0
8082 -8080 8083 0
-8082 8080 8083 0
-8082 -8080 8084 0
8082 -8084 0
8080 -8084 0
-7851 -8081 8085 0
7851 -8085 0
8081 -8085 0
8084 8085 -8086 0
-8084 8086 0
-8085 8086 0
-202 -7933 8087 0
202 -8087 0
7933 -8087 0
-7857 -8087 -8088 0
7857 8087 -8088 0
7857 -8087 8088 0
-7857 8087 8088 0
-8088 -8086 -8089 0
8088 8086 -8089 0
8088 -8086 8089 0
-8088 8086 8089 0
-8088 -8086 8090 0
8088 -8090 0
8086 -8090 0
-7857 -8087 8091 0
7857 -8091 0
8087 -8091 0
8090 8091 -8092 0
-8090 8092 0
-8091 8092 0
-210 -7933 8093 0
210 -8093 0
7933 -8093 0
-7863 -8093 -8094 0
7863 8093 -8094 0
7863 -8093 8094 0
-7863 8093 8094 0
-8094 -8092 -8095 0
8094 8092 -8095 0
8094 -8092 8095 0
-8094 8092 8095 0
-8094 -8092 8096 0
8094 -8096 0
8092 -8096 0
-7863 -8093 8097 0
7863 -8097 0
8093 -8097 0
8096 8097 -8098 0
-8096 8098 0
-8097 8098 0
-218 -7933 8099 0
218 -8099 0
7933 -8099 0
-7869 -8099 -8100 0
7869 8099 -8100 0
7869 -8099 8100 0
-7869 8099 8100 0
-8100 -8098 -8101 0
8100 8098 -8101 0
8100 -8098 8101 0
-8100 8098 8101 0
-8100 -8098 8102 0
8100 -8102 0
8098 -8102 0
-7869 -8099 8103 0
7869 -8103 0
8099 -8103 0
8102 8103 -8104 0
-8102 8104 0
-8103 8104 0
-226 -7933 8105 0
226 -8105 0
7933 -8105 0
-7875 -8105 -8106 0
7875 8105 -8106 0
7875 -8105 8106 0
-7875 8105 8106 0
-8106 -8104 -8107 0
8106 8104 -8107 0
8106 -8104 8107 0
-8106 8104 8107 0
-8106 -8104 8108 0
8106 -8108 0
8104 -8108 0
-7875 -8105 8109 0
7875 -8109 0
8105 -8109 0
8108 8109 -8110 0
-8108 8110 0
-8109 8110 0
-234 -7933 8111 0
234 -8111 0
7933 -8111 0
-7881 -8111 -8112 0
7881 8111 -8112 0
7881 -8111 8112 0
-7881 8111 8112 0
-8112 -8110 -8113 0
8112 8110 -8113 0
8112 -8110 8113 0
-8112 8110 8113 0
-8112 -8110 8114 0
8112 -8114 0
8110 -8114 0
-7881 -8111 8115 0
7881 -8115 0
8111 -8115 0
8114 8115 -8116 0
-8114 8116 0
-8115 8116 0
-242 -7933 8117 0
242 -8117 0
7933 -8117 0
-7887 -8117 -8118 0
7887 8117 -8118 0
7887 -8117 8118 0
-7887 8117 8118 0
-8118 -8116 -8119 0
8118 8116 -8119 0
8118 -8116 8119 0
-8118 8116 8119 0
-8118 -8116 8120 0
8118 -8120 0
8116 -8120 0
-7887 -8117 8121 0
7887 -8121 0
8117 -8121 0
8120 8121 -8122 0
-8120 8122 0
-8121 8122 0
-250 -7933 8123 0
250 -8123 0
7933 -8123 0
-7893 -8123 -8124 0
7893 8123 -8124 0
7893 -8123 8124 0
-7893 8123 8124 0
-8124 -8122 -8125 0
8124 8122 -8125 0
8124 -8122 8125 0
-8124 8122 8125 0
-8124 -8122 8126 0
8124 -8126 0
8122 -8126 0
-7893 -8123 8127 0
7893 -8127 0
8123 -8127 0
8126 8127 -8128 0
-8126 8128 0
-8127 8128 0
-258 -7933 8129 0
258 -8129 0
7933 -8129 0
-7899 -8129 -8130 0
7899 8129 -8130 0
7899 -8129 8130 0
-7899 8129 8130 0
-8130 -8128 -8131 0
8130 8128 -8131 0
8130 -8128 8131 0
-8130 8128 8131 0
-8130 -8128 8132 0
8130 -8132 0
8128 -8132 0
-7899 -8129 8133 0
7899 -8133 0
8129 -8133 0
8132 8133 -8134 0
-8132 8134 0
-8133 8134 0
-266 -7933 8135 0
266 -8135 0
7933 -8135 0
-7905 -8135 -8136 0
7905 8135 -8136 0
7905 -8135 8136 0
-7905 8135 8136 0
-8136 -8134 -8137 0
8136 8134 -8137 0
8136 -8134 8137 0
-8136 8134 8137 0
-8136 -8134 8138 0
8136 -8138 0
8134 -8138 0
-7905 -8135 8139 0
7905 -8139 0
8135 -8139 0
8138 8139 -8140 0
-8138 8140 0
-8139 8140 0
-274 -7933 8141 0
274 -8141 0
7933 -8141 0
-7911 -8141 -8142 0
7911 8141 -8142 0
7911 -8141 8142 0
-7911 8141 8142 0
-8142 -8140 -8143 0
8142 8140 -8143 0
8142 -8140 8143 0
-8142 8140 8143 0
-8142 -8140 8144 0
8142 -8144 0
8140 -8144 0
-7911 -8141 8145 0
7911 -8145 0
8141 -8145 0
8144 8145 -8146 0
-8144 8146 0
-8145 8146 0
-282 -7933 8147 0
282 -8147 0
7933 -8147 0
-7917 -8147 -8148 0
7917 8147 -8148 0
7917 -8147 8148 0
-7917 8147 8148 0
-8148 -8146 -8149 0
8148 8146 -8149 0
8148 -8146 8149 0
-8148 8146 8149 0
-8148 -8146 8150 0
8148 -8150 0
8146 -8150 0
-7917 -8147 8151 0
7917 -8151 0
8147 -8151 0
8150 8151 -8152 0
-8150 8152 0
-8151 8152 0
-290 -7933 8153 0
290 -8153 0
7933 -8153 0
-7923 -8153 -8154 0
7923 8153 -8154 0
7923 -8153 8154 0
-7923 8153 8154 0
-8154 -8152 -8155 0
8154 8152 -8155 0
8154 -8152 8155 0
-8154 8152 8155 0
-8154 -8152 8156 0
8154 -8156 0
8152 -8156 0
-7923 -8153 8157 0
7923 -8157 0
8153 -8157 0
8156 8157 -8158 0
-8156 8158 0
-8157 8158 0
-298 -7933 8159 0
298 -8159 0
7933 -8159 0
-7929 -8159 -8160 0
7929 8159 -8160 0
7929 -8159 8160 0
-7929 8159 8160 0
-8160 -8158 -8161 0
8160 8158 -8161 0
8160 -8158 8161 0
-8160 8158 8161 0
-8160 -8158 8162 0
8160 -8162 0
8158 -8162 0
-7929 -8159 8163 0
7929 -8163 0
8159 -8163 0
8162 8163 -8164 0
-8162 8164 0
-8163 8164 0
-306 -7933 8165 0
306 -8165 0
7933 -8165 0
-7932 -8165 -8166 0
7932 8165 -8166 0
7932 -8165 8166 0
-7932 8165 8166 0
-8166 -8164 -8167 0
8166 8164 -8167 0
8166 -8164 8167 0
-8166 8164 8167 0
-8166 -8164 8168 0
8166 -8168 0
8164 -8168 0
-7932 -8165 8169 0
7932 -8169 0
8165 -8169 0
8168 8169 -8170 0
-8168 8170 0
-8169 8170 0
-1 -8171 8172 0
1 -8172 0
8171 -8172 0
-7939 -8172 -8173 0
7939 8172 -8173 0
7939 -8172 8173 0
-7939 8172 8173 0
-7939 -8172 8174 0
7939 -8174 0
8172 -8174 0
-4 -8171 8175 0
4 -8175 0
8171 -8175 0
-7945 -8175 -8176 0
7945 8175 -8176 0
7945 -8175 8176 0
-7945 8175 8176 0
-8176 -8174 -8177 0
8176 8174 -8177 0
8176 -8174 8177 0
-8176 8174 8177 0
-8176 -8174 8178 0
8176 -8178 0
8174 -8178 0
-7945 -8175 8179 0
7945 -8179 0
8175 -8179 0
8178 8179 -8180 0
-8178 8180 0
-8179 8180 0
-10 -8171 8181 0
10 -8181 0
8171 -8181 0
-7951 -8181 -8182 0
7951 8181 -8182 0
7951 -8181 8182 0
-7951 8181 8182 0
-8182 -8180 -8183 0
8182 8180 -8183 0
8182 -8180 8183 0
-8182 8180 8183 0
-8182 -8180 8184 0
8182 -8184 0
8180 -8184 0
-7951 -8181 8185 0
7951 -8185 0
8181 -8185 0
8184 8185 -8186 0
-8184 8186 0
-8185 8186 0
-18 -8171 8187 0
18 -8187 0
8171 -8187 0
-7957 -8187 -8188 0
7957 8187 -8188 0
7957 -8187 8188 0
-7957 8187 8188 0
-8188 -8186 -8189 0
8188 8186 -8189 0
8188 -8186 8189 0
-8188 8186 8189 0
-8188 -8186 8190 0
8188 -8190 0
8186 -8190 0
-7957 -8187 8191 0
7957 -8191 0
8187 -8191 0
8190 8191 -8192 0
-8190 8192 0
-8191 8192 0
-26 -8171 8193 0
26 -8193 0
8171 -8193 0
-7963 -8193 -8194 0
7963 8193 -8194 0
7963 -8193 8194 0
-7963 8193 8194 0
-8194 -8192 -8195 0
8194 8192 -8195 0
8194 -8192 8195 0
-8194 8192 8195 0
-8194 -8192 8196 0
8194 -8196 0
8192 -8196 0
-7963 -8193 8197 0
7963 -8197 0
8193 -8197 0
8196 8197 -8198 0
-8196 8198 0
-8197 8198 0
-34 -8171 8199 0
34 -8199 0
8171 -8199 0
-7969 -8199 -8200 0
7969 8199 -8200 0
7969 -8199 8200 0
-7969 8199 8200 0
-8200 -8198 -8201 0
8200 8198 -8201 0
8200 -8198 8201 0
-8200 8198 8201 0
-8200 -8198 8202 0
8200 -8202 0
8198 -8202 0
-7969 -8199 8203 0
7969 -8203 0
8199 -8203 0
8202 8203 -8204 0
-8202 8204 0
-8203 8204 0
-42 -8171 8205 0
42 -8205 0
8171 -8205 0
-7975 -8205 -8206 0
7975 8205 -8206 0
7975 -8205 8206 0
-7975 8205 8206 0
-8206 -8204 -8207 0
8206 8204 -8207 0
8206 -8204 8207 0
-8206 8204 8207 0
-8206 -8204 8208 0
8206 -8208 0
8204 -8208 0
-7975 -8205 8209 0
7975 -8209 0
8205 -8209 0
8208 8209 -8210 0
-8208 8210 0
-8209 8210 0
-50 -8171 8211 0
50 -8211 0
8171 -8211 0
-7981 -8211 -8212 0
7981 8211 -8212 0
7981 -8211 8212 0
-7981 8211 8212 0
-8212 -8210 -8213 0
8212 8210 -8213 0
8212 -8210 8213 0
-8212 8210 8213 0
-8212 -8210 8214 0
8212 -8214 0
8210 -8214 0
-7981 -8211 8215 0
7981 -8215 0
8211 -8215 0
8214 8215 -8216 0
-8214 8216 0
-8215 8216 0
-58 -8171 8217 0
58 -8217 0
8171 -8217 0
-7987 -8217 -8218 0
7987 8217 -8218 0
7987 -8217 8218 0
-7987 8217 8218 0
-8218 -8216 -8219 0
8218 8216 -8219 0
8218 -8216 8219 0
-8218 8216 8219 0
-8218 -8216 8220 0
8218 -8220 0
8216 -8220 0
-7987 -8217 8221 0
7987 -8221 0
8217 -8221 0
8220 8221 -8222 0
-8220 8222 0
-8221 8222 0
-66 -8171 8223 0
66 -8223 0
8171 -8223 0
-7993 -8223 -8224 0
7993 8223 -8224 0
7993 -8223 8224 0
-7993 8223 8224 0
-8224 -8222 -8225 0
8224 8222 -8225 0
8224 -8222 8225 0
-8224 8222 8225 0
-8224 -8222 8226 0
8224 -8226 0
8222 -8226 0
-7993 -8223 8227 0
7993 -8227 0
8223 -8227 0
8226 8227 -8228 0
-8226 8228 0
-8227 8228 0
-74 -8171 8229 0
74 -8229 0
8171 -8229 0
-7999 -8229 -8230 0
7999 8229 -8230 0
7999 -8229 8230 0
-7999 8229 8230 0
-8230 -8228 -8231 0
8230 8228 -8231 0
8230 -8228 8231 0
-8230 8228 8231 0
-8230 -8228 8232 0
8230 -8232 0
8228 -8232 0
-7999 -8229 8233 0
7999 -8233 0
8229 -8233 0
8232 8233 -8234 0
-8232 8234 0
-8233 8234 0
-82 -8171 8235 0
82 -8235 0
8171 -8235 0
-8005 -8235 -8236 0
8005 8235 -8236 0
8005 -8235 8236 0
-8005 8235 8236 0
-8236 -8234 -8237 0
8236 8234 -8237 0
8236 -8234 8237 0
-8236 8234 8237 0
-8236 -8234 8238 0
8236 -8238 0
8234 -8238 0
-8005 -8235 8239 0
8005 -8239 0
8235 -8239 0
8238 8239 -8240 0
-8238 8240 0
-8239 8240 0
-90 -8171 8241 0
90 -8241 0
8171 -8241 0
-8011 -8241 -8242 0
8011 8241 -8242 0
8011 -8241 8242 0
-8011 8241 8242 0
-8242 -8240 -8243 0
8242 8240 -8243 0
8242 -8240 8243 0
-8242 8240 8243 0
-8242 -8240 8244 0
8242 -8244 0
8240 -8244 0
-8011 -8241 8245 0
8011 -8245 0
8241 -8245 0
8244 8245 -8246 0
-8244 8246 0
-8245 8246 0
-98 -8171 8247 0
98 -8247 0
8171 -8247 0
-8017 -8247 -8248 0
8017 8247 -8248 0
8017 -8247 8248 0
-8017 8247 8248 0
-8248 -8246 -8249 0
8248 8246 -8249 0
8248 -8246 8249 0
-8248 8246 8249 0
-8248 -8246 8250 0
8248 -8250 0
8246 -8250 0
-8017 -8247 8251 0
8017 -8251 0
8247 -8251 0
8250 8251 -8252 0
-8250 8252 0
-8251 8252 0
-106 -8171 8253 0
106 -8253 0
8171 -8253 0
-8023 -8253 -8254 0
8023 8253 -8254 0
8023 -8253 8254 0
-8023 8253 8254 0
-8254 -8252 -8255 0
8254 8252 -8255 0
8254 -8252 8255 0
-8254 8252 8255 0
-8254 -8252 8256 0
8254 -8256 0
8252 -8256 0
-8023 -8253 8257 0
8023 -8257 0
8253 -8257 0
8256 8257 -8258 0
-8256 8258 0
-8257 8258 0
-114 -8171 8259 0
114 -8259 0
8171 -8259 0
-8029 -8259 -8260 0
8029 8259 -8260 0
8029 -8259 8260 0
-8029 8259 8260 0
-8260 -8258 -8261 0
8260 8258 -8261 0
8260 -8258 8261 0
-8260 8258 8261 0
-8260 -8258 8262 0
8260 -8262 0
8258 -8262 0
-8029 -8259 8263 0
8029 -8263 0
8259 -8263 0
8262 8263 -8264 0
-8262 8264 0
-8263 8264 0
-122 -8171 8265 0
122 -8265 0
8171 -8265 0
-8035 -8265 -8266 0
8035 8265 -8266 0
8035 -8265 8266 0
-8035 8265 8266 0
-8266 -8264 -8267 0
8266 8264 -8267 0
8266 -8264 8267 0
-8266 8264 8267 0
-8266 -8264 8268 0
8266 -8268 0
8264 -8268 0
-8035 -8265 8269 0
8035 -8269 0
8265 -8269 0
8268 8269 -8270 0
-8268 8270 0
-8269 8270 0
-130 -8171 8271 0
130 -8271 0
8171 -8271 0
-8041 -8271 -8272 0
8041 8271 -8272 0
8041 -8271 8272 0
-8041 8271 8272 0
-8272 -8270 -8273 0
8272 8270 -8273 0
8272 -8270 8273 0
-8272 8270 8273 0
-8272 -8270 8274 0
8272 -8274 0
8270 -8274 0
-8041 -8271 8275 0
8041 -8275 0
8271 -8275 0
8274 8275 -8276 0
-8274 8276 0
-8275 8276 0
-138 -8171 8277 0
138 -8277 0
8171 -8277 0
-8047 -8277 -8278 0
8047 8277 -8278 0
8047 -8277 8278 0
-8047 8277 8278 0
-8278 -8276 -8279 0
8278 8276 -8279 0
8278 -8276 8279 0
-8278 8276 8279 0
-8278 -8276 8280 0
8278 -8280 0
8276 -8280 0
-8047 -8277 8281 0
8047 -8281 0
8277 -8281 0
8280 8281 -8282 0
-8280 8282 0
-8281 8282 0
-146 -8171 8283 0
146 -8283 0
8171 -8283 0
-8053 -8283 -8284 0
8053 8283 -8284 0
8053 -8283 8284 0
-8053 8283 8284 0
-8284 -8282 -8285 0
8284 8282 -8285 0
8284 -8282 8285 0
-8284 8282 8285 0
-8284 -8282 8286 0
8284 -8286 0
8282 -8286 0
-8053 -8283 8287 0
8053 -8287 0
8283 -8287 0
8286 8287 -8288 0
-8286 8288 0
-8287 8288 0
-154 -8171 8289 0
154 -8289 0
8171 -8289 0
-8059 -8289 -8290 0
8059 8289 -8290 0
8059 -8289 8290 0
-8059 8289 8290 0
-8290 -8288 -8291 0
8290 8288 -8291 0
8290 -8288 8291 0
-8290 8288 8291 0
-8290 -8288 8292 0
8290 -8292 0
8288 -8292 0
-8059 -8289 8293 0
8059 -8293 0
8289 -8293 0
8292 8293 -8294 0
-8292 8294 0
-8293 8294 0
-162 -8171 8295 0
162 -8295 0
8171 -8295 0
-8065 -8295 -8296 0
8065 8295 -8296 0
8065 -8295 8296 0
-8065 8295 8296 0
-8296 -8294 -8297 0
8296 8294 -8297 0
8296 -8294 8297 0
-8296 8294 8297 0
-8296 -8294 8298 0
8296 -8298 0
8294 -8298 0
-8065 -8295 8299 0
8065 -8299 0
8295 -8299 0
8298 8299 -8300 0
-8298 8300 0
-8299 8300 0
-170 -8171 8301 0
170 -8301 0
8171 -8301 0
-8071 -8301 -8302 0
8071 8301 -8302 0
8071 -8301 8302 0
-8071 8301 8302 0
-8302 -8300 -8303 0
8302 8300 -8303 0
8302 -8300 8303 0
-8302 8300 8303 0
-8302 -8300 8304 0
8302 -8304 0
8300 -8304 0
-8071 -8301 8305 0
8071 -8305 0
8301 -8305 0
8304 8305 -8306 0
-8304 8306 0
-8305 8306 0
-178 -8171 8307 0
178 -8307 0
8171 -8307 0
-8077 -8307 -8308 0
8077 8307 -8308 0
8077 -8307 8308 0
-8077 8307 8308 0
-8308 -8306 -8309 0
8308 8306 -8309 0
8308 -8306 8309 0
-8308 8306 8309 0
-8308 -8306 8310 0
8308 -8310 0
8306 -8310 0
-8077 -8307 8311 0
8077 -8311 0
8307 -8311 0
8310 8311 -8312 0
-8310 8312 0
-8311 8312 0
-186 -8171 8313 0
186 -8313 0
8171 -8313 0
-8083 -8313 -8314 0
8083 8313 -8314 0
8083 -8313 8314 0
-8083 8313 8314 0
-8314 -8312 -8315 0
8314 8312 -8315 0
8314 -8312 8315 0
-8314 8312 8315 0
-8314 -8312 8316 0
8314 -8316 0
8312 -8316 0
-8083 -8313 8317 0
8083 -8317 0
8313 -8317 0
8316 8317 -8318 0
-8316 8318 0
-8317 8318 0
-194 -8171 8319 0
194 -8319 0
8171 -8319 0
-8089 -8319 -8320 0
8089 8319 -8320 0
8089 -8319 8320 0
-8089 8319 8320 0
-8320 -8318 -8321 0
8320 8318 -8321 0
8320 -8318 8321 0
-8320 8318 8321 0
-8320 -8318 8322 0
8320 -8322 0
8318 -8322 0
-8089 -8319 8323 0
8089 -8323 0
8319 -8323 0
8322 8323 -8324 0
-8322 8324 0
-8323 8324 0
-202 -8171 8325 0
202 -8325 0
8171 -8325 0
-8095 -8325 -8326 0
8095 8325 -8326 0
8095 -8325 8326 0
-8095 8325 8326 0
-8326 -8324 -8327 0
8326 8324 -8327 0
8326 -8324 8327 0
-8326 8324 8327 0
-8326 -8324 8328 0
8326 -8328 0
8324 -8328 0
-8095 -8325 8329 0
8095 -8329 0
8325 -8329 0
8328 8329 -8330 0
-8328 8330 0
-8329 8330 0
-210 -8171 8331 0
210 -8331 0
8171 -8331 0
-8101 -8331 -8332 0
8101 8331 -8332 0
8101 -8331 8332 0
-8101 8331 8332 0
-8332 -8330 -8333 0
8332 8330 -8333 0
8332 -8330 8333 0
-8332 8330 8333 0
-8332 -8330 8334 0
8332 -8334 0
8330 -8334 0
-8101 -8331 8335 0
8101 -8335 0
8331 -8335 0
8334 8335 -8336 0
-8334 8336 0
-8335 8336 0
-218 -8171 8337 0
218 -8337 0
8171 -8337 0
-8107 -8337 -8338 0
8107 8337 -8338 0
8107 -8337 8338 0
-8107 8337 8338 0
-8338 -8336 -8339 0
8338 8336 -8339 0
8338 -8336 8339 0
-8338 8336 8339 0
-8338 -8336 8340 0
8338 -8340 0
8336 -8340 0
-8107 -8337 8341 0
8107 -8341 0
8337 -8341 0
8340 8341 -8342 0
-8340 8342 0
-8341 8342 0
-226 -8171 8343 0
226 -8343 0
8171 -8343 0
-8113 -8343 -8344 0
8113 8343 -8344 0
8113 -8343 8344 0
-8113 8343 8344 0
-8344 -8342 -8345 0
8344 8342 -8345 0
8344 -8342 8345 0
-8344 8342 8345 0
-8344 -8342 8346 0
8344 -8346 0
8342 -8346 0
-8113 -8343 8347 0
8113 -8347 0
8343 -8347 0
8346 8347 -8348 0
-8346 8348 0
-8347 8348 0
-234 -8171 8349 0
234 -8349 0
8171 -8349 0
-8119 -8349 -8350 0
8119 8349 -8350 0
8119 -8349 8350 0
-8119 8349 8350 0
-8350 -8348 -8351 0
8350 8348 -8351 0
8350 -8348 8351 0
-8350 8348 8351 0
-8350 -8348 8352 0
8350 -8352 0
8348 -8352 0
-8119 -8349 8353 0
8119 -8353 0
8349 -8353 0
8352 8353 -8354 0
-8352 8354 0
-8353 8354 0
-242 -8171 8355 0
242 -8355 0
8171 -8355 0
-8125 -8355 -8356 0
8125 8355 -8356 0
8125 -8355 8356 0
-8125 8355 8356 0
-8356 -8354 -8357 0
8356 8354 -8357 0
8356 -8354 8357 0
-8356 8354 8357 0
-8356 -8354 8358 0
8356 -8358 0
8354 -8358 0
-8125 -8355 8359 0
8125 -8359 0
8355 -8359 0
8358 8359 -8360 0
-8358 8360 0
-8359 8360 0
-250 -8171 8361 0
250 -8361 0
8171 -8361 0
-8131 -8361 -8362 0
8131 8361 -8362 0
8131 -8361 8362 0
-8131 8361 8362 0
-8362 -8360 -8363 0
8362 8360 -8363 0
8362 -8360 8363 0
-8362 8360 8363 0
-8362 -8360 8364 0
8362 -8364 0
8360 -8364 0
-8131 -8361 8365 0
8131 -8365 0
8361 -8365 0
8364 8365 -8366 0
-8364 8366 0
-8365 8366 0
-258 -8171 8367 0
258 -8367 0
8171 -8367 0
-8137 -8367 -8368 0
8137 8367 -8368 0
8137 -8367 8368 0
-8137 8367 8368 0
-8368 -8366 -8369 0
8368 8366 -8369 0
8368 -8366 8369 0
-8368 8366 8369 0
-8368 -8366 8370 0
8368 -8370 0
8366 -8370 0
-8137 -8367 8371 0
8137 -8371 0
8367 -8371 0
8370 8371 -8372 0
-8370 8372 0
-8371 8372 0
-266 -8171 8373 0
266 -8373 0
8171 -8373 0
-8143 -8373 -8374 0
8143 8373 -8374 0
8143 -8373 8374 0
-8143 8373 8374 0
-8374 -8372 -8375 0
8374 8372 -8375 0
8374 -8372 8375 0
-8374 8372 8375 0
-8374 -8372 8376 0
8374 -8376 0
8372 -8376 0
-8143 -8373 8377 0
8143 -8377 0
8373 -8377 0
8376 8377 -8378 0
-8376 8378 0
-8377 8378 0
-274 -8171 8379 0
274 -8379 0
8171 -8379 0
-8149 -8379 -8380 0
8149 8379 -8380 0
8149 -8379 8380 0
-8149 8379 8380 0
-8380 -8378 -8381 0
8380 8378 -8381 0
8380 -8378 8381 0
-8380 8378 8381 0
-8380 -8378 8382 0
8380 -8382 0
8378 -8382 0
-8149 -8379 8383 0
8149 -8383 0
8379 -8383 0
8382 8383 -8384 0
-8382 8384 0
-8383 8384 0
-282 -8171 8385 0
282 -8385 0
8171 -8385 0
-8155 -8385 -8386 0
8155 8385 -8386 0
8155 -8385 8386 0
-8155 8385 8386 0
-8386 -8384 -8387 0
8386 8384 -8387 0
8386 -8384 8387 0
-8386 8384 8387 0
-8386 -8384 8388 0
8386 -8388 0
8384 -8388 0
-8155 -8385 8389 0
8155 -8389 0
8385 -8389 0
8388 8389 -8390 0
-8388 8390 0
-8389 8390 0
-290 -8171 8391 0
290 -8391 0
8171 -8391 0
-8161 -8391 -8392 0
8161 8391 -8392 0
8161 -8391 8392 0
-8161 8391 8392 0
-8392 -8390 -8393 0
8392 8390 -8393 0
8392 -8390 8393 0
-8392 8390 8393 0
-8392 -8390 8394 0
8392 -8394 0
8390 -8394 0
-8161 -8391 8395 0
8161 -8395 0
8391 -8395 0
8394 8395 -8396 0
-8394 8396 0
-8395 8396 0
-298 -8171 8397 0
298 -8397 0
8171 -8397 0
-8167 -8397 -8398 0
8167 8397 -8398 0
8167 -8397 8398 0
-8167 8397 8398 0
-8398 -8396 -8399 0
8398 8396 -8399 0
8398 -8396 8399 0
-8398 8396 8399 0
-8398 -8396 8400 0
8398 -8400 0
8396 -8400 0
-8167 -8397 8401 0
8167 -8401 0
8397 -8401 0
8400 8401 -8402 0
-8400 8402 0
-8401 8402 0
-306 -8171 8403 0
306 -8403 0
8171 -8403 0
-8170 -8403 -8404 0
8170 8403 -8404 0
8170 -8403 8404 0
-8170 8403 8404 0
-8404 -8402 -8405 0
8404 8402 -8405 0
8404 -8402 8405 0
-8404 8402 8405 0
-8404 -8402 8406 0
8404 -8406 0
8402 -8406 0
-8170 -8403 8407 0
8170 -8407 0
8403 -8407 0
8406 8407 -8408 0
-8406 8408 0
-8407 8408 0
-1 -8409 8410 0
1 -8410 0
8409 -8410 0
-8177 -8410 -8411 0
8177 8410 -8411 0
8177 -8410 8411 0
-8177 8410 8411 0
-8177 -8410 8412 0
8177 -8412 0
8410 -8412 0
-4 -8409 8413 0
4 -8413 0
8409 -8413 0
-8183 -8413 -8414 0
8183 8413 -8414 0
8183 -8413 8414 0
-8183 8413 8414 0
-8414 -8412 -8415 0
8414 8412 -8415 0
8414 -8412 8415 0
-8414 8412 8415 0
-8414 -8412 8416 0
8414 -8416 0
8412 -8416 0
-8183 -8413 8417 0
8183 -8417 0
8413 -8417 0
8416 8417 -8418 0
-8416 8418 0
-8417 8418 0
-10 -8409 8419 0
10 -8419 0
8409 -8419 0
-8189 -8419 -8420 0
8189 8419 -8420 0
8189 -8419 8420 0
-8189 8419 8420 0
-8420 -8418 -8421 0
8420 8418 -8421 0
8420 -8418 8421 0
-8420 8418 8421 0
-8420 -8418 8422 0
8420 -8422 0
8418 -8422 0
-8189 -8419 8423 0
8189 -8423 0
8419 -8423 0
8422 8423 -8424 0
-8422 8424 0
-8423 8424 0
-18 -8409 8425 0
18 -8425 0
8409 -8425 0
-8195 -8425 -8426 0
8195 8425 -8426 0
8195 -8425 8426 0
-8195 8425 8426 0
-8426 -8424 -8427 0
8426 8424 -8427 0
8426 -8424 8427 0
-8426 8424 8427 0
-8426 -8424 8428 0
8426 -8428 0
8424 -8428 0
-8195 -8425 8429 0
8195 -8429 0
8425 -8429 0
8428 8429 -8430 0
-8428 8430 0
-8429 8430 0
-26 -8409 8431 0
26 -8431 0
8409 -8431 0
-8201 -8431 -8432 0
8201 8431 -8432 0
8201 -8431 8432 0
-8201 8431 8432 0
-8432 -8430 -8433 0
8432 8430 -8433 0
8432 -8430 8433 0
-8432 8430 8433 0
-8432 -8430 8434 0
8432 -8434 0
8430 -8434 0
-8201 -8431 8435 0
8201 -8435 0
8431 -8435 0
8434 8435 -8436 0
-8434 8436 0
-8435 8436 0
-34 -8409 8437 0
34 -8437 0
8409 -8437 0
-8207 -8437 -8438 0
8207 8437 -8438 0
8207 -8437 8438 0
-8207 8437 8438 0
-8438 -8436 -8439 0
8438 8436 -8439 0
8438 -8436 8439 0
-8438 8436 8439 0
-8438 -8436 8440 0
8438 -8440 0
8436 -8440 0
-8207 -8437 8441 0
8207 -8441 0
8437 -8441 0
8440 8441 -8442 0
-8440 8442 0
-8441 8442 0
-42 -8409 8443 0
42 -8443 0
8409 -8443 0
-8213 -8443 -8444 0
8213 8443 -8444 0
8213 -8443 8444 0
-8213 8443 8444 0
-8444 -8442 -8445 0
8444 8442 -8445 0
8444 -8442 8445 0
-8444 8442 8445 0
-8444 -8442 8446 0
8444 -8446 0
8442 -8446 0
-8213 -8443 8447 0
8213 -8447 0
8443 -8447 0
8446 8447 -8448 0
-8446 8448 0
-8447 8448 0
-50 -8409 8449 0
50 -8449 0
8409 -8449 0
-8219 -8449 -8450 0
8219 8449 -8450 0
8219 -8449 8450 0
-8219 8449 8450 0
-8450 -8448 -8451 0
8450 8448 -8451 0
8450 -8448 8451 0
-8450 8448 8451 0
-8450 -8448 8452 0
8450 -8452 0
8448 -8452 0
-8219 -8449 8453 0
8219 -8453 0
8449 -8453 0
8452 8453 -8454 0
-8452 8454 0
-8453 8454 0
-58 -8409 8455 0
58 -8455 0
8409 -8455 0
-8225 -8455 -8456 0
8225 8455 -8456 0
8225 -8455 8456 0
-8225 8455 8456 0
-8456 -8454 -8457 0
8456 8454 -8457 0
8456 -8454 8457 0
-8456 8454 8457 0
-8456 -8454 8458 0
8456 -8458 0
8454 -8458 0
-8225 -8455 8459 0
8225 -8459 0
8455 -8459 0
8458 8459 -8460 0
-8458 8460 0
-8459 8460 0
-66 -8409 8461 0
66 -8461 0
8409 -8461 0
-8231 -8461 -8462 0
8231 8461 -8462 0
8231 -8461 8462 0
-8231 8461 8462 0
-8462 -8460 -8463 0
8462 8460 -8463 0
8462 -8460 8463 0
-8462 8460 8463 0
-8462 -8460 8464 0
8462 -8464 0
8460 -8464 0
-8231 -8461 8465 0
8231 -8465 0
8461 -8465 0
8464 8465 -8466 0
-8464 8466 0
-8465 8466 0
-74 -8409 8467 0
74 -8467 0
8409 -8467 0
-8237 -8467 -8468 0
8237 8467 -8468 0
8237 -8467 8468 0
-8237 8467 8468 0
-8468 -8466 -8469 0
8468 8466 -8469 0
8468 -8466 8469 0
-8468 8466 8469 0
-8468 -8466 8470 0
8468 -8470 0
8466 -8470 0
-8237 -8467 8471 0
8237 -8471 0
8467 -8471 0
8470 8471 -8472 0
-8470 8472 0
-8471 8472 0
-82 -8409 8473 0
82 -8473 0
8409 -8473 0
-8243 -8473 -8474 0
8243 8473 -8474 0
8243 -8473 8474 0
-8243 8473 8474 0
-8474 -8472 -8475 0
8474 8472 -8475 0
8474 -8472 8475 0
-8474 8472 8475 0
-8474 -8472 8476 0
8474 -8476 0
8472 -8476 0
-8243 -8473 8477 0
8243 -8477 0
8473 -8477 0
8476 8477 -8478 0
-8476 8478 0
-8477 8478 0
-90 -8409 8479 0
90 -8479 0
8409 -8479 0
-8249 -8479 -8480 0
8249 8479 -8480 0
8249 -8479 8480 0
-8249 8479 8480 0
-8480 -8478 -8481 0
8480 8478 -8481 0
8480 -8478 8481 0
-8480 8478 8481 0
-8480 -8478 8482 0
8480 -8482 0
8478 -8482 0
-8249 -8479 8483 0
8249 -8483 0
8479 -8483 0
8482 8483 -8484 0
-8482 8484 0
-8483 8484 0
-98 -8409 8485 0
98 -8485 0
8409 -8485 0
-8255 -8485 -8486 0
8255 8485 -8486 0
8255 -8485 8486 0
-8255 8485 8486 0
-8486 -8484 -8487 0
8486 8484 -8487 0
8486 -8484 8487 0
-8486 8484 8487 0
-8486 -8484 8488 0
8486 -8488 0
8484 -8488 0
-8255 -8485 8489 0
8255 -8489 0
8485 -8489 0
8488 8489 -8490 0
-8488 8490 0
-8489 8490 0
-106 -8409 8491 0
106 -8491 0
8409 -8491 0
-8261 -8491 -8492 0
8261 8491 -8492 0
8261 -8491 8492 0
-8261 8491 8492 0
-8492 -8490 -8493 0
8492 8490 -8493 0
8492 -8490 8493 0
-8492 8490 8493 0
-8492 -8490 8494 0
8492 -8494 0
8490 -8494 0
-8261 -8491 8495 0
8261 -8495 0
8491 -8495 0
8494 8495 -8496 0
-8494 8496 0
-8495 8496 0
-114 -8409 8497 0
114 -8497 0
8409 -8497 0
-8267 -8497 -8498 0
8267 8497 -8498 0
8267 -8497 8498 0
-8267 8497 8498 0
-8498 -8496 -8499 0
8498 8496 -8499 0
8498 -8496 8499 0
-8498 8496 8499 0
-8498 -8496 8500 0
8498 -8500 0
8496 -8500 0
-8267 -8497 8501 0
8267 -8501 0
8497 -8501 0
8500 8501 -8502 0
-8500 8502 0
-8501 8502 0
-122 -8409 8503 0
122 -8503 0
8409 -8503 0
-8273 -8503 -8504 0
8273 8503 -8504 0
8273 -8503 8504 0
-8273 8503 8504 0
-8504 -8502 -8505 0
8504 8502 -8505 0
8504 -8502 8505 0
-8504 8502 8505 0
-8504 -8502 8506 0
8504 -8506 0
8502 -8506 0
-8273 -8503 8507 0
8273 -8507 0
8503 -8507 0
8506 8507 -8508 0
-8506 8508 0
-8507 8508 0
-130 -8409 8509 0
130 -8509 0
8409 -8509 0
-8279 -8509 -8510 0
8279 8509 -8510 0
8279 -8509 8510 0
-8279 8509 8510 0
-8510 -8508 -8511 0
8510 8508 -8511 0
8510 -8508 8511 0
-8510 8508 8511 0
-8510 -8508 8512 0
8510 -8512 0
8508 -8512 0
-8279 -8509 8513 0
8279 -8513 0
8509 -8513 0
8512 8513 -8514 0
-8512 8514 0
-8513 8514 0
-138 -8409 8515 0
138 -8515 0
8409 -8515 0
-8285 -8515 -8516 0
8285 8515 -8516 0
8285 -8515 8516 0
-8285 8515 8516 0
-8516 -8514 -8517 0
8516 8514 -8517 0
8516 -8514 8517 0
-8516 8514 8517 0
-8516 -8514 8518 0
8516 -8518 0
8514 -8518 0
-8285 -8515 8519 0
8285 -8519 0
8515 -8519 0
8518 8519 -8520 0
-8518 8520 0
-8519 8520 0
-146 -8409 8521 0
146 -8521 0
8409 -8521 0
-8291 -8521 -8522 0
8291 8521 -8522 0
8291 -8521 8522 0
-8291 8521 8522 0
-8522 -8520 -8523 0
8522 8520 -8523 0
8522 -8520 8523 0
-8522 8520 8523 0
-8522 -8520 8524 0
8522 -8524 0
8520 -8524 0
-8291 -8521 8525 0
8291 -8525 0
8521 -8525 0
8524 8525 -8526 0
-8524 8526 0
-8525 8526 0
-154 -8409 8527 0
154 -8527 0
8409 -8527 0
-8297 -8527 -8528 0
8297 8527 -8528 0
8297 -8527 8528 0
-8297 8527 8528 0
-8528 -8526 -8529 0
8528 8526 -8529 0
8528 -8526 8529 0
-8528 8526 8529 0
-8528 -8526 8530 0
8528 -8530 0
8526 -8530 0
-8297 -8527 8531 0
8297 -8531 0
8527 -8531 0
8530 8531 -8532 0
-8530 8532 0
-8531 8532 0
-162 -8409 8533 0
162 -8533 0
8409 -8533 0
-8303 -8533 -8534 0
8303 8533 -8534 0
8303 -8533 8534 0
-8303 8533 8534 0
-8534 -8532 -8535 0
8534 8532 -8535 0
8534 -8532 8535 0
-8534 8532 8535 0
-8534 -8532 8536 0
8534 -8536 0
8532 -8536 0
-8303 -8533 8537 0
8303 -8537 0
8533 -8537 0
8536 8537 -8538 0
-8536 8538 0
-8537 8538 0
-170 -8409 8539 0
170 -8539 0
8409 -8539 0
-8309 -8539 -8540 0
8309 8539 -8540 0
8309 -8539 8540 0
-8309 8539 8540 0
-8540 -8538 -8541 0
8540 8538 -8541 0
8540 -8538 8541 0
-8540 8538 8541 0
-8540 -8538 8542 0
8540 -8542 0
8538 -8542 0
-8309 -8539 8543 0
8309 -8543 0
8539 -8543 0
8542 8543 -8544 0
-8542 8544 0
-8543 8544 0
-178 -8409 8545 0
178 -8545 0
8409 -8545 0
-8315 -8545 -8546 0
8315 8545 -8546 0
8315 -8545 8546 0
-8315 8545 8546 0
-8546 -8544 -8547 0
8546 8544 -8547 0
8546 -8544 8547 0
-8546 8544 8547 0
-8546 -8544 8548 0
8546 -8548 0
8544 -8548 0
-8315 -8545 8549 0
8315 -8549 0
8545 -8549 0
8548 8549 -8550 0
-8548 8550 0
-8549 8550 0
-186 -8409 8551 0
186 -8551 0
8409 -8551 0
-8321 -8551 -8552 0
8321 8551 -8552 0
8321 -8551 8552 0
-8321 8551 8552 0
-8552 -8550 -8553 0
8552 8550 -8553 0
8552 -8550 8553 0
-8552 8550 8553 0
-8552 -8550 8554 0
8552 -8554 0
8550 -8554 0
-8321 -8551 8555 0
8321 -8555 0
8551 -8555 0
8554 8555 -8556 0
-8554 8556 0
-8555 8556 0
-194 -8409 8557 0
194 -8557 0
8409 -8557 0
-8327 -8557 -8558 0
8327 8557 -8558 0
8327 -8557 8558 0
-8327 8557 8558 0
-8558 -8556 -8559 0
8558 8556 -8559 0
8558 -8556 8559 0
-8558 8556 8559 0
-8558 -8556 8560 0
8558 -8560 0
8556 -8560 0
-8327 -8557 8561 0
8327 -8561 0
8557 -8561 0
8560 8561 -8562 0
-8560 8562 0
-8561 8562 0
-202 -8409 8563 0
202 -8563 0
8409 -8563 0
-8333 -8563 -8564 0
8333 8563 -8564 0
8333 -8563 8564 0
-8333 8563 8564 0
-8564 -8562 -8565 0
8564 8562 -8565 0
8564 -8562 8565 0
-8564 8562 8565 0
-8564 -8562 8566 0
8564 -8566 0
8562 -8566 0
-8333 -8563 8567 0
8333 -8567 0
8563 -8567 0
8566 8567 -8568 0
-8566 8568 0
-8567 8568 0
-210 -8409 8569 0
210 -8569 0
8409 -8569 0
-8339 -8569 -8570 0
8339 8569 -8570 0
8339 -8569 8570 0
-8339 8569 8570 0
-8570 -8568 -8571 0
8570 8568 -8571 0
8570 -8568 8571 0
-8570 8568 8571 0
-8570 -8568 8572 0
8570 -8572 0
8568 -8572 0
-8339 -8569 8573 0
8339 -8573 0
8569 -8573 0
8572 8573 -8574 0
-8572 8574 0
-8573 8574 0
-218 -8409 8575 0
218 -8575 0
8409 -8575 0
-8345 -8575 -8576 0
8345 8575 -8576 0
8345 -8575 8576 0
-8345 8575 8576 0
-8576 -8574 -8577 0
8576 8574 -8577 0
8576 -8574 8577 0
-8576 8574 8577 0
-8576 -8574 8578 0
8576 -8578 0
8574 -8578 0
-8345 -8575 8579 0
8345 -8579 0
8575 -8579 0
8578 8579 -8580 0
-8578 8580 0
-8579 8580 0
-226 -8409 8581 0
226 -8581 0
8409 -8581 0
-8351 -8581 -8582 0
8351 8581 -8582 0
8351 -8581 8582 0
-8351 8581 8582 0
-8582 -8580 -8583 0
8582 8580 -8583 0
8582 -8580 8583 0
-8582 8580 8583 0
-8582 -8580 8584 0
8582 -8584 0
8580 -8584 0
-8351 -8581 8585 0
8351 -8585 0
8581 -8585 0
8584 8585 -8586 0
-8584 8586 0
-8585 8586 0
-234 -8409 8587 0
234 -8587 0
8409 -8587 0
-8357 -8587 -8588 0
8357 8587 -8588 0
8357 -8587 8588 0
-8357 8587 8588 0
-8588 -8586 -8589 0
8588 8586 -8589 0
8588 -8586 8589 0
-8588 8586 8589 0
-8588 -8586 8590 0
8588 -8590 0
8586 -8590 0
-8357 -8587 8591 0
8357 -8591 0
8587 -8591 0
8590 8591 -8592 0
-8590 8592 0
-8591 8592 0
-242 -8409 8593 0
242 -8593 0
8409 -8593 0
-8363 -8593 -8594 0
8363 8593 -8594 0
8363 -8593 8594 0
-8363 8593 8594 0
-8594 -8592 -8595 0
8594 8592 -8595 0
8594 -8592 8595 0
-8594 8592 8595 0
-8594 -8592 8596 0
8594 -8596 0
8592 -8596 0
-8363 -8593 8597 0
8363 -8597 0
8593 -8597 0
8596 8597 -8598 0
-8596 8598 0
-8597 8598 0
-250 -8409 8599 0
250 -8599 0
8409 -8599 0
-8369 -8599 -8600 0
8369 8599 -8600 0
8369 -8599 8600 0
-8369 8599 8600 0
-8600 -8598 -8601 0
8600 8598 -8601 0
8600 -8598 8601 0
-8600 8598 8601 0
-8600 -8598 8602 0
8600 -8602 0
8598 -8602 0
-8369 -8599 8603 0
8369 -8603 0
8599 -8603 0
8602 8603 -8604 0
-8602 8604 0
-8603 8604 0
-258 -8409 8605 0
258 -8605 0
8409 -8605 0
-8375 -8605 -8606 0
8375 8605 -8606 0
8375 -8605 8606 0
-8375 8605 8606 0
-8606 -8604 -8607 0
8606 8604 -8607 0
8606 -8604 8607 0
-8606 8604 8607 0
-8606 -8604 8608 0
8606 -8608 0
8604 -8608 0
-8375 -8605 8609 0
8375 -8609 0
8605 -8609 0
8608 8609 -8610 0
-8608 8610 0
-8609 8610 0
-266 -8409 8611 0
266 -8611 0
8409 -8611 0
-8381 -8611 -8612 0
8381 8611 -8612 0
8381 -8611 8612 0
-8381 8611 8612 0
-8612 -8610 -8613 0
8612 8610 -8613 0
8612 -8610 8613 0
-8612 8610 8613 0
-8612 -8610 8614 0
8612 -8614 0
8610 -8614 0
-8381 -8611 8615 0
8381 -8615 0
8611 -8615 0
8614 8615 -8616 0
-8614 8616 0
-8615 8616 0
-274 -8409 8617 0
274 -8617 0
8409 -8617 0
-8387 -8617 -8618 0
8387 8617 -8618 0
8387 -8617 8618 0
-8387 8617 8618 0
-8618 -8616 -8619 0
8618 8616 -8619 0
8618 -8616 8619 0
-8618 8616 8619 0
-8618 -8616 8620 0
8618 -8620 0
8616 -8620 0
-8387 -8617 8621 0
8387 -8621 0
8617 -8621 0
8620 8621 -8622 0
-8620 8622 0
-8621 8622 0
-282 -8409 8623 0
282 -8623 0
8409 -8623 0
-8393 -8623 -8624 0
8393 8623 -8624 0
8393 -8623 8624 0
-8393 8623 8624 0
-8624 -8622 -8625 0
8624 8622 -8625 0
8624 -8622 8625 0
-8624 8622 8625 0
-8624 -8622 8626 0
8624 -8626 0
8622 -8626 0
-8393 -8623 8627 0
8393 -8627 0
8623 -8627 0
8626 8627 -8628 0
-8626 8628 0
-8627 8628 0
-290 -8409 8629 0
290 -8629 0
8409 -8629 0
-8399 -8629 -8630 0
8399 8629 -8630 0
8399 -8629 8630 0
-8399 8629 8630 0
-8630 -8628 -8631 0
8630 8628 -8631 0
8630 -8628 8631 0
-8630 8628 8631 0
-8630 -8628 8632 0
8630 -8632 0
8628 -8632 0
-8399 -8629 8633 0
8399 -8633 0
8629 -8633 0
8632 8633 -8634 0
-8632 8634 0
-8633 8634 0
-298 -8409 8635 0
298 -8635 0
8409 -8635 0
-8405 -8635 -8636 0
8405 8635 -8636 0
8405 -8635 8636 0
-8405 8635 8636 0
-8636 -8634 -8637 0
8636 8634 -8637 0
8636 -8634 8637 0
-8636 8634 8637 0
-8636 -8634 8638 0
8636 -8638 0
8634 -8638 0
-8405 -8635 8639 0
8405 -8639 0
8635 -8639 0
8638 8639 -8640 0
-8638 8640 0
-8639 8640 0
-306 -8409 8641 0
306 -8641 0
8409 -8641 0
-8408 -8641 -8642 0
8408 8641 -8642 0
8408 -8641 8642 0
-8408 8641 8642 0
-8642 -8640 -8643 0
8642 8640 -8643 0
8642 -8640 8643 0
-8642 8640 8643 0
-8642 -8640 8644 0
8642 -8644 0
8640 -8644 0
-8408 -8641 8645 0
8408 -8645 0
8641 -8645 0
8644 8645 -8646 0
-8644 8646 0
-8645 8646 0
-1 -8647 8648 0
1 -8648 0
8647 -8648 0
-8415 -8648 -8649 0
8415 8648 -8649 0
8415 -8648 8649 0
-8415 8648 8649 0
-8415 -8648 8650 0
8415 -8650 0
8648 -8650 0
-4 -8647 8651 0
4 -8651 0
8647 -8651 0
-8421 -8651 -8652 0
8421 8651 -8652 0
8421 -8651 8652 0
-8421 8651 8652 0
-8652 -8650 -8653 0
8652 8650 -8653 0
8652 -8650 8653 0
-8652 8650 8653 0
-8652 -8650 8654 0
8652 -8654 0
8650 -8654 0
-8421 -8651 8655 0
8421 -8655 0
8651 -8655 0
8654 8655 -8656 0
-8654 8656 0
-8655 8656 0
-10 -8647 8657 0
10 -8657 0
8647 -8657 0
-8427 -8657 -8658 0
8427 8657 -8658 0
8427 -8657 8658 0
-8427 8657 8658 0
-8658 -8656 -8659 0
8658 8656 -8659 0
8658 -8656 8659 0
-8658 8656 8659 0
-8658 -8656 8660 0
8658 -8660 0
8656 -8660 0
-8427 -8657 8661 0
8427 -8661 0
8657 -8661 0
8660 8661 -8662 0
-8660 8662 0
-8661 8662 0
-18 -8647 8663 0
18 -8663 0
8647 -8663 0
-8433 -8663 -8664 0
8433 8663 -8664 0
8433 -8663 8664 0
-8433 8663 8664 0
-8664 -8662 -8665 0
8664 8662 -8665 0
8664 -8662 8665 0
-8664 8662 8665 0
-8664 -8662 8666 0
8664 -8666 0
8662 -8666 0
-8433 -8663 8667 0
8433 -8667 0
8663 -8667 0
8666 8667 -8668 0
-8666 8668 0
-8667 8668 0
-26 -8647 8669 0
26 -8669 0
8647 -8669 0
-8439 -8669 -8670 0
8439 8669 -8670 0
8439 -8669 8670 0
-8439 8669 8670 0
-8670 -8668 -8671 0
8670 8668 -8671 0
8670 -8668 8671 0
-8670 8668 8671 0
-8670 -8668 8672 0
8670 -8672 0
8668 -8672 0
-8439 -8669 8673 0
8439 -8673 0
8669 -8673 0
8672 8673 -8674 0
-8672 8674 0
-8673 8674 0
-34 -8647 8675 0
34 -8675 0
8647 -8675 0
-8445 -8675 -8676 0
8445 8675 -8676 0
8445 -8675 8676 0
-8445 8675 8676 0
-8676 -8674 -8677 0
8676 8674 -8677 0
8676 -8674 8677 0
-8676 8674 8677 0
-8676 -8674 8678 0
8676 -8678 0
8674 -8678 0
-8445 -8675 8679 0
8445 -8679 0
8675 -8679 0
8678 8679 -8680 0
-8678 8680 0
-8679 8680 0
-42 -8647 8681 0
42 -8681 0
8647 -8681 0
-8451 -8681 -8682 0
8451 8681 -8682 0
8451 -8681 8682 0
-8451 8681 8682 0
-8682 -8680 -8683 0
8682 8680 -8683 0
8682 -8680 8683 0
-8682 8680 8683 0
-8682 -8680 8684 0
8682 -8684 0
8680 -8684 0
-8451 -8681 8685 0
8451 -8685 0
8681 -8685 0
8684 8685 -8686 0
-8684 8686 0
-8685 8686 0
-50 -8647 8687 0
50 -8687 0
8647 -8687 0
-8457 -8687 -8688 0
8457 8687 -8688 0
8457 -8687 8688 0
-8457 8687 8688 0
-8688 -8686 -8689 0
8688 8686 -8689 0
8688 -8686 8689 0
-8688 8686 8689 0
-8688 -8686 8690 0
8688 -8690 0
8686 -8690 0
-8457 -8687 8691 0
8457 -8691 0
8687 -8691 0
8690 8691 -8692 0
-8690 8692 0
-8691 8692 0
-58 -8647 8693 0
58 -8693 0
8647 -8693 0
-8463 -8693 -8694 0
8463 8693 -8694 0
8463 -8693 8694 0
-8463 8693 8694 0
-8694 -8692 -8695 0
8694 8692 -8695 0
8694 -8692 8695 0
-8694 8692 8695 0
-8694 -8692 8696 0
8694 -8696 0
8692 -8696 0
-8463 -8693 8697 0
8463 -8697 0
8693 -8697 0
8696 8697 -8698 0
-8696 8698 0
-8697 8698 0
-66 -8647 8699 0
66 -8699 0
8647 -8699 0
-8469 -8699 -8700 0
8469 8699 -8700 0
8469 -8699 8700 0
-8469 8699 8700 0
-8700 -8698 -8701 0
8700 8698 -8701 0
8700 -8698 8701 0
-8700 8698 8701 0
-8700 -8698 8702 0
8700 -8702 0
8698 -8702 0
-8469 -8699 8703 0
8469 -8703 0
8699 -8703 0
8702 8703 -8704 0
-8702 8704 0
-8703 8704 0
-74 -8647 8705 0
74 -8705 0
8647 -8705 0
-8475 -8705 -8706 0
8475 8705 -8706 0
8475 -8705 8706 0
-8475 8705 8706 0
-8706 -8704 -8707 0
8706 8704 -8707 0
8706 -8704 8707 0
-8706 8704 8707 0
-8706 -8704 8708 0
8706 -8708 0
8704 -8708 0
-8475 -8705 8709 0
8475 -8709 0
8705 -8709 0
8708 8709 -8710 0
-8708 8710 0
-8709 8710 0
-82 -8647 8711 0
82 -8711 0
8647 -8711 0
-8481 -8711 -8712 0
8481 8711 -8712 0
8481 -8711 8712 0
-8481 8711 8712 0
-8712 -8710 -8713 0
8712 8710 -8713 0
8712 -8710 8713 0
-8712 8710 8713 0
-8712 -8710 8714 0
8712 -8714 0
8710 -8714 0
-8481 -8711 8715 0
8481 -8715 0
8711 -8715 0
8714 8715 -8716 0
-8714 8716 0
-8715 8716 0
-90 -8647 8717 0
90 -8717 0
8647 -8717 0
-8487 -8717 -8718 0
8487 8717 -8718 0
8487 -8717 8718 0
-8487 8717 8718 0
-8718 -8716 -8719 0
8718 8716 -8719 0
8718 -8716 8719 0
-8718 8716 8719 0
-8718 -8716 8720 0
8718 -8720 0
8716 -8720 0
-8487 -8717 8721 0
8487 -8721 0
8717 -8721 0
8720 8721 -8722 0
-8720 8722 0
-8721 8722 0
-98 -8647 8723 0
98 -8723 0
8647 -8723 0
-8493 -8723 -8724 0
8493 8723 -8724 0
8493 -8723 8724 0
-8493 8723 8724 0
-8724 -8722 -8725 0
8724 8722 -8725 0
8724 -8722 8725 0
-8724 8722 8725 0
-8724 -8722 8726 0
8724 -8726 0
8722 -8726 0
-8493 -8723 8727 0
8493 -8727 0
8723 -8727 0
8726 8727 -8728 0
-8726 8728 0
-8727 8728 0
-106 -8647 8729 0
106 -8729 0
8647 -8729 0
-8499 -8729 -8730 0
8499 8729 -8730 0
8499 -8729 8730 0
-8499 8729 8730 0
-8730 -8728 -8731 0
8730 8728 -8731 0
8730 -8728 8731 0
-8730 8728 8731 0
-8730 -8728 8732 0
8730 -8732 0
8728 -8732 0
-8499 -8729 8733 0
8499 -8733 0
8729 -8733 0
8732 8733 -8734 0
-8732 8734 0
-8733 8734 0
-114 -8647 8735 0
114 -8735 0
8647 -8735 0
-8505 -8735 -8736 0
8505 8735 -8736 0
8505 -8735 8736 0
-8505 8735 8736 0
-8736 -8734 -8737 0
8736 8734 -8737 0
8736 -8734 8737 0
-8736 8734 8737 0
-8736 -8734 8738 0
8736 -8738 0
8734 -8738 0
-8505 -8735 8739 0
8505 -8739 0
8735 -8739 0
8738 8739 -8740 0
-8738 8740 0
-8739 8740 0
-122 -8647 8741 0
122 -8741 0
8647 -8741 0
-8511 -8741 -8742 0
8511 8741 -8742 0
8511 -8741 8742 0
-8511 8741 8742 0
-8742 -8740 -8743 0
8742 8740 -8743 0
8742 -8740 8743 0
-8742 8740 8743 0
-8742 -8740 8744 0
8742 -8744 0
8740 -8744 0
-8511 -8741 8745 0
8511 -8745 0
8741 -8745 0
8744 8745 -8746 0
-8744 8746 0
-8745 8746 0
-130 -8647 8747 0
130 -8747 0
8647 -8747 0
-8517 -8747 -8748 0
8517 8747 -8748 0
8517 -8747 8748 0
-8517 8747 8748 0
-8748 -8746 -8749 0
8748 8746 -8749 0
8748 -8746 8749 0
-8748 8746 8749 0
-8748 -8746 8750 0
8748 -8750 0
8746 -8750 0
-8517 -8747 8751 0
8517 -8751 0
8747 -8751 0
8750 8751 -8752 0
-8750 8752 0
-8751 8752 0
-138 -8647 8753 0
138 -8753 0
8647 -8753 0
-8523 -8753 -8754 0
8523 8753 -8754 0
8523 -8753 8754 0
-8523 8753 8754 0
-8754 -8752 -8755 0
8754 8752 -8755 0
8754 -8752 8755 0
-8754 8752 8755 0
-8754 -8752 8756 0
8754 -8756 0
8752 -8756 0
-8523 -8753 8757 0
8523 -8757 0
8753 -8757 0
8756 8757 -8758 0
-8756 8758 0
-8757 8758 0
-146 -8647 8759 0
146 -8759 0
8647 -8759 0
-8529 -8759 -8760 0
8529 8759 -8760 0
8529 -8759 8760 0
-8529 8759 8760 0
-8760 -8758 -8761 0
8760 8758 -8761 0
8760 -8758 8761 0
-8760 8758 8761 0
-8760 -8758 8762 0
8760 -8762 0
8758 -8762 0
-8529 -8759 8763 0
8529 -8763 0
8759 -8763 0
8762 8763 -8764 0
-8762 8764 0
-8763 8764 0
-154 -8647 8765 0
154 -8765 0
8647 -8765 0
-8535 -8765 -8766 0
8535 8765 -8766 0
8535 -8765 8766 0
-8535 8765 8766 0
-8766 -8764 -8767 0
8766 8764 -8767 0
8766 -8764 8767 0
-8766 8764 8767 0
-8766 -8764 8768 0
8766 -8768 0
8764 -8768 0
-8535 -8765 8769 0
8535 -8769 0
8765 -8769 0
8768 8769 -8770 0
-8768 8770 0
-8769 8770 0
-162 -8647 8771 0
162 -8771 0
8647 -8771 0
-8541 -8771 -8772 0
8541 8771 -8772 0
8541 -8771 8772 0
-8541 8771 8772 0
-8772 -8770 -8773 0
8772 8770 -8773 0
8772 -8770 8773 0
-8772 8770 8773 0
-8772 -8770 8774 0
8772 -8774 0
8770 -8774 0
-8541 -8771 8775 0
8541 -8775 0
8771 -8775 0
8774 8775 -8776 0
-8774 8776 0
-8775 8776 0
-170 -8647 8777 0
170 -8777 0
8647 -8777 0
-8547 -8777 -8778 0
8547 8777 -8778 0
8547 -8777 8778 0
-8547 8777 8778 0
-8778 -8776 -8779 0
8778 8776 -8779 0
8778 -8776 8779 0
-8778 8776 8779 0
-8778 -8776 8780 0
8778 -8780 0
8776 -8780 0
-8547 -8777 8781 0
8547 -8781 0
8777 -8781 0
8780 8781 -8782 0
-8780 8782 0
-8781 8782 0
-178 -8647 8783 0
178 -8783 0
8647 -8783 0
-8553 -8783 -8784 0
8553 8783 -8784 0
8553 -8783 8784 0
-8553 8783 8784 0
-8784 -8782 -8785 0
8784 8782 -8785 0
8784 -8782 8785 0
-8784 8782 8785 0
-8784 -8782 8786 0
8784 -8786 0
8782 -8786 0
-8553 -8783 8787 0
8553 -8787 0
8783 -8787 0
8786 8787 -8788 0
-8786 8788 0
-8787 8788 0
-186 -8647 8789 0
186 -8789 0
8647 -8789 0
-8559 -8789 -8790 0
8559 8789 -8790 0
8559 -8789 8790 0
-8559 8789 8790 0
-8790 -8788 -8791 0
8790 8788 -8791 0
8790 -8788 8791 0
-8790 8788 8791 0
-8790 -8788 8792 0
8790 -8792 0
8788 -8792 0
-8559 -8789 8793 0
8559 -8793 0
8789 -8793 0
8792 8793 -8794 0
-8792 8794 0
-8793 8794 0
-194 -8647 8795 0
194 -8795 0
8647 -8795 0
-8565 -8795 -8796 0
8565 8795 -8796 0
8565 -8795 8796 0
-8565 8795 8796 0
-8796 -8794 -8797 0
8796 8794 -8797 0
8796 -8794 8797 0
-8796 8794 8797 0
-8796 -8794 8798 0
8796 -8798 0
8794 -8798 0
-8565 -8795 8799 0
8565 -8799 0
8795 -8799 0
8798 8799 -8800 0
-8798 8800 0
-8799 8800 0
-202 -8647 8801 0
202 -8801 0
8647 -8801 0
-8571 -8801 -8802 0
8571 8801 -8802 0
8571 -8801 8802 0
-8571 8801 8802 0
-8802 -8800 -8803 0
8802 8800 -8803 0
8802 -8800 8803 0
-8802 8800 8803 0
-8802 -8800 8804 0
8802 -8804 0
8800 -8804 0
-8571 -8801 8805 0
8571 -8805 0
8801 -8805 0
8804 8805 -8806 0
-8804 8806 0
-8805 8806 0
-210 -8647 8807 0
210 -8807 0
8647 -8807 0
-8577 -8807 -8808 0
8577 8807 -8808 0
8577 -8807 8808 0
-8577 8807 8808 0
-8808 -8806 -8809 0
8808 8806 -8809 0
8808 -8806 8809 0
-8808 8806 8809 0
-8808 -8806 8810 0
8808 -8810 0
8806 -8810 0
-8577 -8807 8811 0
8577 -8811 0
8807 -8811 0
8810 8811 -8812 0
-8810 8812 0
-8811 8812 0
-218 -8647 8813 0
218 -8813 0
8647 -8813 0
-8583 -8813 -8814 0
8583 8813 -8814 0
8583 -8813 8814 0
-8583 8813 8814 0
-8814 -8812 -8815 0
8814 8812 -8815 0
8814 -8812 8815 0
-8814 8812 8815 0
-8814 -8812 8816 0
8814 -8816 0
8812 -8816 0
-8583 -8813 8817 0
8583 -8817 0
8813 -8817 0
8816 8817 -8818 0
-8816 8818 0
-8817 8818 0
-226 -8647 8819 0
226 -8819 0
8647 -8819 0
-8589 -8819 -8820 0
8589 8819 -8820 0
8589 -8819 8820 0
-8589 8819 8820 0
-8820 -8818 -8821 0
8820 8818 -8821 0
8820 -8818 8821 0
-8820 8818 8821 0
-8820 -8818 8822 0
8820 -8822 0
8818 -8822 0
-8589 -8819 8823 0
8589 -8823 0
8819 -8823 0
8822 8823 -8824 0
-8822 8824 0
-8823 8824 0
-234 -8647 8825 0
234 -8825 0
8647 -8825 0
-8595 -8825 -8826 0
8595 8825 -8826 0
8595 -8825 8826 0
-8595 8825 8826 0
-8826 -8824 -8827 0
8826 8824 -8827 0
8826 -8824 8827 0
-8826 8824 8827 0
-8826 -8824 8828 0
8826 -8828 0
8824 -8828 0
-8595 -8825 8829 0
8595 -8829 0
8825 -8829 0
8828 8829 -8830 0
-8828 8830 0
-8829 8830 0
-242 -8647 8831 0
242 -8831 0
8647 -8831 0
-8601 -8831 -8832 0
8601 8831 -8832 0
8601 -8831 8832 0
-8601 8831 8832 0
-8832 -8830 -8833 0
8832 8830 -8833 0
8832 -8830 8833 0
-8832 8830 8833 0
-8832 -8830 8834 0
8832 -8834 0
8830 -8834 0
-8601 -8831 8835 0
8601 -8835 0
8831 -8835 0
8834 8835 -8836 0
-8834 8836 0
-8835 8836 0
-250 -8647 8837 0
250 -8837 0
8647 -8837 0
-8607 -8837 -8838 0
8607 8837 -8838 0
8607 -8837 8838 0
-8607 8837 8838 0
-8838 -8836 -8839 0
8838 8836 -8839 0
8838 -8836 8839 0
-8838 8836 8839 0
-8838 -8836 8840 0
8838 -8840 0
8836 -8840 0
-8607 -8837 8841 0
8607 -8841 0
8837 -8841 0
8840 8841 -8842 0
-8840 8842 0
-8841 8842 0
-258 -8647 8843 0
258 -8843 0
8647 -8843 0
-8613 -8843 -8844 0
8613 8843 -8844 0
8613 -8843 8844 0
-8613 8843 8844 0
-8844 -8842 -8845 0
8844 8842 -8845 0
8844 -8842 8845 0
-8844 8842 8845 0
-8844 -8842 8846 0
8844 -8846 0
8842 -8846 0
-8613 -8843 8847 0
8613 -8847 0
8843 -8847 0
8846 8847 -8848 0
-8846 8848 0
-8847 8848 0
-266 -8647 8849 0
266 -8849 0
8647 -8849 0
-8619 -8849 -8850 0
8619 8849 -8850 0
8619 -8849 8850 0
-8619 8849 8850 0
-8850 -8848 -8851 0
8850 8848 -8851 0
8850 -8848 8851 0
-8850 8848 8851 0
-8850 -8848 8852 0
8850 -8852 0
8848 -8852 0
-8619 -8849 8853 0
8619 -8853 0
8849 -8853 0
8852 8853 -8854 0
-8852 8854 0
-8853 8854 0
-274 -8647 8855 0
274 -8855 0
8647 -8855 0
-8625 -8855 -8856 0
8625 8855 -8856 0
8625 -8855 8856 0
-8625 8855 8856 0
-8856 -8854 -8857 0
8856 8854 -8857 0
8856 -8854 8857 0
-8856 8854 8857 0
-8856 -8854 8858 0
8856 -8858 0
8854 -8858 0
-8625 -8855 8859 0
8625 -8859 0
8855 -8859 0
8858 8859 -8860 0
-8858 8860 0
-8859 8860 0
-282 -8647 8861 0
282 -8861 0
8647 -8861 0
-8631 -8861 -8862 0
8631 8861 -8862 0
8631 -8861 8862 0
-8631 8861 8862 0
-8862 -8860 -8863 0
8862 8860 -8863 0
8862 -8860 8863 0
-8862 8860 8863 0
-8862 -8860 8864 0
8862 -8864 0
8860 -8864 0
-8631 -8861 8865 0
8631 -8865 0
8861 -8865 0
8864 8865 -8866 0
-8864 8866 0
-8865 8866 0
-290 -8647 8867 0
290 -8867 0
8647 -8867 0
-8637 -8867 -8868 0
8637 8867 -8868 0
8637 -8867 8868 0
-8637 8867 8868 0
-8868 -8866 -8869 0
8868 8866 -8869 0
8868 -8866 8869 0
-8868 8866 8869 0
-8868 -8866 8870 0
8868 -8870 0
8866 -8870 0
-8637 -8867 8871 0
8637 -8871 0
8867 -8871 0
8870 8871 -8872 0
-8870 8872 0
-8871 8872 0
-298 -8647 8873 0
298 -8873 0
8647 -8873 0
-8643 -8873 -8874 0
8643 8873 -8874 0
8643 -8873 8874 0
-8643 8873 8874 0
-8874 -8872 -8875 0
8874 8872 -8875 0
8874 -8872 8875 0
-8874 8872 8875 0
-8874 -8872 8876 0
8874 -8876 0
8872 -8876 0
-8643 -8873 8877 0
8643 -8877 0
8873 -8877 0
8876 8877 -8878 0
-8876 8878 0
-8877 8878 0
-306 -8647 8879 0
306 -8879 0
8647 -8879 0
-8646 -8879 -8880 0
8646 8879 -8880 0
8646 -8879 8880 0
-8646 8879 8880 0
-8880 -8878 -8881 0
8880 8878 -8881 0
8880 -8878 8881 0
-8880 8878 8881 0
-8880 -8878 8882 0
8880 -8882 0
8878 -8882 0
-8646 -8879 8883 0
8646 -8883 0
8879 -8883 0
8882 8883 -8884 0
-8882 8884 0
-8883 8884 0
-1 -8885 8886 0
1 -8886 0
8885 -8886 0
-8653 -8886 -8887 0
8653 8886 -8887 0
8653 -8886 8887 0
-8653 8886 8887 0
-8653 -8886 8888 0
8653 -8888 0
8886 -8888 0
-4 -8885 8889 0
4 -8889 0
8885 -8889 0
-8659 -8889 -8890 0
8659 8889 -8890 0
8659 -8889 8890 0
-8659 8889 8890 0
-8890 -8888 -8891 0
8890 8888 -8891 0
8890 -8888 8891 0
-8890 8888 8891 0
-8890 -8888 8892 0
8890 -8892 0
8888 -8892 0
-8659 -8889 8893 0
8659 -8893 0
8889 -8893 0
8892 8893 -8894 0
-8892 8894 0
-8893 8894 0
-10 -8885 8895 0
10 -8895 0
8885 -8895 0
-8665 -8895 -8896 0
8665 8895 -8896 0
8665 -8895 8896 0
-8665 8895 8896 0
-8896 -8894 -8897 0
8896 8894 -8897 0
8896 -8894 8897 0
-8896 8894 8897 0
-8896 -8894 8898 0
8896 -8898 0
8894 -8898 0
-8665 -8895 8899 0
8665 -8899 0
8895 -8899 0
8898 8899 -8900 0
-8898 8900 0
-8899 8900 0
-18 -8885 8901 0
18 -8901 0
8885 -8901 0
-8671 -8901 -8902 0
8671 8901 -8902 0
8671 -8901 8902 0
-8671 8901 8902 0
-8902 -8900 -8903 0
8902 8900 -8903 0
8902 -8900 8903 0
-8902 8900 8903 0
-8902 -8900 8904 0
8902 -8904 0
8900 -8904 0
-8671 -8901 8905 0
8671 -8905 0
8901 -8905 0
8904 8905 -8906 0
-8904 8906 0
-8905 8906 0
-26 -8885 8907 0
26 -8907 0
8885 -8907 0
-8677 -8907 -8908 0
8677 8907 -8908 0
8677 -8907 8908 0
-8677 8907 8908 0
-8908 -8906 -8909 0
8908 8906 -8909 0
8908 -8906 8909 0
-8908 8906 8909 0
-8908 -8906 8910 0
8908 -8910 0
8906 -8910 0
-8677 -8907 8911 0
8677 -8911 0
8907 -8911 0
8910 8911 -8912 0
-8910 8912 0
-8911 8912 0
-34 -8885 8913 0
34 -8913 0
8885 -8913 0
-8683 -8913 -8914 0
8683 8913 -8914 0
8683 -8913 8914 0
-8683 8913 8914 0
-8914 -8912 -8915 0
8914 8912 -8915 0
8914 -8912 8915 0
-8914 8912 8915 0
-8914 -8912 8916 0
8914 -8916 0
8912 -8916 0
-8683 -8913 8917 0
8683 -8917 0
8913 -8917 0
8916 8917 -8918 0
-8916 8918 0
-8917 8918 0
-42 -8885 8919 0
42 -8919 0
8885 -8919 0
-8689 -8919 -8920 0
8689 8919 -8920 0
8689 -8919 8920 0
-8689 8919 8920 0
-8920 -8918 -8921 0
8920 8918 -8921 0
8920 -8918 8921 0
-8920 8918 8921 0
-8920 -8918 8922 0
8920 -8922 0
8918 -8922 0
-8689 -8919 8923 0
8689 -8923 0
8919 -8923 0
8922 8923 -8924 0
-8922 8924 0
-8923 8924 0
-50 -8885 8925 0
50 -8925 0
8885 -8925 0
-8695 -8925 -8926 0
8695 8925 -8926 0
8695 -8925 8926 0
-8695 8925 8926 0
-8926 -8924 -8927 0
8926 8924 -8927 0
8926 -8924 8927 0
-8926 8924 8927 0
-8926 -8924 8928 0
8926 -8928 0
8924 -8928 0
-8695 -8925 8929 0
8695 -8929 0
8925 -8929 0
8928 8929 -8930 0
-8928 8930 0
-8929 8930 0
-58 -8885 8931 0
58 -8931 0
8885 -8931 0
-8701 -8931 -8932 0
8701 8931 -8932 0
8701 -8931 8932 0
-8701 8931 8932 0
-8932 -8930 -8933 0
8932 8930 -8933 0
8932 -8930 8933 0
-8932 8930 8933 0
-8932 -8930 8934 0
8932 -8934 0
8930 -8934 0
-8701 -8931 8935 0
8701 -8935 0
8931 -8935 0
8934 8935 -8936 0
-8934 8936 0
-8935 8936 0
-66 -8885 8937 0
66 -8937 0
8885 -8937 0
-8707 -8937 -8938 0
8707 8937 -8938 0
8707 -8937 8938 0
-8707 8937 8938 0
-8938 -8936 -8939 0
8938 8936 -8939 0
8938 -8936 8939 0
-8938 8936 8939 0
-8938 -8936 8940 0
8938 -8940 0
8936 -8940 0
-8707 -8937 8941 0
8707 -8941 0
8937 -8941 0
8940 8941 -8942 0
-8940 8942 0
-8941 8942 0
-74 -8885 8943 0
74 -8943 0
8885 -8943 0
-8713 -8943 -8944 0
8713 8943 -8944 0
8713 -8943 8944 0
-8713 8943 8944 0
-8944 -8942 -8945 0
8944 8942 -8945 0
8944 -8942 8945 0
-8944 8942 8945 0
-8944 -8942 8946 0
8944 -8946 0
8942 -8946 0
-8713 -8943 8947 0
8713 -8947 0
8943 -8947 0
8946 8947 -8948 0
-8946 8948 0
-8947 8948 0
-82 -8885 8949 0
82 -8949 0
8885 -8949 0
-8719 -8949 -8950 0
8719 8949 -8950 0
8719 -8949 8950 0
-8719 8949 8950 0
-8950 -8948 -8951 0
8950 8948 -8951 0
8950 -8948 8951 0
-8950 8948 8951 0
-8950 -8948 8952 0
8950 -8952 0
8948 -8952 0
-8719 -8949 8953 0
8719 -8953 0
8949 -8953 0
8952 8953 -8954 0
-8952 8954 0
-8953 8954 0
-90 -8885 8955 0
90 -8955 0
8885 -8955 0
-8725 -8955 -8956 0
8725 8955 -8956 0
8725 -8955 8956 0
-8725 8955 8956 0
-8956 -8954 -8957 0
8956 8954 -8957 0
8956 -8954 8957 0
-8956 8954 8957 0
-8956 -8954 8958 0
8956 -8958 0
8954 -8958 0
-8725 -8955 8959 0
8725 -8959 0
8955 -8959 0
8958 8959 -8960 0
-8958 8960 0
-8959 8960 0
-98 -8885 8961 0
98 -8961 0
8885 -8961 0
-8731 -8961 -8962 0
8731 8961 -8962 0
8731 -8961 8962 0
-8731 8961 8962 0
-8962 -8960 -8963 0
8962 8960 -8963 0
8962 -8960 8963 0
-8962 8960 8963 0
-8962 -8960 8964 0
8962 -8964 0
8960 -8964 0
-8731 -8961 8965 0
8731 -8965 0
8961 -8965 0
8964 8965 -8966 0
-8964 8966 0
-8965 8966 0
-106 -8885 8967 0
106 -8967 0
8885 -8967 0
-8737 -8967 -8968 0
8737 8967 -8968 0
8737 -8967 8968 0
-8737 8967 8968 0
-8968 -8966 -8969 0
8968 8966 -8969 0
8968 -8966 8969 0
-8968 8966 8969 0
-8968 -8966 8970 0
8968 -8970 0
8966 -8970 0
-8737 -8967 8971 0
8737 -8971 0
8967 -8971 0
8970 8971 -8972 0
-8970 8972 0
-8971 8972 0
-114 -8885 8973 0
114 -8973 0
8885 -8973 0
-8743 -8973 -8974 0
8743 8973 -8974 0
8743 -8973 8974 0
-8743 8973 8974 0
-8974 -8972 -8975 0
8974 8972 -8975 0
8974 -8972 8975 0
-8974 8972 8975 0
-8974 -8972 8976 0
8974 -8976 0
8972 -8976 0
-8743 -8973 8977 0
8743 -8977 0
8973 -8977 0
8976 8977 -8978 0
-8976 8978 0
-8977 8978 0
-122 -8885 8979 0
122 -8979 0
8885 -8979 0
-8749 -8979 -8980 0
8749 8979 -8980 0
8749 -8979 8980 0
-8749 8979 8980 0
-8980 -8978 -8981 0
8980 8978 -8981 0
8980 -8978 8981 0
-8980 8978 8981 0
-8980 -8978 8982 0
8980 -8982 0
8978 -8982 0
-8749 -8979 8983 0
8749 -8983 0
8979 -8983 0
8982 8983 -8984 0
-8982 8984 0
-8983 8984 0
-130 -8885 8985 0
130 -8985 0
8885 -8985 0
-8755 -8985 -8986 0
8755 8985 -8986 0
8755 -8985 8986 0
-8755 8985 8986 0
-8986 -8984 -8987 0
8986 8984 -8987 0
8986 -8984 8987 0
-8986 8984 8987 0
-8986 -8984 8988 0
8986 -8988 0
8984 -8988 0
-8755 -8985 8989 0
8755 -8989 0
8985 -8989 0
8988 8989 -8990 0
-8988 8990 0
-8989 8990 0
-138 -8885 8991 0
138 -8991 0
8885 -8991 0
-8761 -8991 -8992 0
8761 8991 -8992 0
8761 -8991 8992 0
-8761 8991 8992 0
-8992 -8990 -8993 0
8992 8990 -8993 0
8992 -8990 8993 0
-8992 8990 8993 0
-8992 -8990 8994 0
8992 -8994 0
8990 -8994 0
-8761 -8991 8995 0
8761 -8995 0
8991 -8995 0
8994 8995 -8996 0
-8994 8996 0
-8995 8996 0
-146 -8885 8997 0
146 -8997 0
8885 -8997 0
-8767 -8997 -8998 0
8767 8997 -8998 0
8767 -8997 8998 0
-8767 8997 8998 0
-8998 -8996 -8999 0
8998 8996 -8999 0
8998 -8996 8999 0
-8998 8996 8999 0
-8998 -8996 9000 0
8998 -9000 0
8996 -9000 0
-8767 -8997 9001 0
8767 -9001 0
8997 -9001 0
9000 9001 -9002 0
-9000 9002 0
-9001 9002 0
-154 -8885 9003 0
154 -9003 0
8885 -9003 0
-8773 -9003 -9004 0
8773 9003 -9004 0
8773 -9003 9004 0
-8773 9003 9004 0
-9004 -9002 -9005 0
9004 9002 -9005 0
9004 -9002 9005 0
-9004 9002 9005 0
-9004 -9002 9006 0
9004 -9006 0
9002 -9006 0
-8773 -9003 9007 0
8773 -9007 0
9003 -9007 0
9006 9007 -9008 0
-9006 9008 0
-9007 9008 0
-162 -8885 9009 0
162 -9009 0
8885 -9009 0
-8779 -9009 -9010 0
8779 9009 -9010 0
8779 -9009 9010 0
-8779 9009 9010 0
-9010 -9008 -9011 0
9010 9008 -9011 0
9010 -9008 9011 0
-9010 9008 9011 0
-9010 -9008 9012 0
9010 -9012 0
9008 -9012 0
-8779 -9009 9013 0
8779 -9013 0
9009 -9013 0
9012 9013 -9014 0
-9012 9014 0
-9013 9014 0
-170 -8885 9015 0
170 -9015 0
8885 -9015 0
-8785 -9015 -9016 0
8785 9015 -9016 0
8785 -9015 9016 0
-8785 9015 9016 0
-9016 -9014 -9017 0
9016 9014 -9017 0
9016 -9014 9017 0
-9016 9014 9017 0
-9016 -9014 9018 0
9016 -9018 0
9014 -9018 0
-8785 -9015 9019 0
8785 -9019 0
9015 -9019 0
9018 9019 -9020 0
-9018 9020 0
-9019 9020 0
-178 -8885 9021 0
178 -9021 0
8885 -9021 0
-8791 -9021 -9022 0
8791 9021 -9022 0
8791 -9021 9022 0
-8791 9021 9022 0
-9022 -9020 -9023 0
9022 9020 -9023 0
9022 -9020 9023 0
-9022 9020 9023 0
-9022 -9020 9024 0
9022 -9024 0
9020 -9024 0
-8791 -9021 9025 0
8791 -9025 0
9021 -9025 0
9024 9025 -9026 0
-9024 9026 0
-9025 9026 0
-186 -8885 9027 0
186 -9027 0
8885 -9027 0
-8797 -9027 -9028 0
8797 9027 -9028 0
8797 -9027 9028 0
-8797 9027 9028 0
-9028 -9026 -9029 0
9028 9026 -9029 0
9028 -9026 9029 0
-9028 9026 9029 0
-9028 -9026 9030 0
9028 -9030 0
9026 -9030 0
-8797 -9027 9031 0
8797 -9031 0
9027 -9031 0
9030 9031 -9032 0
-9030 9032 0
-9031 9032 0
-194 -8885 9033 0
194 -9033 0
8885 -9033 0
-8803 -9033 -9034 0
8803 9033 -9034 0
8803 -9033 9034 0
-8803 9033 9034 0
-9034 -9032 -9035 0
9034 9032 -9035 0
9034 -9032 9035 0
-9034 9032 9035 0
-9034 -9032 9036 0
9034 -9036 0
9032 -9036 0
-8803 -9033 9037 0
8803 -9037 0
9033 -9037 0
9036 9037 -9038 0
-9036 9038 0
-9037 9038 0
-202 -8885 9039 0
202 -9039 0
8885 -9039 0
-8809 -9039 -9040 0
8809 9039 -9040 0
8809 -9039 9040 0
-8809 9039 9040 0
-9040 -9038 -9041 0
9040 9038 -9041 0
9040 -9038 9041 0
-9040 9038 9041 0
-9040 -9038 9042 0
9040 -9042 0
9038 -9042 0
-8809 -9039 9043 0
8809 -9043 0
9039 -9043 0
9042 9043 -9044 0
-9042 9044 0
-9043 9044 0
-210 -8885 9045 0
210 -9045 0
8885 -9045 0
-8815 -9045 -9046 0
8815 9045 -9046 0
8815 -9045 9046 0
-8815 9045 9046 0
-9046 -9044 -9047 0
9046 9044 -9047 0
9046 -9044 9047 0
-9046 9044 9047 0
-9046 -9044 9048 0
9046 -9048 0
9044 -9048 0
-8815 -9045 9049 0
8815 -9049 0
9045 -9049 0
9048 9049 -9050 0
-9048 9050 0
-9049 9050 0
-218 -8885 9051 0
218 -9051 0
8885 -9051 0
-8821 -9051 -9052 0
8821 9051 -9052 0
8821 -9051 9052 0
-8821 9051 9052 0
-9052 -9050 -9053 0
9052 9050 -9053 0
9052 -9050 9053 0
-9052 9050 9053 0
-9052 -9050 9054 0
9052 -9054 0
9050 -9054 0
-8821 -9051 9055 0
8821 -9055 0
9051 -9055 0
9054 9055 -9056 0
-9054 9056 0
-9055 9056 0
-226 -8885 9057 0
226 -9057 0
8885 -9057 0
-8827 -9057 -9058 0
8827 9057 -9058 0
8827 -9057 9058 0
-8827 9057 9058 0
-9058 -9056 -9059 0
9058 9056 -9059 0
9058 -9056 9059 0
-9058 9056 9059 0
-9058 -9056 9060 0
9058 -9060 0
9056 -9060 0
-8827 -9057 9061 0
8827 -9061 0
9057 -9061 0
9060 9061 -9062 0
-9060 9062 0
-9061 9062 0
-234 -8885 9063 0
234 -9063 0
8885 -9063 0
-8833 -9063 -9064 0
8833 9063 -9064 0
8833 -9063 9064 0
-8833 9063 9064 0
-9064 -9062 -9065 0
9064 9062 -9065 0
9064 -9062 9065 0
-9064 9062 9065 0
-9064 -9062 9066 0
9064 -9066 0
9062 -9066 0
-8833 -9063 9067 0
8833 -9067 0
9063 -9067 0
9066 9067 -9068 0
-9066 9068 0
-9067 9068 0
-242 -8885 9069 0
242 -9069 0
8885 -9069 0
-8839 -9069 -9070 0
8839 9069 -9070 0
8839 -9069 9070 0
-8839 9069 9070 0
-9070 -9068 -9071 0
9070 9068 -9071 0
9070 -9068 9071 0
-9070 9068 9071 0
-9070 -9068 9072 0
9070 -9072 0
9068 -9072 0
-8839 -9069 9073 0
8839 -9073 0
9069 -9073 0
9072 9073 -9074 0
-9072 9074 0
-9073 9074 0
-250 -8885 9075 0
250 -9075 0
8885 -9075 0
-8845 -9075 -9076 0
8845 9075 -9076 0
8845 -9075 9076 0
-8845 9075 9076 0
-9076 -9074 -9077 0
9076 9074 -9077 0
9076 -9074 9077 0
-9076 9074 9077 0
-9076 -9074 9078 0
9076 -9078 0
9074 -9078 0
-8845 -9075 9079 0
8845 -9079 0
9075 -9079 0
9078 9079 -9080 0
-9078 9080 0
-9079 9080 0
-258 -8885 9081 0
258 -9081 0
8885 -9081 0
-8851 -9081 -9082 0
8851 9081 -9082 0
8851 -9081 9082 0
-8851 9081 9082 0
-9082 -9080 -9083 0
9082 9080 -9083 0
9082 -9080 9083 0
-9082 9080 9083 0
-9082 -9080 9084 0
9082 -9084 0
9080 -9084 0
-8851 -9081 9085 0
8851 -9085 0
9081 -9085 0
9084 9085 -9086 0
-9084 9086 0
-9085 9086 0
-266 -8885 9087 0
266 -9087 0
8885 -9087 0
-8857 -9087 -9088 0
8857 9087 -9088 0
8857 -9087 9088 0
-8857 9087 9088 0
-9088 -9086 -9089 0
9088 9086 -9089 0
9088 -9086 9089 0
-9088 9086 9089 0
-9088 -9086 9090 0
9088 -9090 0
9086 -9090 0
-8857 -9087 9091 0
8857 -9091 0
9087 -9091 0
9090 9091 -9092 0
-9090 9092 0
-9091 9092 0
-274 -8885 9093 0
274 -9093 0
8885 -9093 0
-8863 -9093 -9094 0
8863 9093 -9094 0
8863 -9093 9094 0
-8863 9093 9094 0
-9094 -9092 -9095 0
9094 9092 -9095 0
9094 -9092 9095 0
-9094 9092 9095 0
-9094 -9092 9096 0
9094 -9096 0
9092 -9096 0
-8863 -9093 9097 0
8863 -9097 0
9093 -9097 0
9096 9097 -9098 0
-9096 9098 0
-9097 9098 0
-282 -8885 9099 0
282 -9099 0
8885 -9099 0
-8869 -9099 -9100 0
8869 9099 -9100 0
8869 -9099 9100 0
-8869 9099 9100 0
-9100 -9098 -9101 0
9100 9098 -9101 0
9100 -9098 9101 0
-9100 9098 9101 0
-9100 -9098 9102 0
9100 -9102 0
9098 -9102 0
-8869 -9099 9103 0
8869 -9103 0
9099 -9103 0
9102 9103 -9104 0
-9102 9104 0
-9103 9104 0
-290 -8885 9105 0
290 -9105 0
8885 -9105 0
-8875 -9105 -9106 0
8875 9105 -9106 0
8875 -9105 9106 0
-8875 9105 9106 0
-9106 -9104 -9107 0
9106 9104 -9107 0
9106 -9104 9107 0
-9106 9104 9107 0
-9106 -9104 9108 0
9106 -9108 0
9104 -9108 0
-8875 -9105 9109 0
8875 -9109 0
9105 -9109 0
9108 9109 -9110 0
-9108 9110 0
-9109 9110 0
-298 -8885 9111 0
298 -9111 0
8885 -9111 0
-8881 -9111 -9112 0
8881 9111 -9112 0
8881 -9111 9112 0
-8881 9111 9112 0
-9112 -9110 -9113 0
9112 9110 -9113 0
9112 -9110 9113 0
-9112 9110 9113 0
-9112 -9110 9114 0
9112 -9114 0
9110 -9114 0
-8881 -9111 9115 0
8881 -9115 0
9111 -9115 0
9114 9115 -9116 0
-9114 9116 0
-9115 9116 0
-306 -8885 9117 0
306 -9117 0
8885 -9117 0
-8884 -9117 -9118 0
8884 9117 -9118 0
8884 -9117 9118 0
-8884 9117 9118 0
-9118 -9116 -9119 0
9118 9116 -9119 0
9118 -9116 9119 0
-9118 9116 9119 0
-9118 -9116 9120 0
9118 -9120 0
9116 -9120 0
-8884 -9117 9121 0
8884 -9121 0
9117 -9121 0
9120 9121 -9122 0
-9120 9122 0
-9121 9122 0
-1 -9123 9124 0
1 -9124 0
9123 -9124 0
-8891 -9124 -9125 0
8891 9124 -9125 0
8891 -9124 9125 0
-8891 9124 9125 0
-8891 -9124 9126 0
8891 -9126 0
9124 -9126 0
-4 -9123 9127 0
4 -9127 0
9123 -9127 0
-8897 -9127 -9128 0
8897 9127 -9128 0
8897 -9127 9128 0
-8897 9127 9128 0
-9128 -9126 -9129 0
9128 9126 -9129 0
9128 -9126 9129 0
-9128 9126 9129 0
-9128 -9126 9130 0
9128 -9130 0
9126 -9130 0
-8897 -9127 9131 0
8897 -9131 0
9127 -9131 0
9130 9131 -9132 0
-9130 9132 0
-9131 9132 0
-10 -9123 9133 0
10 -9133 0
9123 -9133 0
-8903 -9133 -9134 0
8903 9133 -9134 0
8903 -9133 9134 0
-8903 9133 9134 0
-9134 -9132 -9135 0
9134 9132 -9135 0
9134 -9132 9135 0
-9134 9132 9135 0
-9134 -9132 9136 0
9134 -9136 0
9132 -9136 0
-8903 -9133 9137 0
8903 -9137 0
9133 -9137 0
9136 9137 -9138 0
-9136 9138 0
-9137 9138 0
-18 -9123 9139 0
18 -9139 0
9123 -9139 0
-8909 -9139 -9140 0
8909 9139 -9140 0
8909 -9139 9140 0
-8909 9139 9140 0
-9140 -9138 -9141 0
9140 9138 -9141 0
9140 -9138 9141 0
-9140 9138 9141 0
-9140 -9138 9142 0
9140 -9142 0
9138 -9142 0
-8909 -9139 9143 0
8909 -9143 0
9139 -9143 0
9142 9143 -9144 0
-9142 9144 0
-9143 9144 0
-26 -9123 9145 0
26 -9145 0
9123 -9145 0
-8915 -9145 -9146 0
8915 9145 -9146 0
8915 -9145 9146 0
-8915 9145 9146 0
-9146 -9144 -9147 0
9146 9144 -9147 0
9146 -9144 9147 0
-9146 9144 9147 0
-9146 -9144 9148 0
9146 -9148 0
9144 -9148 0
-8915 -9145 9149 0
8915 -9149 0
9145 -9149 0
9148 9149 -9150 0
-9148 9150 0
-9149 9150 0
-34 -9123 9151 0
34 -9151 0
9123 -9151 0
-8921 -9151 -9152 0
8921 9151 -9152 0
8921 -9151 9152 0
-8921 9151 9152 0
-9152 -9150 -9153 0
9152 9150 -9153 0
9152 -9150 9153 0
-9152 9150 9153 0
-9152 -9150 9154 0
9152 -9154 0
9150 -9154 0
-8921 -9151 9155 0
8921 -9155 0
9151 -9155 0
9154 9155 -9156 0
-9154 9156 0
-9155 9156 0
-42 -9123 9157 0
42 -9157 0
9123 -9157 0
-8927 -9157 -9158 0
8927 9157 -9158 0
8927 -9157 9158 0
-8927 9157 9158 0
-9158 -9156 -9159 0
9158 9156 -9159 0
9158 -9156 9159 0
-9158 9156 9159 0
-9158 -9156 9160 0
9158 -9160 0
9156 -9160 0
-8927 -9157 9161 0
8927 -9161 0
9157 -9161 0
9160 9161 -9162 0
-9160 9162 0
-9161 9162 0
-50 -9123 9163 0
50 -9163 0
9123 -9163 0
-8933 -9163 -9164 0
8933 9163 -9164 0
8933 -9163 9164 0
-8933 9163 9164 0
-9164 -9162 -9165 0
9164 9162 -9165 0
9164 -9162 9165 0
-9164 9162 9165 0
-9164 -9162 9166 0
9164 -9166 0
9162 -9166 0
-8933 -9163 9167 0
8933 -9167 0
9163 -9167 0
9166 9167 -9168 0
-9166 9168 0
-9167 9168 0
-58 -9123 9169 0
58 -9169 0
9123 -9169 0
-8939 -9169 -9170 0
8939 9169 -9170 0
8939 -9169 9170 0
-8939 9169 9170 0
-9170 -9168 -9171 0
9170 9168 -9171 0
9170 -9168 9171 0
-9170 9168 9171 0
-9170 -9168 9172 0
9170 -9172 0
9168 -9172 0
-8939 -9169 9173 0
8939 -9173 0
9169 -9173 0
9172 9173 -9174 0
-9172 9174 0
-9173 9174 0
-66 -9123 9175 0
66 -9175 0
9123 -9175 0
-8945 -9175 -9176 0
8945 9175 -9176 0
8945 -9175 9176 0
-8945 9175 9176 0
-9176 -9174 -9177 0
9176 9174 -9177 0
9176 -9174 9177 0
-9176 9174 9177 0
-9176 -9174 9178 0
9176 -9178 0
9174 -9178 0
-8945 -9175 9179 0
8945 -9179 0
9175 -9179 0
9178 9179 -9180 0
-9178 9180 0
-9179 9180 0
-74 -9123 9181 0
74 -9181 0
9123 -9181 0
-8951 -9181 -9182 0
8951 9181 -9182 0
8951 -9181 9182 0
-8951 9181 9182 0
-9182 -9180 -9183 0
9182 9180 -9183 0
9182 -9180 9183 0
-9182 9180 9183 0
-9182 -9180 9184 0
9182 -9184 0
9180 -9184 0
-8951 -9181 9185 0
8951 -9185 0
9181 -9185 0
9184 9185 -9186 0
-9184 9186 0
-9185 9186 0
-82 -9123 9187 0
82 -9187 0
9123 -9187 0
-8957 -9187 -9188 0
8957 9187 -9188 0
8957 -9187 9188 0
-8957 9187 9188 0
-9188 -9186 -9189 0
9188 9186 -9189 0
9188 -9186 9189 0
-9188 9186 9189 0
-9188 -9186 9190 0
9188 -9190 0
9186 -9190 0
-8957 -9187 9191 0
8957 -9191 0
9187 -9191 0
9190 9191 -9192 0
-9190 9192 0
-9191 9192 0
-90 -9123 9193 0
90 -9193 0
9123 -9193 0
-8963 -9193 -9194 0
8963 9193 -9194 0
8963 -9193 9194 0
-8963 9193 9194 0
-9194 -9192 -9195 0
9194 9192 -9195 0
9194 -9192 9195 0
-9194 9192 9195 0
-9194 -9192 9196 0
9194 -9196 0
9192 -9196 0
-8963 -9193 9197 0
8963 -9197 0
9193 -9197 0
9196 9197 -9198 0
-9196 9198 0
-9197 9198 0
-98 -9123 9199 0
98 -9199 0
9123 -9199 0
-8969 -9199 -9200 0
8969 9199 -9200 0
8969 -9199 9200 0
-8969 9199 9200 0
-9200 -9198 -9201 0
9200 9198 -9201 0
9200 -9198 9201 0
-9200 9198 9201 0
-9200 -9198 9202 0
9200 -9202 0
9198 -9202 0
-8969 -9199 9203 0
8969 -9203 0
9199 -9203 0
9202 9203 -9204 0
-9202 9204 0
-9203 9204 0
-106 -9123 9205 0
106 -9205 0
9123 -9205 0
-8975 -9205 -9206 0
8975 9205 -9206 0
8975 -9205 9206 0
-8975 9205 9206 0
-9206 -9204 -9207 0
9206 9204 -9207 0
9206 -9204 9207 0
-9206 9204 9207 0
-9206 -9204 9208 0
9206 -9208 0
9204 -9208 0
-8975 -9205 9209 0
8975 -9209 0
9205 -9209 0
9208 9209 -9210 0
-9208 9210 0
-9209 9210 0
-114 -9123 9211 0
114 -9211 0
9123 -9211 0
-8981 -9211 -9212 0
8981 9211 -9212 0
8981 -9211 9212 0
-8981 9211 9212 0
-9212 -9210 -9213 0
9212 9210 -9213 0
9212 -9210 9213 0
-9212 9210 9213 0
-9212 -9210 9214 0
9212 -9214 0
9210 -9214 0
-8981 -9211 9215 0
8981 -9215 0
9211 -9215 0
9214 9215 -9216 0
-9214 9216 0
-9215 9216 0
-122 -9123 9217 0
122 -9217 0
9123 -9217 0
-8987 -9217 -9218 0
8987 9217 -9218 0
8987 -9217 9218 0
-8987 9217 9218 0
-9218 -9216 -9219 0
9218 9216 -9219 0
9218 -9216 9219 0
-9218 9216 9219 0
-9218 -9216 9220 0
9218 -9220 0
9216 -9220 0
-8987 -9217 9221 0
8987 -9221 0
9217 -9221 0
9220 9221 -9222 0
-9220 9222 0
-9221 9222 0
-130 -9123 9223 0
130 -9223 0
9123 -9223 0
-8993 -9223 -9224 0
8993 9223 -9224 0
8993 -9223 9224 0
-8993 9223 9224 0
-9224 -9222 -9225 0
9224 9222 -9225 0
9224 -9222 9225 0
-9224 9222 9225 0
-9224 -9222 9226 0
9224 -9226 0
9222 -9226 0
-8993 -9223 9227 0
8993 -9227 0
9223 -9227 0
9226 9227 -9228 0
-9226 9228 0
-9227 9228 0
-138 -9123 9229 0
138 -9229 0
9123 -9229 0
-8999 -9229 -9230 0
8999 9229 -9230 0
8999 -9229 9230 0
-8999 9229 9230 0
-9230 -9228 -9231 0
9230 9228 -9231 0
9230 -9228 9231 0
-9230 9228 9231 0
-9230 -9228 9232 0
9230 -9232 0
9228 -9232 0
-8999 -9229 9233 0
8999 -9233 0
9229 -9233 0
9232 9233 -9234 0
-9232 9234 0
-9233 9234 0
-146 -9123 9235 0
146 -9235 0
9123 -9235 0
-9005 -9235 -9236 0
9005 9235 -9236 0
9005 -9235 9236 0
-9005 9235 9236 0
-9236 -9234 -9237 0
9236 9234 -9237 0
9236 -9234 9237 0
-9236 9234 9237 0
-9236 -9234 9238 0
9236 -9238 0
9234 -9238 0
-9005 -9235 9239 0
9005 -9239 0
9235 -9239 0
9238 9239 -9240 0
-9238 9240 0
-9239 9240 0
-154 -9123 9241 0
154 -9241 0
9123 -9241 0
-9011 -9241 -9242 0
9011 9241 -9242 0
9011 -9241 9242 0
-9011 9241 9242 0
-9242 -9240 -9243 0
9242 9240 -9243 0
9242 -9240 9243 0
-9242 9240 9243 0
-9242 -9240 9244 0
9242 -9244 0
9240 -9244 0
-9011 -9241 9245 0
9011 -9245 0
9241 -9245 0
9244 9245 -9246 0
-9244 9246 0
-9245 9246 0
-162 -9123 9247 0
162 -9247 0
9123 -9247 0
-9017 -9247 -9248 0
9017 9247 -9248 0
9017 -9247 9248 0
-9017 9247 9248 0
-9248 -9246 -9249 0
9248 9246 -9249 0
9248 -9246 9249 0
-9248 9246 9249 0
-9248 -9246 9250 0
9248 -9250 0
9246 -9250 0
-9017 -9247 9251 0
9017 -9251 0
9247 -9251 0
9250 9251 -9252 0
-9250 9252 0
-9251 9252 0
-170 -9123 9253 0
170 -9253 0
9123 -9253 0
-9023 -9253 -9254 0
9023 9253 -9254 0
9023 -9253 9254 0
-9023 9253 9254 0
-9254 -9252 -9255 0
9254 9252 -9255 0
9254 -9252 9255 0
-9254 9252 9255 0
-9254 -9252 9256 0
9254 -9256 0
9252 -9256 0
-9023 -9253 9257 0
9023 -9257 0
9253 -9257 0
9256 9257 -9258 0
-9256 9258 0
-9257 9258 0
-178 -9123 9259 0
178 -9259 0
9123 -9259 0
-9029 -9259 -9260 0
9029 9259 -9260 0
9029 -9259 9260 0
-9029 9259 9260 0
-9260 -9258 -9261 0
9260 9258 -9261 0
9260 -9258 9261 0
-9260 9258 9261 0
-9260 -9258 9262 0
9260 -9262 0
9258 -9262 0
-9029 -9259 9263 0
9029 -9263 0
9259 -9263 0
9262 9263 -9264 0
-9262 9264 0
-9263 9264 0
-186 -9123 9265 0
186 -9265 0
9123 -9265 0
-9035 -9265 -9266 0
9035 9265 -9266 0
9035 -9265 9266 0
-9035 9265 9266 0
-9266 -9264 -9267 0
9266 9264 -9267 0
9266 -9264 9267 0
-9266 9264 9267 0
-9266 -9264 9268 0
9266 -9268 0
9264 -9268 0
-9035 -9265 9269 0
9035 -9269 0
9265 -9269 0
9268 9269 -9270 0
-9268 9270 0
-9269 9270 0
-194 -9123 9271 0
194 -9271 0
9123 -9271 0
-9041 -9271 -9272 0
9041 9271 -9272 0
9041 -9271 9272 0
-9041 9271 9272 0
-9272 -9270 -9273 0
9272 9270 -9273 0
9272 -9270 9273 0
-9272 9270 9273 0
-9272 -9270 9274 0
9272 -9274 0
9270 -9274 0
-9041 -9271 9275 0
9041 -9275 0
9271 -9275 0
9274 9275 -9276 0
-9274 9276 0
-9275 9276 0
-202 -9123 9277 0
202 -9277 0
9123 -9277 0
-9047 -9277 -9278 0
9047 9277 -9278 0
9047 -9277 9278 0
-9047 9277 9278 0
-9278 -9276 -9279 0
9278 9276 -9279 0
9278 -9276 9279 0
-9278 9276 9279 0
-9278 -9276 9280 0
9278 -9280 0
9276 -9280 0
-9047 -9277 9281 0
9047 -9281 0
9277 -9281 0
9280 9281 -9282 0
-9280 9282 0
-9281 9282 0
-210 -9123 9283 0
210 -9283 0
9123 -9283 0
-9053 -9283 -9284 0
9053 9283 -9284 0
9053 -9283 9284 0
-9053 9283 9284 0
-9284 -9282 -9285 0
9284 9282 -9285 0
9284 -9282 9285 0
-9284 9282 9285 0
-9284 -9282 9286 0
9284 -9286 0
9282 -9286 0
-9053 -9283 9287 0
9053 -9287 0
9283 -9287 0
9286 9287 -9288 0
-9286 9288 0
-9287 9288 0
-218 -9123 9289 0
218 -9289 0
9123 -9289 0
-9059 -9289 -9290 0
9059 9289 -9290 0
9059 -9289 9290 0
-9059 9289 9290 0
-9290 -9288 -9291 0
9290 9288 -9291 0
9290 -9288 9291 0
-9290 9288 9291 0
-9290 -9288 9292 0
9290 -9292 0
9288 -9292 0
-9059 -9289 9293 0
9059 -9293 0
9289 -9293 0
9292 9293 -9294 0
-9292 9294 0
-9293 9294 0
-226 -9123 9295 0
226 -9295 0
9123 -9295 0
-9065 -9295 -9296 0
9065 9295 -9296 0
9065 -9295 9296 0
-9065 9295 9296 0
-9296 -9294 -9297 0
9296 9294 -9297 0
9296 -9294 9297 0
-9296 9294 9297 0
-9296 -9294 9298 0
9296 -9298 0
9294 -9298 0
-9065 -9295 9299 0
9065 -9299 0
9295 -9299 0
9298 9299 -9300 0
-9298 9300 0
-9299 9300 0
-234 -9123 9301 0
234 -9301 0
9123 -9301 0
-9071 -9301 -9302 0
9071 9301 -9302 0
9071 -9301 9302 0
-9071 9301 9302 0
-9302 -9300 -9303 0
9302 9300 -9303 0
9302 -9300 9303 0
-9302 9300 9303 0
-9302 -9300 9304 0
9302 -9304 0
9300 -9304 0
-9071 -9301 9305 0
9071 -9305 0
9301 -9305 0
9304 9305 -9306 0
-9304 9306 0
-9305 9306 0
-242 -9123 9307 0
242 -9307 0
9123 -9307 0
-9077 -9307 -9308 0
9077 9307 -9308 0
9077 -9307 9308 0
-9077 9307 9308 0
-9308 -9306 -9309 0
9308 9306 -9309 0
9308 -9306 9309 0
-9308 9306 9309 0
-9308 -9306 9310 0
9308 -9310 0
9306 -9310 0
-9077 -9307 9311 0
9077 -9311 0
9307 -9311 0
9310 9311 -9312 0
-9310 9312 0
-9311 9312 0
-250 -9123 9313 0
250 -9313 0
9123 -9313 0
-9083 -9313 -9314 0
9083 9313 -9314 0
9083 -9313 9314 0
-9083 9313 9314 0
-9314 -9312 -9315 0
9314 9312 -9315 0
9314 -9312 9315 0
-9314 9312 9315 0
-9314 -9312 9316 0
9314 -9316 0
9312 -9316 0
-9083 -9313 9317 0
9083 -9317 0
9313 -9317 0
9316 9317 -9318 0
-9316 9318 0
-9317 9318 0
-258 -9123 9319 0
258 -9319 0
9123 -9319 0
-9089 -9319 -9320 0
9089 9319 -9320 0
9089 -9319 9320 0
-9089 9319 9320 0
-9320 -9318 -9321 0
9320 9318 -9321 0
9320 -9318 9321 0
-9320 9318 9321 0
-9320 -9318 9322 0
9320 -9322 0
9318 -9322 0
-9089 -9319 9323 0
9089 -9323 0
9319 -9323 0
9322 9323 -9324 0
-9322 9324 0
-9323 9324 0
-266 -9123 9325 0
266 -9325 0
9123 -9325 0
-9095 -9325 -9326 0
9095 9325 -9326 0
9095 -9325 9326 0
-9095 9325 9326 0
-9326 -9324 -9327 0
9326 9324 -9327 0
9326 -9324 9327 0
-9326 9324 9327 0
-9326 -9324 9328 0
9326 -9328 0
9324 -9328 0
-9095 -9325 9329 0
9095 -9329 0
9325 -9329 0
9328 9329 -9330 0
-9328 9330 0
-9329 9330 0
-274 -9123 9331 0
274 -9331 0
9123 -9331 0
-9101 -9331 -9332 0
9101 9331 -9332 0
9101 -9331 9332 0
-9101 9331 9332 0
-9332 -9330 -9333 0
9332 9330 -9333 0
9332 -9330 9333 0
-9332 9330 9333 0
-9332 -9330 9334 0
9332 -9334 0
9330 -9334 0
-9101 -9331 9335 0
9101 -9335 0
9331 -9335 0
9334 9335 -9336 0
-9334 9336 0
-9335 9336 0
-282 -9123 9337 0
282 -9337 0
9123 -9337 0
-9107 -9337 -9338 0
9107 9337 -9338 0
9107 -9337 9338 0
-9107 9337 9338 0
-9338 -9336 -9339 0
9338 9336 -9339 0
9338 -9336 9339 0
-9338 9336 9339 0
-9338 -9336 9340 0
9338 -9340 0
9336 -9340 0
-9107 -9337 9341 0
9107 -9341 0
9337 -9341 0
9340 9341 -9342 0
-9340 9342 0
-9341 9342 0
-290 -9123 9343 0
290 -9343 0
9123 -9343 0
-9113 -9343 -9344 0
9113 9343 -9344 0
9113 -9343 9344 0
-9113 9343 9344 0
-9344 -9342 -9345 0
9344 9342 -9345 0
9344 -9342 9345 0
-9344 9342 9345 0
-9344 -9342 9346 0
9344 -9346 0
9342 -9346 0
-9113 -9343 9347 0
9113 -9347 0
9343 -9347 0
9346 9347 -9348 0
-9346 9348 0
-9347 9348 0
-298 -9123 9349 0
298 -9349 0
9123 -9349 0
-9119 -9349 -9350 0
9119 9349 -9350 0
9119 -9349 9350 0
-9119 9349 9350 0
-9350 -9348 -9351 0
9350 9348 -9351 0
9350 -9348 9351 0
-9350 9348 9351 0
-9350 -9348 9352 0
9350 -9352 0
9348 -9352 0
-9119 -9349 9353 0
9119 -9353 0
9349 -9353 0
9352 9353 -9354 0
-9352 9354 0
-9353 9354 0
-306 -9123 9355 0
306 -9355 0
9123 -9355 0
-9122 -9355 -9356 0
9122 9355 -9356 0
9122 -9355 9356 0
-9122 9355 9356 0
-9356 -9354 -9357 0
9356 9354 -9357 0
9356 -9354 9357 0
-9356 9354 9357 0
-9356 -9354 9358 0
9356 -9358 0
9354 -9358 0
-9122 -9355 9359 0
9122 -9359 0
9355 -9359 0
9358 9359 -9360 0
-9358 9360 0
-9359 9360 0
3 0
-8 0
-319 0
557 0
795 0
-1033 0
1271 0
-1509 0
-1747 0
-1985 0
2223 0
-2461 0
-2699 0
-2937 0
-3175 0
-3413 0
-3651 0
-3889 0
-4127 0
-4365 0
4603 0
-4841 0
5079 0
-5317 0
-5555 0
5793 0
-6031 0
-6269 0
-6507 0
-6745 0
-6983 0
-7221 0
-7459 0
-7697 0
-7935 0
-8173 0
-8411 0
-8649 0
8887 0
-9125 0
-9129 0
-9135 0
-9141 0
-9147 0
-9153 0
-9159 0
-9165 0
-9171 0
-9177 0
-9183 0
-9189 0
-9195 0
-9201 0
-9207 0
-9213 0
-9219 0
-9225 0
-9231 0
-9237 0
-9243 0
-9249 0
-9255 0
-9261 0
-9267 0
-9273 0
-9279 0
-9285 0
-9291 0
-9297 0
-9303 0
-9309 0
-9315 0
-9321 0
-9327 0
-9333 0
-9339 0
-9345 0
-9351 0
-9357 0
-9360 0
