p cnf 120 375
-2 3 -1 0
1 -3 0
-3 2 0
5 -4 -2 0
-5 4 0
-5 2 0
-6 7 -1 0
1 -7 0
6 -7 0
-8 -7 -5 0
-8 5 7 0
8 5 -7 0
8 -5 7 0
-7 9 -5 0
-9 5 0
-9 7 0
-10 11 -2 0
-11 10 0
-11 2 0
-6 -4 12 0
-12 4 0
-12 6 0
-12 -11 -13 0
11 -13 12 0
-12 11 13 0
-11 13 12 0
-9 -14 -13 0
-14 9 13 0
-9 14 13 0
14 9 -13 0
-9 15 -13 0
-15 13 0
9 -15 0
-12 -11 16 0
11 -16 0
-16 12 0
15 16 -17 0
-15 17 0
-16 17 0
-2 19 -18 0
-19 18 0
-19 2 0
-10 -6 20 0
10 -20 0
6 -20 0
-21 -19 -20 0
-21 19 20 0
21 19 -20 0
21 -19 20 0
-17 -21 -22 0
21 -22 17 0
21 22 -17 0
22 -21 17 0
23 -17 -21 0
21 -23 0
-23 17 0
-19 24 -20 0
-24 19 0
-24 20 0
23 24 -25 0
25 -23 0
-24 25 0
-26 27 -2 0
26 -27 0
-27 2 0
-6 28 -18 0
-28 18 0
6 -28 0
-27 -29 -28 0
27 -29 28 0
27 29 -28 0
-27 28 29 0
-30 -29 -25 0
-30 25 29 0
30 29 -25 0
-29 25 30 0
-29 31 -25 0
29 -31 0
25 -31 0
-27 32 -28 0
27 -32 0
-32 28 0
-33 32 31 0
33 -31 0
-32 33 0
-26 -6 34 0
26 -34 0
6 -34 0
-33 -35 -34 0
33 -35 34 0
35 33 -34 0
35 -33 34 0
36 -33 -34 0
-36 33 0
-36 34 0
-37 38 -1 0
1 -38 0
37 -38 0
-38 -39 -14 0
-39 14 38 0
39 -38 14 0
39 -14 38 0
40 -38 -14 0
-40 14 0
-40 38 0
-37 -4 41 0
-41 4 0
37 -41 0
-42 -41 -22 0
-42 22 41 0
22 -41 42 0
42 -22 41 0
-42 -40 -43 0
40 -43 42 0
43 -40 42 0
-42 40 43 0
-42 -40 44 0
-44 42 0
40 -44 0
-41 -22 45 0
-45 22 0
-45 41 0
44 -46 45 0
-44 46 0
-45 46 0
-10 -37 47 0
-47 10 0
37 -47 0
-48 -30 -47 0
-48 30 47 0
-47 30 48 0
48 -30 47 0
-49 -48 -46 0
-49 46 48 0
49 -46 48 0
49 -48 46 0
-48 -46 50 0
-50 48 0
-50 46 0
-30 -47 51 0
-51 30 0
-51 47 0
-52 51 50 0
-50 52 0
-51 52 0
-37 53 -18 0
-53 18 0
37 -53 0
-53 -35 -54 0
35 53 -54 0
54 35 -53 0
54 53 -35 0
-52 -55 -54 0
54 52 -55 0
54 -52 55 0
55 52 -54 0
-52 56 -54 0
54 -56 0
-56 52 0
57 -53 -35 0
35 -57 0
53 -57 0
57 -58 56 0
-56 58 0
-57 58 0
-26 -37 59 0
26 -59 0
37 -59 0
-36 -59 -60 0
36 -60 59 0
36 -59 60 0
-36 60 59 0
-58 -61 -60 0
-61 58 60 0
-58 61 60 0
61 -60 58 0
62 -58 -60 0
-62 60 0
-62 58 0
-36 -59 63 0
36 -63 0
-63 59 0
-64 62 63 0
64 -62 0
64 -63 0
-65 66 -1 0
1 -66 0
65 -66 0
-67 -43 -66 0
66 -67 43 0
67 43 -66 0
-43 66 67 0
68 -43 -66 0
-68 43 0
-68 66 0
-65 -4 69 0
-69 4 0
65 -69 0
-70 -49 -69 0
-70 49 69 0
49 70 -69 0
-49 70 69 0
-70 -68 -71 0
70 -71 68 0
-68 70 71 0
-70 71 68 0
-70 72 -68 0
-72 70 0
-72 68 0
73 -49 -69 0
-73 49 0
-73 69 0
72 -74 73 0
74 -72 0
74 -73 0
-65 -10 75 0
-75 10 0
-75 65 0
-75 -76 -55 0
75 55 -76 0
-75 55 76 0
75 76 -55 0
-76 -74 -77 0
74 76 -77 0
-74 76 77 0
-76 74 77 0
-76 -74 78 0
-78 76 0
74 -78 0
-75 79 -55 0
55 -79 0
75 -79 0
79 78 -80 0
-78 80 0
80 -79 0
-65 81 -18 0
-81 18 0
65 -81 0
-61 -81 -82 0
81 61 -82 0
82 61 -81 0
82 81 -61 0
-80 -83 -82 0
82 80 -83 0
83 82 -80 0
83 80 -82 0
-80 84 -82 0
82 -84 0
-84 80 0
85 -61 -81 0
61 -85 0
81 -85 0
85 -86 84 0
-84 86 0
-85 86 0
-65 -26 87 0
26 -87 0
65 -87 0
-64 -87 -88 0
64 -88 87 0
64 88 -87 0
-64 88 87 0
-89 -86 -88 0
-89 88 86 0
89 88 -86 0
89 86 -88 0
90 -86 -88 0
-90 88 0
-90 86 0
91 -64 -87 0
64 -91 0
-91 87 0
-92 91 90 0
-90 92 0
92 -91 0
94 -93 -1 0
1 -94 0
93 -94 0
-94 -95 -71 0
94 -95 71 0
71 -94 95 0
94 -71 95 0
96 -94 -71 0
-96 71 0
94 -96 0
-93 97 -4 0
-97 4 0
93 -97 0
-97 -77 -98 0
77 -98 97 0
-97 77 98 0
-77 98 97 0
-96 -99 -98 0
96 98 -99 0
99 98 -96 0
96 99 -98 0
100 -96 -98 0
98 -100 0
96 -100 0
-97 -77 101 0
77 -101 0
-101 97 0
-102 100 101 0
-100 102 0
-101 102 0
-10 -93 103 0
10 -103 0
93 -103 0
-104 -83 -103 0
83 -104 103 0
83 104 -103 0
104 103 -83 0
-104 -102 -105 0
104 -105 102 0
-102 104 105 0
-104 105 102 0
-104 -102 106 0
104 -106 0
-106 102 0
107 -83 -103 0
83 -107 0
103 -107 0
106 107 -108 0
108 -106 0
108 -107 0
109 -93 -18 0
-109 18 0
93 -109 0
-89 -109 -110 0
109 89 -110 0
89 -109 110 0
-89 109 110 0
-111 -110 -108 0
108 -111 110 0
111 -108 110 0
108 111 -110 0
112 -110 -108 0
-112 110 0
108 -112 0
-89 113 -109 0
89 -113 0
109 -113 0
112 113 -114 0
-112 114 0
114 -113 0
-26 -93 115 0
26 -115 0
93 -115 0
-92 -116 -115 0
92 -116 115 0
92 116 -115 0
-92 116 115 0
-117 -116 -114 0
-117 114 116 0
-114 116 117 0
-116 114 117 0
-116 -114 118 0
-118 116 0
-118 114 0
-92 119 -115 0
92 -119 0
-119 115 0
119 -120 118 0
-118 120 0
-119 120 0
3 0
8 0
-39 0
67 0
95 0
-99 0
-105 0
111 0
-117 0
120 0
