p cnf 180 570
-1 3 -2 0
-3 1 0
2 -3 0
-4 5 -2 0
4 -5 0
2 -5 0
-1 -6 7 0
1 -7 0
6 -7 0
-8 -5 -7 0
5 -8 7 0
8 5 -7 0
8 -5 7 0
9 -5 -7 0
5 -9 0
-9 7 0
11 -2 -10 0
10 -11 0
2 -11 0
-4 12 -6 0
4 -12 0
6 -12 0
-13 -11 -12 0
11 -13 12 0
11 -12 13 0
13 -11 12 0
-9 -13 -14 0
9 13 -14 0
14 -9 13 0
9 14 -13 0
-9 -13 15 0
-15 13 0
9 -15 0
-11 -12 16 0
11 -16 0
-16 12 0
-17 15 16 0
-15 17 0
-16 17 0
-2 -18 19 0
18 -19 0
2 -19 0
-6 20 -10 0
10 -20 0
6 -20 0
-21 -19 -20 0
-21 20 19 0
-20 19 21 0
-19 20 21 0
-17 -21 -22 0
-22 21 17 0
-17 22 21 0
-21 22 17 0
-17 -21 23 0
-23 21 0
-23 17 0
-19 -20 24 0
-24 19 0
-24 20 0
23 24 -25 0
-23 25 0
25 -24 0
27 -2 -26 0
-27 26 0
2 -27 0
-6 -18 28 0
18 -28 0
-28 6 0
-27 -28 -29 0
27 -29 28 0
-28 27 29 0
-27 29 28 0
-30 -25 -29 0
25 29 -30 0
29 30 -25 0
25 30 -29 0
31 -25 -29 0
-31 29 0
25 -31 0
32 -27 -28 0
27 -32 0
-32 28 0
32 31 -33 0
-31 33 0
33 -32 0
35 -34 -2 0
-35 34 0
2 -35 0
-6 36 -26 0
-36 26 0
-36 6 0
-37 -36 -35 0
-37 35 36 0
-36 35 37 0
-35 36 37 0
-37 -33 -38 0
33 -38 37 0
-33 37 38 0
-37 33 38 0
39 -37 -33 0
-39 37 0
-39 33 0
40 -36 -35 0
35 -40 0
36 -40 0
39 -41 40 0
-39 41 0
41 -40 0
-6 -34 42 0
34 -42 0
6 -42 0
-43 -41 -42 0
42 -43 41 0
43 -42 41 0
43 -41 42 0
-41 -42 44 0
-44 41 0
-44 42 0
-1 46 -45 0
-46 1 0
-46 45 0
-46 -47 -14 0
-47 14 46 0
-46 14 47 0
47 -14 46 0
-46 48 -14 0
14 -48 0
-48 46 0
-4 49 -45 0
-49 4 0
45 -49 0
-49 -22 -50 0
49 22 -50 0
50 -49 22 0
50 49 -22 0
-48 -50 -51 0
50 48 -51 0
50 -48 51 0
48 51 -50 0
52 -48 -50 0
50 -52 0
48 -52 0
53 -49 -22 0
22 -53 0
49 -53 0
53 -54 52 0
-52 54 0
54 -53 0
55 -45 -10 0
10 -55 0
45 -55 0
-30 -56 -55 0
-56 30 55 0
56 30 -55 0
-30 56 55 0
-56 -54 -57 0
56 -57 54 0
56 57 -54 0
57 -56 54 0
-56 -54 58 0
56 -58 0
-58 54 0
-30 -55 59 0
30 -59 0
55 -59 0
-60 59 58 0
-58 60 0
60 -59 0
61 -45 -18 0
18 -61 0
45 -61 0
-38 -61 -62 0
61 -62 38 0
62 -61 38 0
61 -38 62 0
-60 -63 -62 0
62 60 -63 0
63 -60 62 0
63 60 -62 0
-60 64 -62 0
-64 62 0
-64 60 0
65 -38 -61 0
-65 38 0
61 -65 0
64 -66 65 0
66 -64 0
66 -65 0
67 -45 -26 0
26 -67 0
45 -67 0
-68 -43 -67 0
67 43 -68 0
43 68 -67 0
67 -43 68 0
-68 -69 -66 0
66 68 -69 0
68 -66 69 0
-68 69 66 0
-68 70 -66 0
-70 68 0
66 -70 0
-43 71 -67 0
43 -71 0
67 -71 0
-72 70 71 0
-70 72 0
-71 72 0
73 -34 -45 0
-73 34 0
45 -73 0
-44 -73 -74 0
73 -74 44 0
-73 74 44 0
-44 73 74 0
-75 -74 -72 0
74 -75 72 0
74 75 -72 0
75 -74 72 0
-74 -72 76 0
74 -76 0
-76 72 0
-44 -73 77 0
-77 44 0
73 -77 0
-78 77 76 0
78 -76 0
78 -77 0
-1 80 -79 0
-80 1 0
79 -80 0
-80 -81 -51 0
80 -81 51 0
-80 81 51 0
80 81 -51 0
-80 82 -51 0
-82 51 0
80 -82 0
-79 -4 83 0
4 -83 0
79 -83 0
-84 -83 -57 0
-84 57 83 0
57 84 -83 0
84 -57 83 0
-84 -85 -82 0
-85 84 82 0
84 -82 85 0
-84 82 85 0
-84 86 -82 0
-86 84 0
-86 82 0
87 -83 -57 0
57 -87 0
-87 83 0
86 87 -88 0
-86 88 0
-87 88 0
-79 89 -10 0
10 -89 0
79 -89 0
-89 -90 -63 0
89 63 -90 0
63 90 -89 0
89 -63 90 0
-91 -90 -88 0
-91 88 90 0
91 90 -88 0
91 -90 88 0
92 -90 -88 0
-92 90 0
-92 88 0
93 -89 -63 0
63 -93 0
89 -93 0
93 92 -94 0
-92 94 0
-93 94 0
-79 -18 95 0
-95 18 0
-95 79 0
-95 -69 -96 0
69 -96 95 0
-95 96 69 0
96 -69 95 0
-97 -96 -94 0
96 94 -97 0
96 97 -94 0
97 -96 94 0
98 -96 -94 0
96 -98 0
-98 94 0
-95 -69 99 0
69 -99 0
-99 95 0
-100 98 99 0
100 -98 0
100 -99 0
-79 101 -26 0
26 -101 0
79 -101 0
-75 -102 -101 0
75 101 -102 0
75 102 -101 0
-75 101 102 0
-103 -102 -100 0
100 -103 102 0
-100 103 102 0
100 -102 103 0
-102 104 -100 0
-104 102 0
100 -104 0
-75 105 -101 0
75 -105 0
101 -105 0
-106 105 104 0
106 -104 0
106 -105 0
-79 -34 107 0
-107 34 0
79 -107 0
-108 -78 -107 0
78 107 -108 0
78 -107 108 0
107 -78 108 0
-108 -106 -109 0
106 -109 108 0
-106 109 108 0
-108 106 109 0
-108 -106 110 0
-110 108 0
106 -110 0
-78 -107 111 0
78 -111 0
107 -111 0
110 -112 111 0
-110 112 0
-111 112 0
-1 -113 114 0
-114 1 0
-114 113 0
-85 -114 -115 0
114 -115 85 0
115 -114 85 0
-85 115 114 0
-85 -114 116 0
-116 85 0
114 -116 0
-4 -113 117 0
4 -117 0
113 -117 0
-91 -118 -117 0
91 117 -118 0
91 118 -117 0
117 -91 118 0
-119 -118 -116 0
-119 118 116 0
119 118 -116 0
119 -118 116 0
120 -118 -116 0
-120 118 0
-120 116 0
121 -91 -117 0
-121 91 0
-121 117 0
-122 121 120 0
-120 122 0
122 -121 0
123 -113 -10 0
10 -123 0
113 -123 0
-123 -124 -97 0
123 97 -124 0
97 124 -123 0
123 124 -97 0
-125 -122 -124 0
-125 122 124 0
125 -122 124 0
125 122 -124 0
-122 -124 126 0
124 -126 0
122 -126 0
-123 127 -97 0
-127 97 0
-127 123 0
127 -128 126 0
128 -126 0
-127 128 0
129 -113 -18 0
18 -129 0
-129 113 0
-130 -103 -129 0
129 -130 103 0
130 -129 103 0
129 -103 130 0
-130 -131 -128 0
-131 130 128 0
130 131 -128 0
-130 131 128 0
-130 132 -128 0
130 -132 0
-132 128 0
-103 -129 133 0
-133 103 0
129 -133 0
132 133 -134 0
134 -132 0
134 -133 0
-113 135 -26 0
-135 26 0
-135 113 0
-136 -135 -109 0
-136 135 109 0
136 -135 109 0
136 135 -109 0
-136 -134 -137 0
136 134 -137 0
136 -134 137 0
-136 134 137 0
-136 138 -134 0
136 -138 0
-138 134 0
-135 139 -109 0
-139 109 0
-139 135 0
138 139 -140 0
-138 140 0
-139 140 0
-113 141 -34 0
34 -141 0
113 -141 0
-142 -112 -141 0
-142 141 112 0
142 -141 112 0
141 -112 142 0
-142 -143 -140 0
140 -143 142 0
143 142 -140 0
-142 143 140 0
-142 144 -140 0
142 -144 0
140 -144 0
145 -112 -141 0
-145 112 0
-145 141 0
144 145 -146 0
146 -144 0
-145 146 0
-1 -147 148 0
-148 1 0
147 -148 0
-148 -149 -119 0
-149 119 148 0
-148 119 149 0
-119 148 149 0
150 -148 -119 0
119 -150 0
-150 148 0
-4 -147 151 0
4 -151 0
147 -151 0
-125 -151 -152 0
125 151 -152 0
125 -151 152 0
-125 151 152 0
-150 -153 -152 0
150 -153 152 0
153 -150 152 0
150 153 -152 0
154 -150 -152 0
-154 152 0
150 -154 0
-125 -151 155 0
125 -155 0
151 -155 0
154 -156 155 0
156 -154 0
156 -155 0
-147 157 -10 0
10 -157 0
147 -157 0
-131 -158 -157 0
-158 131 157 0
158 131 -157 0
-131 158 157 0
-159 -158 -156 0
-159 156 158 0
159 -156 158 0
159 -158 156 0
-158 -156 160 0
-160 158 0
-160 156 0
161 -131 -157 0
131 -161 0
-161 157 0
161 160 -162 0
-160 162 0
162 -161 0
163 -147 -18 0
18 -163 0
147 -163 0
-137 -164 -163 0
163 -164 137 0
164 137 -163 0
163 -137 164 0
-164 -165 -162 0
162 164 -165 0
165 164 -162 0
162 -164 165 0
166 -164 -162 0
-166 164 0
162 -166 0
167 -137 -163 0
-167 137 0
163 -167 0
166 167 -168 0
-166 168 0
-167 168 0
169 -147 -26 0
26 -169 0
147 -169 0
-170 -143 -169 0
169 143 -170 0
143 170 -169 0
169 170 -143 0
-170 -171 -168 0
170 -171 168 0
170 171 -168 0
-170 171 168 0
172 -170 -168 0
170 -172 0
-172 168 0
173 -143 -169 0
143 -173 0
169 -173 0
172 173 -174 0
174 -172 0
174 -173 0
-147 175 -34 0
-175 34 0
147 -175 0
-175 -176 -146 0
175 146 -176 0
-175 176 146 0
176 175 -146 0
-174 -177 -176 0
176 174 -177 0
176 -174 177 0
177 174 -176 0
-174 178 -176 0
176 -178 0
-178 174 0
179 -175 -146 0
-179 146 0
-179 175 0
179 178 -180 0
-178 180 0
-179 180 0
3 0
-8 0
47 0
81 0
-115 0
149 0
153 0
159 0
165 0
-171 0
177 0
-180 0
