p cnf 180 570
-2 -1 3 0
1 -3 0
-3 2 0
5 -2 -4 0
-5 4 0
-5 2 0
-6 7 -1 0
1 -7 0
6 -7 0
-8 -5 -7 0
-8 5 7 0
5 8 -7 0
7 -5 8 0
9 -5 -7 0
5 -9 0
7 -9 0
-2 -10 11 0
10 -11 0
2 -11 0
-4 -6 12 0
-12 4 0
6 -12 0
-13 -12 -11 0
-13 12 11 0
13 -12 11 0
13 12 -11 0
-13 -9 -14 0
9 13 -14 0
14 -9 13 0
14 -13 9 0
15 -13 -9 0
13 -15 0
9 -15 0
16 -12 -11 0
-16 11 0
-16 12 0
15 16 -17 0
17 -15 0
17 -16 0
-2 -18 19 0
18 -19 0
-19 2 0
-6 -10 20 0
10 -20 0
-20 6 0
-19 -20 -21 0
-21 20 19 0
21 -20 19 0
-19 21 20 0
-22 -21 -17 0
21 17 -22 0
22 21 -17 0
22 17 -21 0
-21 23 -17 0
21 -23 0
17 -23 0
24 -19 -20 0
-24 19 0
20 -24 0
24 -25 23 0
25 -23 0
25 -24 0
-26 -2 27 0
-27 26 0
-27 2 0
-6 -18 28 0
18 -28 0
-28 6 0
-28 -29 -27 0
28 -29 27 0
-28 29 27 0
28 -27 29 0
-29 -25 -30 0
29 25 -30 0
30 29 -25 0
30 25 -29 0
31 -29 -25 0
-31 29 0
-31 25 0
-28 -27 32 0
-32 27 0
-32 28 0
31 32 -33 0
-31 33 0
33 -32 0
-2 35 -34 0
34 -35 0
2 -35 0
36 -26 -6 0
-36 26 0
6 -36 0
-37 -36 -35 0
36 35 -37 0
37 35 -36 0
36 37 -35 0
-38 -33 -37 0
33 -38 37 0
38 -33 37 0
38 33 -37 0
39 -33 -37 0
-39 37 0
-39 33 0
40 -36 -35 0
35 -40 0
36 -40 0
39 40 -41 0
-39 41 0
41 -40 0
42 -6 -34 0
34 -42 0
6 -42 0
-43 -41 -42 0
41 42 -43 0
41 43 -42 0
43 42 -41 0
44 -41 -42 0
41 -44 0
-44 42 0
46 -1 -45 0
1 -46 0
-46 45 0
-47 -46 -14 0
14 -47 46 0
14 -46 47 0
-14 47 46 0
-46 -14 48 0
14 -48 0
-48 46 0
49 -4 -45 0
-49 4 0
-49 45 0
-49 -22 -50 0
22 49 -50 0
22 -49 50 0
49 -22 50 0
-48 -51 -50 0
-51 50 48 0
-48 51 50 0
51 -50 48 0
-48 52 -50 0
-52 50 0
-52 48 0
-49 -22 53 0
22 -53 0
-53 49 0
52 -54 53 0
-52 54 0
-53 54 0
55 -10 -45 0
10 -55 0
-55 45 0
-55 -56 -30 0
55 30 -56 0
30 56 -55 0
55 56 -30 0
-54 -57 -56 0
56 -57 54 0
-54 56 57 0
54 57 -56 0
-54 58 -56 0
56 -58 0
54 -58 0
59 -55 -30 0
30 -59 0
55 -59 0
59 -60 58 0
60 -58 0
-59 60 0
61 -18 -45 0
18 -61 0
-61 45 0
-62 -61 -38 0
38 61 -62 0
38 -61 62 0
62 61 -38 0
-62 -60 -63 0
62 60 -63 0
62 -60 63 0
-62 63 60 0
-62 64 -60 0
62 -64 0
60 -64 0
65 -61 -38 0
38 -65 0
61 -65 0
64 65 -66 0
-64 66 0
-65 66 0
-26 67 -45 0
-67 26 0
-67 45 0
-67 -43 -68 0
43 67 -68 0
-67 43 68 0
-43 67 68 0
-69 -68 -66 0
-69 68 66 0
69 68 -66 0
69 -68 66 0
70 -68 -66 0
68 -70 0
-70 66 0
71 -67 -43 0
43 -71 0
-71 67 0
71 -72 70 0
72 -70 0
-71 72 0
73 -34 -45 0
34 -73 0
-73 45 0
-44 -74 -73 0
73 44 -74 0
74 44 -73 0
74 -44 73 0
-72 -74 -75 0
74 72 -75 0
74 -72 75 0
72 -74 75 0
76 -72 -74 0
74 -76 0
-76 72 0
-44 -73 77 0
-77 44 0
-77 73 0
76 -78 77 0
-76 78 0
-77 78 0
-79 80 -1 0
1 -80 0
79 -80 0
-51 -81 -80 0
51 80 -81 0
81 51 -80 0
81 -51 80 0
-51 82 -80 0
51 -82 0
80 -82 0
-79 -4 83 0
-83 4 0
79 -83 0
-84 -83 -57 0
-84 57 83 0
-83 57 84 0
84 -57 83 0
-84 -82 -85 0
82 -85 84 0
-82 85 84 0
-84 82 85 0
-84 86 -82 0
-86 84 0
-86 82 0
-83 -57 87 0
-87 57 0
-87 83 0
-88 86 87 0
-86 88 0
88 -87 0
-79 89 -10 0
10 -89 0
79 -89 0
-89 -90 -63 0
-90 63 89 0
90 -89 63 0
90 89 -63 0
-88 -91 -90 0
90 88 -91 0
90 91 -88 0
91 88 -90 0
-88 -90 92 0
90 -92 0
88 -92 0
93 -89 -63 0
63 -93 0
89 -93 0
-94 93 92 0
94 -92 0
-93 94 0
-79 95 -18 0
18 -95 0
79 -95 0
-69 -95 -96 0
95 -96 69 0
96 -95 69 0
96 95 -69 0
-94 -97 -96 0
96 94 -97 0
-94 96 97 0
94 -96 97 0
-94 98 -96 0
96 -98 0
94 -98 0
99 -69 -95 0
-99 69 0
-99 95 0
99 -100 98 0
-98 100 0
-99 100 0
-26 101 -79 0
-101 26 0
79 -101 0
-101 -102 -75 0
101 75 -102 0
-101 75 102 0
101 102 -75 0
-103 -100 -102 0
100 -103 102 0
103 -100 102 0
100 103 -102 0
104 -100 -102 0
-104 102 0
-104 100 0
-101 105 -75 0
-105 75 0
101 -105 0
-106 104 105 0
-104 106 0
106 -105 0
-79 107 -34 0
34 -107 0
79 -107 0
-107 -108 -78 0
78 107 -108 0
108 78 -107 0
108 107 -78 0
-106 -108 -109 0
108 106 -109 0
108 109 -106 0
106 109 -108 0
-106 -108 110 0
108 -110 0
-110 106 0
111 -107 -78 0
78 -111 0
107 -111 0
111 -112 110 0
-110 112 0
112 -111 0
-113 -1 114 0
1 -114 0
-114 113 0
-114 -85 -115 0
-115 85 114 0
-114 85 115 0
115 -85 114 0
-114 -85 116 0
-116 85 0
-116 114 0
-113 -4 117 0
4 -117 0
113 -117 0
-91 -118 -117 0
91 -118 117 0
91 118 -117 0
-91 117 118 0
-116 -119 -118 0
116 -119 118 0
-116 119 118 0
116 119 -118 0
-116 -118 120 0
118 -120 0
116 -120 0
-91 121 -117 0
91 -121 0
-121 117 0
120 121 -122 0
122 -120 0
-121 122 0
-113 -10 123 0
10 -123 0
-123 113 0
-123 -124 -97 0
123 -124 97 0
-123 124 97 0
124 -97 123 0
-124 -125 -122 0
124 -125 122 0
125 124 -122 0
125 -124 122 0
126 -124 -122 0
124 -126 0
122 -126 0
-123 127 -97 0
-127 97 0
-127 123 0
126 127 -128 0
128 -126 0
128 -127 0
-113 -18 129 0
18 -129 0
-129 113 0
-130 -129 -103 0
-130 103 129 0
130 -129 103 0
129 -103 130 0
-130 -131 -128 0
130 128 -131 0
130 131 -128 0
-130 128 131 0
-130 132 -128 0
130 -132 0
128 -132 0
-129 -103 133 0
103 -133 0
-133 129 0
132 -134 133 0
134 -132 0
134 -133 0
-26 -113 135 0
-135 26 0
-135 113 0
-136 -135 -109 0
-136 109 135 0
-135 109 136 0
136 135 -109 0
-137 -136 -134 0
136 134 -137 0
136 137 -134 0
-136 134 137 0
-136 -134 138 0
136 -138 0
134 -138 0
-135 139 -109 0
109 -139 0
-139 135 0
-140 138 139 0
-138 140 0
140 -139 0
-113 141 -34 0
34 -141 0
113 -141 0
-142 -141 -112 0
112 -142 141 0
112 142 -141 0
142 141 -112 0
-143 -140 -142 0
-143 142 140 0
142 -140 143 0
143 140 -142 0
144 -140 -142 0
142 -144 0
140 -144 0
145 -141 -112 0
-145 112 0
-145 141 0
-146 145 144 0
-144 146 0
-145 146 0
-147 -1 148 0
1 -148 0
-148 147 0
-149 -119 -148 0
-149 119 148 0
149 119 -148 0
149 -119 148 0
150 -119 -148 0
119 -150 0
-150 148 0
151 -147 -4 0
4 -151 0
-151 147 0
-152 -125 -151 0
125 -152 151 0
125 152 -151 0
151 -125 152 0
-153 -152 -150 0
-153 150 152 0
153 -150 152 0
153 -152 150 0
-152 154 -150 0
-154 152 0
-154 150 0
155 -125 -151 0
125 -155 0
151 -155 0
-156 154 155 0
-154 156 0
-155 156 0
157 -147 -10 0
10 -157 0
-157 147 0
-131 -158 -157 0
157 -158 131 0
-157 131 158 0
157 -131 158 0
-158 -159 -156 0
-159 156 158 0
159 -156 158 0
159 -158 156 0
-158 -156 160 0
-160 158 0
156 -160 0
-131 161 -157 0
-161 131 0
157 -161 0
161 160 -162 0
162 -160 0
162 -161 0
-147 -18 163 0
18 -163 0
-163 147 0
-163 -137 -164 0
-164 137 163 0
-163 137 164 0
164 -137 163 0
-164 -165 -162 0
164 162 -165 0
164 165 -162 0
-164 162 165 0
-164 166 -162 0
164 -166 0
162 -166 0
-163 -137 167 0
137 -167 0
-167 163 0
-168 166 167 0
168 -166 0
168 -167 0
-147 -26 169 0
-169 26 0
-169 147 0
-170 -143 -169 0
-170 169 143 0
170 -169 143 0
-143 169 170 0
-168 -170 -171 0
168 170 -171 0
-168 170 171 0
-170 168 171 0
-168 -170 172 0
170 -172 0
168 -172 0
-143 -169 173 0
-173 143 0
-173 169 0
172 173 -174 0
174 -172 0
-173 174 0
-147 175 -34 0
34 -175 0
-175 147 0
-146 -175 -176 0
175 -176 146 0
176 -175 146 0
176 -146 175 0
-177 -176 -174 0
176 -177 174 0
176 177 -174 0
177 174 -176 0
178 -176 -174 0
176 -178 0
-178 174 0
179 -146 -175 0
-179 146 0
175 -179 0
179 -180 178 0
180 -178 0
180 -179 0
3 0
8 0
-47 0
81 0
115 0
149 0
-153 0
159 0
165 0
-171 0
-177 0
180 0
