p cnf 252 805
-2 3 -1 0
1 -3 0
-3 2 0
5 -4 -2 0
-5 4 0
-5 2 0
-6 7 -1 0
1 -7 0
6 -7 0
-8 -7 -5 0
-8 5 7 0
8 5 -7 0
8 -5 7 0
-7 9 -5 0
-9 5 0
-9 7 0
-10 11 -2 0
-11 10 0
-11 2 0
-6 -4 12 0
-12 4 0
-12 6 0
-12 -11 -13 0
11 -13 12 0
-12 11 13 0
-11 13 12 0
-9 -14 -13 0
-14 9 13 0
-9 14 13 0
14 9 -13 0
-9 15 -13 0
-15 13 0
9 -15 0
-12 -11 16 0
11 -16 0
-16 12 0
15 16 -17 0
-15 17 0
-16 17 0
-2 19 -18 0
-19 18 0
-19 2 0
-10 -6 20 0
10 -20 0
6 -20 0
-21 -19 -20 0
-21 19 20 0
21 19 -20 0
21 -19 20 0
-17 -21 -22 0
21 -22 17 0
21 22 -17 0
22 -21 17 0
23 -17 -21 0
21 -23 0
-23 17 0
-19 24 -20 0
-24 19 0
-24 20 0
23 24 -25 0
25 -23 0
-24 25 0
-26 27 -2 0
26 -27 0
-27 2 0
-6 28 -18 0
-28 18 0
6 -28 0
-27 -29 -28 0
27 -29 28 0
27 29 -28 0
-27 28 29 0
-30 -29 -25 0
-30 25 29 0
30 29 -25 0
-29 25 30 0
-29 31 -25 0
29 -31 0
25 -31 0
-27 32 -28 0
27 -32 0
-32 28 0
-33 32 31 0
33 -31 0
-32 33 0
35 -2 -34 0
-35 34 0
-35 2 0
-26 -6 36 0
26 -36 0
-36 6 0
-36 -37 -35 0
36 35 -37 0
-36 35 37 0
36 37 -35 0
-38 -37 -33 0
37 -38 33 0
37 -33 38 0
-37 33 38 0
39 -37 -33 0
37 -39 0
-39 33 0
40 -36 -35 0
-40 35 0
36 -40 0
40 39 -41 0
-39 41 0
-40 41 0
-42 43 -2 0
-43 42 0
-43 2 0
-6 44 -34 0
-44 34 0
-44 6 0
-45 -44 -43 0
-45 44 43 0
-44 43 45 0
44 -43 45 0
-45 -46 -41 0
-46 45 41 0
46 -41 45 0
-45 46 41 0
-45 -41 47 0
-47 45 0
-47 41 0
-44 -43 48 0
-48 43 0
44 -48 0
48 -49 47 0
49 -47 0
49 -48 0
-42 -6 50 0
-50 42 0
-50 6 0
-50 -49 -51 0
-51 49 50 0
-50 49 51 0
-49 50 51 0
-50 -49 52 0
-52 49 0
-52 50 0
54 -53 -1 0
1 -54 0
53 -54 0
-14 -55 -54 0
54 14 -55 0
55 14 -54 0
54 55 -14 0
-14 56 -54 0
-56 14 0
54 -56 0
57 -53 -4 0
-57 4 0
53 -57 0
-58 -57 -22 0
22 -58 57 0
22 -57 58 0
57 58 -22 0
-59 -58 -56 0
-59 56 58 0
-56 58 59 0
-58 56 59 0
-58 -56 60 0
-60 58 0
-60 56 0
61 -57 -22 0
22 -61 0
57 -61 0
-62 61 60 0
62 -60 0
-61 62 0
-10 -53 63 0
-63 10 0
-63 53 0
-30 -64 -63 0
-64 30 63 0
64 -63 30 0
64 -30 63 0
-65 -62 -64 0
-65 64 62 0
64 65 -62 0
65 -64 62 0
-62 -64 66 0
64 -66 0
62 -66 0
-30 -63 67 0
30 -67 0
-67 63 0
-68 66 67 0
68 -66 0
-67 68 0
-53 69 -18 0
-69 18 0
53 -69 0
-70 -38 -69 0
-70 38 69 0
70 38 -69 0
-38 70 69 0
-70 -68 -71 0
70 -71 68 0
-68 70 71 0
-70 71 68 0
-70 72 -68 0
-72 70 0
-72 68 0
73 -38 -69 0
-73 38 0
-73 69 0
72 -74 73 0
74 -72 0
74 -73 0
-26 75 -53 0
26 -75 0
-75 53 0
-75 -76 -46 0
-76 75 46 0
-75 76 46 0
75 -46 76 0
-76 -74 -77 0
74 76 -77 0
-74 76 77 0
-76 74 77 0
-76 -74 78 0
-78 76 0
74 -78 0
-75 79 -46 0
46 -79 0
75 -79 0
79 78 -80 0
-78 80 0
80 -79 0
81 -53 -34 0
-81 34 0
53 -81 0
-51 -81 -82 0
81 51 -82 0
82 51 -81 0
-51 81 82 0
-80 -83 -82 0
82 80 -83 0
83 82 -80 0
83 80 -82 0
-80 84 -82 0
82 -84 0
-84 80 0
-51 85 -81 0
51 -85 0
81 -85 0
85 -86 84 0
-84 86 0
-85 86 0
-42 -53 87 0
-87 42 0
53 -87 0
-52 -87 -88 0
-88 52 87 0
88 -87 52 0
-52 88 87 0
-89 -86 -88 0
-89 88 86 0
89 88 -86 0
89 86 -88 0
90 -86 -88 0
-90 88 0
-90 86 0
-52 91 -87 0
-91 52 0
-91 87 0
-92 91 90 0
-90 92 0
92 -91 0
94 -93 -1 0
1 -94 0
93 -94 0
-59 -95 -94 0
94 -95 59 0
-94 59 95 0
94 -59 95 0
96 -59 -94 0
-96 59 0
94 -96 0
-93 97 -4 0
-97 4 0
93 -97 0
-97 -65 -98 0
-98 65 97 0
-97 98 65 0
-65 98 97 0
-96 -99 -98 0
96 98 -99 0
99 98 -96 0
96 99 -98 0
100 -96 -98 0
98 -100 0
96 -100 0
-97 -65 101 0
65 -101 0
-101 97 0
-102 100 101 0
-100 102 0
-101 102 0
-10 -93 103 0
10 -103 0
93 -103 0
-104 -71 -103 0
-104 103 71 0
104 71 -103 0
104 103 -71 0
-104 -102 -105 0
104 -105 102 0
-102 104 105 0
-104 105 102 0
-104 -102 106 0
104 -106 0
-106 102 0
107 -71 -103 0
-107 71 0
103 -107 0
106 107 -108 0
108 -106 0
108 -107 0
109 -93 -18 0
-109 18 0
93 -109 0
-77 -109 -110 0
109 77 -110 0
77 -109 110 0
109 -77 110 0
-111 -110 -108 0
108 -111 110 0
111 -108 110 0
108 111 -110 0
112 -110 -108 0
-112 110 0
108 -112 0
-77 -109 113 0
77 -113 0
109 -113 0
112 113 -114 0
-112 114 0
114 -113 0
-26 -93 115 0
26 -115 0
93 -115 0
-116 -83 -115 0
83 -116 115 0
83 116 -115 0
116 115 -83 0
-117 -116 -114 0
-117 114 116 0
-114 116 117 0
-116 114 117 0
-116 -114 118 0
-118 116 0
-118 114 0
119 -83 -115 0
83 -119 0
-119 115 0
119 -120 118 0
-118 120 0
-119 120 0
-93 121 -34 0
-121 34 0
93 -121 0
-89 -121 -122 0
-122 89 121 0
89 -121 122 0
-89 122 121 0
-122 -123 -120 0
120 122 -123 0
-120 123 122 0
-122 120 123 0
-122 124 -120 0
-124 122 0
-124 120 0
-89 -121 125 0
89 -125 0
121 -125 0
124 -126 125 0
-124 126 0
126 -125 0
-42 127 -93 0
-127 42 0
93 -127 0
-92 -127 -128 0
-128 92 127 0
128 92 -127 0
-92 127 128 0
-128 -126 -129 0
126 -129 128 0
-126 129 128 0
-128 129 126 0
-128 -126 130 0
-130 128 0
-130 126 0
-92 -127 131 0
92 -131 0
127 -131 0
130 131 -132 0
-130 132 0
-131 132 0
-133 134 -1 0
1 -134 0
-134 133 0
-135 -99 -134 0
99 -135 134 0
99 -134 135 0
-99 134 135 0
-99 136 -134 0
99 -136 0
-136 134 0
-133 137 -4 0
-137 4 0
-137 133 0
-137 -138 -105 0
137 -138 105 0
138 -137 105 0
137 -105 138 0
-139 -138 -136 0
138 136 -139 0
138 139 -136 0
139 -138 136 0
-138 -136 140 0
138 -140 0
-140 136 0
-137 141 -105 0
-141 105 0
137 -141 0
141 140 -142 0
142 -140 0
142 -141 0
-133 -10 143 0
10 -143 0
133 -143 0
-111 -144 -143 0
111 -144 143 0
111 144 -143 0
-111 144 143 0
-145 -142 -144 0
142 144 -145 0
145 -142 144 0
142 145 -144 0
146 -142 -144 0
-146 144 0
142 -146 0
-111 147 -143 0
111 -147 0
-147 143 0
-148 146 147 0
-146 148 0
148 -147 0
-133 149 -18 0
-149 18 0
133 -149 0
-117 -149 -150 0
-150 117 149 0
150 117 -149 0
-117 150 149 0
-150 -151 -148 0
-151 150 148 0
150 -148 151 0
-150 148 151 0
-150 -148 152 0
150 -152 0
148 -152 0
-117 153 -149 0
-153 117 0
-153 149 0
153 152 -154 0
-152 154 0
-153 154 0
-133 -26 155 0
26 -155 0
-155 133 0
-155 -123 -156 0
-156 123 155 0
-155 156 123 0
-123 156 155 0
-157 -156 -154 0
-157 156 154 0
157 156 -154 0
157 -156 154 0
-156 158 -154 0
156 -158 0
-158 154 0
-155 -123 159 0
123 -159 0
155 -159 0
-160 159 158 0
160 -158 0
160 -159 0
-133 161 -34 0
-161 34 0
133 -161 0
-162 -129 -161 0
-162 129 161 0
162 129 -161 0
162 -129 161 0
-162 -160 -163 0
162 160 -163 0
162 -160 163 0
-162 160 163 0
-162 -160 164 0
162 -164 0
-164 160 0
165 -129 -161 0
-165 129 0
-165 161 0
165 -166 164 0
-164 166 0
-165 166 0
-42 167 -133 0
-167 42 0
-167 133 0
-132 -167 -168 0
-168 132 167 0
-167 132 168 0
-132 168 167 0
-169 -168 -166 0
166 -169 168 0
169 -166 168 0
169 166 -168 0
-168 -166 170 0
-170 168 0
166 -170 0
-132 -167 171 0
132 -171 0
-171 167 0
-172 171 170 0
-170 172 0
172 -171 0
174 -173 -1 0
1 -174 0
-174 173 0
-174 -139 -175 0
-175 139 174 0
-174 175 139 0
-139 174 175 0
-174 -139 176 0
139 -176 0
174 -176 0
-173 -4 177 0
-177 4 0
173 -177 0
-178 -145 -177 0
-178 145 177 0
178 145 -177 0
178 -145 177 0
-178 -179 -176 0
178 176 -179 0
178 179 -176 0
-178 179 176 0
180 -178 -176 0
-180 178 0
-180 176 0
181 -145 -177 0
145 -181 0
-181 177 0
180 181 -182 0
-180 182 0
182 -181 0
183 -10 -173 0
-183 10 0
-183 173 0
-151 -183 -184 0
183 151 -184 0
-183 151 184 0
183 -151 184 0
-182 -185 -184 0
182 -185 184 0
185 -182 184 0
185 182 -184 0
-182 186 -184 0
-186 184 0
-186 182 0
-151 -183 187 0
-187 151 0
183 -187 0
187 -188 186 0
188 -186 0
-187 188 0
189 -173 -18 0
-189 18 0
173 -189 0
-157 -189 -190 0
157 -190 189 0
190 157 -189 0
-157 190 189 0
-188 -191 -190 0
190 188 -191 0
190 -188 191 0
188 191 -190 0
-188 192 -190 0
190 -192 0
188 -192 0
-157 193 -189 0
157 -193 0
-193 189 0
193 192 -194 0
-192 194 0
194 -193 0
-26 -173 195 0
26 -195 0
173 -195 0
-196 -195 -163 0
195 -196 163 0
196 -195 163 0
196 195 -163 0
-197 -196 -194 0
-197 194 196 0
-194 197 196 0
197 194 -196 0
198 -196 -194 0
-198 196 0
-198 194 0
199 -195 -163 0
-199 163 0
-199 195 0
-200 199 198 0
200 -198 0
-199 200 0
201 -173 -34 0
-201 34 0
173 -201 0
-169 -202 -201 0
201 169 -202 0
169 202 -201 0
201 -169 202 0
-200 -203 -202 0
200 -203 202 0
-200 202 203 0
203 200 -202 0
-200 204 -202 0
-204 202 0
200 -204 0
205 -169 -201 0
169 -205 0
201 -205 0
205 204 -206 0
-204 206 0
-205 206 0
-42 207 -173 0
-207 42 0
-207 173 0
-208 -207 -172 0
207 -208 172 0
208 -207 172 0
207 208 -172 0
-209 -206 -208 0
-209 208 206 0
209 208 -206 0
209 -208 206 0
-206 -208 210 0
-210 208 0
-210 206 0
211 -207 -172 0
-211 172 0
-211 207 0
211 -212 210 0
212 -210 0
-211 212 0
-213 214 -1 0
1 -214 0
-214 213 0
-215 -214 -179 0
214 -215 179 0
-214 215 179 0
215 214 -179 0
-214 216 -179 0
-216 179 0
-216 214 0
217 -213 -4 0
-217 4 0
-217 213 0
-217 -218 -185 0
217 185 -218 0
185 -217 218 0
217 -185 218 0
-216 -218 -219 0
-219 216 218 0
-216 219 218 0
219 -218 216 0
-216 -218 220 0
-220 218 0
216 -220 0
-217 221 -185 0
185 -221 0
217 -221 0
-222 221 220 0
222 -220 0
222 -221 0
-10 -213 223 0
-223 10 0
-223 213 0
-223 -224 -191 0
-224 223 191 0
-223 191 224 0
224 223 -191 0
-222 -224 -225 0
222 224 -225 0
-222 225 224 0
222 225 -224 0
-222 226 -224 0
-226 224 0
222 -226 0
-223 227 -191 0
-227 191 0
-227 223 0
226 227 -228 0
-226 228 0
-227 228 0
-213 229 -18 0
-229 18 0
-229 213 0
-229 -197 -230 0
229 197 -230 0
-229 197 230 0
229 -197 230 0
-231 -228 -230 0
-231 228 230 0
231 -228 230 0
231 228 -230 0
232 -228 -230 0
-232 230 0
228 -232 0
-229 -197 233 0
-233 197 0
229 -233 0
232 -234 233 0
234 -232 0
-233 234 0
-26 -213 235 0
26 -235 0
213 -235 0
-236 -235 -203 0
203 235 -236 0
203 -235 236 0
236 -203 235 0
-236 -234 -237 0
234 -237 236 0
-234 237 236 0
-236 234 237 0
-236 -234 238 0
-238 236 0
-238 234 0
239 -235 -203 0
203 -239 0
-239 235 0
238 -240 239 0
-238 240 0
-239 240 0
-213 241 -34 0
-241 34 0
213 -241 0
-209 -241 -242 0
209 241 -242 0
209 -241 242 0
-209 241 242 0
-240 -243 -242 0
-243 240 242 0
-240 243 242 0
240 243 -242 0
-240 244 -242 0
-244 242 0
-244 240 0
-209 245 -241 0
209 -245 0
-245 241 0
-246 245 244 0
246 -244 0
246 -245 0
-42 -213 247 0
-247 42 0
213 -247 0
-212 -247 -248 0
212 247 -248 0
212 248 -247 0
247 248 -212 0
-246 -249 -248 0
246 -249 248 0
-246 248 249 0
246 249 -248 0
-246 250 -248 0
248 -250 0
246 -250 0
251 -212 -247 0
212 -251 0
247 -251 0
-252 251 250 0
-250 252 0
-251 252 0
3 0
-8 0
55 0
-95 0
135 0
-175 0
-215 0
219 0
-225 0
231 0
-237 0
-243 0
249 0
-252 0
