p cnf 432 1395
-2 -1 3 0
1 -3 0
-3 2 0
5 -2 -4 0
-5 4 0
-5 2 0
-6 7 -1 0
1 -7 0
6 -7 0
-8 -5 -7 0
-8 5 7 0
5 8 -7 0
7 -5 8 0
9 -5 -7 0
5 -9 0
7 -9 0
-2 -10 11 0
10 -11 0
2 -11 0
-4 -6 12 0
-12 4 0
6 -12 0
-13 -12 -11 0
-13 12 11 0
13 -12 11 0
13 12 -11 0
-13 -9 -14 0
9 13 -14 0
14 -9 13 0
14 -13 9 0
15 -13 -9 0
13 -15 0
9 -15 0
16 -12 -11 0
-16 11 0
-16 12 0
15 16 -17 0
17 -15 0
17 -16 0
-2 -18 19 0
18 -19 0
-19 2 0
-6 -10 20 0
10 -20 0
-20 6 0
-19 -20 -21 0
-21 20 19 0
21 -20 19 0
-19 21 20 0
-22 -21 -17 0
21 17 -22 0
22 21 -17 0
22 17 -21 0
-21 23 -17 0
21 -23 0
17 -23 0
24 -19 -20 0
-24 19 0
20 -24 0
24 -25 23 0
25 -23 0
25 -24 0
-26 -2 27 0
-27 26 0
-27 2 0
-6 -18 28 0
18 -28 0
-28 6 0
-28 -29 -27 0
28 -29 27 0
-28 29 27 0
28 -27 29 0
-29 -25 -30 0
29 25 -30 0
30 29 -25 0
30 25 -29 0
31 -29 -25 0
-31 29 0
-31 25 0
-28 -27 32 0
-32 27 0
-32 28 0
31 32 -33 0
-31 33 0
33 -32 0
-2 35 -34 0
34 -35 0
2 -35 0
36 -26 -6 0
-36 26 0
6 -36 0
-37 -36 -35 0
36 35 -37 0
37 35 -36 0
36 37 -35 0
-38 -33 -37 0
33 -38 37 0
38 -33 37 0
38 33 -37 0
39 -33 -37 0
-39 37 0
-39 33 0
40 -36 -35 0
35 -40 0
36 -40 0
39 40 -41 0
-39 41 0
41 -40 0
-2 43 -42 0
-43 42 0
-43 2 0
-6 44 -34 0
34 -44 0
-44 6 0
-43 -44 -45 0
43 44 -45 0
43 -44 45 0
-43 44 45 0
-46 -41 -45 0
41 -46 45 0
46 -41 45 0
46 41 -45 0
47 -41 -45 0
-47 45 0
41 -47 0
-43 -44 48 0
-48 43 0
-48 44 0
-49 47 48 0
49 -47 0
-48 49 0
-2 51 -50 0
-51 50 0
-51 2 0
52 -6 -42 0
42 -52 0
6 -52 0
-51 -52 -53 0
52 51 -53 0
51 53 -52 0
52 -51 53 0
-53 -49 -54 0
49 53 -54 0
53 -49 54 0
-53 49 54 0
55 -53 -49 0
53 -55 0
49 -55 0
-51 56 -52 0
51 -56 0
52 -56 0
55 56 -57 0
-55 57 0
57 -56 0
59 -2 -58 0
-59 58 0
-59 2 0
60 -6 -50 0
-60 50 0
-60 6 0
-59 -60 -61 0
59 -61 60 0
59 61 -60 0
-59 61 60 0
-62 -61 -57 0
-62 61 57 0
62 61 -57 0
62 -61 57 0
63 -61 -57 0
61 -63 0
57 -63 0
-59 -60 64 0
59 -64 0
60 -64 0
64 63 -65 0
65 -63 0
65 -64 0
66 -6 -58 0
58 -66 0
6 -66 0
-67 -65 -66 0
65 -67 66 0
65 67 -66 0
67 -65 66 0
68 -65 -66 0
65 -68 0
-68 66 0
-69 -1 70 0
1 -70 0
-70 69 0
-71 -14 -70 0
14 -71 70 0
14 71 -70 0
71 -14 70 0
72 -14 -70 0
14 -72 0
-72 70 0
73 -4 -69 0
4 -73 0
-73 69 0
-22 -73 -74 0
22 73 -74 0
22 74 -73 0
74 73 -22 0
-72 -74 -75 0
74 72 -75 0
74 -72 75 0
72 -74 75 0
76 -72 -74 0
74 -76 0
-76 72 0
-22 -73 77 0
22 -77 0
-77 73 0
76 -78 77 0
-76 78 0
-77 78 0
79 -69 -10 0
10 -79 0
-79 69 0
-79 -80 -30 0
79 30 -80 0
30 80 -79 0
79 80 -30 0
-81 -80 -78 0
78 80 -81 0
81 80 -78 0
81 78 -80 0
82 -80 -78 0
80 -82 0
78 -82 0
83 -79 -30 0
30 -83 0
79 -83 0
-84 82 83 0
-82 84 0
-83 84 0
-69 -18 85 0
18 -85 0
-85 69 0
-86 -85 -38 0
38 -86 85 0
38 86 -85 0
86 85 -38 0
-86 -87 -84 0
86 -87 84 0
-84 86 87 0
-86 87 84 0
-86 88 -84 0
-88 86 0
-88 84 0
89 -85 -38 0
38 -89 0
-89 85 0
88 -90 89 0
-88 90 0
90 -89 0
91 -26 -69 0
-91 26 0
-91 69 0
-91 -46 -92 0
91 -92 46 0
-91 92 46 0
91 -46 92 0
-90 -93 -92 0
90 -93 92 0
93 -90 92 0
90 93 -92 0
-90 94 -92 0
-94 92 0
90 -94 0
-91 95 -46 0
-95 46 0
91 -95 0
95 94 -96 0
-94 96 0
96 -95 0
-69 -34 97 0
34 -97 0
-97 69 0
-54 -97 -98 0
-98 54 97 0
98 -97 54 0
-54 98 97 0
-99 -98 -96 0
-99 96 98 0
99 98 -96 0
99 96 -98 0
-98 -96 100 0
-100 98 0
96 -100 0
101 -54 -97 0
-101 54 0
-101 97 0
101 -102 100 0
-100 102 0
-101 102 0
103 -69 -42 0
42 -103 0
-103 69 0
-62 -104 -103 0
62 -104 103 0
62 104 -103 0
-62 103 104 0
-104 -105 -102 0
-105 104 102 0
104 105 -102 0
-104 105 102 0
-104 106 -102 0
104 -106 0
-106 102 0
-62 107 -103 0
62 -107 0
-107 103 0
106 107 -108 0
108 -106 0
108 -107 0
109 -69 -50 0
50 -109 0
-109 69 0
-110 -67 -109 0
-110 109 67 0
110 67 -109 0
-67 109 110 0
-110 -108 -111 0
108 -111 110 0
111 -108 110 0
-110 111 108 0
-110 112 -108 0
-112 110 0
108 -112 0
-67 113 -109 0
-113 67 0
-113 109 0
112 113 -114 0
114 -112 0
-113 114 0
-69 115 -58 0
58 -115 0
-115 69 0
-116 -68 -115 0
-116 115 68 0
116 68 -115 0
116 115 -68 0
-116 -114 -117 0
116 -117 114 0
116 117 -114 0
-116 117 114 0
-116 -114 118 0
116 -118 0
-118 114 0
119 -68 -115 0
-119 68 0
115 -119 0
119 118 -120 0
120 -118 0
120 -119 0
-121 -1 122 0
1 -122 0
121 -122 0
-123 -122 -75 0
122 75 -123 0
123 75 -122 0
123 122 -75 0
124 -122 -75 0
-124 75 0
-124 122 0
125 -121 -4 0
-125 4 0
-125 121 0
-81 -125 -126 0
125 81 -126 0
126 81 -125 0
125 126 -81 0
-127 -124 -126 0
126 124 -127 0
126 127 -124 0
127 124 -126 0
128 -124 -126 0
126 -128 0
124 -128 0
-81 -125 129 0
81 -129 0
125 -129 0
-130 128 129 0
130 -128 0
130 -129 0
-121 131 -10 0
10 -131 0
-131 121 0
-131 -87 -132 0
131 -132 87 0
-131 132 87 0
131 -87 132 0
-133 -130 -132 0
130 132 -133 0
-130 132 133 0
130 -132 133 0
-130 134 -132 0
132 -134 0
130 -134 0
-131 -87 135 0
-135 87 0
-135 131 0
-136 134 135 0
136 -134 0
-135 136 0
-121 137 -18 0
18 -137 0
-137 121 0
-138 -93 -137 0
93 137 -138 0
93 -137 138 0
137 -93 138 0
-136 -138 -139 0
136 138 -139 0
-136 138 139 0
136 -138 139 0
-136 -138 140 0
-140 138 0
136 -140 0
-93 -137 141 0
93 -141 0
137 -141 0
-142 140 141 0
142 -140 0
142 -141 0
-26 -121 143 0
-143 26 0
-143 121 0
-99 -143 -144 0
99 143 -144 0
99 -143 144 0
-99 144 143 0
-145 -142 -144 0
-145 142 144 0
145 -142 144 0
145 142 -144 0
-142 -144 146 0
-146 144 0
-146 142 0
-99 -143 147 0
99 -147 0
-147 143 0
-148 147 146 0
-146 148 0
-147 148 0
-121 149 -34 0
34 -149 0
-149 121 0
-149 -105 -150 0
-150 149 105 0
-149 150 105 0
-105 149 150 0
-150 -148 -151 0
150 148 -151 0
151 150 -148 0
151 -150 148 0
152 -150 -148 0
-152 150 0
-152 148 0
153 -149 -105 0
-153 105 0
-153 149 0
153 -154 152 0
-152 154 0
-153 154 0
-121 155 -42 0
-155 42 0
-155 121 0
-155 -156 -111 0
111 -156 155 0
111 -155 156 0
156 155 -111 0
-157 -156 -154 0
-157 154 156 0
157 -154 156 0
157 -156 154 0
-156 158 -154 0
-158 156 0
-158 154 0
159 -155 -111 0
111 -159 0
-159 155 0
159 -160 158 0
-158 160 0
-159 160 0
161 -121 -50 0
-161 50 0
-161 121 0
-162 -161 -117 0
161 117 -162 0
162 -161 117 0
161 162 -117 0
-163 -160 -162 0
-163 162 160 0
163 162 -160 0
160 163 -162 0
164 -160 -162 0
-164 162 0
-164 160 0
165 -161 -117 0
117 -165 0
161 -165 0
164 165 -166 0
-164 166 0
166 -165 0
-121 167 -58 0
58 -167 0
-167 121 0
-168 -167 -120 0
-168 120 167 0
120 168 -167 0
168 167 -120 0
-168 -169 -166 0
168 -169 166 0
168 169 -166 0
-168 169 166 0
-168 170 -166 0
-170 168 0
-170 166 0
171 -167 -120 0
120 -171 0
-171 167 0
170 171 -172 0
172 -170 0
172 -171 0
-173 -1 174 0
1 -174 0
173 -174 0
-175 -174 -127 0
127 174 -175 0
127 175 -174 0
175 174 -127 0
176 -174 -127 0
127 -176 0
174 -176 0
177 -173 -4 0
-177 4 0
-177 173 0
-177 -178 -133 0
177 -178 133 0
-177 178 133 0
177 -133 178 0
-179 -178 -176 0
176 -179 178 0
179 -176 178 0
176 -178 179 0
180 -178 -176 0
-180 178 0
176 -180 0
-177 181 -133 0
-181 133 0
177 -181 0
180 -182 181 0
-180 182 0
182 -181 0
183 -173 -10 0
10 -183 0
173 -183 0
-183 -184 -139 0
183 -184 139 0
184 139 -183 0
183 184 -139 0
-182 -184 -185 0
182 184 -185 0
185 -182 184 0
185 182 -184 0
-182 186 -184 0
184 -186 0
182 -186 0
-183 187 -139 0
-187 139 0
-187 183 0
-188 186 187 0
188 -186 0
-187 188 0
-173 -18 189 0
18 -189 0
-189 173 0
-145 -189 -190 0
145 -190 189 0
190 145 -189 0
-145 189 190 0
-188 -190 -191 0
190 -191 188 0
190 -188 191 0
-190 188 191 0
-188 -190 192 0
190 -192 0
-192 188 0
-145 -189 193 0
145 -193 0
-193 189 0
-194 193 192 0
194 -192 0
-193 194 0
-26 -173 195 0
-195 26 0
-195 173 0
-195 -196 -151 0
151 195 -196 0
151 -195 196 0
195 196 -151 0
-194 -196 -197 0
194 196 -197 0
196 197 -194 0
194 197 -196 0
-194 -196 198 0
-198 196 0
194 -198 0
-195 199 -151 0
151 -199 0
195 -199 0
199 -200 198 0
-198 200 0
200 -199 0
-173 201 -34 0
34 -201 0
173 -201 0
-157 -202 -201 0
157 201 -202 0
157 202 -201 0
202 -157 201 0
-202 -200 -203 0
202 200 -203 0
202 203 -200 0
200 203 -202 0
-202 -200 204 0
202 -204 0
200 -204 0
-157 205 -201 0
157 -205 0
201 -205 0
-206 205 204 0
206 -204 0
206 -205 0
207 -173 -42 0
42 -207 0
173 -207 0
-163 -207 -208 0
207 163 -208 0
208 -207 163 0
208 -163 207 0
-206 -209 -208 0
206 208 -209 0
-206 208 209 0
206 209 -208 0
-206 210 -208 0
208 -210 0
206 -210 0
211 -163 -207 0
-211 163 0
-211 207 0
211 210 -212 0
212 -210 0
212 -211 0
213 -173 -50 0
-213 50 0
-213 173 0
-213 -214 -169 0
213 -214 169 0
-213 214 169 0
213 214 -169 0
-212 -214 -215 0
214 212 -215 0
-212 214 215 0
212 -214 215 0
-212 216 -214 0
-216 214 0
-216 212 0
-213 217 -169 0
169 -217 0
213 -217 0
217 216 -218 0
-216 218 0
218 -217 0
-173 219 -58 0
58 -219 0
173 -219 0
-220 -219 -172 0
172 219 -220 0
172 220 -219 0
220 219 -172 0
-218 -221 -220 0
220 218 -221 0
220 221 -218 0
218 221 -220 0
-218 -220 222 0
220 -222 0
218 -222 0
-219 223 -172 0
172 -223 0
-223 219 0
223 222 -224 0
-222 224 0
-223 224 0
-225 -1 226 0
1 -226 0
-226 225 0
-226 -227 -179 0
179 -227 226 0
179 227 -226 0
-179 227 226 0
-226 -179 228 0
179 -228 0
-228 226 0
-225 -4 229 0
-229 4 0
225 -229 0
-230 -229 -185 0
185 -230 229 0
185 230 -229 0
230 229 -185 0
-231 -228 -230 0
-231 228 230 0
-228 230 231 0
228 -230 231 0
232 -228 -230 0
230 -232 0
228 -232 0
233 -229 -185 0
185 -233 0
229 -233 0
233 232 -234 0
234 -232 0
234 -233 0
-225 235 -10 0
10 -235 0
-235 225 0
-191 -235 -236 0
-236 235 191 0
236 -235 191 0
-191 235 236 0
-236 -234 -237 0
236 234 -237 0
237 236 -234 0
-236 234 237 0
-236 238 -234 0
236 -238 0
234 -238 0
-191 -235 239 0
-239 191 0
235 -239 0
-240 238 239 0
240 -238 0
-239 240 0
-225 -18 241 0
18 -241 0
225 -241 0
-242 -241 -197 0
-242 197 241 0
242 197 -241 0
242 241 -197 0
-240 -242 -243 0
240 -243 242 0
-240 243 242 0
-242 240 243 0
-240 -242 244 0
-244 242 0
-244 240 0
245 -241 -197 0
197 -245 0
-245 241 0
-246 244 245 0
-244 246 0
-245 246 0
247 -26 -225 0
-247 26 0
225 -247 0
-248 -247 -203 0
247 203 -248 0
203 -247 248 0
247 248 -203 0
-246 -248 -249 0
-249 248 246 0
-246 248 249 0
249 -248 246 0
-246 -248 250 0
-250 248 0
-250 246 0
251 -247 -203 0
-251 203 0
-251 247 0
251 -252 250 0
-250 252 0
-251 252 0
-225 253 -34 0
34 -253 0
-253 225 0
-209 -253 -254 0
253 -254 209 0
254 -253 209 0
254 -209 253 0
-252 -254 -255 0
254 252 -255 0
254 255 -252 0
255 -254 252 0
-252 -254 256 0
254 -256 0
252 -256 0
257 -209 -253 0
-257 209 0
-257 253 0
257 -258 256 0
258 -256 0
-257 258 0
-225 259 -42 0
42 -259 0
225 -259 0
-260 -215 -259 0
259 -260 215 0
260 -259 215 0
260 259 -215 0
-258 -260 -261 0
260 -261 258 0
260 -258 261 0
261 -260 258 0
262 -258 -260 0
260 -262 0
-262 258 0
263 -215 -259 0
-263 215 0
259 -263 0
-264 263 262 0
-262 264 0
264 -263 0
-225 -50 265 0
-265 50 0
-265 225 0
-266 -265 -221 0
-266 221 265 0
221 -265 266 0
-221 265 266 0
-264 -266 -267 0
264 -267 266 0
-264 267 266 0
267 -266 264 0
-264 -266 268 0
-268 266 0
-268 264 0
-265 -221 269 0
221 -269 0
-269 265 0
-270 268 269 0
270 -268 0
270 -269 0
-225 271 -58 0
-271 58 0
-271 225 0
-272 -271 -224 0
-272 224 271 0
272 -271 224 0
272 271 -224 0
-272 -270 -273 0
272 270 -273 0
272 -270 273 0
270 -272 273 0
274 -272 -270 0
272 -274 0
270 -274 0
275 -271 -224 0
224 -275 0
-275 271 0
274 275 -276 0
276 -274 0
276 -275 0
-1 278 -277 0
1 -278 0
-278 277 0
-231 -278 -279 0
-279 278 231 0
-278 279 231 0
-231 279 278 0
-231 -278 280 0
-280 231 0
-280 278 0
281 -4 -277 0
4 -281 0
277 -281 0
-281 -282 -237 0
281 237 -282 0
282 237 -281 0
282 281 -237 0
-280 -282 -283 0
282 280 -283 0
282 283 -280 0
280 283 -282 0
-280 284 -282 0
282 -284 0
-284 280 0
-281 285 -237 0
-285 237 0
281 -285 0
284 -286 285 0
286 -284 0
286 -285 0
287 -10 -277 0
10 -287 0
-287 277 0
-287 -243 -288 0
287 243 -288 0
288 -287 243 0
287 288 -243 0
-289 -286 -288 0
288 -289 286 0
288 -286 289 0
286 -288 289 0
290 -286 -288 0
288 -290 0
-290 286 0
-287 291 -243 0
-291 243 0
287 -291 0
290 291 -292 0
-290 292 0
292 -291 0
293 -18 -277 0
18 -293 0
277 -293 0
-249 -294 -293 0
-294 293 249 0
294 249 -293 0
-249 294 293 0
-294 -292 -295 0
294 292 -295 0
295 294 -292 0
295 -294 292 0
296 -294 -292 0
294 -296 0
292 -296 0
-249 297 -293 0
-297 249 0
-297 293 0
-298 296 297 0
-296 298 0
-297 298 0
-26 299 -277 0
-299 26 0
-299 277 0
-299 -300 -255 0
255 299 -300 0
300 -299 255 0
300 299 -255 0
-298 -301 -300 0
300 -301 298 0
300 -298 301 0
301 -300 298 0
-298 302 -300 0
300 -302 0
-302 298 0
303 -299 -255 0
-303 255 0
-303 299 0
303 302 -304 0
-302 304 0
-303 304 0
305 -277 -34 0
34 -305 0
-305 277 0
-306 -305 -261 0
305 -306 261 0
306 -305 261 0
305 -261 306 0
-306 -307 -304 0
306 -307 304 0
306 307 -304 0
-306 307 304 0
-306 308 -304 0
306 -308 0
-308 304 0
-305 -261 309 0
-309 261 0
305 -309 0
308 309 -310 0
-308 310 0
310 -309 0
311 -277 -42 0
42 -311 0
-311 277 0
-311 -312 -267 0
267 -312 311 0
267 312 -311 0
312 311 -267 0
-313 -312 -310 0
312 -313 310 0
312 313 -310 0
310 313 -312 0
314 -312 -310 0
312 -314 0
-314 310 0
315 -311 -267 0
267 -315 0
-315 311 0
-316 314 315 0
316 -314 0
316 -315 0
-50 -277 317 0
-317 50 0
-317 277 0
-317 -318 -273 0
-318 273 317 0
318 -317 273 0
318 317 -273 0
-319 -316 -318 0
318 316 -319 0
318 -316 319 0
316 -318 319 0
-316 320 -318 0
318 -320 0
-320 316 0
-317 321 -273 0
-321 273 0
-321 317 0
321 320 -322 0
-320 322 0
322 -321 0
323 -277 -58 0
-323 58 0
-323 277 0
-324 -323 -276 0
-324 323 276 0
-323 324 276 0
324 323 -276 0
-324 -325 -322 0
-325 324 322 0
324 325 -322 0
-324 322 325 0
-324 326 -322 0
324 -326 0
-326 322 0
-323 327 -276 0
-327 276 0
-327 323 0
326 -328 327 0
-326 328 0
-327 328 0
-329 -1 330 0
1 -330 0
329 -330 0
-330 -283 -331 0
283 330 -331 0
283 331 -330 0
331 330 -283 0
-330 332 -283 0
283 -332 0
-332 330 0
-329 333 -4 0
-333 4 0
329 -333 0
-334 -289 -333 0
333 -334 289 0
334 -333 289 0
333 334 -289 0
-335 -334 -332 0
334 -335 332 0
334 -332 335 0
-334 332 335 0
336 -334 -332 0
334 -336 0
-336 332 0
337 -289 -333 0
-337 289 0
333 -337 0
336 337 -338 0
338 -336 0
338 -337 0
-329 -10 339 0
10 -339 0
329 -339 0
-340 -339 -295 0
295 -340 339 0
295 -339 340 0
339 340 -295 0
-340 -338 -341 0
338 -341 340 0
341 -338 340 0
-340 338 341 0
-340 -338 342 0
-342 340 0
338 -342 0
343 -339 -295 0
295 -343 0
339 -343 0
343 -344 342 0
-342 344 0
-343 344 0
-329 345 -18 0
18 -345 0
329 -345 0
-346 -301 -345 0
345 301 -346 0
301 -345 346 0
345 -301 346 0
-346 -347 -344 0
344 -347 346 0
347 -344 346 0
-346 347 344 0
-346 348 -344 0
-348 346 0
-348 344 0
349 -301 -345 0
-349 301 0
-349 345 0
349 348 -350 0
350 -348 0
-349 350 0
-329 -26 351 0
-351 26 0
329 -351 0
-307 -352 -351 0
351 -352 307 0
307 -351 352 0
-307 351 352 0
-353 -352 -350 0
-353 350 352 0
353 -350 352 0
353 -352 350 0
354 -352 -350 0
-354 352 0
350 -354 0
-307 -351 355 0
-355 307 0
351 -355 0
354 -356 355 0
356 -354 0
356 -355 0
-329 357 -34 0
34 -357 0
-357 329 0
-358 -357 -313 0
-358 313 357 0
-357 313 358 0
-313 358 357 0
-358 -356 -359 0
356 -359 358 0
359 -356 358 0
-358 356 359 0
-358 -356 360 0
358 -360 0
356 -360 0
-357 -313 361 0
313 -361 0
-361 357 0
361 -362 360 0
362 -360 0
362 -361 0
-329 363 -42 0
-363 42 0
-363 329 0
-319 -364 -363 0
363 -364 319 0
-363 364 319 0
-319 363 364 0
-365 -362 -364 0
362 -365 364 0
-362 364 365 0
362 -364 365 0
366 -362 -364 0
-366 364 0
-366 362 0
-319 367 -363 0
-367 319 0
363 -367 0
366 367 -368 0
-366 368 0
368 -367 0
-329 -50 369 0
-369 50 0
-369 329 0
-369 -370 -325 0
-370 325 369 0
-369 370 325 0
370 -325 369 0
-370 -371 -368 0
370 368 -371 0
370 371 -368 0
-370 371 368 0
-370 372 -368 0
-372 370 0
-372 368 0
-369 -325 373 0
-373 325 0
-373 369 0
372 373 -374 0
-372 374 0
374 -373 0
-329 375 -58 0
-375 58 0
-375 329 0
-375 -376 -328 0
-376 375 328 0
-375 376 328 0
376 -328 375 0
-377 -376 -374 0
-377 374 376 0
377 376 -374 0
377 374 -376 0
-376 378 -374 0
-378 376 0
-378 374 0
-375 -328 379 0
-379 328 0
-379 375 0
-380 378 379 0
-378 380 0
-379 380 0
-1 382 -381 0
1 -382 0
-382 381 0
-335 -382 -383 0
-383 382 335 0
383 -382 335 0
-335 382 383 0
-335 -382 384 0
335 -384 0
382 -384 0
385 -4 -381 0
4 -385 0
381 -385 0
-386 -341 -385 0
385 -386 341 0
-385 386 341 0
385 386 -341 0
-386 -387 -384 0
386 384 -387 0
387 386 -384 0
-386 384 387 0
388 -386 -384 0
-388 386 0
-388 384 0
389 -341 -385 0
-389 341 0
-389 385 0
388 -390 389 0
390 -388 0
-389 390 0
391 -10 -381 0
10 -391 0
-391 381 0
-392 -347 -391 0
-392 347 391 0
392 347 -391 0
-347 391 392 0
-392 -390 -393 0
390 392 -393 0
-390 393 392 0
-392 390 393 0
-392 -390 394 0
-394 392 0
390 -394 0
395 -347 -391 0
347 -395 0
391 -395 0
395 -396 394 0
-394 396 0
-395 396 0
397 -18 -381 0
18 -397 0
-397 381 0
-353 -397 -398 0
353 397 -398 0
353 398 -397 0
398 -353 397 0
-399 -396 -398 0
-399 398 396 0
398 -396 399 0
399 396 -398 0
400 -396 -398 0
398 -400 0
396 -400 0
401 -353 -397 0
353 -401 0
397 -401 0
401 400 -402 0
402 -400 0
402 -401 0
-26 -381 403 0
-403 26 0
381 -403 0
-404 -359 -403 0
359 -404 403 0
359 404 -403 0
-359 404 403 0
-402 -405 -404 0
404 402 -405 0
405 -402 404 0
405 402 -404 0
-402 406 -404 0
404 -406 0
402 -406 0
407 -359 -403 0
359 -407 0
-407 403 0
407 406 -408 0
408 -406 0
-407 408 0
409 -381 -34 0
34 -409 0
-409 381 0
-365 -409 -410 0
409 -410 365 0
410 -409 365 0
-365 409 410 0
-411 -410 -408 0
410 408 -411 0
410 411 -408 0
408 411 -410 0
-410 -408 412 0
-412 410 0
-412 408 0
-365 -409 413 0
-413 365 0
409 -413 0
-414 413 412 0
-412 414 0
414 -413 0
415 -381 -42 0
42 -415 0
-415 381 0
-416 -415 -371 0
-416 371 415 0
416 371 -415 0
416 415 -371 0
-414 -416 -417 0
-417 416 414 0
-414 416 417 0
417 -416 414 0
-414 -416 418 0
-418 416 0
-418 414 0
419 -415 -371 0
-419 371 0
-419 415 0
419 -420 418 0
-418 420 0
-419 420 0
-50 -381 421 0
50 -421 0
381 -421 0
-377 -422 -421 0
-422 377 421 0
422 377 -421 0
-377 422 421 0
-422 -420 -423 0
422 -423 420 0
-420 422 423 0
-422 423 420 0
-422 -420 424 0
422 -424 0
-424 420 0
-377 425 -421 0
377 -425 0
421 -425 0
425 424 -426 0
-424 426 0
426 -425 0
427 -381 -58 0
-427 58 0
-427 381 0
-428 -427 -380 0
-428 427 380 0
-427 380 428 0
427 -380 428 0
-428 -429 -426 0
426 -429 428 0
429 -426 428 0
-428 429 426 0
-428 430 -426 0
-430 428 0
426 -430 0
431 -427 -380 0
-431 380 0
-431 427 0
-432 431 430 0
432 -430 0
432 -431 0
3 0
-8 0
-71 0
123 0
175 0
-227 0
-279 0
331 0
-383 0
387 0
-393 0
399 0
405 0
-411 0
-417 0
423 0
429 0
-432 0
