p cnf 432 1395
-1 3 -2 0
-3 1 0
2 -3 0
-4 5 -2 0
4 -5 0
2 -5 0
-1 -6 7 0
1 -7 0
6 -7 0
-8 -5 -7 0
5 -8 7 0
8 5 -7 0
8 -5 7 0
9 -5 -7 0
5 -9 0
-9 7 0
11 -2 -10 0
10 -11 0
2 -11 0
-4 12 -6 0
4 -12 0
6 -12 0
-13 -11 -12 0
11 -13 12 0
11 -12 13 0
13 -11 12 0
-9 -13 -14 0
9 13 -14 0
14 -9 13 0
9 14 -13 0
-9 -13 15 0
-15 13 0
9 -15 0
-11 -12 16 0
11 -16 0
-16 12 0
-17 15 16 0
-15 17 0
-16 17 0
-2 -18 19 0
18 -19 0
2 -19 0
-6 20 -10 0
10 -20 0
6 -20 0
-21 -19 -20 0
-21 20 19 0
-20 19 21 0
-19 20 21 0
-17 -21 -22 0
-22 21 17 0
-17 22 21 0
-21 22 17 0
-17 -21 23 0
-23 21 0
-23 17 0
-19 -20 24 0
-24 19 0
-24 20 0
23 24 -25 0
-23 25 0
25 -24 0
27 -2 -26 0
-27 26 0
2 -27 0
-6 -18 28 0
18 -28 0
-28 6 0
-27 -28 -29 0
27 -29 28 0
-28 27 29 0
-27 29 28 0
-30 -25 -29 0
25 29 -30 0
29 30 -25 0
25 30 -29 0
31 -25 -29 0
-31 29 0
25 -31 0
32 -27 -28 0
27 -32 0
-32 28 0
32 31 -33 0
-31 33 0
33 -32 0
35 -34 -2 0
-35 34 0
2 -35 0
-6 36 -26 0
-36 26 0
-36 6 0
-37 -36 -35 0
-37 35 36 0
-36 35 37 0
-35 36 37 0
-37 -33 -38 0
33 -38 37 0
-33 37 38 0
-37 33 38 0
39 -37 -33 0
-39 37 0
-39 33 0
40 -36 -35 0
35 -40 0
36 -40 0
39 -41 40 0
-39 41 0
41 -40 0
43 -42 -2 0
-43 42 0
2 -43 0
-6 -34 44 0
-44 34 0
-44 6 0
-44 -43 -45 0
43 -45 44 0
-44 45 43 0
45 -43 44 0
-46 -41 -45 0
-46 45 41 0
45 -41 46 0
46 41 -45 0
-41 47 -45 0
45 -47 0
-47 41 0
-44 -43 48 0
43 -48 0
-48 44 0
48 -49 47 0
-47 49 0
49 -48 0
-2 51 -50 0
50 -51 0
2 -51 0
-6 -42 52 0
-52 42 0
-52 6 0
-52 -51 -53 0
52 51 -53 0
53 -52 51 0
53 52 -51 0
-49 -54 -53 0
53 49 -54 0
53 -49 54 0
54 49 -53 0
-49 55 -53 0
53 -55 0
49 -55 0
-52 56 -51 0
-56 51 0
-56 52 0
56 -57 55 0
57 -55 0
57 -56 0
-58 -2 59 0
-59 58 0
2 -59 0
-6 60 -50 0
50 -60 0
-60 6 0
-60 -61 -59 0
-61 60 59 0
-60 61 59 0
61 60 -59 0
-62 -61 -57 0
61 57 -62 0
61 62 -57 0
62 57 -61 0
63 -61 -57 0
61 -63 0
57 -63 0
-60 64 -59 0
-64 59 0
-64 60 0
63 64 -65 0
65 -63 0
65 -64 0
66 -6 -58 0
-66 58 0
6 -66 0
-65 -66 -67 0
66 65 -67 0
67 65 -66 0
66 -65 67 0
68 -65 -66 0
-68 65 0
66 -68 0
-1 70 -69 0
-70 1 0
-70 69 0
-70 -71 -14 0
70 14 -71 0
-70 14 71 0
70 71 -14 0
-70 -14 72 0
-72 14 0
-72 70 0
-4 -69 73 0
-73 4 0
-73 69 0
-73 -74 -22 0
73 -74 22 0
-73 74 22 0
73 74 -22 0
-75 -74 -72 0
74 -75 72 0
74 75 -72 0
75 -74 72 0
-74 -72 76 0
74 -76 0
-76 72 0
-73 77 -22 0
-77 22 0
73 -77 0
-78 77 76 0
78 -76 0
78 -77 0
79 -69 -10 0
-79 10 0
-79 69 0
-30 -80 -79 0
79 -80 30 0
-79 80 30 0
-30 79 80 0
-78 -80 -81 0
78 80 -81 0
-78 80 81 0
78 -80 81 0
-78 -80 82 0
80 -82 0
78 -82 0
-30 83 -79 0
30 -83 0
79 -83 0
-84 82 83 0
84 -82 0
84 -83 0
-69 -18 85 0
-85 18 0
-85 69 0
-85 -86 -38 0
-86 85 38 0
-85 86 38 0
86 -38 85 0
-84 -86 -87 0
86 84 -87 0
86 -84 87 0
87 -86 84 0
-84 -86 88 0
86 -88 0
84 -88 0
-85 -38 89 0
-89 38 0
-89 85 0
89 88 -90 0
90 -88 0
-89 90 0
91 -69 -26 0
-91 26 0
-91 69 0
-46 -92 -91 0
91 -92 46 0
92 -91 46 0
-46 92 91 0
-92 -93 -90 0
92 90 -93 0
93 92 -90 0
93 -92 90 0
-92 94 -90 0
92 -94 0
90 -94 0
-46 -91 95 0
-95 46 0
-95 91 0
-96 94 95 0
96 -94 0
-95 96 0
-69 97 -34 0
34 -97 0
69 -97 0
-98 -54 -97 0
97 -98 54 0
-97 98 54 0
97 -54 98 0
-99 -98 -96 0
96 98 -99 0
98 -96 99 0
96 -98 99 0
100 -98 -96 0
-100 98 0
96 -100 0
101 -54 -97 0
-101 54 0
97 -101 0
100 -102 101 0
-100 102 0
102 -101 0
-69 -42 103 0
-103 42 0
-103 69 0
-103 -104 -62 0
-104 62 103 0
-103 104 62 0
103 104 -62 0
-102 -104 -105 0
104 -105 102 0
105 -102 104 0
105 -104 102 0
106 -102 -104 0
-106 104 0
-106 102 0
107 -103 -62 0
-107 62 0
-107 103 0
107 106 -108 0
-106 108 0
-107 108 0
109 -69 -50 0
50 -109 0
69 -109 0
-110 -109 -67 0
67 109 -110 0
67 110 -109 0
110 109 -67 0
-108 -111 -110 0
110 -111 108 0
-108 110 111 0
-110 111 108 0
-108 -110 112 0
110 -112 0
-112 108 0
113 -109 -67 0
67 -113 0
-113 109 0
-114 113 112 0
114 -112 0
-113 114 0
115 -58 -69 0
-115 58 0
69 -115 0
-68 -116 -115 0
115 68 -116 0
68 -115 116 0
-68 115 116 0
-117 -114 -116 0
114 -117 116 0
-114 117 116 0
114 117 -116 0
-114 118 -116 0
-118 116 0
114 -118 0
-68 119 -115 0
68 -119 0
115 -119 0
-120 119 118 0
-118 120 0
-119 120 0
-1 122 -121 0
-122 1 0
-122 121 0
-75 -122 -123 0
75 122 -123 0
-122 75 123 0
-75 122 123 0
-75 124 -122 0
75 -124 0
122 -124 0
125 -4 -121 0
-125 4 0
-125 121 0
-125 -81 -126 0
125 81 -126 0
-125 81 126 0
125 -81 126 0
-127 -124 -126 0
-127 124 126 0
-124 127 126 0
127 124 -126 0
128 -124 -126 0
-128 126 0
124 -128 0
-125 129 -81 0
-129 81 0
125 -129 0
129 -130 128 0
130 -128 0
130 -129 0
-121 131 -10 0
10 -131 0
-131 121 0
-131 -87 -132 0
87 131 -132 0
87 -131 132 0
132 -87 131 0
-130 -132 -133 0
130 132 -133 0
-130 132 133 0
130 133 -132 0
-130 134 -132 0
132 -134 0
130 -134 0
-131 -87 135 0
87 -135 0
-135 131 0
-136 134 135 0
136 -134 0
136 -135 0
-121 137 -18 0
18 -137 0
-137 121 0
-138 -137 -93 0
93 -138 137 0
93 138 -137 0
138 137 -93 0
-136 -138 -139 0
136 138 -139 0
-136 138 139 0
136 -138 139 0
-136 -138 140 0
138 -140 0
136 -140 0
-137 141 -93 0
93 -141 0
137 -141 0
-142 140 141 0
142 -140 0
142 -141 0
143 -121 -26 0
-143 26 0
-143 121 0
-143 -99 -144 0
143 -144 99 0
144 -143 99 0
143 144 -99 0
-142 -145 -144 0
-145 144 142 0
-142 144 145 0
142 145 -144 0
-142 146 -144 0
144 -146 0
142 -146 0
147 -143 -99 0
-147 99 0
143 -147 0
147 -148 146 0
148 -146 0
-147 148 0
-121 -34 149 0
-149 34 0
-149 121 0
-149 -150 -105 0
105 -150 149 0
150 105 -149 0
150 -105 149 0
-148 -151 -150 0
150 -151 148 0
150 -148 151 0
151 -150 148 0
-148 -150 152 0
150 -152 0
148 -152 0
153 -149 -105 0
105 -153 0
-153 149 0
153 -154 152 0
154 -152 0
154 -153 0
-121 -42 155 0
-155 42 0
-155 121 0
-111 -156 -155 0
-156 111 155 0
156 -155 111 0
-111 156 155 0
-156 -154 -157 0
154 156 -157 0
156 -154 157 0
154 -156 157 0
158 -156 -154 0
-158 156 0
-158 154 0
159 -111 -155 0
-159 111 0
-159 155 0
159 -160 158 0
-158 160 0
-159 160 0
161 -121 -50 0
50 -161 0
-161 121 0
-161 -117 -162 0
161 117 -162 0
162 117 -161 0
161 162 -117 0
-160 -163 -162 0
162 160 -163 0
162 -160 163 0
163 160 -162 0
-160 164 -162 0
162 -164 0
160 -164 0
165 -161 -117 0
117 -165 0
161 -165 0
165 -166 164 0
166 -164 0
166 -165 0
167 -58 -121 0
-167 58 0
-167 121 0
-120 -167 -168 0
167 -168 120 0
-167 120 168 0
167 -120 168 0
-166 -168 -169 0
166 -169 168 0
169 -166 168 0
169 166 -168 0
-166 -168 170 0
-170 168 0
166 -170 0
-120 -167 171 0
-171 120 0
167 -171 0
170 171 -172 0
172 -170 0
172 -171 0
-1 174 -173 0
-174 1 0
173 -174 0
-127 -174 -175 0
-175 174 127 0
-174 175 127 0
-127 174 175 0
-127 -174 176 0
-176 127 0
174 -176 0
-4 -173 177 0
-177 4 0
173 -177 0
-178 -177 -133 0
177 133 -178 0
178 -177 133 0
177 178 -133 0
-178 -179 -176 0
178 -179 176 0
179 178 -176 0
179 -178 176 0
180 -178 -176 0
178 -180 0
176 -180 0
181 -177 -133 0
-181 133 0
-181 177 0
181 180 -182 0
-180 182 0
-181 182 0
-173 -10 183 0
10 -183 0
173 -183 0
-139 -184 -183 0
-184 183 139 0
139 -183 184 0
-139 183 184 0
-185 -184 -182 0
-185 182 184 0
185 -182 184 0
185 -184 182 0
-184 186 -182 0
-186 184 0
-186 182 0
-139 187 -183 0
-187 139 0
-187 183 0
187 -188 186 0
-186 188 0
-187 188 0
189 -173 -18 0
18 -189 0
173 -189 0
-145 -189 -190 0
189 145 -190 0
190 -189 145 0
-145 190 189 0
-191 -188 -190 0
190 -191 188 0
190 191 -188 0
191 188 -190 0
192 -188 -190 0
190 -192 0
-192 188 0
-145 -189 193 0
-193 145 0
-193 189 0
192 193 -194 0
-192 194 0
194 -193 0
195 -173 -26 0
-195 26 0
173 -195 0
-195 -151 -196 0
151 -196 195 0
151 -195 196 0
195 -151 196 0
-197 -194 -196 0
-197 194 196 0
197 -194 196 0
197 194 -196 0
198 -194 -196 0
-198 196 0
-198 194 0
-195 -151 199 0
-199 151 0
-199 195 0
199 -200 198 0
200 -198 0
-199 200 0
-173 -34 201 0
34 -201 0
173 -201 0
-202 -201 -157 0
-202 201 157 0
202 -201 157 0
202 201 -157 0
-200 -202 -203 0
202 200 -203 0
202 -200 203 0
200 203 -202 0
-200 -202 204 0
202 -204 0
200 -204 0
205 -201 -157 0
-205 157 0
-205 201 0
-206 205 204 0
206 -204 0
-205 206 0
-173 -42 207 0
42 -207 0
173 -207 0
-208 -163 -207 0
163 -208 207 0
163 208 -207 0
208 -163 207 0
-206 -208 -209 0
208 206 -209 0
208 -206 209 0
206 -208 209 0
-206 -208 210 0
208 -210 0
206 -210 0
211 -163 -207 0
163 -211 0
-211 207 0
-212 211 210 0
212 -210 0
212 -211 0
213 -173 -50 0
50 -213 0
173 -213 0
-214 -213 -169 0
169 213 -214 0
169 214 -213 0
213 214 -169 0
-214 -212 -215 0
212 -215 214 0
-212 214 215 0
-214 212 215 0
-214 -212 216 0
-216 214 0
-216 212 0
217 -213 -169 0
169 -217 0
213 -217 0
217 -218 216 0
-216 218 0
218 -217 0
-58 -173 219 0
-219 58 0
173 -219 0
-219 -220 -172 0
172 219 -220 0
172 -219 220 0
219 220 -172 0
-221 -218 -220 0
-221 220 218 0
221 -218 220 0
221 -220 218 0
-218 -220 222 0
-222 220 0
-222 218 0
-219 223 -172 0
172 -223 0
-223 219 0
-224 223 222 0
224 -222 0
224 -223 0
-1 -225 226 0
-226 1 0
225 -226 0
-227 -179 -226 0
179 -227 226 0
179 227 -226 0
227 -179 226 0
-179 -226 228 0
179 -228 0
-228 226 0
-4 -225 229 0
4 -229 0
225 -229 0
-185 -229 -230 0
229 185 -230 0
230 185 -229 0
230 229 -185 0
-228 -230 -231 0
230 228 -231 0
230 -228 231 0
231 228 -230 0
-228 -230 232 0
230 -232 0
-232 228 0
-185 -229 233 0
185 -233 0
229 -233 0
-234 233 232 0
-232 234 0
234 -233 0
-225 235 -10 0
10 -235 0
225 -235 0
-235 -191 -236 0
191 235 -236 0
-235 191 236 0
-191 235 236 0
-234 -236 -237 0
-237 234 236 0
-234 237 236 0
-236 234 237 0
-234 -236 238 0
-238 236 0
-238 234 0
-235 -191 239 0
-239 191 0
-239 235 0
-240 239 238 0
-238 240 0
-239 240 0
241 -225 -18 0
18 -241 0
225 -241 0
-197 -241 -242 0
197 -242 241 0
197 242 -241 0
241 -197 242 0
-242 -240 -243 0
242 240 -243 0
-240 242 243 0
-242 240 243 0
-242 -240 244 0
242 -244 0
-244 240 0
-197 245 -241 0
197 -245 0
241 -245 0
-246 245 244 0
246 -244 0
-245 246 0
247 -225 -26 0
26 -247 0
225 -247 0
-248 -247 -203 0
247 -248 203 0
-247 248 203 0
247 248 -203 0
-246 -248 -249 0
246 -249 248 0
-246 249 248 0
246 -248 249 0
-246 -248 250 0
-250 248 0
246 -250 0
251 -247 -203 0
-251 203 0
247 -251 0
-252 251 250 0
-250 252 0
-251 252 0
-225 -34 253 0
-253 34 0
225 -253 0
-209 -253 -254 0
253 -254 209 0
-253 254 209 0
-209 254 253 0
-255 -252 -254 0
-255 254 252 0
255 254 -252 0
255 252 -254 0
-252 -254 256 0
-256 254 0
-256 252 0
-209 -253 257 0
-257 209 0
-257 253 0
-258 257 256 0
-256 258 0
-257 258 0
-225 -42 259 0
-259 42 0
225 -259 0
-259 -215 -260 0
215 259 -260 0
260 -259 215 0
260 -215 259 0
-261 -258 -260 0
-261 258 260 0
261 -258 260 0
261 258 -260 0
-258 262 -260 0
-262 260 0
-262 258 0
263 -259 -215 0
-263 215 0
-263 259 0
263 -264 262 0
-262 264 0
-263 264 0
-225 265 -50 0
50 -265 0
225 -265 0
-221 -265 -266 0
221 -266 265 0
266 -265 221 0
266 -221 265 0
-264 -266 -267 0
266 -267 264 0
266 -264 267 0
267 -266 264 0
268 -264 -266 0
266 -268 0
264 -268 0
-221 -265 269 0
221 -269 0
-269 265 0
268 -270 269 0
270 -268 0
-269 270 0
-225 -58 271 0
-271 58 0
225 -271 0
-271 -224 -272 0
224 -272 271 0
272 -271 224 0
272 -224 271 0
-270 -272 -273 0
272 -273 270 0
272 -270 273 0
-272 273 270 0
-270 -272 274 0
272 -274 0
-274 270 0
-271 -224 275 0
-275 224 0
-275 271 0
-276 274 275 0
-274 276 0
-275 276 0
-1 278 -277 0
-278 1 0
-278 277 0
-278 -279 -231 0
231 -279 278 0
231 -278 279 0
278 -231 279 0
-278 280 -231 0
231 -280 0
278 -280 0
281 -4 -277 0
4 -281 0
277 -281 0
-282 -237 -281 0
281 -282 237 0
282 237 -281 0
281 282 -237 0
-282 -283 -280 0
282 280 -283 0
282 283 -280 0
280 -282 283 0
-282 -280 284 0
282 -284 0
-284 280 0
-237 285 -281 0
-285 237 0
281 -285 0
-286 285 284 0
-284 286 0
-285 286 0
287 -10 -277 0
10 -287 0
-287 277 0
-288 -243 -287 0
-288 243 287 0
243 -287 288 0
-243 288 287 0
-288 -289 -286 0
-289 286 288 0
-286 289 288 0
-288 289 286 0
-288 -286 290 0
-290 288 0
286 -290 0
-243 291 -287 0
-291 243 0
-291 287 0
-292 291 290 0
292 -290 0
292 -291 0
293 -18 -277 0
-293 18 0
-293 277 0
-293 -249 -294 0
-294 249 293 0
-293 294 249 0
294 -249 293 0
-292 -294 -295 0
294 292 -295 0
294 -292 295 0
292 -294 295 0
-292 -294 296 0
294 -296 0
292 -296 0
-293 -249 297 0
249 -297 0
-297 293 0
297 296 -298 0
-296 298 0
298 -297 0
299 -277 -26 0
-299 26 0
-299 277 0
-255 -299 -300 0
255 299 -300 0
255 -299 300 0
-255 299 300 0
-300 -298 -301 0
-301 298 300 0
301 -298 300 0
-300 301 298 0
-300 302 -298 0
-302 300 0
-302 298 0
-255 -299 303 0
255 -303 0
299 -303 0
302 -304 303 0
304 -302 0
304 -303 0
-34 305 -277 0
-305 34 0
-305 277 0
-305 -261 -306 0
261 -306 305 0
261 306 -305 0
-261 306 305 0
-307 -306 -304 0
-307 304 306 0
306 307 -304 0
-306 304 307 0
-306 308 -304 0
-308 306 0
304 -308 0
-305 -261 309 0
261 -309 0
-309 305 0
-310 308 309 0
-308 310 0
-309 310 0
311 -42 -277 0
42 -311 0
277 -311 0
-312 -267 -311 0
311 267 -312 0
267 312 -311 0
311 -267 312 0
-313 -310 -312 0
-313 310 312 0
313 -310 312 0
313 310 -312 0
314 -310 -312 0
-314 312 0
310 -314 0
-267 315 -311 0
267 -315 0
311 -315 0
314 315 -316 0
316 -314 0
316 -315 0
317 -50 -277 0
50 -317 0
-317 277 0
-317 -318 -273 0
-318 273 317 0
-317 273 318 0
318 -273 317 0
-319 -318 -316 0
318 316 -319 0
318 319 -316 0
316 -318 319 0
320 -318 -316 0
318 -320 0
316 -320 0
-317 321 -273 0
-321 273 0
-321 317 0
320 321 -322 0
322 -320 0
-321 322 0
-58 323 -277 0
-323 58 0
-323 277 0
-276 -323 -324 0
-324 276 323 0
324 -323 276 0
324 -276 323 0
-322 -324 -325 0
324 322 -325 0
324 -322 325 0
325 -324 322 0
326 -322 -324 0
324 -326 0
-326 322 0
327 -276 -323 0
-327 276 0
-327 323 0
326 -328 327 0
328 -326 0
-327 328 0
-1 -329 330 0
-330 1 0
329 -330 0
-283 -330 -331 0
283 330 -331 0
283 -330 331 0
-283 331 330 0
332 -283 -330 0
283 -332 0
-332 330 0
-4 -329 333 0
-333 4 0
-333 329 0
-333 -289 -334 0
333 289 -334 0
-333 334 289 0
334 -289 333 0
-335 -332 -334 0
332 334 -335 0
334 335 -332 0
332 335 -334 0
336 -332 -334 0
334 -336 0
332 -336 0
-333 -289 337 0
-337 289 0
-337 333 0
336 -338 337 0
-336 338 0
-337 338 0
-329 -10 339 0
10 -339 0
329 -339 0
-340 -339 -295 0
-340 295 339 0
295 340 -339 0
-295 340 339 0
-340 -338 -341 0
340 -341 338 0
341 -338 340 0
341 -340 338 0
-340 -338 342 0
340 -342 0
-342 338 0
-339 -295 343 0
295 -343 0
-343 339 0
343 -344 342 0
344 -342 0
344 -343 0
345 -329 -18 0
-345 18 0
329 -345 0
-301 -345 -346 0
345 -346 301 0
-345 301 346 0
-301 345 346 0
-346 -347 -344 0
344 -347 346 0
347 346 -344 0
344 -346 347 0
-346 348 -344 0
-348 346 0
344 -348 0
-301 -345 349 0
301 -349 0
345 -349 0
348 349 -350 0
-348 350 0
350 -349 0
351 -329 -26 0
-351 26 0
-351 329 0
-307 -351 -352 0
351 307 -352 0
-351 352 307 0
-307 351 352 0
-353 -350 -352 0
352 -353 350 0
353 352 -350 0
353 350 -352 0
354 -350 -352 0
352 -354 0
350 -354 0
-307 -351 355 0
307 -355 0
351 -355 0
-356 354 355 0
356 -354 0
356 -355 0
-329 -34 357 0
-357 34 0
329 -357 0
-357 -313 -358 0
313 357 -358 0
-357 313 358 0
-313 357 358 0
-356 -358 -359 0
358 356 -359 0
-356 358 359 0
-358 356 359 0
-356 -358 360 0
358 -360 0
356 -360 0
-357 -313 361 0
-361 313 0
-361 357 0
361 360 -362 0
362 -360 0
-361 362 0
363 -329 -42 0
-363 42 0
-363 329 0
-363 -364 -319 0
363 -364 319 0
-363 364 319 0
363 364 -319 0
-364 -365 -362 0
362 364 -365 0
364 365 -362 0
-364 362 365 0
-364 366 -362 0
-366 364 0
-366 362 0
-363 367 -319 0
-367 319 0
363 -367 0
367 -368 366 0
-366 368 0
368 -367 0
-329 -50 369 0
50 -369 0
329 -369 0
-369 -370 -325 0
-370 325 369 0
-369 370 325 0
369 370 -325 0
-371 -370 -368 0
368 -371 370 0
-368 370 371 0
368 -370 371 0
372 -370 -368 0
-372 370 0
368 -372 0
-369 373 -325 0
-373 325 0
-373 369 0
372 373 -374 0
-372 374 0
-373 374 0
-58 -329 375 0
-375 58 0
329 -375 0
-376 -375 -328 0
-376 375 328 0
-375 376 328 0
376 -328 375 0
-376 -377 -374 0
-377 376 374 0
377 376 -374 0
-376 377 374 0
-376 -374 378 0
-378 376 0
-378 374 0
-375 -328 379 0
-379 328 0
-379 375 0
379 -380 378 0
-378 380 0
-379 380 0
-1 -381 382 0
1 -382 0
381 -382 0
-335 -383 -382 0
335 382 -383 0
383 335 -382 0
383 -335 382 0
384 -335 -382 0
-384 335 0
-384 382 0
-4 -381 385 0
-385 4 0
-385 381 0
-385 -386 -341 0
341 -386 385 0
341 386 -385 0
-341 386 385 0
-387 -384 -386 0
-387 384 386 0
-384 386 387 0
384 -386 387 0
388 -384 -386 0
-388 386 0
384 -388 0
-385 389 -341 0
341 -389 0
-389 385 0
388 389 -390 0
-388 390 0
-389 390 0
391 -381 -10 0
10 -391 0
381 -391 0
-391 -347 -392 0
347 391 -392 0
347 -391 392 0
391 -347 392 0
-393 -390 -392 0
-393 392 390 0
-390 393 392 0
393 -392 390 0
394 -390 -392 0
-394 392 0
-394 390 0
395 -391 -347 0
347 -395 0
391 -395 0
394 395 -396 0
-394 396 0
-395 396 0
-381 -18 397 0
18 -397 0
381 -397 0
-398 -353 -397 0
353 -398 397 0
353 398 -397 0
398 -353 397 0
-396 -399 -398 0
-399 396 398 0
399 -396 398 0
399 -398 396 0
-396 -398 400 0
-400 398 0
-400 396 0
401 -353 -397 0
353 -401 0
-401 397 0
-402 401 400 0
-400 402 0
-401 402 0
-381 403 -26 0
-403 26 0
-403 381 0
-403 -404 -359 0
403 359 -404 0
-403 404 359 0
404 403 -359 0
-402 -404 -405 0
404 402 -405 0
-402 405 404 0
-404 405 402 0
-402 -404 406 0
404 -406 0
402 -406 0
-403 407 -359 0
-407 359 0
-407 403 0
406 -408 407 0
408 -406 0
-407 408 0
409 -381 -34 0
-409 34 0
381 -409 0
-409 -365 -410 0
409 365 -410 0
-409 410 365 0
410 409 -365 0
-411 -408 -410 0
-411 410 408 0
411 410 -408 0
411 -410 408 0
412 -408 -410 0
410 -412 0
-412 408 0
-409 -365 413 0
-413 365 0
409 -413 0
412 413 -414 0
414 -412 0
414 -413 0
415 -381 -42 0
-415 42 0
381 -415 0
-371 -415 -416 0
415 371 -416 0
-415 416 371 0
415 -371 416 0
-417 -416 -414 0
414 416 -417 0
417 416 -414 0
417 414 -416 0
418 -416 -414 0
-418 416 0
-418 414 0
-371 419 -415 0
-419 371 0
415 -419 0
-420 419 418 0
-418 420 0
-419 420 0
421 -381 -50 0
50 -421 0
-421 381 0
-377 -421 -422 0
377 421 -422 0
377 422 -421 0
-377 421 422 0
-420 -423 -422 0
420 -423 422 0
423 -420 422 0
423 420 -422 0
-420 424 -422 0
-424 422 0
420 -424 0
-377 425 -421 0
377 -425 0
421 -425 0
425 424 -426 0
426 -424 0
426 -425 0
427 -58 -381 0
-427 58 0
381 -427 0
-380 -428 -427 0
427 380 -428 0
380 428 -427 0
427 -380 428 0
-426 -429 -428 0
426 -429 428 0
-426 428 429 0
426 -428 429 0
-426 430 -428 0
-430 428 0
426 -430 0
-380 431 -427 0
-431 380 0
427 -431 0
-432 430 431 0
-430 432 0
-431 432 0
3 0
8 0
-71 0
123 0
175 0
227 0
279 0
-331 0
-383 0
387 0
393 0
-399 0
-405 0
-411 0
-417 0
423 0
-429 0
432 0
