p cnf 432 1395
-2 3 -1 0
1 -3 0
-3 2 0
5 -4 -2 0
-5 4 0
-5 2 0
-6 7 -1 0
1 -7 0
6 -7 0
-8 -7 -5 0
-8 5 7 0
8 5 -7 0
8 -5 7 0
-7 9 -5 0
-9 5 0
-9 7 0
-10 11 -2 0
-11 10 0
-11 2 0
-6 -4 12 0
-12 4 0
-12 6 0
-12 -11 -13 0
11 -13 12 0
-12 11 13 0
-11 13 12 0
-9 -14 -13 0
-14 9 13 0
-9 14 13 0
14 9 -13 0
-9 15 -13 0
-15 13 0
9 -15 0
-12 -11 16 0
11 -16 0
-16 12 0
15 16 -17 0
-15 17 0
-16 17 0
-2 19 -18 0
-19 18 0
-19 2 0
-10 -6 20 0
10 -20 0
6 -20 0
-21 -19 -20 0
-21 19 20 0
21 19 -20 0
21 -19 20 0
-17 -21 -22 0
21 -22 17 0
21 22 -17 0
22 -21 17 0
23 -17 -21 0
21 -23 0
-23 17 0
-19 24 -20 0
-24 19 0
-24 20 0
23 24 -25 0
25 -23 0
-24 25 0
-26 27 -2 0
26 -27 0
-27 2 0
-6 28 -18 0
-28 18 0
6 -28 0
-27 -29 -28 0
27 -29 28 0
27 29 -28 0
-27 28 29 0
-30 -29 -25 0
-30 25 29 0
30 29 -25 0
-29 25 30 0
-29 31 -25 0
29 -31 0
25 -31 0
-27 32 -28 0
27 -32 0
-32 28 0
-33 32 31 0
33 -31 0
-32 33 0
35 -2 -34 0
-35 34 0
-35 2 0
-26 -6 36 0
26 -36 0
-36 6 0
-36 -37 -35 0
36 35 -37 0
-36 35 37 0
36 37 -35 0
-38 -37 -33 0
37 -38 33 0
37 -33 38 0
-37 33 38 0
39 -37 -33 0
37 -39 0
-39 33 0
40 -36 -35 0
-40 35 0
36 -40 0
40 39 -41 0
-39 41 0
-40 41 0
-42 43 -2 0
-43 42 0
-43 2 0
-6 44 -34 0
-44 34 0
-44 6 0
-45 -44 -43 0
-45 44 43 0
-44 43 45 0
44 -43 45 0
-45 -46 -41 0
-46 45 41 0
46 -41 45 0
-45 46 41 0
-45 -41 47 0
-47 45 0
-47 41 0
-44 -43 48 0
-48 43 0
44 -48 0
48 -49 47 0
49 -47 0
49 -48 0
-50 51 -2 0
-51 50 0
-51 2 0
-42 -6 52 0
-52 42 0
-52 6 0
-52 -51 -53 0
51 -53 52 0
-52 51 53 0
-51 53 52 0
-49 -53 -54 0
49 53 -54 0
-49 53 54 0
54 49 -53 0
55 -49 -53 0
53 -55 0
49 -55 0
-52 -51 56 0
51 -56 0
-56 52 0
55 -57 56 0
57 -55 0
57 -56 0
-58 59 -2 0
-59 58 0
-59 2 0
-50 -6 60 0
-60 50 0
6 -60 0
-61 -59 -60 0
-61 60 59 0
61 -60 59 0
61 -59 60 0
-62 -61 -57 0
-62 57 61 0
61 62 -57 0
57 -61 62 0
-61 63 -57 0
-63 61 0
57 -63 0
64 -59 -60 0
-64 59 0
-64 60 0
-65 64 63 0
65 -63 0
65 -64 0
-6 -58 66 0
58 -66 0
6 -66 0
-65 -67 -66 0
65 -67 66 0
65 67 -66 0
-65 66 67 0
68 -65 -66 0
65 -68 0
-68 66 0
70 -69 -1 0
1 -70 0
-70 69 0
-70 -14 -71 0
70 14 -71 0
-70 14 71 0
70 -14 71 0
-70 72 -14 0
-72 14 0
-72 70 0
73 -69 -4 0
-73 4 0
-73 69 0
-74 -73 -22 0
73 -74 22 0
-73 74 22 0
73 74 -22 0
-75 -74 -72 0
72 74 -75 0
75 74 -72 0
72 -74 75 0
-74 -72 76 0
-76 74 0
72 -76 0
77 -73 -22 0
-77 22 0
73 -77 0
77 76 -78 0
-76 78 0
-77 78 0
-10 79 -69 0
10 -79 0
-79 69 0
-30 -80 -79 0
79 30 -80 0
30 80 -79 0
-30 79 80 0
-78 -81 -80 0
80 -81 78 0
-78 81 80 0
81 78 -80 0
-78 82 -80 0
80 -82 0
78 -82 0
83 -30 -79 0
30 -83 0
79 -83 0
83 82 -84 0
84 -82 0
-83 84 0
85 -69 -18 0
-85 18 0
-85 69 0
-38 -85 -86 0
85 38 -86 0
-85 38 86 0
85 -38 86 0
-84 -87 -86 0
-87 84 86 0
87 -84 86 0
-86 84 87 0
-84 -86 88 0
-88 86 0
84 -88 0
89 -38 -85 0
-89 38 0
-89 85 0
-90 89 88 0
90 -88 0
-89 90 0
-26 91 -69 0
26 -91 0
-91 69 0
-92 -46 -91 0
-92 91 46 0
92 -91 46 0
92 91 -46 0
-92 -93 -90 0
92 -93 90 0
-90 92 93 0
-92 90 93 0
-92 -90 94 0
92 -94 0
90 -94 0
-46 -91 95 0
-95 46 0
91 -95 0
94 -96 95 0
96 -94 0
96 -95 0
97 -69 -34 0
-97 34 0
-97 69 0
-97 -98 -54 0
54 -98 97 0
54 98 -97 0
98 97 -54 0
-96 -99 -98 0
96 98 -99 0
99 98 -96 0
96 99 -98 0
100 -96 -98 0
98 -100 0
96 -100 0
-97 101 -54 0
54 -101 0
-101 97 0
-102 100 101 0
-100 102 0
-101 102 0
-42 103 -69 0
42 -103 0
-103 69 0
-104 -62 -103 0
-104 103 62 0
104 62 -103 0
104 -62 103 0
-104 -102 -105 0
104 -105 102 0
-102 104 105 0
-104 105 102 0
-104 -102 106 0
104 -106 0
-106 102 0
107 -62 -103 0
-107 62 0
103 -107 0
106 107 -108 0
108 -106 0
108 -107 0
109 -50 -69 0
-109 50 0
-109 69 0
-110 -109 -67 0
109 -110 67 0
-109 110 67 0
109 -67 110 0
-111 -110 -108 0
108 -111 110 0
111 -108 110 0
108 111 -110 0
112 -110 -108 0
-112 110 0
108 -112 0
113 -109 -67 0
-113 67 0
109 -113 0
112 113 -114 0
-112 114 0
114 -113 0
-58 115 -69 0
-115 58 0
-115 69 0
-116 -68 -115 0
-116 115 68 0
116 -115 68 0
116 -68 115 0
-117 -116 -114 0
-117 114 116 0
-114 116 117 0
-116 114 117 0
-116 -114 118 0
-118 116 0
-118 114 0
119 -68 -115 0
-119 68 0
-119 115 0
119 -120 118 0
-118 120 0
-119 120 0
-121 122 -1 0
1 -122 0
-122 121 0
-75 -123 -122 0
75 122 -123 0
-122 75 123 0
-75 123 122 0
-75 124 -122 0
-124 75 0
-124 122 0
-121 125 -4 0
-125 4 0
121 -125 0
-126 -81 -125 0
-126 81 125 0
81 126 -125 0
125 -81 126 0
-124 -126 -127 0
124 -127 126 0
-124 127 126 0
124 -126 127 0
-124 -126 128 0
-128 126 0
124 -128 0
-81 129 -125 0
81 -129 0
125 -129 0
-130 129 128 0
-128 130 0
130 -129 0
-10 -121 131 0
-131 10 0
-131 121 0
-132 -131 -87 0
-132 131 87 0
-131 132 87 0
131 -87 132 0
-132 -130 -133 0
130 132 -133 0
-130 132 133 0
-132 130 133 0
-132 134 -130 0
132 -134 0
130 -134 0
-131 -87 135 0
-135 87 0
131 -135 0
-136 134 135 0
-134 136 0
-135 136 0
-121 137 -18 0
-137 18 0
-137 121 0
-93 -137 -138 0
93 137 -138 0
93 138 -137 0
137 -93 138 0
-139 -138 -136 0
138 136 -139 0
138 139 -136 0
139 -138 136 0
-138 -136 140 0
138 -140 0
-140 136 0
-93 -137 141 0
93 -141 0
137 -141 0
141 140 -142 0
142 -140 0
142 -141 0
-26 -121 143 0
26 -143 0
121 -143 0
-144 -99 -143 0
99 -144 143 0
99 144 -143 0
-99 144 143 0
-145 -142 -144 0
142 144 -145 0
145 -142 144 0
142 145 -144 0
146 -142 -144 0
-146 144 0
142 -146 0
-99 147 -143 0
99 -147 0
-147 143 0
-148 146 147 0
-146 148 0
148 -147 0
-121 149 -34 0
-149 34 0
121 -149 0
-150 -105 -149 0
-150 149 105 0
150 -149 105 0
150 -105 149 0
-150 -151 -148 0
-151 150 148 0
150 -148 151 0
-150 148 151 0
-150 -148 152 0
150 -152 0
148 -152 0
153 -105 -149 0
-153 105 0
-153 149 0
153 152 -154 0
-152 154 0
-153 154 0
-42 -121 155 0
-155 42 0
-155 121 0
-155 -156 -111 0
111 -156 155 0
-155 111 156 0
-111 156 155 0
-157 -156 -154 0
-157 156 154 0
157 156 -154 0
157 -156 154 0
-156 158 -154 0
156 -158 0
-158 154 0
-155 -111 159 0
111 -159 0
155 -159 0
-160 159 158 0
160 -158 0
160 -159 0
-50 -121 161 0
50 -161 0
121 -161 0
-117 -162 -161 0
-162 117 161 0
162 117 -161 0
-117 162 161 0
-162 -160 -163 0
162 160 -163 0
162 -160 163 0
-162 160 163 0
-162 -160 164 0
162 -164 0
-164 160 0
-117 165 -161 0
-165 117 0
-165 161 0
165 -166 164 0
-164 166 0
-165 166 0
-121 -58 167 0
-167 58 0
-167 121 0
-167 -120 -168 0
120 -168 167 0
120 -167 168 0
-120 168 167 0
-169 -168 -166 0
166 -169 168 0
169 -166 168 0
169 166 -168 0
-168 -166 170 0
-170 168 0
166 -170 0
-167 -120 171 0
120 -171 0
-171 167 0
-172 171 170 0
-170 172 0
172 -171 0
174 -173 -1 0
1 -174 0
-174 173 0
-174 -127 -175 0
127 -175 174 0
-174 127 175 0
-127 174 175 0
-174 -127 176 0
127 -176 0
174 -176 0
-173 -4 177 0
-177 4 0
173 -177 0
-133 -178 -177 0
-178 133 177 0
178 133 -177 0
-133 178 177 0
-178 -179 -176 0
178 176 -179 0
178 179 -176 0
-178 179 176 0
180 -178 -176 0
-180 178 0
-180 176 0
-133 181 -177 0
133 -181 0
-181 177 0
180 181 -182 0
-180 182 0
182 -181 0
183 -10 -173 0
-183 10 0
-183 173 0
-139 -183 -184 0
183 139 -184 0
-183 139 184 0
183 -139 184 0
-182 -185 -184 0
182 -185 184 0
185 -182 184 0
185 182 -184 0
-182 186 -184 0
-186 184 0
-186 182 0
-139 -183 187 0
-187 139 0
183 -187 0
187 -188 186 0
188 -186 0
-187 188 0
189 -173 -18 0
-189 18 0
173 -189 0
-190 -145 -189 0
-190 145 189 0
190 145 -189 0
190 -145 189 0
-188 -191 -190 0
190 188 -191 0
190 -188 191 0
188 191 -190 0
-188 192 -190 0
190 -192 0
188 -192 0
193 -145 -189 0
-193 145 0
-193 189 0
193 192 -194 0
-192 194 0
194 -193 0
-26 -173 195 0
26 -195 0
173 -195 0
-151 -196 -195 0
195 151 -196 0
196 151 -195 0
-151 195 196 0
-197 -196 -194 0
-197 194 196 0
-194 197 196 0
197 194 -196 0
198 -196 -194 0
-198 196 0
-198 194 0
-151 199 -195 0
-199 151 0
-199 195 0
-200 199 198 0
200 -198 0
-199 200 0
201 -173 -34 0
-201 34 0
173 -201 0
-157 -202 -201 0
157 201 -202 0
157 202 -201 0
-157 201 202 0
-200 -203 -202 0
200 -203 202 0
-200 202 203 0
203 200 -202 0
-200 204 -202 0
-204 202 0
200 -204 0
-157 205 -201 0
157 -205 0
201 -205 0
205 204 -206 0
-204 206 0
-205 206 0
-42 207 -173 0
-207 42 0
-207 173 0
-208 -207 -163 0
207 -208 163 0
208 -207 163 0
207 208 -163 0
-209 -206 -208 0
-209 208 206 0
209 208 -206 0
209 -208 206 0
-206 -208 210 0
-210 208 0
-210 206 0
211 -207 -163 0
-211 163 0
-211 207 0
211 -212 210 0
212 -210 0
-211 212 0
-50 -173 213 0
-213 50 0
-213 173 0
-213 -169 -214 0
-214 169 213 0
-213 169 214 0
214 213 -169 0
-215 -214 -212 0
212 -215 214 0
215 214 -212 0
212 -214 215 0
-214 216 -212 0
-216 214 0
212 -216 0
217 -213 -169 0
-217 169 0
-217 213 0
217 -218 216 0
-216 218 0
-217 218 0
-58 -173 219 0
-219 58 0
-219 173 0
-219 -172 -220 0
219 -220 172 0
-219 220 172 0
220 219 -172 0
-218 -221 -220 0
220 -221 218 0
221 220 -218 0
221 -220 218 0
222 -218 -220 0
-222 220 0
-222 218 0
-219 223 -172 0
-223 172 0
-223 219 0
222 -224 223 0
-222 224 0
-223 224 0
-225 226 -1 0
1 -226 0
225 -226 0
-227 -226 -179 0
226 -227 179 0
-226 179 227 0
226 227 -179 0
-226 228 -179 0
179 -228 0
226 -228 0
229 -4 -225 0
-229 4 0
-229 225 0
-229 -185 -230 0
185 -230 229 0
-229 185 230 0
229 -185 230 0
-231 -228 -230 0
-231 228 230 0
231 -228 230 0
231 228 -230 0
232 -228 -230 0
-232 230 0
228 -232 0
-229 -185 233 0
185 -233 0
229 -233 0
232 -234 233 0
234 -232 0
-233 234 0
-10 235 -225 0
-235 10 0
225 -235 0
-236 -235 -191 0
-236 191 235 0
-235 191 236 0
235 -191 236 0
-236 -234 -237 0
234 -237 236 0
-234 237 236 0
-236 234 237 0
-236 -234 238 0
-238 236 0
-238 234 0
239 -235 -191 0
-239 191 0
-239 235 0
238 -240 239 0
-238 240 0
-239 240 0
-225 241 -18 0
-241 18 0
225 -241 0
-197 -241 -242 0
241 197 -242 0
197 242 -241 0
-197 241 242 0
-240 -243 -242 0
-243 240 242 0
-240 243 242 0
240 243 -242 0
-240 244 -242 0
-244 242 0
-244 240 0
245 -197 -241 0
-245 197 0
-245 241 0
-246 245 244 0
246 -244 0
246 -245 0
247 -26 -225 0
26 -247 0
225 -247 0
-203 -247 -248 0
203 247 -248 0
203 248 -247 0
247 248 -203 0
-246 -249 -248 0
246 -249 248 0
-246 248 249 0
246 249 -248 0
-246 250 -248 0
248 -250 0
246 -250 0
251 -203 -247 0
203 -251 0
247 -251 0
-252 251 250 0
-250 252 0
-251 252 0
-225 253 -34 0
-253 34 0
225 -253 0
-209 -253 -254 0
209 253 -254 0
209 -253 254 0
-209 253 254 0
-255 -254 -252 0
-255 254 252 0
254 255 -252 0
-254 255 252 0
-254 256 -252 0
254 -256 0
-256 252 0
-209 -253 257 0
209 -257 0
-257 253 0
-258 257 256 0
258 -256 0
-257 258 0
-42 259 -225 0
-259 42 0
-259 225 0
-259 -215 -260 0
215 -260 259 0
-259 215 260 0
260 -215 259 0
-258 -260 -261 0
260 -261 258 0
260 261 -258 0
-260 258 261 0
-258 262 -260 0
260 -262 0
258 -262 0
-259 -215 263 0
215 -263 0
-263 259 0
262 -264 263 0
264 -262 0
264 -263 0
265 -50 -225 0
-265 50 0
225 -265 0
-265 -221 -266 0
265 221 -266 0
221 266 -265 0
265 -221 266 0
-264 -266 -267 0
-267 264 266 0
267 -264 266 0
264 267 -266 0
-264 268 -266 0
-268 266 0
264 -268 0
269 -265 -221 0
221 -269 0
265 -269 0
-270 268 269 0
270 -268 0
270 -269 0
-58 271 -225 0
-271 58 0
225 -271 0
-224 -272 -271 0
-272 271 224 0
-271 272 224 0
-224 271 272 0
-272 -270 -273 0
270 272 -273 0
-270 273 272 0
-272 270 273 0
-272 -270 274 0
-274 272 0
-274 270 0
-224 275 -271 0
-275 224 0
271 -275 0
-276 275 274 0
-274 276 0
-275 276 0
-277 278 -1 0
1 -278 0
-278 277 0
-279 -278 -231 0
-279 231 278 0
-278 231 279 0
-231 278 279 0
280 -278 -231 0
231 -280 0
-280 278 0
281 -277 -4 0
-281 4 0
277 -281 0
-282 -281 -237 0
281 -282 237 0
-281 282 237 0
281 282 -237 0
-282 -280 -283 0
280 -283 282 0
283 -280 282 0
283 -282 280 0
-282 284 -280 0
-284 282 0
-284 280 0
-281 285 -237 0
-285 237 0
281 -285 0
284 285 -286 0
-284 286 0
-285 286 0
-10 -277 287 0
-287 10 0
-287 277 0
-287 -243 -288 0
243 287 -288 0
288 -287 243 0
288 287 -243 0
-286 -289 -288 0
288 -289 286 0
288 289 -286 0
286 289 -288 0
-286 290 -288 0
288 -290 0
-290 286 0
-287 291 -243 0
-291 243 0
-291 287 0
291 290 -292 0
292 -290 0
292 -291 0
-277 293 -18 0
-293 18 0
-293 277 0
-293 -249 -294 0
-294 293 249 0
-293 294 249 0
294 -249 293 0
-294 -292 -295 0
294 292 -295 0
294 295 -292 0
292 -294 295 0
-294 -292 296 0
294 -296 0
292 -296 0
-293 -249 297 0
-297 249 0
293 -297 0
-298 296 297 0
298 -296 0
298 -297 0
-26 -277 299 0
26 -299 0
-299 277 0
-300 -255 -299 0
299 -300 255 0
-299 300 255 0
299 -255 300 0
-298 -300 -301 0
300 298 -301 0
-298 300 301 0
-300 301 298 0
-298 -300 302 0
-302 300 0
-302 298 0
-255 -299 303 0
-303 255 0
299 -303 0
-304 302 303 0
-302 304 0
-303 304 0
305 -277 -34 0
-305 34 0
-305 277 0
-261 -305 -306 0
305 261 -306 0
-305 261 306 0
305 -261 306 0
-307 -304 -306 0
-307 306 304 0
-304 307 306 0
307 304 -306 0
-304 308 -306 0
-308 306 0
-308 304 0
309 -261 -305 0
261 -309 0
305 -309 0
309 -310 308 0
310 -308 0
310 -309 0
-42 -277 311 0
-311 42 0
277 -311 0
-312 -311 -267 0
267 311 -312 0
267 312 -311 0
311 312 -267 0
-310 -312 -313 0
310 -313 312 0
-310 313 312 0
310 -312 313 0
-310 -312 314 0
-314 312 0
-314 310 0
315 -311 -267 0
267 -315 0
311 -315 0
-316 315 314 0
-314 316 0
-315 316 0
317 -50 -277 0
50 -317 0
277 -317 0
-317 -318 -273 0
317 273 -318 0
273 318 -317 0
317 318 -273 0
-316 -319 -318 0
318 -319 316 0
-316 318 319 0
319 -318 316 0
-316 320 -318 0
318 -320 0
-320 316 0
-317 321 -273 0
-321 273 0
317 -321 0
320 321 -322 0
322 -320 0
-321 322 0
323 -58 -277 0
-323 58 0
277 -323 0
-323 -276 -324 0
323 -324 276 0
324 -323 276 0
323 324 -276 0
-322 -325 -324 0
322 324 -325 0
324 325 -322 0
322 -324 325 0
326 -322 -324 0
324 -326 0
322 -326 0
-323 327 -276 0
-327 276 0
323 -327 0
-328 326 327 0
328 -326 0
328 -327 0
-329 330 -1 0
1 -330 0
-330 329 0
-330 -283 -331 0
283 330 -331 0
-330 283 331 0
330 -283 331 0
-330 -283 332 0
283 -332 0
330 -332 0
-329 333 -4 0
-333 4 0
-333 329 0
-334 -333 -289 0
-334 289 333 0
289 334 -333 0
-289 334 333 0
-334 -335 -332 0
332 334 -335 0
335 334 -332 0
-334 332 335 0
-334 336 -332 0
334 -336 0
332 -336 0
-333 -289 337 0
-337 289 0
-337 333 0
336 -338 337 0
338 -336 0
-337 338 0
-329 -10 339 0
-339 10 0
-339 329 0
-339 -340 -295 0
339 -340 295 0
-339 340 295 0
339 340 -295 0
-341 -338 -340 0
-341 340 338 0
341 -338 340 0
341 -340 338 0
342 -338 -340 0
-342 340 0
-342 338 0
343 -339 -295 0
-343 295 0
339 -343 0
-344 342 343 0
-342 344 0
-343 344 0
-329 345 -18 0
-345 18 0
-345 329 0
-345 -346 -301 0
345 -346 301 0
346 -345 301 0
346 345 -301 0
-347 -346 -344 0
346 -347 344 0
346 347 -344 0
-346 344 347 0
-346 348 -344 0
346 -348 0
344 -348 0
-345 349 -301 0
-349 301 0
345 -349 0
349 348 -350 0
350 -348 0
350 -349 0
-329 -26 351 0
26 -351 0
-351 329 0
-352 -307 -351 0
-352 351 307 0
307 352 -351 0
-307 352 351 0
-352 -350 -353 0
350 -353 352 0
-350 353 352 0
-352 350 353 0
-352 -350 354 0
-354 352 0
-354 350 0
355 -307 -351 0
307 -355 0
351 -355 0
355 354 -356 0
-354 356 0
-355 356 0
-329 357 -34 0
-357 34 0
-357 329 0
-358 -313 -357 0
313 357 -358 0
313 358 -357 0
-313 358 357 0
-359 -356 -358 0
-359 358 356 0
359 358 -356 0
359 356 -358 0
360 -356 -358 0
-360 358 0
-360 356 0
361 -313 -357 0
313 -361 0
357 -361 0
360 -362 361 0
-360 362 0
362 -361 0
-42 -329 363 0
-363 42 0
-363 329 0
-363 -319 -364 0
319 -364 363 0
-363 364 319 0
364 -319 363 0
-362 -364 -365 0
364 362 -365 0
364 365 -362 0
365 -364 362 0
366 -362 -364 0
364 -366 0
-366 362 0
-363 367 -319 0
319 -367 0
-367 363 0
367 366 -368 0
-366 368 0
368 -367 0
-329 -50 369 0
50 -369 0
-369 329 0
-370 -325 -369 0
369 -370 325 0
370 -369 325 0
369 -325 370 0
-368 -370 -371 0
-371 368 370 0
-368 371 370 0
368 -370 371 0
-368 372 -370 0
-372 370 0
-372 368 0
373 -325 -369 0
-373 325 0
369 -373 0
372 373 -374 0
374 -372 0
374 -373 0
-329 375 -58 0
58 -375 0
-375 329 0
-328 -376 -375 0
328 375 -376 0
328 376 -375 0
376 375 -328 0
-377 -374 -376 0
376 -377 374 0
376 -374 377 0
374 -376 377 0
378 -374 -376 0
376 -378 0
374 -378 0
379 -328 -375 0
328 -379 0
375 -379 0
-380 378 379 0
380 -378 0
380 -379 0
382 -381 -1 0
1 -382 0
-382 381 0
-382 -335 -383 0
335 382 -383 0
335 383 -382 0
382 -335 383 0
-382 -335 384 0
335 -384 0
382 -384 0
-381 385 -4 0
-385 4 0
381 -385 0
-386 -341 -385 0
-386 341 385 0
386 341 -385 0
386 -341 385 0
-386 -387 -384 0
386 -387 384 0
386 387 -384 0
-386 387 384 0
-386 388 -384 0
386 -388 0
-388 384 0
-341 -385 389 0
341 -389 0
385 -389 0
388 -390 389 0
390 -388 0
390 -389 0
-381 -10 391 0
-391 10 0
-391 381 0
-392 -391 -347 0
-392 391 347 0
-391 392 347 0
391 392 -347 0
-392 -393 -390 0
390 392 -393 0
392 -390 393 0
-392 390 393 0
-392 394 -390 0
392 -394 0
390 -394 0
-391 -347 395 0
-395 347 0
-395 391 0
394 395 -396 0
396 -394 0
-395 396 0
-381 397 -18 0
-397 18 0
381 -397 0
-398 -353 -397 0
397 353 -398 0
353 398 -397 0
397 -353 398 0
-398 -399 -396 0
-399 398 396 0
399 -396 398 0
-398 399 396 0
-398 -396 400 0
-400 398 0
-400 396 0
401 -353 -397 0
353 -401 0
397 -401 0
-402 401 400 0
402 -400 0
402 -401 0
-381 -26 403 0
26 -403 0
381 -403 0
-359 -404 -403 0
359 -404 403 0
359 404 -403 0
404 -359 403 0
-402 -404 -405 0
404 402 -405 0
404 405 -402 0
402 -404 405 0
-402 -404 406 0
404 -406 0
402 -406 0
-359 -403 407 0
359 -407 0
-407 403 0
-408 406 407 0
-406 408 0
408 -407 0
409 -381 -34 0
-409 34 0
381 -409 0
-410 -409 -365 0
409 365 -410 0
365 -409 410 0
409 410 -365 0
-408 -411 -410 0
408 410 -411 0
-408 410 411 0
408 411 -410 0
412 -408 -410 0
410 -412 0
408 -412 0
413 -409 -365 0
365 -413 0
409 -413 0
413 -414 412 0
-412 414 0
-413 414 0
-42 -381 415 0
-415 42 0
-415 381 0
-415 -416 -371 0
415 371 -416 0
416 -415 371 0
416 415 -371 0
-417 -414 -416 0
416 -417 414 0
416 417 -414 0
417 -416 414 0
-414 -416 418 0
416 -418 0
-418 414 0
-415 -371 419 0
-419 371 0
415 -419 0
418 -420 419 0
420 -418 0
420 -419 0
-381 -50 421 0
50 -421 0
381 -421 0
-377 -422 -421 0
-422 377 421 0
422 377 -421 0
422 -377 421 0
-423 -420 -422 0
422 -423 420 0
422 423 -420 0
423 420 -422 0
424 -420 -422 0
422 -424 0
420 -424 0
425 -377 -421 0
-425 377 0
-425 421 0
424 425 -426 0
426 -424 0
426 -425 0
-381 -58 427 0
-427 58 0
381 -427 0
-380 -428 -427 0
380 -428 427 0
380 428 -427 0
428 -380 427 0
-428 -426 -429 0
426 428 -429 0
428 429 -426 0
426 -428 429 0
430 -428 -426 0
428 -430 0
426 -430 0
-380 -427 431 0
380 -431 0
-431 427 0
430 431 -432 0
432 -430 0
432 -431 0
3 0
-8 0
-71 0
-123 0
175 0
-227 0
-279 0
331 0
-383 0
387 0
-393 0
-399 0
405 0
-411 0
-417 0
423 0
429 0
-432 0
