p cnf 36 105
-1 -2 3 0
1 -3 0
2 -3 0
-4 -2 5 0
4 -5 0
2 -5 0
-1 -6 -7 0
1 7 0
6 7 0
-5 7 -8 0
5 -7 -8 0
5 7 8 0
-5 -7 8 0
-5 7 9 0
5 -9 0
-7 -9 0
-10 -2 11 0
10 -11 0
2 -11 0
-4 -6 12 0
4 -12 0
6 -12 0
-11 -12 -13 0
11 12 -13 0
11 -12 13 0
-11 12 13 0
-13 -9 -14 0
13 9 -14 0
13 -9 14 0
-13 9 14 0
-13 -9 -15 0
13 15 0
9 15 0
-11 -12 16 0
11 -16 0
12 -16 0
-15 16 -17 0
15 17 0
-16 17 0
-10 -6 18 0
10 -18 0
6 -18 0
-17 -18 -19 0
17 18 -19 0
17 -18 19 0
-17 18 19 0
-17 -18 20 0
17 -20 0
18 -20 0
-1 -21 22 0
1 -22 0
21 -22 0
-14 -22 -23 0
14 22 -23 0
14 -22 23 0
-14 22 23 0
-14 -22 24 0
14 -24 0
22 -24 0
-4 -21 25 0
4 -25 0
21 -25 0
-19 -25 26 0
19 25 26 0
19 -25 -26 0
-19 25 -26 0
26 -24 -27 0
-26 24 -27 0
-26 -24 27 0
26 24 27 0
26 -24 28 0
-26 -28 0
24 -28 0
-19 -25 29 0
19 -29 0
25 -29 0
28 29 -30 0
-28 30 0
-29 30 0
-10 -21 31 0
10 -31 0
21 -31 0
-20 -31 -32 0
20 31 -32 0
20 -31 32 0
-20 31 32 0
-32 -30 -33 0
32 30 -33 0
32 -30 33 0
-32 30 33 0
-32 -30 34 0
32 -34 0
30 -34 0
-20 -31 -35 0
20 35 0
31 35 0
34 -35 -36 0
-34 36 0
35 36 0
3 0
8 0
-23 0
-27 0
-33 0
36 0
