p cnf 120 375
-1 -2 3 0
1 -3 0
2 -3 0
-4 -2 5 0
4 -5 0
2 -5 0
-1 -6 7 0
1 -7 0
6 -7 0
-5 -7 -8 0
5 7 -8 0
5 -7 8 0
-5 7 8 0
-5 -7 9 0
5 -9 0
7 -9 0
-10 -2 11 0
10 -11 0
2 -11 0
-4 -6 12 0
4 -12 0
6 -12 0
-11 -12 -13 0
11 12 -13 0
11 -12 13 0
-11 12 13 0
-13 -9 -14 0
13 9 -14 0
13 -9 14 0
-13 9 14 0
-13 -9 15 0
13 -15 0
9 -15 0
-11 -12 16 0
11 -16 0
12 -16 0
15 16 -17 0
-15 17 0
-16 17 0
-18 -2 19 0
18 -19 0
2 -19 0
-10 -6 20 0
10 -20 0
6 -20 0
-19 -20 -21 0
19 20 -21 0
19 -20 21 0
-19 20 21 0
-21 -17 -22 0
21 17 -22 0
21 -17 22 0
-21 17 22 0
-21 -17 23 0
21 -23 0
17 -23 0
-19 -20 24 0
19 -24 0
20 -24 0
23 24 -25 0
-23 25 0
-24 25 0
-26 -2 27 0
26 -27 0
2 -27 0
-18 -6 28 0
18 -28 0
6 -28 0
-27 -28 -29 0
27 28 -29 0
27 -28 29 0
-27 28 29 0
-29 -25 -30 0
29 25 -30 0
29 -25 30 0
-29 25 30 0
-29 -25 31 0
29 -31 0
25 -31 0
-27 -28 32 0
27 -32 0
28 -32 0
31 32 -33 0
-31 33 0
-32 33 0
-26 -6 34 0
26 -34 0
6 -34 0
-33 -34 -35 0
33 34 -35 0
33 -34 35 0
-33 34 35 0
-33 -34 36 0
33 -36 0
34 -36 0
-1 -37 38 0
1 -38 0
37 -38 0
-14 -38 -39 0
14 38 -39 0
14 -38 39 0
-14 38 39 0
-14 -38 40 0
14 -40 0
38 -40 0
-4 -37 41 0
4 -41 0
37 -41 0
-22 -41 -42 0
22 41 -42 0
22 -41 42 0
-22 41 42 0
-42 -40 -43 0
42 40 -43 0
42 -40 43 0
-42 40 43 0
-42 -40 44 0
42 -44 0
40 -44 0
-22 -41 45 0
22 -45 0
41 -45 0
44 45 -46 0
-44 46 0
-45 46 0
-10 -37 47 0
10 -47 0
37 -47 0
-30 -47 -48 0
30 47 -48 0
30 -47 48 0
-30 47 48 0
-48 -46 -49 0
48 46 -49 0
48 -46 49 0
-48 46 49 0
-48 -46 50 0
48 -50 0
46 -50 0
-30 -47 51 0
30 -51 0
47 -51 0
50 51 -52 0
-50 52 0
-51 52 0
-18 -37 53 0
18 -53 0
37 -53 0
-35 -53 -54 0
35 53 -54 0
35 -53 54 0
-35 53 54 0
-54 -52 -55 0
54 52 -55 0
54 -52 55 0
-54 52 55 0
-54 -52 56 0
54 -56 0
52 -56 0
-35 -53 57 0
35 -57 0
53 -57 0
56 57 -58 0
-56 58 0
-57 58 0
-26 -37 59 0
26 -59 0
37 -59 0
-36 -59 -60 0
36 59 -60 0
36 -59 60 0
-36 59 60 0
-60 -58 -61 0
60 58 -61 0
60 -58 61 0
-60 58 61 0
-60 -58 62 0
60 -62 0
58 -62 0
-36 -59 63 0
36 -63 0
59 -63 0
62 63 -64 0
-62 64 0
-63 64 0
-1 -65 66 0
1 -66 0
65 -66 0
-43 -66 -67 0
43 66 -67 0
43 -66 67 0
-43 66 67 0
-43 -66 68 0
43 -68 0
66 -68 0
-4 -65 69 0
4 -69 0
65 -69 0
-49 -69 -70 0
49 69 -70 0
49 -69 70 0
-49 69 70 0
-70 -68 -71 0
70 68 -71 0
70 -68 71 0
-70 68 71 0
-70 -68 72 0
70 -72 0
68 -72 0
-49 -69 73 0
49 -73 0
69 -73 0
72 73 -74 0
-72 74 0
-73 74 0
-10 -65 75 0
10 -75 0
65 -75 0
-55 -75 -76 0
55 75 -76 0
55 -75 76 0
-55 75 76 0
-76 -74 -77 0
76 74 -77 0
76 -74 77 0
-76 74 77 0
-76 -74 78 0
76 -78 0
74 -78 0
-55 -75 79 0
55 -79 0
75 -79 0
78 79 -80 0
-78 80 0
-79 80 0
-18 -65 81 0
18 -81 0
65 -81 0
-61 -81 -82 0
61 81 -82 0
61 -81 82 0
-61 81 82 0
-82 -80 -83 0
82 80 -83 0
82 -80 83 0
-82 80 83 0
-82 -80 84 0
82 -84 0
80 -84 0
-61 -81 85 0
61 -85 0
81 -85 0
84 85 -86 0
-84 86 0
-85 86 0
-26 -65 87 0
26 -87 0
65 -87 0
-64 -87 -88 0
64 87 -88 0
64 -87 88 0
-64 87 88 0
-88 -86 -89 0
88 86 -89 0
88 -86 89 0
-88 86 89 0
-88 -86 90 0
88 -90 0
86 -90 0
-64 -87 91 0
64 -91 0
87 -91 0
90 91 -92 0
-90 92 0
-91 92 0
-1 -93 94 0
1 -94 0
93 -94 0
-71 -94 -95 0
71 94 -95 0
71 -94 95 0
-71 94 95 0
-71 -94 96 0
71 -96 0
94 -96 0
-4 -93 97 0
4 -97 0
93 -97 0
-77 -97 -98 0
77 97 -98 0
77 -97 98 0
-77 97 98 0
-98 -96 -99 0
98 96 -99 0
98 -96 99 0
-98 96 99 0
-98 -96 100 0
98 -100 0
96 -100 0
-77 -97 101 0
77 -101 0
97 -101 0
100 101 -102 0
-100 102 0
-101 102 0
-10 -93 103 0
10 -103 0
93 -103 0
-83 -103 -104 0
83 103 -104 0
83 -103 104 0
-83 103 104 0
-104 -102 -105 0
104 102 -105 0
104 -102 105 0
-104 102 105 0
-104 -102 106 0
104 -106 0
102 -106 0
-83 -103 107 0
83 -107 0
103 -107 0
106 107 -108 0
-106 108 0
-107 108 0
-18 -93 109 0
18 -109 0
93 -109 0
-89 -109 -110 0
89 109 -110 0
89 -109 110 0
-89 109 110 0
-110 -108 -111 0
110 108 -111 0
110 -108 111 0
-110 108 111 0
-110 -108 112 0
110 -112 0
108 -112 0
-89 -109 113 0
89 -113 0
109 -113 0
112 113 -114 0
-112 114 0
-113 114 0
-26 -93 115 0
26 -115 0
93 -115 0
-92 -115 -116 0
92 115 -116 0
92 -115 116 0
-92 115 116 0
-116 -114 -117 0
116 114 -117 0
116 -114 117 0
-116 114 117 0
-116 -114 118 0
116 -118 0
114 -118 0
-92 -115 119 0
92 -119 0
115 -119 0
118 119 -120 0
-118 120 0
-119 120 0
3 0
8 0
-39 0
-67 0
-95 0
-99 0
105 0
-111 0
117 0
-120 0
