p cnf 540 1730
-1 3 -2 0
1 -3 0
-3 2 0
-4 5 -2 0
-5 4 0
-5 2 0
-1 7 -6 0
-7 1 0
-7 6 0
-7 -5 -8 0
7 -8 5 0
-7 8 5 0
8 -5 7 0
-7 9 -5 0
-9 5 0
-9 7 0
-10 11 -2 0
-11 10 0
-11 2 0
-4 12 -6 0
4 -12 0
6 -12 0
-11 -13 -12 0
12 11 -13 0
13 11 -12 0
12 13 -11 0
-14 -9 -13 0
13 9 -14 0
13 14 -9 0
14 9 -13 0
15 -9 -13 0
13 -15 0
-15 9 0
16 -11 -12 0
-16 11 0
12 -16 0
16 15 -17 0
-15 17 0
17 -16 0
19 -18 -2 0
-19 18 0
-19 2 0
-10 20 -6 0
-20 10 0
6 -20 0
-19 -20 -21 0
19 20 -21 0
19 -20 21 0
-19 20 21 0
-22 -17 -21 0
17 -22 21 0
22 -17 21 0
22 17 -21 0
23 -17 -21 0
-23 21 0
17 -23 0
-19 -20 24 0
-24 19 0
-24 20 0
23 -25 24 0
25 -23 0
-24 25 0
27 -26 -2 0
-27 26 0
-27 2 0
28 -18 -6 0
-28 18 0
-28 6 0
-27 -28 -29 0
27 28 -29 0
27 29 -28 0
-27 29 28 0
-30 -25 -29 0
29 -30 25 0
29 -25 30 0
-29 25 30 0
-25 -29 31 0
29 -31 0
-31 25 0
-27 -28 32 0
27 -32 0
-32 28 0
-33 32 31 0
-31 33 0
-32 33 0
-34 35 -2 0
34 -35 0
-35 2 0
36 -26 -6 0
26 -36 0
6 -36 0
-35 -37 -36 0
-37 36 35 0
37 35 -36 0
-35 36 37 0
-38 -37 -33 0
-38 33 37 0
38 37 -33 0
38 -37 33 0
-37 39 -33 0
-39 37 0
33 -39 0
40 -35 -36 0
-40 35 0
-40 36 0
-41 40 39 0
41 -39 0
-40 41 0
43 -2 -42 0
42 -43 0
-43 2 0
-34 44 -6 0
34 -44 0
6 -44 0
-43 -44 -45 0
43 44 -45 0
43 45 -44 0
45 -43 44 0
-46 -41 -45 0
-46 45 41 0
45 -41 46 0
41 46 -45 0
47 -41 -45 0
45 -47 0
41 -47 0
-43 -44 48 0
-48 43 0
-48 44 0
-49 47 48 0
49 -47 0
49 -48 0
51 -2 -50 0
50 -51 0
-51 2 0
-6 52 -42 0
42 -52 0
-52 6 0
-52 -51 -53 0
51 -53 52 0
53 -52 51 0
53 -51 52 0
-49 -53 -54 0
53 49 -54 0
53 -49 54 0
54 49 -53 0
-49 -53 55 0
53 -55 0
49 -55 0
-52 -51 56 0
51 -56 0
-56 52 0
-57 56 55 0
-55 57 0
-56 57 0
59 -58 -2 0
58 -59 0
-59 2 0
-6 60 -50 0
-60 50 0
-60 6 0
-60 -61 -59 0
60 -61 59 0
-60 61 59 0
60 61 -59 0
-62 -57 -61 0
-62 57 61 0
62 -57 61 0
57 62 -61 0
63 -57 -61 0
-63 61 0
-63 57 0
-60 64 -59 0
-64 59 0
-64 60 0
63 64 -65 0
65 -63 0
-64 65 0
67 -2 -66 0
-67 66 0
-67 2 0
68 -58 -6 0
-68 58 0
-68 6 0
-67 -69 -68 0
67 68 -69 0
67 -68 69 0
69 -67 68 0
-65 -69 -70 0
69 -70 65 0
69 -65 70 0
70 -69 65 0
-65 71 -69 0
69 -71 0
-71 65 0
-67 72 -68 0
67 -72 0
-72 68 0
72 71 -73 0
-71 73 0
-72 73 0
-6 74 -66 0
-74 66 0
-74 6 0
-74 -75 -73 0
73 74 -75 0
-74 73 75 0
75 74 -73 0
-74 76 -73 0
73 -76 0
-76 74 0
-1 -77 78 0
-78 1 0
-78 77 0
-79 -14 -78 0
-79 78 14 0
-78 14 79 0
-14 79 78 0
80 -14 -78 0
-80 14 0
-80 78 0
-4 -77 81 0
4 -81 0
77 -81 0
-22 -82 -81 0
22 -82 81 0
22 82 -81 0
-22 82 81 0
-80 -83 -82 0
80 -83 82 0
-80 82 83 0
80 -82 83 0
-80 -82 84 0
82 -84 0
80 -84 0
-22 85 -81 0
-85 22 0
-85 81 0
85 -86 84 0
86 -84 0
-85 86 0
87 -10 -77 0
-87 10 0
77 -87 0
-30 -88 -87 0
87 -88 30 0
88 -87 30 0
87 88 -30 0
-89 -86 -88 0
-89 86 88 0
89 -86 88 0
89 86 -88 0
90 -86 -88 0
88 -90 0
86 -90 0
91 -30 -87 0
-91 30 0
87 -91 0
-92 91 90 0
92 -90 0
-91 92 0
-77 -18 93 0
-93 18 0
77 -93 0
-38 -94 -93 0
-94 38 93 0
94 -93 38 0
-38 94 93 0
-92 -94 -95 0
94 92 -95 0
94 95 -92 0
95 92 -94 0
96 -92 -94 0
94 -96 0
92 -96 0
-38 -93 97 0
38 -97 0
-97 93 0
96 -98 97 0
98 -96 0
98 -97 0
-77 -26 99 0
-99 26 0
77 -99 0
-46 -100 -99 0
46 -100 99 0
100 46 -99 0
-46 100 99 0
-101 -98 -100 0
100 -101 98 0
101 100 -98 0
98 101 -100 0
102 -98 -100 0
100 -102 0
-102 98 0
-46 -99 103 0
-103 46 0
-103 99 0
102 -104 103 0
104 -102 0
-103 104 0
-34 -77 105 0
34 -105 0
77 -105 0
-106 -105 -54 0
54 -106 105 0
54 106 -105 0
105 106 -54 0
-107 -106 -104 0
-107 106 104 0
106 107 -104 0
-106 104 107 0
-106 108 -104 0
-108 106 0
-108 104 0
109 -105 -54 0
54 -109 0
-109 105 0
-110 108 109 0
-108 110 0
110 -109 0
111 -77 -42 0
42 -111 0
-111 77 0
-111 -112 -62 0
111 -112 62 0
-111 112 62 0
111 -62 112 0
-113 -112 -110 0
-113 110 112 0
113 -110 112 0
113 -112 110 0
-112 -110 114 0
-114 112 0
-114 110 0
-111 -62 115 0
-115 62 0
111 -115 0
115 -116 114 0
-114 116 0
-115 116 0
-77 117 -50 0
-117 50 0
-117 77 0
-117 -118 -70 0
70 117 -118 0
-117 70 118 0
117 118 -70 0
-116 -119 -118 0
-119 118 116 0
119 -116 118 0
119 116 -118 0
-116 120 -118 0
-120 118 0
-120 116 0
-117 121 -70 0
70 -121 0
117 -121 0
121 120 -122 0
122 -120 0
122 -121 0
-77 -58 123 0
58 -123 0
77 -123 0
-124 -123 -75 0
75 -124 123 0
75 124 -123 0
123 124 -75 0
-124 -125 -122 0
122 124 -125 0
125 124 -122 0
122 125 -124 0
-124 126 -122 0
-126 124 0
122 -126 0
127 -123 -75 0
-127 75 0
-127 123 0
127 -128 126 0
-126 128 0
-127 128 0
129 -77 -66 0
-129 66 0
77 -129 0
-130 -76 -129 0
-130 76 129 0
130 76 -129 0
-76 130 129 0
-130 -131 -128 0
-131 130 128 0
130 -128 131 0
-130 131 128 0
-130 -128 132 0
130 -132 0
128 -132 0
-76 133 -129 0
-133 76 0
-133 129 0
-134 133 132 0
134 -132 0
134 -133 0
-1 136 -135 0
1 -136 0
-136 135 0
-83 -137 -136 0
-137 136 83 0
137 -136 83 0
-83 136 137 0
-83 -136 138 0
-138 83 0
136 -138 0
-4 139 -135 0
-139 4 0
-139 135 0
-139 -140 -89 0
89 -140 139 0
-139 89 140 0
140 -89 139 0
-140 -141 -138 0
140 -141 138 0
140 -138 141 0
-140 141 138 0
-140 142 -138 0
140 -142 0
-142 138 0
-139 143 -89 0
89 -143 0
139 -143 0
-144 143 142 0
144 -142 0
-143 144 0
-10 145 -135 0
-145 10 0
-145 135 0
-145 -146 -95 0
95 145 -146 0
-145 95 146 0
146 145 -95 0
-147 -144 -146 0
-147 146 144 0
146 -144 147 0
144 147 -146 0
-144 148 -146 0
146 -148 0
-148 144 0
-145 149 -95 0
-149 95 0
-149 145 0
-150 149 148 0
150 -148 0
-149 150 0
151 -18 -135 0
-151 18 0
-151 135 0
-151 -101 -152 0
151 101 -152 0
-151 101 152 0
151 -101 152 0
-150 -152 -153 0
150 152 -153 0
-150 153 152 0
153 150 -152 0
-150 154 -152 0
-154 152 0
-154 150 0
-151 155 -101 0
101 -155 0
151 -155 0
-156 155 154 0
-154 156 0
156 -155 0
-135 157 -26 0
-157 26 0
-157 135 0
-107 -158 -157 0
157 -158 107 0
-157 158 107 0
-107 157 158 0
-156 -158 -159 0
158 156 -159 0
-156 158 159 0
159 -158 156 0
-156 -158 160 0
-160 158 0
-160 156 0
161 -107 -157 0
-161 107 0
157 -161 0
161 -162 160 0
-160 162 0
162 -161 0
-34 163 -135 0
34 -163 0
-163 135 0
-113 -164 -163 0
113 -164 163 0
164 113 -163 0
164 -113 163 0
-164 -165 -162 0
164 162 -165 0
164 -162 165 0
162 -164 165 0
-164 166 -162 0
164 -166 0
162 -166 0
167 -113 -163 0
113 -167 0
-167 163 0
167 166 -168 0
-166 168 0
-167 168 0
169 -135 -42 0
42 -169 0
-169 135 0
-170 -169 -119 0
119 -170 169 0
119 -169 170 0
169 -119 170 0
-171 -170 -168 0
-171 168 170 0
171 -168 170 0
171 -170 168 0
-170 -168 172 0
-172 170 0
168 -172 0
173 -169 -119 0
119 -173 0
169 -173 0
-174 173 172 0
174 -172 0
-173 174 0
175 -135 -50 0
50 -175 0
-175 135 0
-176 -175 -125 0
-176 125 175 0
176 125 -175 0
176 175 -125 0
-174 -176 -177 0
176 174 -177 0
177 176 -174 0
177 -176 174 0
-174 178 -176 0
176 -178 0
-178 174 0
179 -175 -125 0
-179 125 0
-179 175 0
179 178 -180 0
-178 180 0
-179 180 0
-135 181 -58 0
58 -181 0
-181 135 0
-131 -182 -181 0
181 131 -182 0
182 131 -181 0
182 -131 181 0
-183 -180 -182 0
180 182 -183 0
183 182 -180 0
183 180 -182 0
-180 184 -182 0
182 -184 0
180 -184 0
-131 185 -181 0
-185 131 0
181 -185 0
184 -186 185 0
186 -184 0
-185 186 0
187 -135 -66 0
-187 66 0
-187 135 0
-134 -187 -188 0
134 -188 187 0
134 188 -187 0
-134 188 187 0
-188 -189 -186 0
188 -189 186 0
189 188 -186 0
189 -188 186 0
-188 190 -186 0
188 -190 0
-190 186 0
-134 -187 191 0
134 -191 0
-191 187 0
-192 190 191 0
192 -190 0
-191 192 0
-193 -1 194 0
1 -194 0
-194 193 0
-195 -141 -194 0
-195 194 141 0
-194 195 141 0
195 194 -141 0
196 -141 -194 0
-196 141 0
-196 194 0
-4 -193 197 0
-197 4 0
-197 193 0
-147 -198 -197 0
-198 197 147 0
198 -197 147 0
-147 198 197 0
-198 -196 -199 0
198 196 -199 0
198 -196 199 0
199 -198 196 0
-198 -196 200 0
198 -200 0
-200 196 0
-147 -197 201 0
-201 147 0
-201 197 0
-202 201 200 0
202 -200 0
-201 202 0
203 -193 -10 0
10 -203 0
-203 193 0
-204 -203 -153 0
203 153 -204 0
153 -203 204 0
203 204 -153 0
-202 -205 -204 0
202 -205 204 0
-202 205 204 0
202 205 -204 0
-202 206 -204 0
-206 204 0
202 -206 0
207 -203 -153 0
-207 153 0
203 -207 0
207 206 -208 0
-206 208 0
-207 208 0
-193 -18 209 0
-209 18 0
-209 193 0
-210 -209 -159 0
159 209 -210 0
159 210 -209 0
210 209 -159 0
-210 -211 -208 0
210 -211 208 0
210 211 -208 0
-210 211 208 0
-210 -208 212 0
210 -212 0
-212 208 0
213 -209 -159 0
159 -213 0
-213 209 0
213 -214 212 0
214 -212 0
-213 214 0
-193 -26 215 0
-215 26 0
-215 193 0
-215 -216 -165 0
-216 165 215 0
216 -215 165 0
216 -165 215 0
-214 -216 -217 0
216 214 -217 0
216 217 -214 0
214 217 -216 0
218 -214 -216 0
-218 216 0
-218 214 0
219 -215 -165 0
-219 165 0
-219 215 0
219 218 -220 0
-218 220 0
220 -219 0
-193 -34 221 0
34 -221 0
-221 193 0
-171 -222 -221 0
171 -222 221 0
171 222 -221 0
-171 221 222 0
-222 -220 -223 0
220 222 -223 0
223 222 -220 0
223 220 -222 0
224 -222 -220 0
-224 222 0
-224 220 0
-171 225 -221 0
171 -225 0
-225 221 0
-226 224 225 0
-224 226 0
-225 226 0
-193 227 -42 0
42 -227 0
-227 193 0
-227 -228 -177 0
177 227 -228 0
177 -227 228 0
228 227 -177 0
-226 -229 -228 0
-229 228 226 0
-226 229 228 0
229 226 -228 0
-226 230 -228 0
-230 228 0
-230 226 0
-227 231 -177 0
177 -231 0
227 -231 0
-232 230 231 0
-230 232 0
232 -231 0
-193 233 -50 0
50 -233 0
-233 193 0
-234 -183 -233 0
233 183 -234 0
183 -233 234 0
233 -183 234 0
-234 -235 -232 0
234 -235 232 0
235 234 -232 0
235 -234 232 0
-234 236 -232 0
234 -236 0
-236 232 0
237 -183 -233 0
183 -237 0
233 -237 0
-238 237 236 0
238 -236 0
238 -237 0
-193 239 -58 0
-239 58 0
-239 193 0
-239 -240 -189 0
189 -240 239 0
189 -239 240 0
-189 239 240 0
-238 -240 -241 0
238 -241 240 0
-238 241 240 0
-240 241 238 0
-238 -240 242 0
-242 240 0
-242 238 0
243 -239 -189 0
189 -243 0
-243 239 0
243 -244 242 0
244 -242 0
244 -243 0
-193 245 -66 0
-245 66 0
-245 193 0
-192 -246 -245 0
192 245 -246 0
192 246 -245 0
-192 246 245 0
-244 -246 -247 0
246 244 -247 0
246 -244 247 0
244 -246 247 0
-244 -246 248 0
246 -248 0
244 -248 0
-192 249 -245 0
192 -249 0
-249 245 0
-250 249 248 0
250 -248 0
-249 250 0
-1 252 -251 0
1 -252 0
-252 251 0
-253 -252 -199 0
199 -253 252 0
199 253 -252 0
253 252 -199 0
254 -252 -199 0
199 -254 0
-254 252 0
-4 255 -251 0
-255 4 0
-255 251 0
-256 -205 -255 0
-256 205 255 0
205 -255 256 0
-205 255 256 0
-256 -254 -257 0
-257 254 256 0
-254 257 256 0
-256 254 257 0
-256 -254 258 0
-258 256 0
254 -258 0
-205 -255 259 0
205 -259 0
-259 255 0
258 259 -260 0
260 -258 0
260 -259 0
-10 261 -251 0
10 -261 0
251 -261 0
-262 -211 -261 0
-262 211 261 0
211 262 -261 0
-211 262 261 0
-262 -263 -260 0
260 262 -263 0
263 262 -260 0
260 -262 263 0
-262 264 -260 0
262 -264 0
260 -264 0
265 -211 -261 0
211 -265 0
261 -265 0
265 264 -266 0
266 -264 0
-265 266 0
-18 267 -251 0
-267 18 0
-267 251 0
-267 -268 -217 0
217 267 -268 0
268 -267 217 0
268 267 -217 0
-268 -269 -266 0
268 -269 266 0
268 269 -266 0
269 -268 266 0
270 -268 -266 0
268 -270 0
-270 266 0
271 -267 -217 0
217 -271 0
-271 267 0
271 270 -272 0
272 -270 0
272 -271 0
273 -26 -251 0
-273 26 0
-273 251 0
-273 -274 -223 0
223 273 -274 0
223 -273 274 0
273 274 -223 0
-272 -274 -275 0
272 -275 274 0
-272 275 274 0
272 -274 275 0
276 -272 -274 0
-276 274 0
272 -276 0
277 -273 -223 0
223 -277 0
273 -277 0
276 277 -278 0
-276 278 0
278 -277 0
-34 279 -251 0
-279 34 0
-279 251 0
-279 -229 -280 0
229 -280 279 0
-279 229 280 0
-229 280 279 0
-281 -278 -280 0
278 -281 280 0
-278 280 281 0
278 281 -280 0
-278 282 -280 0
-282 280 0
278 -282 0
-279 -229 283 0
-283 229 0
-283 279 0
-284 282 283 0
284 -282 0
-283 284 0
-251 285 -42 0
42 -285 0
-285 251 0
-285 -286 -235 0
235 -286 285 0
286 235 -285 0
286 285 -235 0
-287 -286 -284 0
286 284 -287 0
286 -284 287 0
284 -286 287 0
288 -286 -284 0
286 -288 0
-288 284 0
-285 -235 289 0
235 -289 0
285 -289 0
288 -290 289 0
-288 290 0
290 -289 0
291 -251 -50 0
-291 50 0
-291 251 0
-291 -241 -292 0
291 241 -292 0
-291 292 241 0
291 292 -241 0
-293 -290 -292 0
-293 292 290 0
-290 292 293 0
290 293 -292 0
-290 294 -292 0
-294 292 0
-294 290 0
-291 295 -241 0
-295 241 0
291 -295 0
295 294 -296 0
-294 296 0
-295 296 0
297 -58 -251 0
-297 58 0
-297 251 0
-298 -297 -247 0
-298 247 297 0
298 -297 247 0
298 297 -247 0
-298 -296 -299 0
298 296 -299 0
298 299 -296 0
-298 299 296 0
-298 -296 300 0
298 -300 0
296 -300 0
-297 301 -247 0
247 -301 0
-301 297 0
-302 300 301 0
302 -300 0
302 -301 0
303 -251 -66 0
-303 66 0
-303 251 0
-304 -250 -303 0
303 -304 250 0
304 -303 250 0
304 -250 303 0
-302 -304 -305 0
304 -305 302 0
-302 304 305 0
305 -304 302 0
-302 -304 306 0
-306 304 0
-306 302 0
-250 -303 307 0
-307 250 0
-307 303 0
306 -308 307 0
-306 308 0
-307 308 0
-1 -309 310 0
-310 1 0
-310 309 0
-311 -257 -310 0
257 -311 310 0
311 257 -310 0
-257 311 310 0
312 -257 -310 0
-312 257 0
-312 310 0
-4 -309 313 0
-313 4 0
-313 309 0
-263 -314 -313 0
313 263 -314 0
263 -313 314 0
313 -263 314 0
-315 -312 -314 0
-315 312 314 0
-312 315 314 0
312 -314 315 0
-312 -314 316 0
-316 314 0
-316 312 0
317 -263 -313 0
263 -317 0
313 -317 0
-318 317 316 0
-316 318 0
-317 318 0
-10 -309 319 0
-319 10 0
-319 309 0
-320 -319 -269 0
-320 269 319 0
-319 269 320 0
320 319 -269 0
-318 -320 -321 0
320 -321 318 0
-318 321 320 0
321 -320 318 0
-318 322 -320 0
320 -322 0
-322 318 0
323 -319 -269 0
-323 269 0
-323 319 0
322 -324 323 0
324 -322 0
-323 324 0
-309 325 -18 0
-325 18 0
-325 309 0
-325 -275 -326 0
-326 325 275 0
-325 326 275 0
-275 325 326 0
-326 -324 -327 0
324 -327 326 0
327 -324 326 0
327 324 -326 0
-326 -324 328 0
326 -328 0
324 -328 0
-325 -275 329 0
-329 275 0
325 -329 0
328 329 -330 0
330 -328 0
330 -329 0
331 -309 -26 0
-331 26 0
-331 309 0
-331 -281 -332 0
331 281 -332 0
-331 281 332 0
331 -281 332 0
-332 -330 -333 0
330 332 -333 0
333 -330 332 0
330 333 -332 0
-332 -330 334 0
-334 332 0
330 -334 0
335 -331 -281 0
-335 281 0
331 -335 0
335 -336 334 0
336 -334 0
336 -335 0
-34 -309 337 0
-337 34 0
-337 309 0
-337 -287 -338 0
-338 287 337 0
338 -337 287 0
338 -287 337 0
-339 -338 -336 0
338 -339 336 0
338 -336 339 0
-338 336 339 0
-338 340 -336 0
338 -340 0
-340 336 0
341 -337 -287 0
-341 287 0
-341 337 0
-342 341 340 0
-340 342 0
-341 342 0
343 -309 -42 0
42 -343 0
-343 309 0
-293 -344 -343 0
343 -344 293 0
344 293 -343 0
-293 344 343 0
-344 -342 -345 0
342 344 -345 0
345 344 -342 0
-344 345 342 0
-344 346 -342 0
344 -346 0
342 -346 0
-293 347 -343 0
-347 293 0
343 -347 0
347 -348 346 0
-346 348 0
-347 348 0
-309 349 -50 0
-349 50 0
-349 309 0
-349 -350 -299 0
299 -350 349 0
350 -349 299 0
350 -299 349 0
-351 -348 -350 0
350 -351 348 0
350 -348 351 0
351 -350 348 0
-348 -350 352 0
350 -352 0
-352 348 0
353 -349 -299 0
299 -353 0
-353 349 0
353 -354 352 0
-352 354 0
-353 354 0
355 -309 -58 0
-355 58 0
-355 309 0
-305 -355 -356 0
305 355 -356 0
305 -355 356 0
-305 355 356 0
-357 -354 -356 0
-357 356 354 0
-354 356 357 0
-356 357 354 0
-354 -356 358 0
-358 356 0
-358 354 0
-305 -355 359 0
305 -359 0
355 -359 0
-360 358 359 0
-358 360 0
360 -359 0
-309 361 -66 0
-361 66 0
-361 309 0
-361 -362 -308 0
-362 361 308 0
-361 362 308 0
362 -308 361 0
-362 -360 -363 0
362 -363 360 0
363 362 -360 0
-362 363 360 0
-362 -360 364 0
-364 362 0
-364 360 0
-361 -308 365 0
-365 308 0
-365 361 0
-366 365 364 0
-364 366 0
-365 366 0
368 -1 -367 0
-368 1 0
-368 367 0
-315 -369 -368 0
368 -369 315 0
-368 369 315 0
-315 368 369 0
-315 370 -368 0
-370 315 0
368 -370 0
-4 371 -367 0
4 -371 0
-371 367 0
-372 -321 -371 0
321 -372 371 0
321 372 -371 0
371 -321 372 0
-373 -372 -370 0
-373 370 372 0
373 372 -370 0
-372 370 373 0
374 -372 -370 0
-374 372 0
370 -374 0
375 -321 -371 0
321 -375 0
371 -375 0
375 -376 374 0
-374 376 0
-375 376 0
-10 377 -367 0
-377 10 0
-377 367 0
-327 -378 -377 0
327 377 -378 0
327 378 -377 0
-327 377 378 0
-376 -379 -378 0
-379 378 376 0
378 -376 379 0
-378 376 379 0
-376 -378 380 0
378 -380 0
-380 376 0
381 -327 -377 0
327 -381 0
-381 377 0
-382 381 380 0
-380 382 0
-381 382 0
383 -18 -367 0
-383 18 0
-383 367 0
-383 -384 -333 0
333 383 -384 0
384 333 -383 0
384 383 -333 0
-382 -384 -385 0
384 -385 382 0
384 -382 385 0
-384 385 382 0
-382 -384 386 0
384 -386 0
382 -386 0
-383 387 -333 0
-387 333 0
-387 383 0
-388 387 386 0
388 -386 0
-387 388 0
389 -26 -367 0
-389 26 0
-389 367 0
-339 -390 -389 0
389 -390 339 0
390 -389 339 0
-339 389 390 0
-391 -388 -390 0
388 -391 390 0
391 -388 390 0
391 388 -390 0
392 -388 -390 0
-392 390 0
388 -392 0
-339 393 -389 0
-393 339 0
-393 389 0
392 -394 393 0
-392 394 0
-393 394 0
-34 395 -367 0
34 -395 0
-395 367 0
-396 -395 -345 0
345 -396 395 0
345 -395 396 0
395 396 -345 0
-397 -394 -396 0
-397 394 396 0
397 -394 396 0
397 -396 394 0
-394 -396 398 0
-398 396 0
-398 394 0
399 -395 -345 0
-399 345 0
-399 395 0
-400 399 398 0
-398 400 0
-399 400 0
401 -367 -42 0
42 -401 0
-401 367 0
-351 -402 -401 0
-402 351 401 0
402 351 -401 0
-351 401 402 0
-403 -402 -400 0
-403 400 402 0
403 402 -400 0
-402 400 403 0
-402 404 -400 0
-404 402 0
-404 400 0
-351 405 -401 0
351 -405 0
401 -405 0
405 -406 404 0
-404 406 0
406 -405 0
407 -367 -50 0
50 -407 0
-407 367 0
-357 -408 -407 0
407 -408 357 0
-407 408 357 0
-357 407 408 0
-409 -406 -408 0
406 -409 408 0
-406 408 409 0
406 -408 409 0
-406 -408 410 0
-410 408 0
-410 406 0
-357 411 -407 0
-411 357 0
407 -411 0
-412 411 410 0
-410 412 0
-411 412 0
413 -58 -367 0
-413 58 0
-413 367 0
-413 -363 -414 0
413 363 -414 0
414 363 -413 0
413 -363 414 0
-412 -415 -414 0
414 -415 412 0
414 415 -412 0
415 412 -414 0
-412 416 -414 0
414 -416 0
412 -416 0
-413 417 -363 0
-417 363 0
413 -417 0
417 -418 416 0
418 -416 0
-417 418 0
419 -367 -66 0
-419 66 0
-419 367 0
-420 -419 -366 0
-420 366 419 0
-419 366 420 0
420 -366 419 0
-418 -420 -421 0
418 -421 420 0
421 -418 420 0
421 418 -420 0
-418 -420 422 0
-422 420 0
-422 418 0
423 -419 -366 0
-423 366 0
-423 419 0
423 422 -424 0
-422 424 0
-423 424 0
-1 -425 426 0
-426 1 0
425 -426 0
-426 -373 -427 0
426 373 -427 0
-426 373 427 0
-373 426 427 0
-426 -373 428 0
373 -428 0
426 -428 0
-4 -425 429 0
-429 4 0
425 -429 0
-379 -430 -429 0
-430 429 379 0
-429 430 379 0
-379 430 429 0
-430 -431 -428 0
428 430 -431 0
431 430 -428 0
431 -430 428 0
-430 432 -428 0
-432 430 0
428 -432 0
-379 433 -429 0
-433 379 0
-433 429 0
433 -434 432 0
434 -432 0
-433 434 0
435 -10 -425 0
-435 10 0
425 -435 0
-435 -385 -436 0
435 385 -436 0
436 -435 385 0
435 436 -385 0
-437 -434 -436 0
434 436 -437 0
436 -434 437 0
434 437 -436 0
438 -434 -436 0
436 -438 0
434 -438 0
439 -435 -385 0
-439 385 0
-439 435 0
439 -440 438 0
440 -438 0
-439 440 0
-425 -18 441 0
-441 18 0
425 -441 0
-441 -442 -391 0
391 -442 441 0
391 -441 442 0
441 442 -391 0
-442 -443 -440 0
442 440 -443 0
442 443 -440 0
-442 443 440 0
444 -442 -440 0
442 -444 0
440 -444 0
-441 445 -391 0
391 -445 0
-445 441 0
444 445 -446 0
446 -444 0
-445 446 0
-425 -26 447 0
-447 26 0
425 -447 0
-397 -447 -448 0
397 -448 447 0
397 448 -447 0
-397 448 447 0
-449 -446 -448 0
-449 448 446 0
449 448 -446 0
449 446 -448 0
450 -446 -448 0
448 -450 0
446 -450 0
-397 451 -447 0
397 -451 0
-451 447 0
451 -452 450 0
452 -450 0
452 -451 0
453 -34 -425 0
34 -453 0
425 -453 0
-403 -454 -453 0
453 -454 403 0
-453 403 454 0
-403 453 454 0
-452 -454 -455 0
452 -455 454 0
455 -452 454 0
452 455 -454 0
-452 -454 456 0
-456 454 0
452 -456 0
-403 457 -453 0
-457 403 0
-457 453 0
-458 457 456 0
458 -456 0
458 -457 0
459 -425 -42 0
42 -459 0
425 -459 0
-459 -409 -460 0
459 409 -460 0
460 -459 409 0
459 -409 460 0
-458 -461 -460 0
458 460 -461 0
-458 460 461 0
458 461 -460 0
-458 462 -460 0
460 -462 0
458 -462 0
463 -459 -409 0
-463 409 0
459 -463 0
463 -464 462 0
-462 464 0
464 -463 0
-425 465 -50 0
50 -465 0
425 -465 0
-415 -465 -466 0
415 465 -466 0
415 466 -465 0
-415 466 465 0
-464 -467 -466 0
-467 464 466 0
-464 466 467 0
464 467 -466 0
-464 468 -466 0
-468 466 0
464 -468 0
469 -415 -465 0
415 -469 0
465 -469 0
-470 469 468 0
470 -468 0
470 -469 0
471 -425 -58 0
58 -471 0
425 -471 0
-472 -421 -471 0
471 421 -472 0
472 421 -471 0
471 472 -421 0
-470 -472 -473 0
472 470 -473 0
472 -470 473 0
470 -472 473 0
-470 -472 474 0
472 -474 0
-474 470 0
475 -421 -471 0
421 -475 0
471 -475 0
-476 475 474 0
-474 476 0
-475 476 0
-425 477 -66 0
-477 66 0
425 -477 0
-478 -477 -424 0
-478 477 424 0
-477 478 424 0
477 478 -424 0
-478 -476 -479 0
-479 478 476 0
479 -476 478 0
479 -478 476 0
480 -478 -476 0
478 -480 0
-480 476 0
-477 481 -424 0
-481 424 0
-481 477 0
480 -482 481 0
482 -480 0
482 -481 0
-483 -1 484 0
1 -484 0
483 -484 0
-485 -431 -484 0
431 -485 484 0
431 485 -484 0
485 -431 484 0
486 -431 -484 0
431 -486 0
-486 484 0
-4 -483 487 0
-487 4 0
-487 483 0
-487 -437 -488 0
487 -488 437 0
488 -487 437 0
488 487 -437 0
-489 -486 -488 0
486 488 -489 0
-486 488 489 0
486 -488 489 0
490 -486 -488 0
488 -490 0
486 -490 0
-487 -437 491 0
-491 437 0
-491 487 0
490 -492 491 0
492 -490 0
-491 492 0
-483 -10 493 0
-493 10 0
483 -493 0
-494 -443 -493 0
-494 443 493 0
443 -493 494 0
-443 493 494 0
-494 -492 -495 0
492 -495 494 0
495 -492 494 0
-494 495 492 0
-494 496 -492 0
-496 494 0
492 -496 0
497 -443 -493 0
-497 443 0
-497 493 0
496 497 -498 0
498 -496 0
-497 498 0
-483 -18 499 0
18 -499 0
483 -499 0
-449 -500 -499 0
449 -500 499 0
449 500 -499 0
-449 500 499 0
-501 -500 -498 0
498 -501 500 0
501 500 -498 0
498 501 -500 0
502 -500 -498 0
-502 500 0
-502 498 0
-449 503 -499 0
-503 449 0
-503 499 0
503 -504 502 0
-502 504 0
-503 504 0
-483 505 -26 0
-505 26 0
-505 483 0
-505 -506 -455 0
455 -506 505 0
-505 455 506 0
506 505 -455 0
-504 -506 -507 0
-507 504 506 0
507 -504 506 0
507 -506 504 0
-504 -506 508 0
-508 506 0
-508 504 0
-505 509 -455 0
455 -509 0
505 -509 0
509 -510 508 0
-508 510 0
510 -509 0
-483 -34 511 0
34 -511 0
-511 483 0
-461 -511 -512 0
-512 511 461 0
-511 512 461 0
-461 512 511 0
-513 -512 -510 0
-513 510 512 0
513 -510 512 0
510 513 -512 0
-512 -510 514 0
-514 512 0
-514 510 0
-461 -511 515 0
-515 461 0
-515 511 0
-516 514 515 0
-514 516 0
-515 516 0
-483 517 -42 0
42 -517 0
483 -517 0
-467 -518 -517 0
-518 517 467 0
518 -517 467 0
-467 518 517 0
-519 -518 -516 0
-519 518 516 0
518 519 -516 0
-518 519 516 0
-518 520 -516 0
518 -520 0
516 -520 0
-467 521 -517 0
-521 467 0
517 -521 0
521 520 -522 0
-520 522 0
522 -521 0
-483 523 -50 0
-523 50 0
-523 483 0
-523 -473 -524 0
-524 523 473 0
-523 524 473 0
524 -473 523 0
-522 -525 -524 0
524 -525 522 0
524 -522 525 0
522 525 -524 0
526 -522 -524 0
524 -526 0
-526 522 0
-523 -473 527 0
-527 473 0
-527 523 0
527 526 -528 0
528 -526 0
-527 528 0
-483 529 -58 0
58 -529 0
483 -529 0
-530 -529 -479 0
479 529 -530 0
479 530 -529 0
529 530 -479 0
-531 -528 -530 0
530 -531 528 0
530 -528 531 0
-530 528 531 0
-528 -530 532 0
530 -532 0
-532 528 0
533 -529 -479 0
479 -533 0
529 -533 0
-534 533 532 0
-532 534 0
534 -533 0
-483 535 -66 0
-535 66 0
483 -535 0
-536 -535 -482 0
535 482 -536 0
536 482 -535 0
535 -482 536 0
-536 -534 -537 0
536 534 -537 0
536 -534 537 0
-536 534 537 0
-536 538 -534 0
536 -538 0
534 -538 0
539 -535 -482 0
-539 482 0
535 -539 0
539 538 -540 0
-538 540 0
-539 540 0
