p cnf 252 791
-1 3 -2 0
1 -3 0
-3 2 0
-4 5 -2 0
-5 4 0
-5 2 0
-1 7 -6 0
-7 1 0
-7 6 0
-7 -5 -8 0
7 -8 5 0
-7 8 5 0
8 -5 7 0
-7 9 -5 0
-9 5 0
-9 7 0
-10 11 -2 0
-11 10 0
-11 2 0
-4 12 -6 0
4 -12 0
6 -12 0
-11 -13 -12 0
12 11 -13 0
13 11 -12 0
12 13 -11 0
-14 -9 -13 0
13 9 -14 0
13 14 -9 0
14 9 -13 0
15 -9 -13 0
13 -15 0
-15 9 0
16 -11 -12 0
-16 11 0
12 -16 0
16 15 -17 0
-15 17 0
17 -16 0
19 -18 -2 0
-19 18 0
-19 2 0
-10 20 -6 0
-20 10 0
6 -20 0
-19 -20 -21 0
19 20 -21 0
19 -20 21 0
-19 20 21 0
-22 -17 -21 0
17 -22 21 0
22 -17 21 0
22 17 -21 0
23 -17 -21 0
-23 21 0
17 -23 0
-19 -20 24 0
-24 19 0
-24 20 0
23 -25 24 0
25 -23 0
-24 25 0
27 -26 -2 0
-27 26 0
-27 2 0
28 -18 -6 0
-28 18 0
-28 6 0
-27 -28 -29 0
27 28 -29 0
27 29 -28 0
-27 29 28 0
-30 -25 -29 0
29 -30 25 0
29 -25 30 0
-29 25 30 0
-25 -29 31 0
29 -31 0
-31 25 0
-27 -28 32 0
27 -32 0
-32 28 0
-33 32 31 0
-31 33 0
-32 33 0
-34 35 -2 0
34 -35 0
-35 2 0
36 -26 -6 0
26 -36 0
6 -36 0
-35 -37 -36 0
-37 36 35 0
37 35 -36 0
-35 36 37 0
-38 -37 -33 0
-38 33 37 0
38 37 -33 0
38 -37 33 0
-37 39 -33 0
-39 37 0
33 -39 0
40 -35 -36 0
-40 35 0
-40 36 0
-41 40 39 0
41 -39 0
-40 41 0
43 -2 -42 0
42 -43 0
-43 2 0
-34 44 -6 0
34 -44 0
6 -44 0
-43 -44 -45 0
43 44 -45 0
43 45 -44 0
45 -43 44 0
-46 -41 -45 0
-46 45 41 0
45 -41 46 0
41 46 -45 0
47 -41 -45 0
45 -47 0
41 -47 0
-43 -44 48 0
-48 43 0
-48 44 0
-49 47 48 0
49 -47 0
49 -48 0
-6 50 -42 0
42 -50 0
6 -50 0
-49 -51 -50 0
49 50 -51 0
49 51 -50 0
-49 50 51 0
-49 52 -50 0
49 -52 0
-52 50 0
54 -1 -53 0
1 -54 0
53 -54 0
-55 -14 -54 0
54 -55 14 0
14 55 -54 0
54 -14 55 0
56 -14 -54 0
14 -56 0
54 -56 0
-4 -53 57 0
4 -57 0
53 -57 0
-22 -57 -58 0
22 -58 57 0
22 58 -57 0
-22 58 57 0
-56 -58 -59 0
56 58 -59 0
-56 58 59 0
56 -58 59 0
60 -56 -58 0
-60 58 0
-60 56 0
-22 -57 61 0
22 -61 0
-61 57 0
60 -62 61 0
-60 62 0
62 -61 0
63 -10 -53 0
10 -63 0
53 -63 0
-64 -30 -63 0
-64 63 30 0
64 -63 30 0
63 64 -30 0
-64 -65 -62 0
64 62 -65 0
64 -62 65 0
-64 62 65 0
-64 -62 66 0
64 -66 0
62 -66 0
67 -30 -63 0
-67 30 0
-67 63 0
67 -68 66 0
68 -66 0
-67 68 0
69 -53 -18 0
-69 18 0
53 -69 0
-38 -69 -70 0
69 38 -70 0
-69 70 38 0
-38 70 69 0
-71 -68 -70 0
-71 70 68 0
-68 70 71 0
68 71 -70 0
-68 72 -70 0
-72 70 0
-72 68 0
-38 73 -69 0
38 -73 0
69 -73 0
73 72 -74 0
-72 74 0
74 -73 0
75 -53 -26 0
26 -75 0
53 -75 0
-46 -76 -75 0
-76 75 46 0
76 46 -75 0
-46 75 76 0
-74 -76 -77 0
-77 74 76 0
-74 77 76 0
-76 77 74 0
-74 -76 78 0
-78 76 0
-78 74 0
-46 79 -75 0
-79 46 0
-79 75 0
-80 78 79 0
80 -78 0
80 -79 0
-34 -53 81 0
34 -81 0
53 -81 0
-51 -82 -81 0
51 -82 81 0
51 82 -81 0
-51 82 81 0
-80 -83 -82 0
80 -83 82 0
-80 82 83 0
80 -82 83 0
-80 -82 84 0
82 -84 0
80 -84 0
-51 85 -81 0
-85 51 0
-85 81 0
85 -86 84 0
86 -84 0
-85 86 0
87 -53 -42 0
42 -87 0
53 -87 0
-52 -87 -88 0
87 -88 52 0
88 -87 52 0
87 -52 88 0
-89 -86 -88 0
-89 86 88 0
89 -86 88 0
89 86 -88 0
90 -86 -88 0
88 -90 0
86 -90 0
-52 91 -87 0
-91 52 0
87 -91 0
-92 91 90 0
92 -90 0
-91 92 0
94 -1 -93 0
1 -94 0
-94 93 0
-95 -94 -59 0
94 -95 59 0
95 -94 59 0
94 95 -59 0
96 -94 -59 0
-96 59 0
94 -96 0
-4 -93 97 0
4 -97 0
-97 93 0
-65 -98 -97 0
-98 97 65 0
-97 98 65 0
98 -65 97 0
-99 -98 -96 0
-99 96 98 0
99 98 -96 0
96 -98 99 0
100 -98 -96 0
-100 98 0
96 -100 0
-65 101 -97 0
-101 65 0
-101 97 0
100 101 -102 0
102 -100 0
102 -101 0
-10 -93 103 0
-103 10 0
-103 93 0
-71 -104 -103 0
71 -104 103 0
-103 71 104 0
-71 104 103 0
-105 -102 -104 0
102 104 -105 0
104 -102 105 0
102 105 -104 0
106 -102 -104 0
-106 104 0
102 -106 0
-71 107 -103 0
-107 71 0
-107 103 0
-108 106 107 0
-106 108 0
-107 108 0
-93 -18 109 0
18 -109 0
-109 93 0
-77 -110 -109 0
77 -110 109 0
110 77 -109 0
-77 110 109 0
-108 -110 -111 0
-111 110 108 0
111 -108 110 0
111 -110 108 0
-108 -110 112 0
110 -112 0
-112 108 0
113 -77 -109 0
-113 77 0
-113 109 0
113 -114 112 0
-112 114 0
-113 114 0
-93 -26 115 0
-115 26 0
-115 93 0
-83 -115 -116 0
115 -116 83 0
-115 116 83 0
-83 116 115 0
-117 -114 -116 0
-117 116 114 0
-114 117 116 0
-116 117 114 0
-114 -116 118 0
116 -118 0
-118 114 0
119 -83 -115 0
-119 83 0
-119 115 0
119 -120 118 0
120 -118 0
-119 120 0
-34 121 -93 0
34 -121 0
-121 93 0
-89 -121 -122 0
89 121 -122 0
122 89 -121 0
122 -89 121 0
-120 -123 -122 0
122 -123 120 0
122 -120 123 0
123 120 -122 0
-120 124 -122 0
122 -124 0
-124 120 0
125 -89 -121 0
89 -125 0
121 -125 0
-126 125 124 0
-124 126 0
126 -125 0
127 -93 -42 0
42 -127 0
-127 93 0
-127 -92 -128 0
92 -128 127 0
-127 92 128 0
-92 127 128 0
-126 -128 -129 0
-129 126 128 0
-126 128 129 0
-128 126 129 0
-126 130 -128 0
-130 128 0
-130 126 0
-127 -92 131 0
-131 92 0
-131 127 0
130 131 -132 0
-130 132 0
-131 132 0
134 -133 -1 0
-134 1 0
-134 133 0
-135 -134 -99 0
134 -135 99 0
-134 135 99 0
134 135 -99 0
-134 136 -99 0
-136 99 0
134 -136 0
-4 -133 137 0
-137 4 0
-137 133 0
-137 -105 -138 0
137 -138 105 0
-137 138 105 0
138 -105 137 0
-139 -136 -138 0
-139 136 138 0
139 -136 138 0
139 136 -138 0
140 -136 -138 0
-140 138 0
-140 136 0
-137 -105 141 0
-141 105 0
-141 137 0
140 -142 141 0
-140 142 0
142 -141 0
-133 -10 143 0
-143 10 0
133 -143 0
-111 -144 -143 0
111 143 -144 0
111 -143 144 0
-111 143 144 0
-145 -144 -142 0
-145 142 144 0
145 -142 144 0
-144 145 142 0
146 -144 -142 0
-146 144 0
142 -146 0
-111 -143 147 0
111 -147 0
-147 143 0
146 -148 147 0
148 -146 0
-147 148 0
-133 149 -18 0
-149 18 0
-149 133 0
-117 -149 -150 0
-150 117 149 0
150 -149 117 0
-117 150 149 0
-151 -150 -148 0
-151 150 148 0
151 150 -148 0
151 -150 148 0
-150 -148 152 0
150 -152 0
148 -152 0
-117 -149 153 0
117 -153 0
149 -153 0
-154 153 152 0
154 -152 0
154 -153 0
-133 155 -26 0
-155 26 0
133 -155 0
-156 -155 -123 0
155 -156 123 0
156 -155 123 0
155 156 -123 0
-154 -156 -157 0
-157 154 156 0
-154 157 156 0
-156 157 154 0
-154 -156 158 0
-158 156 0
154 -158 0
159 -155 -123 0
-159 123 0
155 -159 0
159 158 -160 0
-158 160 0
160 -159 0
161 -34 -133 0
34 -161 0
133 -161 0
-162 -161 -129 0
161 -162 129 0
162 -161 129 0
162 161 -129 0
-160 -162 -163 0
162 -163 160 0
-160 162 163 0
-162 163 160 0
-160 -162 164 0
162 -164 0
-164 160 0
165 -161 -129 0
-165 129 0
161 -165 0
164 -166 165 0
-164 166 0
166 -165 0
167 -133 -42 0
42 -167 0
133 -167 0
-168 -167 -132 0
167 -168 132 0
-167 168 132 0
167 168 -132 0
-166 -168 -169 0
166 -169 168 0
169 -166 168 0
169 -168 166 0
-166 -168 170 0
-170 168 0
-170 166 0
171 -167 -132 0
-171 132 0
167 -171 0
171 -172 170 0
-170 172 0
-171 172 0
-173 -1 174 0
-174 1 0
173 -174 0
-139 -174 -175 0
139 174 -175 0
-174 139 175 0
-139 175 174 0
-139 176 -174 0
-176 139 0
-176 174 0
-4 -173 177 0
4 -177 0
173 -177 0
-145 -178 -177 0
177 -178 145 0
178 145 -177 0
177 -145 178 0
-178 -179 -176 0
176 178 -179 0
179 178 -176 0
179 -178 176 0
-178 180 -176 0
178 -180 0
176 -180 0
-145 181 -177 0
145 -181 0
177 -181 0
181 180 -182 0
182 -180 0
182 -181 0
183 -173 -10 0
-183 10 0
173 -183 0
-151 -183 -184 0
151 183 -184 0
151 -183 184 0
-151 183 184 0
-182 -185 -184 0
-185 182 184 0
184 -182 185 0
182 -184 185 0
-182 186 -184 0
184 -186 0
182 -186 0
-151 -183 187 0
151 -187 0
183 -187 0
-188 186 187 0
188 -186 0
188 -187 0
189 -173 -18 0
-189 18 0
173 -189 0
-190 -189 -157 0
189 -190 157 0
190 -189 157 0
189 190 -157 0
-191 -190 -188 0
-191 188 190 0
-188 190 191 0
-190 188 191 0
192 -190 -188 0
-192 190 0
-192 188 0
-189 -157 193 0
-193 157 0
189 -193 0
192 -194 193 0
-192 194 0
-193 194 0
-173 195 -26 0
26 -195 0
173 -195 0
-163 -196 -195 0
195 -196 163 0
196 163 -195 0
195 -163 196 0
-197 -196 -194 0
-197 196 194 0
197 196 -194 0
197 -196 194 0
198 -196 -194 0
-198 196 0
-198 194 0
199 -163 -195 0
163 -199 0
195 -199 0
-200 198 199 0
-198 200 0
-199 200 0
-34 201 -173 0
-201 34 0
173 -201 0
-202 -201 -169 0
169 -202 201 0
169 -201 202 0
202 -169 201 0
-202 -200 -203 0
202 -203 200 0
203 202 -200 0
-202 203 200 0
-202 -200 204 0
202 -204 0
-204 200 0
-201 205 -169 0
169 -205 0
-205 201 0
205 -206 204 0
206 -204 0
-205 206 0
-173 207 -42 0
42 -207 0
173 -207 0
-207 -208 -172 0
207 172 -208 0
-207 172 208 0
207 -172 208 0
-209 -208 -206 0
206 -209 208 0
209 -206 208 0
206 -208 209 0
210 -208 -206 0
-210 208 0
-210 206 0
-207 211 -172 0
-211 172 0
207 -211 0
210 211 -212 0
-210 212 0
-211 212 0
-213 -1 214 0
-214 1 0
213 -214 0
-215 -179 -214 0
179 214 -215 0
179 -214 215 0
-179 214 215 0
-179 216 -214 0
179 -216 0
214 -216 0
-4 217 -213 0
4 -217 0
213 -217 0
-218 -185 -217 0
-218 217 185 0
218 185 -217 0
218 -185 217 0
-218 -219 -216 0
216 218 -219 0
219 218 -216 0
219 -218 216 0
-218 220 -216 0
218 -220 0
216 -220 0
-185 221 -217 0
185 -221 0
217 -221 0
-222 220 221 0
-220 222 0
222 -221 0
-213 -10 223 0
10 -223 0
213 -223 0
-191 -224 -223 0
223 -224 191 0
224 191 -223 0
-191 224 223 0
-225 -224 -222 0
224 -225 222 0
224 -222 225 0
-224 225 222 0
-224 226 -222 0
-226 224 0
-226 222 0
-191 227 -223 0
-227 191 0
223 -227 0
226 227 -228 0
-226 228 0
-227 228 0
-213 229 -18 0
-229 18 0
213 -229 0
-229 -230 -197 0
-230 229 197 0
-229 197 230 0
229 -197 230 0
-230 -228 -231 0
228 230 -231 0
-228 230 231 0
-230 228 231 0
-230 -228 232 0
230 -232 0
228 -232 0
-229 233 -197 0
197 -233 0
229 -233 0
233 -234 232 0
234 -232 0
-233 234 0
-213 235 -26 0
-235 26 0
213 -235 0
-236 -235 -203 0
203 235 -236 0
203 -235 236 0
235 236 -203 0
-234 -236 -237 0
-237 234 236 0
237 -234 236 0
237 -236 234 0
-234 238 -236 0
-238 236 0
-238 234 0
239 -235 -203 0
203 -239 0
235 -239 0
-240 238 239 0
-238 240 0
-239 240 0
-213 -34 241 0
34 -241 0
213 -241 0
-242 -209 -241 0
-242 241 209 0
-241 209 242 0
241 -209 242 0
-242 -240 -243 0
-243 240 242 0
243 -240 242 0
243 -242 240 0
244 -242 -240 0
-244 242 0
-244 240 0
245 -209 -241 0
-245 209 0
241 -245 0
244 245 -246 0
246 -244 0
246 -245 0
-213 247 -42 0
42 -247 0
213 -247 0
-248 -212 -247 0
-248 247 212 0
-247 248 212 0
247 -212 248 0
-249 -246 -248 0
246 -249 248 0
-246 249 248 0
246 249 -248 0
250 -246 -248 0
-250 248 0
246 -250 0
251 -212 -247 0
-251 212 0
247 -251 0
-252 251 250 0
-250 252 0
252 -251 0
