p cnf 120 375
-1 3 -2 0
-3 1 0
2 -3 0
-4 5 -2 0
4 -5 0
2 -5 0
-1 7 -6 0
1 -7 0
6 -7 0
-7 -8 -5 0
-8 7 5 0
-7 8 5 0
8 7 -5 0
-7 9 -5 0
-9 5 0
-9 7 0
11 -10 -2 0
10 -11 0
2 -11 0
12 -4 -6 0
4 -12 0
6 -12 0
-13 -12 -11 0
11 12 -13 0
11 -12 13 0
12 13 -11 0
-9 -14 -13 0
9 -14 13 0
14 -9 13 0
14 9 -13 0
15 -9 -13 0
-15 13 0
-15 9 0
16 -12 -11 0
11 -16 0
12 -16 0
-17 16 15 0
-15 17 0
-16 17 0
-18 19 -2 0
-19 18 0
2 -19 0
-10 20 -6 0
-20 10 0
-20 6 0
-20 -21 -19 0
19 -21 20 0
-20 19 21 0
20 -19 21 0
-17 -22 -21 0
17 -22 21 0
-17 22 21 0
-21 22 17 0
23 -17 -21 0
-23 21 0
-23 17 0
-20 -19 24 0
-24 19 0
-24 20 0
23 -25 24 0
-23 25 0
-24 25 0
27 -26 -2 0
26 -27 0
2 -27 0
-18 28 -6 0
-28 18 0
-28 6 0
-28 -29 -27 0
27 -29 28 0
27 -28 29 0
28 -27 29 0
-30 -29 -25 0
-30 25 29 0
30 -25 29 0
30 -29 25 0
31 -29 -25 0
-31 29 0
-31 25 0
-28 -27 32 0
-32 27 0
-32 28 0
31 -33 32 0
-31 33 0
-32 33 0
-26 34 -6 0
26 -34 0
6 -34 0
-35 -33 -34 0
-35 34 33 0
35 -34 33 0
-33 34 35 0
36 -33 -34 0
-36 33 0
34 -36 0
-1 -37 38 0
-38 1 0
-38 37 0
-39 -38 -14 0
14 -39 38 0
14 39 -38 0
38 39 -14 0
-38 -14 40 0
14 -40 0
38 -40 0
41 -4 -37 0
4 -41 0
-41 37 0
-22 -41 -42 0
41 -42 22 0
-41 42 22 0
41 -22 42 0
-40 -42 -43 0
42 -43 40 0
-40 42 43 0
-42 43 40 0
-40 -42 44 0
42 -44 0
-44 40 0
-22 -41 45 0
-45 22 0
41 -45 0
45 -46 44 0
46 -44 0
46 -45 0
47 -37 -10 0
-47 10 0
-47 37 0
-30 -48 -47 0
30 47 -48 0
30 48 -47 0
47 -30 48 0
-48 -46 -49 0
46 48 -49 0
49 48 -46 0
46 -48 49 0
50 -48 -46 0
-50 48 0
46 -50 0
51 -30 -47 0
30 -51 0
47 -51 0
50 51 -52 0
-50 52 0
52 -51 0
-18 -37 53 0
18 -53 0
-53 37 0
-35 -54 -53 0
53 -54 35 0
-53 54 35 0
54 -35 53 0
-52 -55 -54 0
54 -55 52 0
54 -52 55 0
52 -54 55 0
-52 56 -54 0
54 -56 0
52 -56 0
-35 57 -53 0
-57 35 0
53 -57 0
56 -58 57 0
58 -56 0
58 -57 0
-37 -26 59 0
26 -59 0
-59 37 0
-59 -36 -60 0
36 59 -60 0
36 60 -59 0
60 59 -36 0
-58 -61 -60 0
60 -61 58 0
60 -58 61 0
61 58 -60 0
62 -58 -60 0
60 -62 0
-62 58 0
63 -59 -36 0
36 -63 0
-63 59 0
62 63 -64 0
-62 64 0
-63 64 0
-1 66 -65 0
-66 1 0
-66 65 0
-66 -67 -43 0
66 -67 43 0
-66 43 67 0
66 -43 67 0
-66 68 -43 0
-68 43 0
-68 66 0
-4 69 -65 0
-69 4 0
-69 65 0
-70 -69 -49 0
-70 49 69 0
70 49 -69 0
70 69 -49 0
-68 -70 -71 0
-71 70 68 0
-68 70 71 0
-70 71 68 0
-68 -70 72 0
-72 70 0
-72 68 0
73 -69 -49 0
49 -73 0
69 -73 0
-74 73 72 0
-72 74 0
74 -73 0
75 -10 -65 0
-75 10 0
-75 65 0
-55 -76 -75 0
75 55 -76 0
76 55 -75 0
75 -55 76 0
-74 -76 -77 0
76 74 -77 0
77 76 -74 0
77 74 -76 0
-74 -76 78 0
76 -78 0
74 -78 0
-55 79 -75 0
55 -79 0
75 -79 0
79 78 -80 0
80 -78 0
80 -79 0
-18 81 -65 0
-81 18 0
-81 65 0
-82 -61 -81 0
81 -82 61 0
82 61 -81 0
81 -61 82 0
-82 -83 -80 0
80 -83 82 0
83 82 -80 0
80 -82 83 0
-82 84 -80 0
-84 82 0
80 -84 0
85 -61 -81 0
-85 61 0
81 -85 0
85 -86 84 0
-84 86 0
-85 86 0
-26 87 -65 0
26 -87 0
-87 65 0
-64 -87 -88 0
64 87 -88 0
64 -87 88 0
88 -64 87 0
-86 -89 -88 0
88 -89 86 0
-86 88 89 0
89 86 -88 0
-86 90 -88 0
88 -90 0
-90 86 0
-64 91 -87 0
-91 64 0
-91 87 0
90 91 -92 0
-90 92 0
-91 92 0
-1 94 -93 0
-94 1 0
-94 93 0
-71 -94 -95 0
94 71 -95 0
-94 71 95 0
-71 94 95 0
-71 -94 96 0
71 -96 0
94 -96 0
-4 -93 97 0
-97 4 0
-97 93 0
-97 -98 -77 0
77 -98 97 0
98 77 -97 0
98 -77 97 0
-99 -98 -96 0
98 96 -99 0
98 -96 99 0
96 -98 99 0
-98 100 -96 0
98 -100 0
96 -100 0
101 -97 -77 0
-101 77 0
-101 97 0
101 100 -102 0
102 -100 0
-101 102 0
103 -10 -93 0
10 -103 0
93 -103 0
-83 -104 -103 0
83 -104 103 0
83 104 -103 0
104 -83 103 0
-102 -105 -104 0
104 -105 102 0
105 104 -102 0
105 102 -104 0
-102 -104 106 0
104 -106 0
102 -106 0
107 -83 -103 0
83 -107 0
-107 103 0
107 -108 106 0
108 -106 0
108 -107 0
-18 -93 109 0
18 -109 0
93 -109 0
-110 -89 -109 0
-110 109 89 0
-109 110 89 0
110 -89 109 0
-111 -110 -108 0
-111 108 110 0
110 111 -108 0
108 -110 111 0
-110 112 -108 0
110 -112 0
108 -112 0
113 -89 -109 0
-113 89 0
-113 109 0
113 112 -114 0
-112 114 0
-113 114 0
115 -26 -93 0
26 -115 0
93 -115 0
-92 -115 -116 0
115 -116 92 0
116 -115 92 0
116 115 -92 0
-116 -117 -114 0
116 114 -117 0
117 116 -114 0
117 -116 114 0
118 -116 -114 0
116 -118 0
114 -118 0
-92 119 -115 0
-119 92 0
-119 115 0
-120 119 118 0
120 -118 0
-119 120 0
3 0
8 0
-39 0
-67 0
-95 0
-99 0
-105 0
111 0
117 0
120 0
