p cnf 120 375
3 -1 -2 0
-3 1 0
-3 2 0
-4 -2 5 0
4 -5 0
-5 2 0
7 -6 -1 0
1 -7 0
6 -7 0
-8 -5 -7 0
-8 7 5 0
8 -7 5 0
7 -5 8 0
-5 -7 9 0
-9 5 0
7 -9 0
11 -10 -2 0
10 -11 0
2 -11 0
-6 -4 12 0
4 -12 0
6 -12 0
-13 -11 -12 0
11 -13 12 0
11 13 -12 0
12 -11 13 0
-13 -14 -9 0
-14 9 13 0
14 -9 13 0
14 -13 9 0
15 -13 -9 0
-15 13 0
-15 9 0
16 -11 -12 0
-16 11 0
-16 12 0
-17 16 15 0
17 -15 0
-16 17 0
-18 19 -2 0
18 -19 0
2 -19 0
20 -10 -6 0
10 -20 0
-20 6 0
-20 -21 -19 0
20 19 -21 0
21 19 -20 0
20 21 -19 0
-22 -17 -21 0
17 21 -22 0
21 -17 22 0
17 22 -21 0
23 -17 -21 0
21 -23 0
17 -23 0
-20 -19 24 0
19 -24 0
20 -24 0
-25 23 24 0
25 -23 0
25 -24 0
27 -26 -2 0
26 -27 0
2 -27 0
-18 28 -6 0
-28 18 0
-28 6 0
-28 -29 -27 0
27 28 -29 0
27 -28 29 0
28 -27 29 0
-30 -29 -25 0
25 -30 29 0
-25 30 29 0
25 30 -29 0
-29 31 -25 0
-31 29 0
25 -31 0
32 -28 -27 0
27 -32 0
-32 28 0
32 31 -33 0
33 -31 0
-32 33 0
-26 -6 34 0
26 -34 0
6 -34 0
-35 -34 -33 0
33 34 -35 0
33 -34 35 0
35 34 -33 0
36 -34 -33 0
33 -36 0
-36 34 0
-37 38 -1 0
1 -38 0
-38 37 0
-38 -39 -14 0
14 -39 38 0
14 -38 39 0
39 38 -14 0
-38 40 -14 0
14 -40 0
-40 38 0
-37 41 -4 0
4 -41 0
-41 37 0
-22 -42 -41 0
22 -42 41 0
22 42 -41 0
-22 41 42 0
-43 -40 -42 0
42 40 -43 0
42 -40 43 0
-42 40 43 0
-40 44 -42 0
42 -44 0
-44 40 0
-22 45 -41 0
22 -45 0
41 -45 0
45 44 -46 0
46 -44 0
46 -45 0
-10 47 -37 0
10 -47 0
-47 37 0
-47 -30 -48 0
30 47 -48 0
-47 30 48 0
-30 47 48 0
-49 -48 -46 0
46 -49 48 0
49 -46 48 0
46 49 -48 0
50 -48 -46 0
-50 48 0
-50 46 0
-47 -30 51 0
30 -51 0
47 -51 0
51 -52 50 0
-50 52 0
52 -51 0
-18 -37 53 0
18 -53 0
37 -53 0
-35 -54 -53 0
35 -54 53 0
54 35 -53 0
54 -35 53 0
-52 -54 -55 0
54 52 -55 0
54 55 -52 0
55 52 -54 0
56 -52 -54 0
54 -56 0
-56 52 0
-35 57 -53 0
35 -57 0
53 -57 0
56 57 -58 0
58 -56 0
58 -57 0
-26 -37 59 0
-59 26 0
-59 37 0
-59 -36 -60 0
36 -60 59 0
-59 36 60 0
60 -36 59 0
-61 -60 -58 0
60 -61 58 0
60 61 -58 0
61 58 -60 0
62 -60 -58 0
60 -62 0
58 -62 0
-59 -36 63 0
36 -63 0
-63 59 0
62 -64 63 0
64 -62 0
-63 64 0
66 -1 -65 0
1 -66 0
65 -66 0
-43 -67 -66 0
66 -67 43 0
67 -66 43 0
-43 67 66 0
-43 68 -66 0
-68 43 0
-68 66 0
69 -4 -65 0
4 -69 0
65 -69 0
-49 -69 -70 0
69 49 -70 0
49 -69 70 0
69 -49 70 0
-68 -71 -70 0
68 -71 70 0
-68 71 70 0
68 71 -70 0
-68 72 -70 0
-72 70 0
68 -72 0
73 -49 -69 0
-73 49 0
69 -73 0
73 72 -74 0
-72 74 0
-73 74 0
-10 -65 75 0
10 -75 0
65 -75 0
-75 -76 -55 0
55 75 -76 0
-75 55 76 0
76 -55 75 0
-76 -77 -74 0
76 -77 74 0
76 77 -74 0
-76 77 74 0
78 -76 -74 0
-78 76 0
-78 74 0
-75 79 -55 0
55 -79 0
-79 75 0
79 -80 78 0
-78 80 0
-79 80 0
81 -18 -65 0
18 -81 0
65 -81 0
-61 -82 -81 0
61 -82 81 0
61 82 -81 0
-61 82 81 0
-80 -82 -83 0
82 -83 80 0
83 82 -80 0
83 -82 80 0
-80 -82 84 0
82 -84 0
-84 80 0
-61 85 -81 0
61 -85 0
81 -85 0
-86 85 84 0
-84 86 0
86 -85 0
-26 87 -65 0
-87 26 0
65 -87 0
-87 -64 -88 0
64 87 -88 0
-87 64 88 0
-64 87 88 0
-86 -88 -89 0
88 86 -89 0
-86 88 89 0
86 -88 89 0
-86 -88 90 0
88 -90 0
-90 86 0
-87 -64 91 0
64 -91 0
87 -91 0
-92 91 90 0
-90 92 0
-91 92 0
94 -1 -93 0
1 -94 0
93 -94 0
-95 -71 -94 0
94 -95 71 0
95 71 -94 0
94 -71 95 0
-71 -94 96 0
71 -96 0
94 -96 0
97 -4 -93 0
4 -97 0
-97 93 0
-97 -98 -77 0
97 -98 77 0
-97 98 77 0
97 98 -77 0
-99 -98 -96 0
-99 96 98 0
99 98 -96 0
-98 99 96 0
-98 100 -96 0
-100 98 0
-100 96 0
-97 101 -77 0
-101 77 0
-101 97 0
-102 101 100 0
-100 102 0
-101 102 0
103 -10 -93 0
10 -103 0
-103 93 0
-104 -103 -83 0
103 83 -104 0
83 -103 104 0
103 -83 104 0
-102 -105 -104 0
-105 102 104 0
-102 105 104 0
105 -104 102 0
106 -102 -104 0
-106 104 0
-106 102 0
107 -103 -83 0
83 -107 0
103 -107 0
106 -108 107 0
108 -106 0
108 -107 0
109 -18 -93 0
-109 18 0
-109 93 0
-109 -89 -110 0
109 89 -110 0
110 -109 89 0
109 110 -89 0
-108 -111 -110 0
108 110 -111 0
111 -108 110 0
108 111 -110 0
-108 112 -110 0
110 -112 0
108 -112 0
113 -109 -89 0
-113 89 0
109 -113 0
113 112 -114 0
114 -112 0
114 -113 0
-26 -93 115 0
-115 26 0
-115 93 0
-115 -92 -116 0
-116 92 115 0
-115 116 92 0
-92 116 115 0
-117 -114 -116 0
-117 114 116 0
-114 116 117 0
114 -116 117 0
-114 118 -116 0
-118 116 0
114 -118 0
-115 -92 119 0
-119 92 0
-119 115 0
118 119 -120 0
120 -118 0
120 -119 0
3 0
8 0
-39 0
-67 0
-95 0
-99 0
105 0
-111 0
117 0
-120 0
