c Type 1: interval ordering (permuted), n=500, m=600
p cnf 500 600
-229 -439 -180 -114 109 395 0
362 -194 484 -197 52 341 285 219 477 222 463 25 0
-161 365 249 266 252 257 -135 173 -415 244 -382 286 -299 0
274 214 412 -126 -182 465 235 225 272 -421 -337 162 -273 26 17 292 110 -166 -339 108 -139 -301 47 -329 -78 -195 0
362 -194 341 -219 477 -25 186 31 88 -340 407 -71 -23 356 95 253 -423 345 -5 -265 0
-399 230 -360 362 -207 194 97 284 359 -238 0
-16 -473 -323 -111 -446 120 431 0
 0
411 -30 -153 159 -29 402 -80 394 212 -46 344 -112 -33 -442 -103 379 -156 -452 -309 437 239 -459 -200 -287 -251 86 0
 0
 0
312 -406 -130 0
-498 -274 417 304 214 -494 -412 450 -50 -248 -126 -182 0
-392 -451 399 230 360 362 207 -194 -97 0
-30 153 159 402 46 344 -112 33 442 379 -156 309 437 -239 -459 200 0
274 -417 -214 -494 412 -126 182 3 -9 465 54 353 -235 39 -322 -435 263 -51 296 -453 -225 272 247 270 358 243 0
127 398 -385 10 -224 233 302 -267 -281 271 -11 0
-466 479 456 -383 -216 -410 318 -327 101 326 -15 138 -457 125 -388 -82 0
-277 181 -319 -289 268 364 -294 129 361 237 411 61 -221 -30 -153 -159 -29 402 80 -394 212 -46 0
214 -126 182 166 -47 -397 -13 307 0
-218 18 -314 -432 390 -419 -293 -131 -211 65 -161 0
-274 -417 214 -494 412 -126 -182 3 465 -54 -353 -235 39 -322 435 -263 51 -296 453 225 272 247 270 -358 243 -421 0
-16 -473 -295 323 116 -111 -446 -120 431 -447 -380 41 -64 -492 487 -275 428 369 -377 229 -306 -439 -215 -176 142 172 0
274 417 214 -412 126 182 -465 -235 -39 -322 -435 263 -51 -296 453 -225 -272 -358 -243 421 -337 0
-216 146 -66 -160 -209 -436 107 -35 49 366 315 -70 256 -290 0
-244 -382 286 299 122 483 291 20 -45 183 498 -470 -163 0
-274 214 -412 126 182 -465 235 -322 -435 -51 225 272 -358 -243 -421 -337 -162 -273 -26 -17 -292 110 -166 132 339 0
-200 -287 -191 40 0
45 -498 470 -163 -157 -297 -274 177 0
-317 -338 283 466 479 -456 -383 188 -216 -410 318 -81 327 -101 326 15 138 457 -125 388 -82 -413 368 -146 66 -160 209 436 -107 35 -49 -366 0
 0
241 464 -333 373 441 -169 429 0
-362 194 -52 -341 -285 -219 477 222 -25 0
-214 -126 -182 225 421 110 -166 108 -301 47 -329 -78 -397 55 -424 -34 113 -72 38 42 262 13 -334 307 -328 0
-317 -338 -283 466 -479 -456 -383 -188 216 -410 -318 -81 327 -101 326 -15 -138 457 125 -388 82 -413 368 146 0
-96 -347 -493 19 0
 0
-30 -153 159 402 46 344 112 33 -442 379 -156 -452 -309 -437 239 459 -200 287 251 -86 -462 191 59 -389 0
-274 -214 -126 -182 -235 225 421 -337 26 110 -166 108 301 -47 329 -78 -397 0
-369 377 -229 306 439 -215 176 -142 172 180 -114 -109 395 -455 392 -346 133 -313 0
-45 498 470 -163 -157 297 -274 177 -119 118 -417 -198 -304 141 -2 -214 204 374 1 213 -352 -115 205 -494 0
-161 365 -249 266 -252 257 135 173 -415 -244 0
-483 20 -45 -498 -470 -163 0
161 365 -249 -266 252 -257 -135 -173 415 -244 382 -286 299 122 483 -291 -20 45 183 -498 470 163 -157 -297 274 177 119 118 -417 -198 -304 -141 0
 0
-293 131 0
-13 -307 0
-498 274 417 304 -214 -204 205 -494 412 450 50 -248 -126 182 3 350 168 -228 150 9 465 -54 -353 235 39 -322 -435 263 -51 -296 -453 -225 -272 247 270 358 243 421 337 162 -273 -26 -17 292 110 166 -132 339 108 0
256 -100 277 -181 128 -310 319 367 289 -231 -260 -268 -282 -364 416 467 294 0
 0
-444 349 149 430 418 -89 7 -370 -164 250 147 -241 464 333 -373 -441 169 -429 0
146 66 -256 184 -100 277 181 128 310 -363 319 -367 -405 -289 231 0
-430 418 89 7 -370 -164 250 147 241 -464 333 373 0
-274 214 -412 126 182 -465 235 435 225 -272 421 -337 -162 -273 -26 17 -292 110 -166 -132 -339 0
275 428 369 377 -229 -306 -439 215 -176 142 -172 0
-30 -153 -159 402 -46 -344 -112 -33 -442 -103 -379 -156 452 309 437 -239 -459 -200 287 251 86 -462 191 -59 389 -4 40 246 -336 311 0
 0
485 158 85 471 480 151 -354 16 -473 295 -323 116 111 446 120 0
-458 62 -448 21 461 240 75 -226 208 348 -203 0
127 -398 385 -10 -233 302 267 271 11 56 -223 -137 -6 -495 179 145 206 79 53 0
411 -221 -30 153 -159 29 -402 80 -394 -212 46 -344 0
-240 -414 351 -189 489 433 488 325 -308 14 -491 496 -134 -144 -474 -136 123 -486 332 0
-385 -10 -6 -179 79 53 -37 -91 -330 148 -74 83 0
351 -489 -433 308 14 -144 -136 486 -332 73 386 121 497 -278 254 227 376 -425 -298 127 190 445 199 460 -409 -398 -490 167 -220 378 152 331 -258 -385 -201 10 12 69 224 -233 -302 -267 281 481 -271 -11 -56 -223 0
41 -487 -275 -428 369 -377 229 -306 439 -215 176 142 -172 -180 -114 -109 395 0
146 -66 35 256 184 -100 277 181 -128 310 24 363 319 367 -405 -289 231 -260 268 -282 0
-466 -479 456 383 -216 -318 -327 326 -138 -125 -82 413 -368 146 -66 -160 209 0
-240 -403 -414 -351 189 -489 433 -401 -404 -36 67 143 0
-256 100 277 181 128 310 319 -367 -289 -231 -260 268 -282 0
96 -347 493 19 342 -321 -478 -175 0
-229 -306 439 -215 -176 -142 -172 180 0
-20 -45 498 -470 163 -157 -297 274 -177 0
-437 -459 200 287 191 4 40 -311 -96 -347 -493 19 -342 -321 -478 175 469 140 185 0
 0
 0
 0
 0
316 -68 -500 -171 -357 259 -63 0
 0
362 253 423 -345 5 300 -324 -60 187 94 381 93 0
-214 -126 -13 -307 0
-127 398 -220 -385 10 12 -69 224 233 -302 -267 281 -481 271 0
-351 -489 -433 -308 14 -144 -486 73 386 -121 497 278 -254 227 376 -425 0
-13 -307 0
351 -489 433 308 14 -144 -486 -73 121 -497 -278 -254 227 -376 0
-387 -375 0
351 -489 -433 -308 14 -144 -486 -73 121 -497 278 -254 -227 0
 0
 0
274 -417 -214 -494 -412 -126 -182 -3 -465 -54 -353 235 39 322 435 263 -51 296 453 -225 -272 -247 270 358 -243 -421 337 0
 0
-369 -377 229 0
-406 -77 475 106 98 0
-308 144 121 -497 376 -127 190 -199 -460 -409 -398 490 -220 152 331 -258 -385 -201 -10 -12 -69 224 233 302 0
244 -382 286 -299 122 -483 291 -20 -45 183 498 0
 0
-229 439 -215 176 -142 -172 -180 -114 109 395 -455 -392 346 133 313 451 476 -399 230 0
 0
286 122 0
-16 473 -295 -323 -116 -111 446 -120 431 -447 380 41 -64 492 -487 -275 428 369 377 229 0
274 -417 214 -494 -412 126 182 -3 -465 54 235 39 322 -435 263 51 296 -453 -225 -272 -247 -270 -358 243 421 337 162 273 26 17 -292 110 166 -132 -339 108 139 -301 0
-33 156 309 -437 -459 200 -287 251 -86 -462 -191 -59 389 -4 0
53 91 148 -74 -83 343 -174 317 338 90 283 466 479 -456 -383 -188 -216 -410 -318 -81 -327 -101 -326 15 -138 -457 125 -388 0
-240 -403 -414 351 -189 -489 433 -401 404 -36 67 -143 -57 -27 488 0
 0
175 185 -155 -92 192 0
-351 -489 433 308 14 -144 -486 -73 121 -497 278 254 227 0
8 422 -269 -444 -234 0
415 244 382 286 299 -122 483 -291 20 -45 183 0
240 -414 351 -189 -489 433 -401 -404 -36 -57 488 438 -276 325 308 288 14 491 496 -170 -468 -134 144 474 -136 123 486 332 105 -73 -386 -121 -497 278 254 227 376 -425 -298 -127 190 -445 199 -460 -409 0
-362 194 341 219 -477 -25 186 -31 88 340 407 0
411 30 -153 159 29 -402 80 -394 -212 -46 344 -112 -33 -442 -103 379 156 -452 -309 0
-244 382 -286 299 -122 0
214 126 -182 225 421 110 166 -108 -301 -47 -78 397 55 -424 113 72 -38 42 -262 -13 334 -307 -328 0
-406 106 -98 0
-214 -126 -182 110 -166 -47 -78 -397 -55 -13 -307 0
 0
274 214 126 -182 -235 225 -421 337 -26 -110 166 -108 -301 -47 -329 78 -195 -397 -482 55 424 34 0
317 338 466 -479 -456 383 -216 410 318 -327 -101 -326 -15 138 457 -125 -388 -82 -413 -368 146 -66 0
256 -100 277 -181 -128 310 -319 367 -405 289 -231 -260 -268 0
240 -75 -226 403 414 -351 -189 58 489 -499 0
439 180 -114 -109 395 -455 392 -346 133 313 -451 0
317 338 90 283 466 -479 456 383 188 216 -410 318 81 327 101 -326 0
 0
-111 -446 447 41 64 -492 0
-16 473 -295 323 116 111 446 -120 431 447 -380 -41 64 -492 487 275 428 -369 377 -229 306 -439 -215 -176 -142 172 -180 114 -109 395 455 -392 346 0
-387 0
-277 181 319 -289 -268 364 -294 129 -361 -237 -411 -61 221 0
146 -66 -35 -256 290 184 393 -100 277 -181 -128 -305 193 -310 -24 363 -319 367 -405 289 231 -260 268 0
 0
-498 -274 417 304 214 494 412 450 -50 -248 126 -182 -3 -350 -168 228 0
398 -385 -10 233 -302 11 -56 -137 6 495 -179 -145 -206 -79 -53 0
 0
 0
 0
30 -153 -159 402 46 -344 -112 33 -442 379 156 309 -437 -239 -459 200 287 -251 -86 0
 0
-144 -127 199 409 398 490 -220 152 -331 -258 -385 -201 -10 -12 -69 224 -233 302 267 -281 -481 -271 11 -56 223 137 6 495 -179 -145 206 -79 53 37 0
-362 -356 -253 -423 -345 -5 265 -300 -324 60 -187 94 -381 93 0
274 -214 126 -182 235 225 421 337 -26 110 166 -108 301 47 -329 78 -397 482 -55 0
-111 446 447 -41 -64 -492 487 -275 -428 369 -377 229 306 439 215 -176 0
274 214 -412 126 182 -465 235 322 -435 51 -225 -272 358 -243 -421 337 -162 273 26 17 -292 0
-444 210 -349 -149 0
387 0
444 -210 434 245 -349 149 -430 -418 -89 -7 -370 0
216 146 -66 160 -209 -436 -107 35 49 366 -70 -256 -290 -449 396 184 0
-161 365 -249 -266 -252 0
-362 356 253 -423 -345 5 265 -300 324 60 -187 -94 -381 -93 0
214 -126 182 225 -421 110 -166 -301 -47 78 397 -55 72 38 42 262 -13 334 0
 0
-164 -250 147 -241 -464 333 -373 -441 0
-92 192 -335 0
-444 -349 -149 430 0
 0
 0
230 -362 207 -194 284 -359 238 -484 197 426 0
-200 -191 40 311 -96 347 493 19 342 0
 0
214 126 -182 225 421 337 110 166 -108 301 47 329 78 397 55 -424 -34 113 -72 38 0
240 -414 -351 189 -489 433 401 -404 -36 57 -488 438 276 -325 308 -288 -14 -491 496 -170 468 0
-240 414 351 -189 489 433 -325 308 -14 -491 -496 134 144 -474 -136 123 -486 0
-458 -461 240 -75 226 348 203 0
106 98 -202 320 218 -18 -314 432 390 419 0
-229 -439 215 176 142 -172 180 0
498 -157 274 417 304 -2 214 -204 1 -213 352 0
-216 146 -66 -160 436 107 35 -256 -290 -449 184 393 -104 100 277 443 -181 128 -178 472 0
-316 68 -217 -500 0
 0
155 0
-65 -161 0
214 -126 182 -225 -421 -110 -166 301 47 -78 -397 55 -72 -38 42 262 13 -334 -307 328 0
 0
-441 -169 429 0
-214 -126 182 -225 421 -110 166 301 47 -78 397 -55 -38 42 -13 -334 0
274 -214 -412 -126 182 -465 235 225 272 421 -337 162 -273 26 -17 292 110 166 339 -108 0
200 -287 191 -40 -311 -96 347 493 19 342 -321 478 175 -469 140 -185 0
 0
-230 -362 207 -194 -284 359 -238 -484 197 -426 0
159 -33 156 -309 -437 239 459 200 287 -251 86 462 191 59 389 4 -40 -246 336 0
362 -356 -253 423 345 5 -265 300 324 0
-333 -373 -441 -169 429 -427 -485 158 -85 -471 480 -151 -354 -16 -473 295 -323 -116 111 446 120 -431 -447 380 41 64 0
286 299 122 -483 291 20 -45 -183 498 -470 -163 -157 -297 274 177 119 -118 417 198 304 141 2 -214 204 374 0
277 -181 -319 -289 268 282 -364 467 -294 -129 -361 237 411 -61 -221 30 -153 159 29 402 -80 -394 212 46 -344 112 33 -442 103 -379 156 -452 -309 -437 239 -459 200 287 251 -86 -462 -191 -59 -389 4 40 246 -336 -311 0
362 207 -194 -238 -484 -197 52 0
-308 -14 144 -486 -73 -121 -497 227 -376 -298 127 190 -445 -199 -460 409 398 490 167 -220 -378 -152 0
 0
-274 -417 -214 494 412 126 -182 -3 465 235 -39 322 435 263 51 296 453 225 272 -247 -358 243 -421 -337 0
-274 -214 126 182 235 -225 421 337 26 -110 -166 108 301 -47 -329 -78 195 397 482 55 0
 0
-395 392 -451 -476 399 -230 236 -102 -360 0
274 417 -214 494 412 -126 -182 3 -465 -235 -39 322 435 263 51 -296 -453 225 272 247 358 -243 -421 -337 0
-498 157 -274 -417 304 2 -214 -204 1 352 115 205 -494 412 450 50 248 -126 182 0
-274 417 -214 -494 -412 -126 -182 -3 -465 -54 235 -39 322 -435 263 -51 296 -453 225 -272 247 270 -358 243 -421 337 162 273 -26 -17 -292 110 166 132 339 108 -139 301 47 -329 78 195 -397 482 55 0
-230 -362 207 194 -284 238 -484 -197 426 0
-385 10 -6 -179 -53 37 -91 330 148 -74 -83 343 174 -317 338 90 283 -466 479 456 383 -188 216 -410 318 81 -327 -101 -326 -15 138 -457 125 0
214 -126 -182 225 -421 110 -166 -301 47 78 -397 -55 38 -42 13 -334 -307 328 0
498 -274 417 -304 -214 -494 412 -450 50 248 126 -182 3 350 -168 -228 150 -9 -465 -54 -353 235 -39 322 0
-274 -214 126 182 -235 -225 421 -337 26 110 166 -108 301 -47 329 -78 -397 -482 -55 0
-480 151 354 16 473 295 323 116 -111 -446 -120 -431 0
-240 -403 -414 351 -189 -489 433 -401 404 36 67 -143 57 -27 488 438 -276 -242 0
16 -473 295 323 -116 111 446 -120 431 0
 0
-28 312 0
-316 -68 171 -357 -259 -63 0
129 -411 61 -221 30 -153 159 -29 -402 80 -394 212 -46 344 -112 -33 -442 -103 379 -156 0
-146 66 160 436 107 -35 -256 -290 -184 393 -100 -277 -181 128 -472 305 -193 310 0
-392 451 399 230 -236 102 360 0
-214 -126 -182 225 110 166 -47 78 397 -55 38 -42 13 -334 307 328 0
274 214 126 182 -235 -225 -272 421 -337 273 -26 110 -166 -108 301 -47 329 78 -195 0
392 451 -399 -230 -236 -360 362 -207 43 -194 97 0
-214 -126 -182 -225 -421 110 -166 -301 -47 78 397 55 38 42 -13 -334 307 -328 0
127 398 220 385 -10 12 69 -224 233 -302 267 -281 -481 -271 11 0
-30 153 -159 402 394 46 0
240 75 -226 -403 414 -351 -189 58 489 261 -433 0
-408 -280 -48 0
-498 -157 -274 -177 -417 -304 -141 -2 -214 204 374 1 213 -352 115 -205 494 -412 450 -50 248 126 182 3 -350 -168 -228 150 9 465 0
16 473 295 -323 -116 111 446 120 431 -447 380 0
-181 -289 -268 364 294 129 -361 237 -411 -61 221 -30 -153 159 29 -402 -80 394 -212 46 0
53 -91 -148 -74 83 343 174 317 338 90 283 -466 479 456 383 0
369 -377 229 306 439 215 176 -142 172 -180 114 109 395 -455 392 -346 133 313 -451 -476 0
317 338 90 -283 466 479 456 383 188 216 410 -318 0
441 169 429 427 -485 0
-362 -340 -407 -356 95 253 -423 -345 -5 265 300 -324 -60 -187 -94 0
308 144 -121 -497 376 127 190 -199 -460 409 -398 -490 220 -152 -331 258 -385 -201 -10 12 -69 224 -233 -302 -267 281 -481 271 0
214 -126 -182 -225 -421 110 -166 -108 301 -47 -78 397 55 113 -72 38 -42 -262 13 -334 307 -328 0
214 126 -182 225 -421 -110 -166 -47 -78 -397 55 38 42 -13 334 307 -328 0
 0
277 -181 319 289 -268 -364 294 0
-473 -111 446 -120 431 447 -380 -41 64 492 -487 275 0
-466 -216 -318 413 -368 -146 -66 -160 -209 436 -107 35 -49 366 0
-498 -274 -417 304 214 -205 494 412 -450 50 0
-216 146 -66 -160 436 -107 -35 -49 256 -290 449 184 -393 104 100 -277 -443 181 -128 0
274 -417 304 214 -494 412 450 50 -248 -126 182 -3 350 228 -9 465 54 -353 -235 -39 -322 435 -263 -51 296 0
33 -437 -459 -200 287 251 -86 -462 -191 -4 -40 -246 336 -311 96 -347 -493 19 342 0
 0
-129 -411 -61 221 30 153 159 29 402 -80 394 212 46 0
 0
65 161 -365 249 -266 0
274 214 -412 126 182 -465 -235 435 -225 -272 421 337 162 273 26 17 292 -110 166 -132 -339 -108 139 301 47 -329 0
153 -159 33 -156 -309 -437 -239 459 0
169 -427 -485 -158 85 471 480 -151 0
-274 417 -214 494 -412 -450 -50 248 -126 182 3 9 -465 -54 -353 235 39 322 -435 -263 -51 296 453 225 272 247 270 358 243 -421 0
-241 333 -373 441 169 -429 -427 -485 158 85 471 -480 -151 -354 16 -473 295 -323 116 111 -446 120 431 447 380 0
-362 88 -340 407 -71 -23 356 95 253 -423 345 -5 -265 -300 -324 -60 187 -94 381 93 372 420 0
406 -475 -106 -98 -202 320 218 18 314 432 0
385 -10 -137 -6 -179 0
 0
-362 423 -5 -60 381 0
277 181 -289 -268 364 294 -129 361 -237 411 -61 221 -30 153 159 29 402 80 394 212 46 -344 112 33 0
317 -338 -283 466 479 456 -383 -188 216 410 318 81 -327 0
-362 -194 197 52 -341 -285 219 477 222 463 0
 0
427 0
-214 -126 -182 -225 -421 -110 166 -301 47 78 397 55 -72 -38 -42 262 13 -334 0
-317 -338 -283 466 -479 456 383 -188 -216 410 318 81 327 101 326 15 -138 -457 125 388 82 0
-240 75 -226 -403 414 351 -189 -58 489 -433 0
-362 -423 -5 -60 -93 -372 420 0
-485 -158 471 480 0
240 -226 -403 -414 -351 189 -58 489 -433 401 -404 0
385 -53 -91 -330 0
-466 -479 383 -216 318 -327 -138 -82 -413 -368 -146 -66 160 209 436 -107 0
-30 153 159 -402 -46 -344 112 -33 -442 103 -379 0
-466 479 383 -216 318 -327 138 -82 -413 -368 -146 -66 160 209 436 107 35 49 -366 0
362 -340 -407 23 356 95 -253 -423 345 -5 0
-274 -214 126 182 -235 225 421 -337 -26 110 -166 108 -301 47 -329 78 397 482 -55 0
-214 -126 -182 -225 -421 110 166 47 78 -397 -55 -38 42 13 -334 -307 328 0
161 -365 -249 -266 252 257 -173 415 -244 0
214 126 182 225 421 337 110 166 -108 -301 47 329 78 -397 -55 -424 34 113 -72 -38 -42 262 13 334 0
-498 274 417 304 214 494 412 -450 -50 -248 -126 182 0
-274 -417 -214 -494 412 -248 126 -182 -3 9 465 54 -353 235 39 322 435 263 51 296 453 225 272 -247 -270 -358 -243 -421 -337 162 -273 26 -17 -292 -110 -166 -132 339 108 139 301 -47 -329 78 -195 397 482 0
16 -473 -295 -323 -116 111 446 120 431 447 -380 -41 -64 -492 487 -275 428 -369 377 229 -306 -439 -215 -176 -142 -172 -180 -114 109 -395 -455 -392 -346 -133 313 -451 476 -399 -230 236 102 -360 264 -362 207 43 194 0
-461 -240 75 226 403 414 -279 0
-466 479 383 -216 -318 -327 138 82 -413 -368 -146 66 160 0
444 -210 -434 -245 0
466 -479 -456 383 216 318 -327 326 -138 -125 -82 413 -368 -146 66 160 209 -436 107 35 49 366 0
 0
-274 -214 412 126 182 465 -235 -322 435 -51 225 -272 -358 243 421 -337 162 -273 -26 17 -292 110 -166 -132 339 -108 0
-229 -439 180 -114 0
-385 53 -91 -330 -148 74 0
 0
 0
161 365 -249 266 252 257 135 173 -415 -244 382 286 299 122 0
-498 -157 -274 -417 -304 2 214 204 -1 213 -352 -115 -205 -494 0
 0
-498 157 274 177 -417 304 -2 214 204 1 213 -352 -115 205 -494 -412 0
240 -414 -351 -189 -489 -433 36 -488 -325 -308 -14 491 -496 -170 -468 -134 -144 474 -136 0
 0
485 158 0
-274 417 214 -494 412 -126 182 -3 -9 -465 54 -353 -235 -39 -322 435 263 -51 296 453 -225 272 -247 270 358 -243 -421 -337 -162 -273 -26 17 292 110 -166 -132 -339 -108 -139 -301 47 329 -78 195 -397 -482 -55 -424 0
-146 -66 -160 436 -107 -35 256 290 184 -393 -100 277 181 128 178 472 -305 -193 -310 0
351 489 433 -308 14 144 486 73 -386 -121 497 278 -254 227 -376 425 298 127 190 -445 199 -460 -409 -398 490 167 -220 378 152 -331 258 -385 -201 -10 -12 -69 224 -233 -302 0
498 -274 -417 304 214 494 412 450 -50 248 126 182 3 -350 168 -228 150 9 -465 -54 353 -235 39 322 0
 0
-127 -398 385 10 -224 -233 -302 267 -281 481 -271 11 56 -223 -137 6 495 -179 -145 206 0
-216 146 -66 160 -436 -107 35 256 -290 -449 184 393 100 277 -181 128 178 472 305 99 -193 0
317 -338 283 466 479 -456 383 -188 216 410 -318 81 327 -101 326 0
-111 -446 -431 447 41 -64 -492 -487 -275 -428 0
351 489 433 308 -14 -144 486 -73 386 121 -497 278 -254 0
 0
498 -274 -417 -304 -214 494 -412 450 50 -248 126 182 -3 -350 168 -228 150 -9 -465 -54 -353 -235 -39 -322 -435 -263 51 -296 -453 225 -272 247 -270 -358 243 421 0
-16 -473 323 111 -446 120 431 -447 -380 41 64 -492 0
 0
-175 -140 0
 0
164 -250 147 -241 0
-478 -175 469 140 0
274 417 -304 214 -494 -412 450 50 248 -126 -182 -3 -350 9 465 -54 -353 235 39 322 435 -263 51 296 -453 225 -272 247 270 358 -243 421 -337 162 273 26 -17 -292 -110 -166 132 339 0
362 -219 25 88 -340 -407 71 23 -356 -95 253 -423 -345 -5 -265 -300 -324 60 -187 -94 -381 0
354 16 473 -295 -323 -116 -111 446 120 -431 -447 380 -41 64 -492 -487 -275 -428 -369 -377 -229 0
-229 -439 -180 -114 109 395 455 392 -346 133 -313 0
466 -479 383 216 -318 -327 138 -82 -413 368 -146 66 160 209 -436 -107 35 -49 366 -315 -70 0
-214 126 182 -225 -421 -110 166 108 301 47 -78 -397 -55 113 -72 38 42 -262 13 334 0
333 373 441 169 429 427 -485 -158 0
398 -385 -10 -137 -6 495 179 145 0
 0
 0
-485 -158 471 -480 151 354 -16 -473 295 323 116 111 -446 -120 431 447 380 0
-351 -489 -433 -308 -14 144 486 -73 121 497 -278 -254 0
83 -343 174 317 -338 90 283 466 -479 -456 383 -188 -216 410 -318 -81 0
-214 126 166 -13 307 0
398 -385 -10 302 137 6 -495 179 -145 79 53 37 91 -330 148 0
-498 -274 -417 -304 214 494 -412 450 -50 -248 -126 -182 0
 0
274 214 -412 126 182 465 235 -322 -435 263 -51 -296 -453 225 272 358 -243 -421 -337 162 273 0
-146 -66 35 -256 -290 -184 100 -277 181 128 305 -193 310 24 -363 -319 -367 0
-53 -91 -74 83 343 -174 317 -338 -90 -283 466 -479 -456 383 -188 -216 410 318 81 -327 101 326 15 -138 457 125 388 -82 413 -368 146 66 0
-362 194 341 -285 219 477 -222 -25 -186 31 88 340 -407 71 23 356 95 253 0
-30 -153 -159 -402 394 -46 -344 112 -33 442 103 379 -156 452 -309 -437 -239 459 200 -287 -251 86 -462 -191 0
240 -75 226 403 414 -279 -351 -189 58 0
362 207 194 -284 238 -484 -197 -426 0
 0
-127 -199 -409 398 -490 220 -258 -385 -201 -10 -12 69 -224 233 -302 -267 281 -481 271 -11 -56 -223 137 -6 -495 -179 0
 0
-415 -244 382 286 -299 -122 0
-466 -479 -383 216 -318 413 368 146 -66 -160 -209 436 -107 -35 0
 0
-268 129 -411 61 221 -30 153 159 29 402 80 -394 212 -46 344 -112 -33 -442 103 379 156 452 309 0
-362 88 340 -407 -71 23 356 -95 253 -423 -345 5 265 300 324 0
362 -219 -25 88 -340 -407 71 -23 356 -95 253 423 345 5 -265 300 324 60 -187 94 381 93 0
 0
230 -362 207 194 -284 -238 484 -197 426 0
274 -417 214 494 -412 126 182 3 465 54 -235 -39 322 435 -263 -51 296 -453 -225 272 -247 -270 358 -243 421 337 -162 -273 26 -17 292 110 166 132 -339 108 -139 -301 0
362 -253 -423 345 5 300 -324 -60 187 -94 381 0
362 -219 -25 88 -340 407 -71 23 -356 -95 253 423 -345 5 265 -300 324 -60 187 -94 381 -93 372 0
-439 180 114 109 -395 -455 392 0
274 417 214 494 -412 126 182 3 465 54 -353 -235 39 -322 435 263 -51 296 453 -225 272 -247 270 358 -243 421 -337 -162 273 -26 17 0
-229 -439 -180 -114 109 395 0
-76 -196 408 0
-274 -417 -304 -214 494 -412 450 -50 -248 126 -182 3 -350 9 465 -54 -353 235 -39 322 -435 263 -51 296 453 225 272 247 270 -358 243 -421 337 162 273 26 -17 292 110 -166 132 0
-240 -403 -414 351 189 489 -433 401 404 -36 67 57 -488 -438 276 242 -325 308 0
175 -185 0
-33 -156 -309 -437 -459 200 -287 -251 -86 -462 191 59 389 0
216 -146 66 160 -209 -436 -107 35 -49 -366 -70 256 -290 -449 -396 184 -393 -104 100 0
 0
 0
-391 0
406 130 77 -475 -371 0
473 -323 111 446 120 -431 447 -380 0
96 -347 493 -19 342 -321 0
240 -414 -351 -189 -489 433 401 404 36 -57 -488 438 -276 -242 325 -308 -288 -14 0
45 -498 -470 163 -157 -297 274 -177 0
-317 -338 283 466 -479 456 383 188 216 -410 318 81 327 -101 326 15 138 -457 125 0
274 -417 -214 -494 -412 -450 50 -248 -126 -182 -3 -9 -465 -54 -353 235 39 322 -435 263 -51 -296 453 225 -272 247 -270 358 -243 421 -337 0
480 151 354 16 -473 -295 323 116 -111 -446 120 431 -447 380 -41 -64 0
216 146 66 160 436 107 35 49 70 256 -290 449 -184 393 -104 100 -277 0
-311 -96 347 -493 19 0
45 498 470 -163 157 297 -274 177 119 -118 -417 -198 -304 141 -2 -214 -204 -374 1 213 352 0
-489 -308 -14 144 -486 -73 -121 497 -227 -376 425 298 -127 190 -445 199 -460 -409 398 490 167 220 -378 0
316 68 500 0
411 -30 -153 159 -29 402 80 394 212 46 344 112 33 442 103 379 -156 0
240 -403 414 -351 -189 -489 433 401 404 -36 -67 143 -57 27 0
-159 -33 156 -309 -437 -239 -459 200 287 251 -86 462 191 -59 -389 -4 -40 -246 0
-317 -338 90 283 -466 479 -456 383 188 216 -410 318 81 0
-441 169 0
441 -169 429 427 485 -158 -85 -471 -480 151 354 -16 473 295 -323 -116 -111 446 -120 -431 447 380 -41 -64 -492 -487 -275 -428 369 377 -229 -306 -439 -215 176 0
-390 -419 -293 -131 -211 65 161 -365 -249 -266 0
-202 -320 -218 18 314 -432 390 419 293 131 -211 -65 -161 0
214 -126 -182 225 421 110 166 108 301 47 78 397 55 424 -113 72 -38 -42 -262 13 -334 0
8 -422 232 -269 -444 0
241 464 -333 -373 441 169 429 -427 485 158 85 471 0
 0
240 75 226 -403 414 -351 -189 58 489 -261 -433 0
-316 68 171 -357 259 0
444 -210 -434 245 -349 149 0
-362 -194 -197 -52 -341 285 -219 477 -222 -463 -25 0
 0
362 -194 341 -285 219 -477 222 -25 -186 31 -88 -340 407 71 -23 -356 95 253 -423 345 -5 -265 -300 0
 0
-146 66 160 436 107 35 -256 -290 -184 393 100 -277 -181 -128 -305 -193 -310 24 0
274 -417 214 -494 -412 -126 182 -3 465 54 235 39 -322 435 263 51 -296 -453 -225 272 -247 270 358 243 -421 337 162 273 -26 17 -292 110 166 -132 339 108 -139 -301 -47 -329 78 195 -397 -482 -55 424 0
-16 473 295 -323 116 111 -446 120 -431 -447 380 -41 64 492 -487 -275 -428 369 377 -229 0
-308 14 -144 -486 73 121 -497 227 -376 -425 298 -127 190 445 -199 460 409 -398 490 167 -220 378 152 331 258 385 -201 -10 12 69 224 233 -302 267 281 481 271 -11 56 223 -137 6 495 179 -145 -206 0
 0
 0
 0
-498 -157 -274 -177 417 304 -141 2 -214 204 374 -1 213 -352 115 -205 -494 412 -450 -50 248 126 -182 3 350 -168 -228 150 9 465 54 353 -235 39 322 -435 263 -51 296 -453 225 272 0
395 392 -346 0
498 -274 417 -304 -214 494 -412 -450 -50 -248 -126 182 0
362 -340 407 356 95 253 -423 345 -5 265 0
-466 -479 456 -383 216 -410 -318 -327 -101 326 15 -138 457 125 -388 82 413 368 -146 -66 0
274 -417 -214 494 -412 248 -126 -182 -3 9 -465 -54 353 235 -39 322 435 -263 51 296 -453 225 272 -247 270 0
-214 126 182 225 421 -110 -166 -301 47 -78 -397 -55 72 38 -42 262 13 -334 307 -328 0
-466 -479 383 -216 -318 327 -138 -82 -413 -368 -146 -66 160 -209 436 -107 -35 49 -366 -315 0
93 -391 458 22 -62 448 0
214 -126 -182 225 -110 166 47 78 -397 -55 -42 13 -307 0
 0
-129 411 -61 -221 -30 153 159 -29 402 80 -394 -212 46 -344 112 -33 -442 -103 -379 156 0
-240 351 -189 489 -433 -308 14 491 496 -134 -144 -474 -136 -123 486 -332 0
 0
-385 10 -137 6 -495 -179 -79 53 -37 -91 -330 148 0
 0
256 -100 -277 181 -128 -310 -319 -367 289 231 -260 268 282 364 -416 467 -294 -129 361 -237 0
216 146 -66 -160 209 436 -107 -35 49 366 -315 70 -256 290 -449 0
76 408 0
-441 169 429 427 485 -158 -85 471 -480 0
351 -489 433 -308 14 144 136 -486 332 73 -386 -121 497 -278 254 0
-214 -126 -182 225 421 110 -166 -108 -301 47 -78 -397 -55 72 -38 -42 -262 13 334 307 -328 0
351 -489 433 308 -14 -144 -486 73 -121 497 -278 -254 227 376 0
395 392 -451 476 399 230 0
-256 -100 277 181 -128 310 319 367 -405 289 -231 -260 0
 0
411 -30 153 159 -29 -402 -80 394 212 -46 -344 112 -33 -442 103 -379 -156 452 -309 437 239 -459 200 -287 251 86 -462 -191 59 -389 4 40 246 336 -311 -96 -347 -493 -19 -342 -321 478 -175 469 -140 185 0
274 -214 -126 -182 -225 421 -337 -26 -110 166 108 301 -47 329 78 397 -482 -55 424 34 0
-411 30 -153 -159 -29 -402 -80 394 212 -46 -344 -112 33 442 103 -379 156 -452 -309 -437 239 -459 200 287 -251 -86 -462 191 -59 389 4 40 246 -336 -311 96 0
-351 -489 -433 -308 14 144 486 -73 121 -497 -278 254 -227 -376 -425 298 127 190 445 -199 0
-308 -14 144 -121 -497 -376 127 -190 199 460 -409 398 490 -167 220 378 152 331 258 385 -201 10 -12 69 224 233 302 267 281 -481 -271 11 -56 -223 0
-277 -181 -319 -289 268 364 294 129 361 -237 411 -61 221 0
-286 -299 122 483 291 0
 0
498 470 -163 157 -274 177 119 118 0
 0
-437 459 -200 287 -86 -462 191 4 40 246 336 -311 96 347 -493 19 -342 321 -478 175 469 140 0
 0
274 -214 126 -182 -235 -225 421 337 26 -110 166 -108 301 47 329 -78 397 -482 55 -424 34 113 -72 38 -42 262 -13 334 -307 -328 0
-240 -403 414 351 -189 -489 -433 401 404 36 67 -143 -57 488 -438 276 -242 325 0
485 -158 -85 -471 -480 -151 354 -16 473 0
-385 10 6 53 37 -91 330 -148 -74 0
 0
498 -274 417 304 -214 -494 412 450 50 248 -126 182 -3 -350 -168 228 150 0
-30 -153 -159 402 394 -46 0
362 194 -341 285 219 477 -222 25 186 31 -88 0
48 117 -387 0
127 -398 -220 385 -10 -12 69 -224 -233 302 267 -281 481 271 -11 56 -223 0
274 -214 -126 182 -225 -421 -337 -26 -110 166 108 301 -47 329 78 397 -482 55 -424 34 -113 -72 -38 42 0
33 437 459 -200 -287 251 -86 462 191 -4 40 -246 -336 -311 -96 347 493 19 342 321 478 175 -469 140 0
362 -423 -5 -60 -93 -372 -420 0
-30 153 159 -402 -46 344 112 -33 -442 379 156 -309 -437 239 -459 -200 287 251 -86 0
483 -20 -45 498 -470 163 -157 297 274 -177 -119 -118 417 -198 304 141 -2 -214 204 374 -1 -213 -352 -115 0
-308 14 144 121 -497 -227 -376 -127 -190 445 199 -460 409 398 0
 0
392 -451 399 -230 -236 -360 -362 -207 43 194 -97 0
-422 444 -234 -210 -434 0
-240 -226 -403 414 351 -189 -58 489 -433 401 404 36 67 143 -57 0
111 -446 120 431 -447 -380 -41 64 -492 0
458 -461 -240 -75 -226 -348 -203 0
-240 351 -189 489 433 -308 -14 -491 496 -134 -144 474 136 -123 -486 332 -105 73 386 -121 -497 278 -254 227 -376 -425 298 0
-8 422 -232 -269 -444 -234 0
369 -377 229 -306 439 -215 -176 -142 -172 -180 114 -109 -395 455 -392 0
8 422 -232 -269 444 0
-485 -158 -85 -471 0
256 100 277 -181 128 -310 319 -367 405 289 231 -260 268 282 -364 416 -467 0
-362 -356 -253 423 345 -5 265 300 324 -60 187 94 381 -93 372 0
-214 126 182 225 -421 -110 166 108 -301 47 329 -78 397 -55 -424 -34 0
 0
-444 210 349 149 430 418 89 7 370 164 250 -147 241 -464 333 -373 441 169 -429 427 -485 0
65 161 365 -249 266 -252 0
-485 -158 -85 -471 -480 -151 -354 16 -473 295 323 -116 -111 -446 -120 431 -447 -380 -41 -64 492 -487 -275 0
415 -244 382 286 299 122 483 -291 -20 -45 183 0
127 398 -220 -385 -10 -69 -224 233 -302 267 281 481 271 11 -56 -223 -137 6 -495 -179 145 206 79 -53 0
308 -14 144 -121 -497 227 -376 298 -127 -190 445 -199 460 -409 -398 -490 -167 -220 -378 -152 331 0
 0
 0
274 -417 304 214 494 -412 450 50 -248 -126 182 -3 350 -228 9 465 -54 353 -235 39 -322 -435 263 51 296 453 -225 -272 -247 0
444 -349 149 -430 418 89 7 370 -164 -250 -147 -241 -464 0
466 -479 456 -383 -216 -318 -327 -326 138 125 82 0
-487 275 0
129 -411 61 221 -30 153 159 29 -402 -80 0
96 347 -493 -19 342 0
-308 -144 -121 497 -376 -127 190 199 -460 409 398 490 167 220 -152 0
33 156 -309 437 459 200 -287 251 86 462 -191 0
-240 414 -351 189 -489 -433 401 404 -36 488 -438 -325 -308 -288 -14 491 -496 170 -468 134 144 474 -136 0
-439 180 114 -395 455 392 -346 -133 -313 -451 -476 -399 -230 0
480 -151 -354 -16 473 295 -323 116 111 446 120 431 -447 380 -41 -64 -492 -487 275 0
-308 -14 -144 -486 -73 -121 497 227 376 425 -298 -127 190 -445 199 -460 -409 398 490 167 -220 378 0
-316 -68 -217 500 0
498 -157 -274 -177 -417 -304 141 2 -214 -204 374 0
-362 -194 -341 -285 -219 477 222 25 186 31 88 -340 0
308 144 121 -497 -376 127 -190 199 460 -409 398 490 167 -220 378 0
-362 -194 341 285 219 -477 222 -25 -186 -31 88 0
498 163 -157 274 177 -119 -118 -417 -198 304 -141 2 214 -204 374 1 213 -352 -115 -205 494 412 -450 -50 248 126 0
487 275 428 -369 377 229 0
-308 14 -144 486 73 121 497 -227 376 -425 298 127 -190 -445 -199 -460 409 398 490 -167 220 -378 -152 331 -258 385 -201 10 -12 69 -224 233 -302 -267 281 -481 271 -11 0
362 194 341 219 -477 25 186 -31 88 -340 0
 0
441 -169 -427 -485 158 -85 471 480 151 -354 -16 -473 295 323 116 -111 -446 -120 431 0
127 -398 -220 -385 -10 -69 -224 233 -302 -267 281 481 -271 0
437 -459 200 -287 -191 4 40 -311 96 -347 -493 19 342 321 0
93 -391 -458 -22 62 -448 0
-390 419 -293 -131 211 65 161 365 249 266 252 257 -135 -173 0
308 14 144 -121 -497 227 -376 -298 127 190 445 199 -460 -409 398 490 167 220 378 0
362 88 -340 -407 71 23 0
-308 -144 121 127 -199 -409 398 -490 -220 152 -331 -258 -385 -201 10 12 -69 224 233 -302 0
214 -126 -182 225 -421 -337 110 166 108 301 -47 -329 78 397 -55 -424 -34 113 -72 38 -42 262 13 -334 -307 -328 0
 0
-241 333 373 0
229 439 -180 -114 -109 395 -455 392 -346 133 313 451 -476 399 -230 236 102 -360 -264 0
 0
-362 194 -341 -285 219 477 222 25 186 31 -88 0
8 -422 -232 -269 444 234 -210 434 245 -349 149 0
-274 417 214 -494 412 126 182 -3 -465 235 -39 322 -435 -263 51 296 453 225 272 -247 -358 -243 -421 -337 162 -273 26 17 292 110 166 -132 -339 -108 139 301 47 329 -78 -195 397 -482 55 0
343 -174 317 338 90 283 466 -479 -456 -383 188 0
-274 214 -126 182 -235 -225 421 337 -26 -110 -166 -108 -301 47 329 -78 -195 -397 -482 55 -424 34 -113 72 38 42 -262 13 334 -307 -328 0
-316 -171 357 84 -87 -154 -384 0
-146 66 -35 -256 184 -100 -277 181 128 193 -310 24 363 319 367 405 289 231 260 268 -282 0
214 -126 182 225 421 -110 166 301 47 78 397 55 -38 -42 -13 334 -307 328 0
-478 175 469 140 -185 155 -92 -192 0
214 -126 182 225 421 -110 -166 108 -301 47 329 78 397 -55 -424 -113 -72 -38 42 -262 -13 334 -307 328 0
-316 68 217 -500 171 357 259 0
 0
-308 144 -121 127 -190 -199 -409 -398 490 220 152 -331 -258 -385 -201 10 12 69 224 233 302 267 281 -481 271 11 0
-169 427 -485 158 -85 471 0
 0
485 158 85 471 480 -151 354 -16 473 -295 -323 -116 111 446 120 -431 447 380 -41 -64 492 -487 -275 -428 -369 -377 -229 0
-33 -309 -437 459 -200 -287 251 -86 -462 -191 -59 389 4 40 -246 -336 311 0
-480 151 -354 16 473 -295 -323 0
316 68 -171 357 -259 -84 87 0
240 -226 403 -414 -351 -189 58 489 433 401 -404 0
229 -439 -172 180 -114 109 -395 455 392 -346 133 -313 451 476 -399 230 236 -102 360 -264 -362 207 -43 194 97 -284 -359 238 484 0
-390 419 -293 -131 0
-214 -126 182 225 -421 -110 166 301 -47 78 -397 55 -72 38 -42 -262 13 -334 307 328 0
466 479 -456 383 216 -318 -327 326 -138 125 -82 -413 -368 146 -66 0
-357 -8 -422 0
498 470 -163 157 274 177 119 118 417 198 304 -141 2 -214 -204 374 -1 213 352 0
274 214 412 126 -182 -465 -235 322 -435 -51 -225 -272 358 243 -421 -337 -162 -273 26 17 -292 110 -166 -132 -339 108 139 301 47 329 0
-444 349 149 430 -418 89 0
229 306 439 -215 176 -142 172 -180 114 109 -395 0
-351 -489 -433 308 -14 144 -486 73 121 -497 278 -254 227 376 425 -298 0
-144 127 199 -409 -398 490 -220 152 331 258 -385 -201 10 -12 -69 -224 -233 -302 -267 -281 481 0
240 -414 351 189 489 -433 -401 -404 36 -488 438 -276 325 -308 288 14 -491 496 -170 -468 134 144 -474 136 123 -486 332 105 -73 -386 -121 -497 278 -254 -227 376 -425 298 -127 0
335 -28 -312 -406 -130 77 475 -371 0
411 -221 30 153 159 -29 402 80 -394 -212 46 344 0
390 419 293 131 0
-127 -398 385 -10 224 233 302 -267 281 481 -271 11 0
 0
 0
-175 469 140 0
 0
-240 226 403 -414 351 189 58 489 -433 401 404 0
-274 417 214 -412 126 182 3 -465 235 -39 322 -435 263 -51 296 453 225 -272 247 358 243 421 337 162 273 -26 17 292 0
-286 -122 483 291 20 -45 183 -498 470 163 -157 297 274 -177 119 118 417 198 304 141 0
498 274 -417 -304 -214 -494 -412 450 -50 248 -126 182 -3 350 168 0
-385 10 -6 179 -79 -53 -37 91 -330 -148 74 -83 -343 174 -317 338 -90 -283 -466 479 -456 -383 188 -216 -410 -318 81 0
 0
390 -419 -293 131 211 65 161 -365 249 266 252 257 -135 -173 -415 244 0
437 459 -200 287 -191 40 0
216 146 66 -160 -436 107 35 49 366 -70 -256 -290 449 184 -393 -104 -100 355 165 277 -443 -181 128 0
398 -385 10 233 -302 267 271 -11 -56 223 137 -6 -495 -179 145 -206 79 -53 37 0
 0
351 489 433 308 14 -144 -486 -73 -121 497 -278 254 -227 376 425 298 -127 -190 445 -199 460 409 398 490 -167 -220 -378 -152 331 -258 385 201 10 -12 0
274 417 214 -494 -412 450 -50 248 -126 182 -3 -9 465 54 -353 -235 39 322 435 -263 51 296 453 225 272 0
-387 375 0
-240 414 -351 -189 -489 433 -401 404 36 -57 -488 438 -276 242 325 308 -288 -14 491 0
274 214 126 -182 -225 -421 337 -26 110 166 -108 301 47 -329 -78 -397 -482 -55 -424 -34 113 -72 -38 -42 -262 -13 -334 0
-83 0
274 -417 -214 -412 -126 182 465 235 -39 322 -435 -263 51 296 -453 -225 -272 358 243 421 337 162 -273 -26 -17 292 110 0
498 -157 274 -177 417 -304 2 -214 204 -1 213 -352 0
451 -399 -230 -360 -362 -207 194 97 -284 -359 -238 0
 0
 0
214 -126 -182 -225 421 110 -166 301 -47 -78 397 55 -72 38 -42 -262 13 -334 307 -328 0
274 -214 -126 182 -235 -225 -421 -337 26 -110 -166 -108 -301 -47 329 78 -195 397 482 -55 424 34 113 72 -38 0
-240 -75 226 -403 414 279 351 0
493 342 -321 0
-274 -214 412 -126 -182 -235 225 272 -421 -337 273 -26 17 -110 166 -108 -301 47 329 -78 195 397 -482 55 424 34 113 72 -38 42 -262 -13 -334 307 -328 0
274 214 412 -126 -182 465 235 -435 225 272 -421 337 162 -273 -26 -17 292 -110 166 132 339 -108 -139 301 47 329 78 195 397 -482 55 424 -34 -113 -72 38 42 0
312 0
485 -158 85 0
214 -126 182 -225 421 337 110 166 108 -301 47 329 -78 -397 55 424 -34 -113 -72 38 42 0
392 451 -399 -230 -236 102 360 -264 -362 207 43 194 97 0
 0
317 338 283 466 -479 456 -383 188 216 410 -318 -81 327 101 0
-362 194 -341 -219 477 25 186 31 -88 340 0
-441 169 -429 427 -485 158 -85 471 -480 151 354 -16 473 295 -323 116 -111 446 -120 431 -447 -380 -41 -64 492 487 275 -428 -369 -377 -229 -306 -439 -215 -176 142 -172 -180 -114 0
-437 -459 -200 287 191 -4 -40 -311 0
-362 -207 -194 -284 -238 484 -197 426 0
343 174 317 -338 -90 -283 -466 -479 0
-351 -489 -308 14 -144 -486 73 -121 -497 227 -376 425 298 -127 -190 445 0
 0
308 144 -121 497 -376 -127 -190 199 -460 409 398 490 -167 -220 378 -152 0
-92 192 0
362 -88 -340 407 71 23 -356 95 253 -423 0
-498 -157 274 417 -304 -2 -214 204 -1 -213 -352 115 205 -494 -412 -450 50 -248 126 182 -3 -350 168 -228 150 9 -465 -54 353 235 39 322 -435 0
-317 338 -283 -466 479 456 383 -188 -216 410 -318 81 327 -101 -326 -15 138 457 125 388 -82 413 368 146 0
161 365 249 -266 -252 257 135 173 415 0
317 338 -283 -466 -479 -456 383 188 216 -410 318 81 327 -101 326 -15 -138 457 125 388 -82 -413 -368 146 -66 160 0
485 158 85 471 -480 -151 354 16 473 -295 323 116 -111 0
-214 126 -182 -225 421 110 166 301 47 78 -397 55 72 38 -42 262 -13 334 307 -328 0
-229 306 -439 215 176 142 172 -180 114 109 395 0
-395 -392 -346 -133 -313 451 -476 399 230 -236 102 -360 -264 0
 0
