c Type 1: interval ordering (ordered), n=80, m=100
p cnf 80 100
 0
 0
19 3 0
-19 3 -1 -2 -9 0
-19 9 4 0
19 -9 -4 -7 0
19 -3 9 -4 7 0
19 -9 -4 7 0
-19 -3 9 -4 7 0
19 9 7 8 0
19 9 7 8 11 13 -10 0
-19 -11 -13 -10 0
-19 -13 14 0
-19 13 -14 0
19 -15 18 -17 -16 0
-19 15 -18 -17 16 0
19 -15 -18 17 16 0
-19 -18 -17 -16 0
 0
27 0
-19 -15 18 17 16 21 20 27 -23 0
27 -23 22 55 -31 0
-27 -23 -22 55 -31 32 -44 -25 -24 -26 0
-27 23 -55 31 -32 -44 25 -24 26 0
-27 -23 55 31 -32 -44 25 24 -26 28 0
-27 -23 55 31 32 -44 25 -24 -26 -28 -29 -30 33 46 -35 0
27 23 55 -31 -32 -44 25 24 -26 -28 -29 30 -33 46 -35 -64 0
27 -23 -55 -31 32 44 25 -24 26 -28 29 30 33 46 35 -64 53 38 -57 -45 61 50 0
-55 32 44 -33 -46 35 64 53 -38 57 -45 61 50 0
55 31 -32 -44 -30 -33 46 -35 64 -53 38 57 45 -61 -50 -37 0
-55 -31 -32 -44 -29 -30 33 46 -35 64 -53 38 57 45 61 50 -37 0
-27 -23 55 31 -32 -44 -25 -24 26 -28 29 30 33 46 -35 -64 53 38 57 -45 61 -50 37 34 40 0
55 44 46 -35 -64 53 38 57 -45 -61 -50 -37 -34 40 0
-55 -44 -33 -46 35 64 -53 -38 57 45 -61 50 -37 -34 -40 0
-55 31 -32 44 30 33 -46 35 -64 53 38 -57 -45 61 50 -37 34 40 -39 0
27 23 -55 -31 32 -44 -25 -24 26 -28 -29 -30 -33 -46 35 -64 53 38 -57 -45 -61 50 -37 -34 -40 39 41 0
-55 -44 46 35 64 -53 38 57 45 -61 -50 -37 -40 39 41 -42 0
55 -44 46 -35 64 -53 -38 57 45 61 -50 -37 -40 -39 -41 -42 0
-55 -44 -46 35 -64 -53 38 -57 -45 -61 -50 -37 -40 -39 41 -42 0
-55 -44 46 -35 64 -53 38 57 -45 -61 50 -37 -34 40 39 41 -42 0
55 -44 46 35 64 53 -38 57 45 61 50 -37 -40 39 41 42 66 -36 76 0
55 44 46 -35 64 53 38 -57 45 -61 -50 -37 -40 -39 -41 -42 -66 -36 76 0
55 -44 -46 64 -53 38 -57 -45 -61 50 37 -40 -39 -41 -42 -66 -36 76 65 0
-55 -44 -46 64 -53 38 -57 -45 -61 -50 -37 40 39 -41 42 -66 -36 -76 65 0
-55 44 -46 -64 53 -38 57 -45 61 -50 -37 40 39 -41 -42 66 36 76 65 0
55 -44 46 64 53 57 45 61 -50 -40 -39 41 42 66 -76 -65 -48 0
-55 44 46 -64 53 -57 45 -61 50 -41 42 -66 -76 65 -48 58 -43 -47 0
55 -44 -46 -64 -53 38 -57 45 -61 50 37 40 -39 -41 -42 -66 -36 -76 65 48 -58 -43 47 78 49 -54 0
55 -64 -53 57 -61 50 -66 76 -65 48 -58 -78 49 -54 -59 -60 51 0
55 64 53 57 61 -50 66 -76 -65 58 -78 -49 54 59 -60 51 0
55 64 -53 57 -61 -50 -66 76 -65 58 78 49 -54 59 60 -51 52 0
55 -64 53 -57 -61 50 -66 -76 -65 -58 78 -49 -54 -59 60 51 52 -56 0
55 64 53 57 61 50 66 76 -65 -48 -58 47 78 49 -54 59 60 -51 -52 56 63 0
-55 -64 53 57 61 -66 -76 65 -58 -78 54 59 -60 56 63 0
-55 -64 53 57 -61 -66 -76 65 -58 78 54 59 -60 -52 56 63 67 0
-55 -64 -53 -57 61 -66 -76 65 -58 78 -54 59 -60 -56 -63 -67 0
-55 -44 46 64 -53 -57 45 61 50 -66 -76 65 -48 -58 47 78 -49 -54 59 60 51 52 56 63 67 0
55 64 53 57 -61 66 76 65 -58 78 54 59 60 56 -63 -67 0
-64 -61 -66 76 -65 78 60 63 -67 0
64 -61 -66 76 -65 78 -60 63 -67 -62 0
-55 -64 53 57 -61 50 -66 76 65 -58 -78 -49 -54 59 -60 -51 52 56 63 -67 -62 0
64 61 -66 76 65 -78 -60 63 -67 62 -68 69 70 0
-64 -57 61 66 -76 65 58 -78 -59 60 -63 -67 62 -68 -69 -70 0
-64 -61 -66 -76 65 -58 78 59 -60 63 -67 62 -68 -69 -70 -72 75 -73 0
-66 -76 -78 -67 68 69 70 72 -75 73 -74 71 0
-55 64 53 -57 61 50 66 76 -65 58 78 -49 54 -59 -60 51 -52 -56 63 -67 -62 -68 -69 -70 72 75 73 -74 -71 0
-64 61 -66 76 65 -58 -78 -59 60 63 -67 62 68 -69 70 72 -75 -73 -74 -71 79 0
-76 78 -69 70 72 -75 -73 -74 71 79 0
-76 78 69 70 72 75 73 74 -71 79 77 0
-76 78 -75 79 -77 80 0
-78 -79 80 0
-79 -80 0
-80 0
76 -78 75 79 77 80 0
76 -78 -72 75 -73 -74 71 79 77 80 0
 0
78 -79 -77 80 0
 0
-66 -76 -65 -78 -67 68 -69 -70 72 -75 -73 -74 71 79 77 80 0
-76 78 75 -79 77 80 0
 0
78 79 -77 80 0
 0
-79 80 0
 0
 0
55 64 -53 57 -61 66 -76 -65 -58 78 -54 59 -60 56 63 67 -62 -68 -69 -70 -72 75 -73 74 71 79 77 80 0
 0
 0
64 -66 -76 -65 78 -63 67 -62 68 69 70 -72 75 -73 -74 -71 -79 77 -80 0
 0
 0
 0
64 57 61 -66 -76 65 58 -78 -59 -60 -63 -67 -62 68 -69 -70 72 -75 -73 74 71 -79 -77 -80 0
 0
 0
 0
79 80 0
 0
 0
