c Type 1: interval ordering (ordered), n=500, m=600
p cnf 500 600
-3 1 0
3 0
5 4 0
-5 0
-6 -7 0
7 -8 0
8 0
-10 -13 14 0
9 10 -13 14 11 0
13 -14 -25 -16 20 -12 -22 -24 0
13 14 25 16 20 22 24 -15 0
13 -14 25 16 -20 12 -22 -24 15 -26 0
-14 25 16 -20 -22 -24 15 -26 -30 0
13 -14 25 16 20 12 -22 24 -15 -26 30 0
-14 -25 -16 20 -22 24 -15 26 -30 0
-14 -25 16 -20 22 24 15 -26 30 -17 0
-14 25 16 -20 22 -24 -15 -26 -30 -17 -19 -18 0
25 -16 -20 22 24 -15 26 -30 -17 -19 -18 0
25 20 -22 -24 26 30 -17 -19 -18 21 0
-25 -20 -22 24 -26 -30 17 -19 -18 -21 23 0
25 24 26 30 28 0
-25 26 -30 28 -27 0
-30 31 -29 0
25 -24 26 30 28 27 -31 -29 0
-30 31 29 33 -43 -37 -32 -34 44 0
-33 43 -37 32 -34 44 0
-33 43 -37 -32 -34 -44 36 41 0
43 37 44 36 41 -49 -38 0
-43 -37 -44 36 -41 -49 -38 0
43 37 -44 36 -41 49 38 53 0
43 37 -44 -41 -49 -38 53 -62 -39 0
43 44 41 49 53 -62 -39 0
-43 37 -44 36 -41 -49 -38 -53 -35 -62 39 65 0
-43 44 -41 49 53 62 -65 -55 0
43 44 -41 49 -53 62 -65 -55 -42 -47 -40 0
43 -44 41 -49 -53 62 65 55 42 -47 -40 -45 -48 -46 0
43 44 41 -49 -53 -62 -65 -55 42 -47 -40 45 48 46 -76 -51 64 0
49 -53 62 65 55 -47 48 76 51 -64 52 0
-49 -53 62 -65 -55 48 76 -51 64 -52 -57 0
49 53 -62 -65 55 -47 45 -48 46 76 51 -64 52 57 -50 0
43 44 -49 53 -62 -65 55 42 -47 45 48 -46 -76 -51 -64 52 57 -50 54 0
53 62 65 55 76 64 -52 57 54 -67 63 71 0
53 -62 65 -55 -76 -64 -52 57 54 -67 -63 -71 75 83 97 -70 56 0
53 62 65 -55 76 -64 -52 -57 -54 67 63 71 -75 -83 -97 -70 -56 0
-53 -62 -65 55 -76 -51 64 52 -57 50 54 67 63 71 75 -83 97 70 -56 -61 -60 69 0
43 44 -41 49 -53 -62 65 55 42 -47 40 -45 48 -46 76 -51 -64 -52 -57 50 54 -67 -63 -71 -75 83 97 -70 56 61 60 -69 58 0
62 65 76 64 -67 63 -71 75 83 -97 -70 -69 -66 81 0
53 -62 -65 -55 76 -51 -64 52 -57 54 67 -63 -71 75 83 -97 -70 -56 61 60 69 58 -59 -66 -81 0
43 44 -41 49 53 -62 65 55 -42 47 40 45 48 46 76 51 64 52 57 -50 54 -67 63 -71 75 -83 -97 -70 -56 -61 -60 69 58 -59 -66 -81 0
-62 65 76 64 -67 63 71 75 83 -97 70 -69 -66 81 -117 0
-62 65 76 -64 57 -67 -63 71 75 83 97 70 -61 -60 69 58 59 66 -81 -117 0
-53 62 -65 -55 -76 -64 52 57 -54 67 63 -71 75 83 97 -70 -56 -61 60 69 -58 -59 66 -81 117 0
53 62 -65 -55 -76 -64 -52 -57 -54 -67 63 71 75 83 -97 -70 -56 61 -60 -69 58 59 66 -81 -117 0
49 53 62 65 -55 -47 48 -76 -51 64 -52 57 -50 54 67 63 71 75 -83 97 -70 56 61 60 -69 58 -59 66 -81 -117 0
62 -65 -76 -64 -67 -63 71 -75 -83 97 -70 -69 66 -81 117 0
53 62 65 -55 76 -64 -52 57 54 67 -63 71 -75 83 -97 70 56 -61 -60 69 -58 59 -66 81 117 0
62 -65 76 64 -67 -63 -71 75 83 97 -70 -61 -60 69 -59 66 -81 117 -72 0
-76 -71 75 83 -97 -70 -69 -81 -117 72 -73 -68 -77 0
62 65 -76 64 57 -67 -63 -71 75 83 -97 -70 61 -60 69 -58 -59 66 81 -117 72 73 68 -77 0
76 -67 -71 -75 83 97 -70 69 -81 -117 -72 73 68 -77 0
76 -71 -75 -83 97 -70 69 -81 -117 -72 -73 -68 77 -79 0
-76 -71 -75 -83 97 -70 69 81 117 72 -73 -68 77 -79 94 80 0
-76 -71 -75 -83 -97 -70 69 -81 117 72 -73 -68 -77 -79 -94 -80 -103 -78 0
76 -75 83 -97 81 -117 -73 -77 79 94 -80 -103 -78 0
-76 71 -75 -83 97 70 81 117 -72 73 77 -79 94 80 -103 -78 74 0
-76 71 75 83 97 70 -69 -81 -117 72 -73 68 -77 -79 94 -80 103 -78 -74 0
76 71 75 -83 97 70 -69 -81 -117 -72 -73 68 77 79 94 -80 103 -78 -74 0
-76 75 83 -97 81 -117 -73 77 -79 94 80 -103 78 74 0
76 75 -83 -97 -81 -117 77 -79 94 -80 -103 78 0
-76 -71 75 83 -97 -70 69 81 -117 72 73 -68 -77 79 -94 -80 -103 -78 -74 0
-83 -97 -81 117 79 94 80 103 0
83 97 81 117 79 94 -80 103 -88 0
83 -97 -81 117 -94 103 -88 0
83 97 -117 94 103 -88 82 0
76 -75 83 -97 81 -117 73 77 79 -94 80 -103 -78 -74 88 82 -85 -90 0
83 97 117 94 -103 88 82 85 90 0
83 97 117 -94 -103 88 -82 -85 -90 0
-83 -97 -117 94 -103 -88 -82 85 -90 0
97 117 94 -103 -88 -85 -90 0
83 97 -81 -117 77 79 94 80 103 -78 88 -82 -85 -90 -92 -84 0
83 97 117 94 103 -88 82 85 -90 -92 -84 0
97 117 -94 -103 -88 -85 90 92 -84 0
83 -97 81 -117 79 94 80 103 88 82 -85 90 92 84 -157 0
-97 -117 94 -103 88 -85 90 92 -84 -157 -86 87 108 100 -89 0
-97 -117 94 103 -88 90 -92 157 86 87 -108 100 89 178 118 0
-97 117 -94 103 -88 90 -92 -157 -108 -100 -89 -178 -118 -96 109 -113 -95 0
97 117 -94 -103 -88 -90 92 -157 -108 -100 -89 178 -118 96 109 113 95 91 -105 93 0
97 -117 94 -103 -88 90 92 -157 -87 -108 100 -89 -178 118 96 -109 -113 -95 91 105 -93 0
97 117 94 103 -90 -92 -157 108 100 89 178 118 -96 109 113 95 -91 105 93 110 0
-97 -117 94 103 -88 -90 -92 157 -108 -100 89 178 118 96 -109 113 95 91 105 -93 -110 -99 116 144 0
-97 -117 94 103 90 -92 157 -108 -100 -89 -178 118 96 -109 113 -95 -91 105 93 110 99 -116 -144 0
97 -117 94 103 88 90 -92 157 86 87 -108 100 -89 178 -118 96 -109 113 -95 91 -105 93 110 99 116 144 0
97 117 -94 -103 88 90 -92 157 -108 100 -89 178 -118 -96 -109 113 95 91 105 -93 -110 -99 -116 144 -98 101 0
97 117 -94 103 157 -108 100 178 -118 96 -109 113 -95 105 -110 99 116 144 98 101 0
97 117 -103 157 108 -100 -178 -118 96 -109 113 105 110 99 116 -144 98 101 102 104 0
-117 103 -157 -108 -100 -178 118 -109 113 -105 110 -99 116 144 -98 101 -102 -104 0
97 -117 -94 103 -88 90 -92 -157 108 -100 89 -178 -118 -96 109 -113 -95 -91 105 -93 -110 -99 -116 144 -98 101 -102 104 0
-97 -117 94 -103 -88 90 -92 157 108 100 -89 -178 118 96 -109 113 95 91 -105 93 -110 99 116 -144 98 -101 -102 104 111 0
97 -117 94 103 -157 -108 100 178 118 -96 109 113 -95 105 93 -110 99 -116 -144 98 101 -102 -104 111 -120 0
117 103 157 -108 -100 -178 118 109 -113 -105 110 -99 116 144 -101 -102 104 111 120 -115 -106 107 0
-97 -117 -103 -157 -108 -100 -178 118 109 113 -105 -110 99 -116 144 -98 101 102 -104 111 120 -115 106 107 -129 0
-117 -157 -108 178 -118 -109 -113 -105 110 116 144 104 -111 -120 -115 -106 -107 -129 0
-117 103 -157 108 178 118 109 113 -105 -110 116 144 104 111 -120 -115 -106 -107 129 0
117 -103 157 108 100 -178 118 109 -113 -105 110 -99 116 -144 -101 -102 -104 -111 -120 -115 -106 -107 129 130 0
-117 157 108 -178 118 -109 -113 105 -110 116 144 104 -111 120 115 106 -107 129 -130 0
-117 -103 157 -108 178 118 -109 113 -105 110 116 144 -102 104 111 -120 115 -106 -107 -129 130 0
-117 157 -108 -178 -118 -109 113 -110 116 -144 -111 120 -115 -106 107 -129 -130 0
-117 -157 -108 178 118 109 113 105 -110 116 144 -104 111 120 115 106 107 -129 130 0
-97 -117 -94 -103 88 90 -92 157 108 100 -89 -178 -118 -96 109 113 -95 91 -105 93 110 99 116 144 98 101 -102 104 111 120 115 -106 -107 -129 130 -119 0
-117 157 -178 118 -109 113 110 116 144 -111 -120 -115 129 -130 -119 0
117 -157 108 -178 118 109 113 110 116 144 111 120 115 -129 -130 -119 138 160 -112 -121 -122 -153 0
117 157 178 118 -109 -113 -110 -116 144 -111 120 -115 -129 130 119 -138 -160 112 -121 122 -153 137 0
-117 -157 108 -178 -118 109 -113 -110 116 -144 111 -120 115 129 130 -119 138 -160 112 -121 122 -153 137 114 0
117 157 -178 118 113 116 -144 120 -115 129 -130 119 138 160 -121 -122 153 -137 -114 0
-117 -157 -108 -178 118 109 -113 110 -116 144 111 -120 115 -129 -130 119 138 160 -112 -121 -122 153 137 114 -128 0
-117 157 -178 -118 116 144 -120 115 -129 -130 -119 138 160 121 122 153 -137 128 -125 123 -124 0
117 -157 178 -118 -116 144 -120 115 -129 130 -119 -138 160 -121 122 153 -137 -128 -125 -123 -124 0
117 157 -178 -118 116 144 -120 -115 129 -130 119 -138 160 121 122 153 137 128 -125 -123 -124 0
-117 -157 -178 118 116 144 -120 -115 -129 130 -119 138 160 -121 122 -153 137 128 -125 123 -124 126 171 150 0
117 -157 178 -118 -116 -144 -120 -115 -129 130 119 -138 -160 -121 -122 -153 137 128 125 123 124 -126 171 150 0
-157 -178 -144 129 130 -138 160 153 -137 128 125 -126 171 150 139 135 -151 136 134 127 0
157 178 -144 -129 -130 138 160 -153 -137 -128 126 -171 -150 139 -135 151 136 -134 -127 161 187 132 142 0
157 178 144 -129 130 138 -160 -121 -122 153 137 -128 -125 123 124 126 -171 -150 139 135 151 136 134 127 -161 187 -132 142 -152 149 0
-117 -157 178 118 -113 110 -116 -144 111 -120 -115 129 130 119 -138 160 112 -121 -122 153 137 114 128 -125 -123 124 126 -171 150 139 -135 151 136 134 -127 -161 -187 -132 142 152 149 0
-157 -178 -144 129 -130 -138 160 -153 137 128 125 123 -124 126 -171 -150 139 135 -151 136 134 -127 161 -187 132 142 -152 -149 0
157 178 -144 129 -130 -138 160 153 137 -128 171 -150 139 -135 151 -136 134 127 -161 187 -132 -142 -152 149 0
157 -178 144 -129 130 138 160 -153 137 128 -171 -150 139 135 151 136 134 161 -187 -132 -142 -152 -149 176 0
-157 178 144 -129 -130 -138 -160 153 137 128 -171 150 139 135 151 136 -134 -127 161 187 132 142 -152 149 -176 133 -131 0
-157 178 -144 138 -160 153 137 -171 150 139 -135 -151 -136 -134 -161 -187 132 142 152 -149 176 -133 -131 -143 189 0
157 -178 -144 -138 160 -153 137 -171 -150 139 -135 151 -136 134 -161 187 -132 -142 152 149 176 133 -131 -143 189 0
-157 -178 -144 -138 -160 -153 137 171 150 -139 -135 -151 136 -134 -161 187 -132 -142 152 -149 -176 -133 131 -143 -189 0
-157 178 144 129 130 -138 160 -121 -122 -153 137 128 125 123 -124 126 -171 150 -139 135 -151 136 -134 -127 161 -187 -132 142 152 149 176 -133 -131 -143 189 0
157 178 144 -138 -160 -153 137 -171 -150 139 -135 -151 136 -134 161 -187 132 142 -152 149 176 133 131 -143 -189 0
-157 178 -144 -129 130 -138 -160 -153 137 -128 126 171 150 139 -135 -151 -136 -134 -127 161 187 132 -142 -152 149 176 -133 131 143 189 0
-157 -178 -144 -138 160 -153 137 171 150 -139 -135 151 136 134 -161 -187 142 -152 149 176 -143 189 156 -141 0
-157 178 -144 -138 -160 153 171 -150 139 -151 -161 187 142 152 -149 176 143 -189 -156 141 -140 0
-157 -178 144 -138 -160 -153 -137 -171 150 139 135 151 -136 -161 187 142 -152 149 176 143 -189 -156 141 -140 0
157 -178 144 138 160 153 137 171 -150 -139 135 151 -136 161 187 142 152 -149 -176 -143 -189 -156 141 -140 -170 0
-157 178 144 160 153 -171 150 -151 161 -187 -142 -152 -149 -176 143 189 156 141 170 0
157 178 144 138 160 -153 137 -171 -150 -139 151 -136 161 -187 -142 -152 149 -176 -143 189 156 141 -140 170 -147 -146 154 0
-157 178 -144 138 -160 -153 -171 -150 -139 151 161 187 142 152 -149 176 -143 189 -156 141 140 -170 -147 -146 154 0
-157 178 -160 153 171 -150 -151 161 -187 152 149 176 189 156 -170 147 146 154 -145 0
157 178 -144 -138 160 153 -137 -171 -150 -139 -135 151 -136 -161 187 142 152 149 -176 -143 189 -156 -141 140 -170 147 146 -154 145 -148 -199 165 0
-157 -178 144 -138 -160 -153 137 -171 -150 -139 -135 151 136 134 -161 187 142 -152 149 -176 -143 -189 156 141 -140 -170 -147 -146 -154 -145 -148 199 -165 0
157 -178 -144 160 -153 -171 150 151 -161 -187 142 -152 149 176 143 -189 156 -170 147 -146 -154 145 -148 199 165 164 0
157 -178 144 -138 -160 -153 137 171 -150 -139 135 -151 -136 -161 187 -142 -152 149 -176 -143 189 -156 -141 -140 -170 -147 146 154 -145 -148 -199 -165 164 0
-157 -178 -144 138 160 -153 171 -150 -139 -151 -161 187 -142 -152 -149 176 -143 -189 -156 -141 -140 -170 147 146 154 145 -148 -199 -165 -164 0
-157 178 -144 -138 160 153 -137 171 -150 -139 135 151 136 -134 -161 187 132 -142 152 -149 -176 133 -131 143 -189 -156 -141 -140 170 -147 -146 154 145 148 -199 -165 -164 -158 155 0
157 -178 -144 138 -160 -153 171 150 139 -151 161 187 142 152 -149 -176 -143 -189 156 141 -140 -170 -147 -146 154 -145 148 -199 -165 164 -158 -155 0
157 -178 160 153 171 -150 -151 161 -187 -152 -149 176 -189 156 -170 -154 148 199 -165 -164 -158 155 -159 -166 162 0
-157 -178 144 -160 153 171 150 151 -161 187 152 -149 -176 143 189 156 170 -147 146 154 -145 148 -199 -165 -164 158 -155 -159 -166 -162 0
-157 -178 160 -153 171 -150 -151 -161 187 152 149 -176 -189 156 170 -154 -148 -199 165 -164 158 -155 -159 166 -162 0
-157 178 -144 160 153 -171 -150 139 -151 -161 -187 142 -152 -149 -176 143 189 -156 -141 -140 -170 147 146 154 -145 148 199 -165 -164 158 -155 -159 166 -162 177 167 0
157 -178 160 153 -171 150 151 -161 -187 152 149 176 -189 156 170 -147 -154 148 -199 165 -164 158 155 159 166 162 177 -167 -163 0
-157 -178 160 171 161 -187 -176 -189 -156 170 -154 -199 -165 -164 158 -155 159 166 162 -177 167 -163 169 174 168 -193 0
-157 -178 144 -138 -160 -153 -137 171 -150 -139 -135 -151 -136 -134 -161 -187 -142 -152 149 176 -143 -189 -156 141 140 170 147 -146 154 -145 -148 -199 165 164 158 155 -159 -166 162 177 167 -163 169 174 168 -193 -173 0
-178 171 -187 -176 189 170 199 165 -164 166 162 -177 167 -163 -169 -174 168 193 -173 -186 190 0
157 178 160 153 -171 161 -187 -176 -189 -156 170 154 -199 165 164 -158 -155 159 -166 162 177 167 163 -169 -174 168 -193 173 -186 -190 -197 0
-157 178 -144 -138 -160 -153 -171 -150 -139 151 161 187 142 152 149 176 -143 189 -156 -141 -140 -170 -147 146 -154 -145 -148 199 165 164 -158 -155 159 -166 162 -177 167 -163 169 174 168 -193 -173 -186 190 197 -172 0
-157 -178 144 138 -160 -153 137 -171 150 139 -135 -151 136 -134 161 -187 132 -142 -152 -149 -176 -133 131 143 -189 156 141 -140 -170 -147 146 -154 145 -148 -199 165 -164 -158 -155 -159 166 -162 177 167 163 -169 174 -168 -193 173 186 190 197 172 191 -175 0
157 -178 144 -160 153 171 150 -139 -151 -161 -187 142 152 149 176 -143 189 156 141 140 170 -147 146 154 145 -148 199 165 -164 158 155 -159 -166 -162 -177 167 163 169 -174 -168 -193 -173 -186 -190 -197 172 191 175 0
-157 -178 -160 -153 171 -161 187 -152 -176 -189 -156 170 -154 199 -165 -164 -158 155 -159 -166 162 177 167 163 -169 174 -168 193 173 186 190 197 -172 -191 175 -181 0
-157 178 -144 -138 160 153 -137 -171 -150 139 135 151 -136 -161 187 -142 152 149 -176 143 -189 -156 141 -140 -170 147 -146 -154 -145 -148 199 -165 164 -158 155 159 166 162 177 -167 163 169 174 168 193 173 -186 190 -197 -172 -191 175 181 0
-178 -171 -187 -176 189 199 -177 174 -193 173 186 -190 197 -172 -191 175 181 -180 0
-178 -171 187 -176 -189 199 177 -174 193 173 186 -190 197 172 -191 -175 181 -180 182 0
178 -187 -176 189 199 177 -174 -193 186 -190 -197 -191 -175 -181 180 -182 0
178 -171 -187 -176 189 -170 -199 177 -169 174 -193 173 186 -190 -197 172 -191 -175 -181 -180 182 0
-157 -178 -160 153 -171 161 -187 152 -176 -189 156 -170 -154 199 -165 -164 158 155 -159 -166 162 177 -167 -163 -169 -174 -168 -193 173 -186 190 -197 172 191 175 -181 -180 -182 0
-178 -187 -176 -189 199 -177 -193 186 190 197 191 -181 -180 -182 0
-178 171 -161 -187 176 -189 -170 199 165 -164 -166 -162 -177 -167 163 -169 -174 -168 193 -173 -186 -190 -197 172 191 -175 181 180 182 0
178 187 -176 189 199 -177 174 193 -186 -190 197 -191 175 181 -180 -182 179 0
-178 -187 -176 189 -199 177 -174 -193 -186 190 -197 -191 175 -181 -180 -182 -179 183 0
-178 171 -187 -176 -189 -199 177 174 -193 173 186 190 -197 -172 191 -175 -181 -180 182 -179 183 0
178 187 189 -199 177 193 186 190 -197 -191 -181 -180 -182 -179 -183 184 0
-187 189 199 -193 -186 190 197 191 181 180 182 183 -184 0
-187 189 199 -193 186 -190 -197 -191 181 -180 182 183 184 198 0
187 189 -199 193 -186 190 -197 191 182 -183 -184 198 0
187 -189 -199 193 -186 -190 -197 191 182 183 -184 198 201 0
187 189 199 -193 186 -190 197 191 -181 182 -183 -184 -198 201 0
-187 189 -199 -193 -186 190 -197 191 182 -183 184 -198 -201 -188 0
-189 199 -193 190 -197 191 198 201 210 -196 -192 0
-199 193 -190 197 191 -198 -201 210 -196 192 -194 0
-199 -198 201 -210 -203 -200 -208 -204 0
-199 197 -198 -201 210 196 195 203 200 -208 204 0
-187 189 -199 -193 186 190 197 191 182 183 -184 198 -201 188 -185 210 196 -192 194 -195 -203 -200 -208 204 202 -205 0
199 197 -198 -201 -210 -196 -194 195 203 -200 -208 204 202 205 0
-199 197 198 201 210 196 -195 -203 200 -208 204 202 -205 0
-201 -210 203 -208 204 202 205 0
-210 -203 208 -204 -202 205 207 -206 0
199 198 201 -210 -203 200 -208 -204 -202 -205 -207 206 0
199 197 198 -201 -210 196 195 203 200 208 204 -202 -205 207 206 0
199 197 198 201 -210 196 194 195 203 200 208 204 202 -205 -207 206 0
210 -208 209 0
201 -210 -203 200 208 -204 202 205 -207 206 -209 0
-199 -197 198 -201 210 -196 -194 195 -203 -200 208 204 202 -205 -207 -206 209 0
-199 198 -201 210 203 200 -208 -204 -202 -205 -207 206 209 0
-211 -212 -235 213 0
199 -198 201 -210 203 200 208 204 -202 -205 207 -206 209 211 212 235 -213 -214 0
-199 198 -201 210 203 -200 208 204 -202 205 207 206 -209 -211 -212 235 -213 -214 0
-210 208 -205 207 206 -209 211 212 -235 213 214 -216 0
211 -212 -235 -213 214 216 -220 -215 0
-212 235 213 214 216 -220 215 0
-235 -220 0
-235 216 220 -215 217 0
235 -214 216 220 215 -217 -219 218 -223 0
-235 214 -216 220 -215 -217 219 -218 -223 -243 0
235 -216 -220 -215 217 -219 -218 223 -243 0
210 211 -212 -235 213 214 -216 220 215 -217 219 218 223 -243 -229 228 0
-210 -209 211 212 235 -213 214 216 -220 -215 217 219 218 223 243 229 -228 -221 0
-211 212 -235 213 214 -216 -220 215 -217 -219 218 223 -243 -229 -228 -221 0
235 223 -243 -229 228 -221 -222 0
-235 220 217 -219 218 223 -243 -229 228 -221 -222 0
235 -220 223 -243 -229 228 -221 222 -225 0
-235 214 -216 -220 -215 -217 -219 218 223 -243 -229 -228 221 222 225 0
-235 223 243 229 -228 -225 232 0
235 -243 229 228 -225 -232 224 226 230 233 227 -234 -240 0
235 -223 -243 -229 228 225 232 -224 -226 -230 233 227 234 -240 0
235 -223 243 -229 -228 221 222 -225 -232 -224 -226 230 -233 227 -234 -240 0
235 -220 -223 -243 229 228 -221 222 -225 -232 224 -226 -230 233 227 -234 -240 237 231 238 0
-235 -216 -220 -215 -217 219 -218 -223 243 -229 -228 221 -222 225 -232 224 -226 230 233 227 234 240 237 231 -238 0
235 -243 -232 -230 -233 -234 -240 237 231 238 0
-235 243 232 -230 233 234 -240 -237 -231 238 0
-235 243 -229 -228 -232 -230 -233 -227 -234 -240 -237 -231 -238 0
235 -243 232 230 -233 -234 -240 -237 -231 -238 -244 241 -236 0
-235 -220 217 -219 -218 223 -243 229 -228 -221 222 -225 232 224 226 -230 -233 -227 -234 240 -237 231 238 244 -241 -236 -242 0
243 240 244 -241 -242 245 -239 0
243 240 238 -244 241 242 245 239 0
-235 -223 243 -229 228 221 -222 -225 -232 -224 -226 -230 233 227 -234 240 -237 231 -238 -244 241 236 -242 245 -239 0
-243 240 -237 -238 -244 241 -236 -242 245 239 0
235 223 243 -229 228 -225 232 -224 226 -230 233 227 234 -240 237 -231 238 244 -241 236 -242 245 -239 0
-235 243 -232 233 234 -240 237 238 -244 241 -236 242 -245 -239 0
243 240 -237 -238 244 -241 -236 -242 -245 239 0
235 243 -232 233 -234 -240 -237 238 244 241 236 242 245 239 0
-235 -243 -232 -230 233 234 -240 237 -231 238 -244 -241 -236 -242 245 239 -246 247 248 0
-243 -240 237 238 244 -241 236 242 -245 239 246 247 -248 0
243 240 237 -238 244 241 -236 242 245 239 246 -247 -248 0
-248 249 0
-243 -240 244 -241 242 -245 -246 247 248 -249 -250 0
243 240 244 241 -242 -245 239 -246 -247 248 -249 250 0
244 -245 246 -247 -248 249 250 -260 0
-247 248 249 -250 260 253 251 252 0
248 -249 250 -260 253 -251 252 258 -256 0
-235 -223 -243 -229 228 -221 -222 225 232 -224 226 -230 233 227 -234 240 237 231 238 244 241 -236 -242 245 239 246 247 248 -249 -250 -260 -253 251 252 -258 256 254 -263 255 0
-248 249 -250 -260 -253 251 252 -258 -256 254 -263 -255 0
260 -253 -258 256 254 263 -255 -257 0
-260 -253 -252 258 -256 -254 263 255 -257 0
-235 -223 -243 229 228 221 -222 225 -232 224 226 230 -233 -227 234 240 237 -231 238 -244 241 236 -242 245 -239 -246 -247 -248 -249 -250 260 253 -251 -252 258 256 254 263 -255 -257 275 0
-250 -260 253 -251 252 258 -256 -254 -263 -255 257 -275 -259 -267 265 0
243 -240 237 238 -244 241 242 245 -239 -246 247 248 249 -250 -260 253 251 -252 258 -256 -254 -263 -255 -257 -275 259 267 265 0
-260 -253 258 -256 254 263 255 -257 -275 -259 -267 265 -264 0
-260 258 -263 -257 -275 259 267 -265 -264 0
-260 -253 -258 -256 -254 -263 -255 257 -275 259 -267 -265 -264 261 -272 268 262 0
260 -258 -256 263 257 -275 -259 -267 265 -264 -261 272 268 -262 -266 -287 0
-260 -258 263 -275 259 267 -265 -264 261 -272 -268 -262 266 287 273 -270 278 -271 -274 0
260 -258 256 -263 255 -257 275 -259 267 265 -264 261 272 268 262 266 287 273 270 278 271 274 0
260 -258 263 257 275 -259 267 265 -264 -261 -272 268 -262 -266 -287 -273 270 -278 -271 -274 0
-243 240 -244 -241 -242 -245 -239 -246 247 -248 -249 250 260 253 -251 252 258 256 254 263 255 -257 275 259 -267 -265 264 261 272 -268 262 266 287 273 -270 278 271 274 0
275 272 268 287 -273 -270 278 -271 -274 280 -289 269 -290 -279 -293 291 0
275 267 272 268 -287 273 270 -278 271 -274 -280 289 -269 -290 -279 293 291 0
-275 272 287 273 270 278 -271 -274 280 289 -290 -279 293 -291 0
275 267 272 -268 287 -273 -270 -278 -271 -274 -280 289 -269 290 279 293 -291 277 281 -284 0
-275 272 287 -273 270 278 271 274 -280 -289 269 -290 279 293 -291 -277 281 284 -276 0
275 -287 -273 -278 -274 -280 -289 -290 -279 -293 -291 277 -281 -284 276 0
263 275 267 -265 -264 272 268 266 -287 -273 -270 -278 271 274 280 -289 269 -290 279 293 -291 -277 -281 284 -276 -286 0
-235 -243 -229 228 -225 232 -224 -226 -230 -233 227 -234 240 237 231 -238 244 -241 236 -242 245 239 246 247 248 249 250 -260 253 -251 -252 -258 256 254 263 -255 257 275 259 -267 265 264 261 -272 268 -262 -266 -287 273 270 278 -271 274 280 -289 269 290 -279 293 -291 -277 281 -284 276 -286 295 -282 -288 0
275 -272 -287 -273 278 271 -274 -280 289 -290 279 293 -291 277 281 -284 -276 -286 -295 282 -288 -285 0
287 -289 -290 -293 291 284 286 -295 -282 -288 285 -283 292 308 312 -307 297 0
-275 -272 -287 -273 -270 278 -271 -274 280 -289 269 -290 -279 -293 -291 -277 -281 284 -276 -286 295 -282 -288 285 -283 292 308 312 -307 297 -294 -296 298 0
260 -258 263 -275 -259 267 -265 264 -261 272 -268 -262 -266 -287 273 -270 -278 271 274 -280 289 269 -290 279 293 291 277 281 -284 -276 -286 -295 -282 288 285 -283 -292 -308 312 -307 -297 294 296 -298 -318 300 0
243 240 244 -241 242 245 -239 246 -247 248 -249 250 -260 -253 251 -252 -258 256 -254 -263 -255 257 -275 -259 267 -265 264 -261 272 -268 -262 -266 287 273 270 278 271 -274 280 289 269 290 279 293 291 -277 -281 284 -276 -286 -295 282 -288 -285 -283 -292 -308 -312 -307 297 -294 296 298 318 -300 304 0
-293 291 -295 292 -308 -312 307 297 -294 296 -298 -318 -300 304 -306 305 0
260 258 256 -254 263 255 257 -275 -259 267 265 264 261 -272 -268 262 -266 287 -273 270 -278 271 -274 -280 289 -269 -290 -279 293 291 -277 -281 284 276 286 -295 -282 288 -285 -283 -292 308 -312 -307 297 -294 -296 -298 -318 -300 304 -306 305 0
-260 258 -256 -263 255 -257 275 -259 -267 265 264 261 -272 268 262 -266 -287 273 -270 -278 -271 274 -280 289 269 290 279 -293 291 -277 281 -284 276 -286 -295 -282 288 -285 283 292 308 -312 -307 -297 -294 -296 298 318 -300 -304 -306 -305 -314 299 0
260 -263 -275 -259 267 -265 -264 261 -272 -268 -262 -266 287 -273 -270 278 -271 274 -280 289 -269 -290 279 293 -291 -277 -281 284 -276 -286 -295 -282 288 -285 -283 -292 -308 312 -307 -297 -294 -296 298 -318 300 304 -306 -305 -314 -299 0
-275 287 278 -280 -289 290 279 293 291 -277 -281 284 -276 286 295 -282 288 285 283 292 308 -312 307 -297 -294 296 298 -318 -300 304 306 305 314 -299 302 0
308 312 -307 318 -300 304 306 305 -314 299 302 0
275 272 -287 -273 -270 -278 -271 274 280 289 -290 279 293 -291 277 281 284 276 286 -295 -282 -288 -285 -283 292 -308 312 -307 297 294 296 298 318 -300 -304 306 305 314 299 302 0
-308 -312 -307 297 -298 318 300 304 -306 -305 314 299 -302 0
-287 289 290 -293 291 -295 -288 292 -308 312 -307 297 294 -296 -298 -318 300 304 306 305 -314 -299 -302 -313 0
287 289 -290 -293 -291 -284 286 295 -288 -285 283 292 -308 -312 307 -297 -294 296 -298 -318 -300 -304 306 305 314 -299 -302 -313 303 -301 0
293 291 295 -292 308 312 307 297 294 296 -298 318 -300 -304 -306 -305 -314 299 -302 -313 -303 -301 0
-312 -318 314 313 -311 -316 310 -315 0
312 -318 314 -313 311 -316 -315 -317 0
308 -312 -318 314 -313 311 -309 -316 -310 315 317 320 -331 0
312 318 -314 313 311 -316 -310 -315 317 320 331 -325 0
318 316 315 -317 -320 331 -325 -321 -319 -328 0
-320 -331 -325 -321 -328 0
-308 -312 -318 314 -313 -311 -309 -316 -310 -315 317 -320 -331 -325 321 319 328 322 0
-308 312 -307 -318 300 -304 -306 -305 314 -299 -302 313 303 301 311 -309 316 310 315 -317 320 -331 -325 -321 319 -328 -322 0
-308 312 307 318 -300 -304 -306 -305 -314 299 302 -313 -303 301 -311 309 316 310 -315 -317 320 331 -325 -321 319 -328 -322 0
308 -312 307 -297 -298 318 300 304 306 305 314 299 302 313 -303 -301 -311 309 316 -310 -315 317 320 -331 325 -321 -319 328 322 0
-260 -253 -258 256 254 -263 255 -257 275 -259 267 -265 -264 -261 -272 268 -262 -266 -287 273 -270 -278 271 -274 280 289 -269 -290 279 -293 -291 277 281 284 -276 286 -295 282 288 -285 -283 292 -308 -312 307 -297 -294 -296 -298 318 -300 304 -306 -305 -314 -299 302 313 -303 -301 311 309 316 310 -315 317 -320 331 -325 -321 319 328 322 323 0
-260 258 -256 -263 -257 275 -259 -267 265 -264 -261 272 268 -262 266 287 273 -270 -278 271 274 280 -289 -269 -290 279 -293 291 -277 -281 284 -276 -286 -295 -282 -288 285 283 -292 308 -312 -307 -297 -294 -296 -298 318 -300 -304 306 305 -314 -299 -302 313 -303 301 311 309 316 -310 315 317 -320 -331 -325 321 -319 328 -322 323 -330 324 0
-331 325 -328 322 -323 -330 -324 0
318 317 320 331 -325 321 -319 328 322 323 -330 324 -332 -326 0
263 275 267 265 264 261 272 268 -262 266 -287 -273 270 278 -271 -274 280 289 -269 290 279 293 291 -277 -281 284 -276 -286 295 282 -288 285 283 -292 -308 312 -307 297 294 -296 -298 318 300 304 306 -305 314 -299 302 313 303 301 -311 -309 -316 310 315 -317 -320 -331 -325 -321 -319 -328 -322 -323 -330 -324 332 326 0
331 325 -328 -322 323 330 -324 332 -326 0
-275 272 268 -287 273 270 278 -271 -274 280 289 -269 290 -279 -293 291 277 -281 284 276 -286 295 -282 288 285 283 292 -308 -312 307 -297 -294 -296 298 318 300 -304 -306 305 -314 299 -302 313 -303 301 -311 -309 316 -310 -315 -317 -320 331 325 -321 319 328 322 -323 -330 324 -332 -326 329 -327 0
-318 -317 -320 331 -325 -321 -319 328 -322 -323 330 324 332 326 -329 -327 0
-308 -312 307 298 318 -300 -304 -306 -305 314 -299 302 313 303 -301 311 -309 316 310 -315 -317 320 -331 325 321 319 328 -322 323 -330 324 -332 326 -329 327 -353 0
331 328 -330 332 -329 327 353 0
-331 325 328 330 332 -326 329 327 -353 0
-312 318 -314 -313 -311 -309 -316 310 -315 -317 320 -331 -325 -321 319 -328 -322 323 -330 324 -332 326 329 327 -353 -334 -350 0
275 272 -287 -273 270 278 271 -274 280 -289 -269 -290 279 -293 -291 -277 -281 -284 -276 286 295 -282 288 285 -283 -292 308 -312 307 297 -294 296 -298 318 300 304 306 305 -314 -299 -302 -313 -303 301 -311 309 316 310 -315 317 320 -331 -325 -321 -319 328 322 323 -330 324 -332 -326 -329 327 -353 -334 -350 351 0
275 267 -272 268 287 273 270 278 -271 -274 280 289 -269 290 -279 293 -291 -277 281 284 276 286 -295 282 288 -285 283 -292 -308 -312 307 -297 294 296 298 -318 300 -304 306 305 314 299 302 313 303 -301 311 309 316 310 315 -317 320 331 325 -321 -319 328 322 323 -330 324 -332 326 -329 -327 353 334 350 -351 0
-275 287 273 278 -274 280 -289 290 279 -293 -291 -277 281 -284 -276 286 -295 282 288 -285 -283 292 308 -312 307 297 -294 296 -298 318 -300 304 -306 305 314 299 -302 313 -303 301 311 309 -316 310 315 317 320 331 -325 321 319 -328 -322 -323 -330 324 332 -326 329 -327 353 -334 -350 -351 -349 343 -338 -342 0
331 -325 328 -323 -330 -324 332 326 329 -327 -353 -334 -350 351 -349 -343 338 -342 358 -333 341 346 0
312 -318 -314 313 311 -316 315 317 320 331 -325 321 319 -328 -322 -323 -330 324 332 326 329 327 353 334 350 -351 349 343 338 -342 -358 -333 341 346 344 336 357 335 0
331 -332 -353 -334 350 -351 349 343 338 -342 -358 333 -341 346 -344 336 357 335 0
308 -312 -307 -318 -304 -306 -305 -314 -302 -313 -303 -311 -309 -316 -310 -315 317 320 -331 -325 -321 319 328 -322 -323 330 324 -332 -326 -329 -327 353 334 350 -351 349 343 -338 -342 -358 333 -341 346 344 336 -357 -335 0
331 325 328 -323 330 -324 -332 -326 329 327 353 334 -350 351 -349 343 338 -342 358 333 341 346 344 336 -357 335 337 0
-308 312 307 -298 318 300 -304 -306 305 314 299 302 -313 -303 301 -311 309 -316 310 315 -317 320 331 -325 321 -319 328 -322 -323 -330 324 332 326 -329 -327 353 -334 -350 -351 -349 343 -338 342 358 333 341 -346 -344 336 -357 -335 -337 340 0
-331 328 330 332 -329 -353 -334 -350 -351 349 343 -338 -342 -358 -333 341 -346 344 -336 -357 335 -337 340 0
331 -328 330 -332 -329 327 -353 334 350 -351 349 343 -338 342 -358 -333 -341 -346 344 -336 -357 335 -337 -340 339 0
331 -328 -330 -332 326 -329 327 -353 334 -350 -351 349 343 338 342 -358 -333 -341 346 -344 336 -357 335 337 340 339 0
-353 -350 351 349 343 342 358 341 -346 344 357 -340 354 0
353 350 351 -349 358 346 357 -354 348 -345 347 0
-331 -328 330 -332 -329 -353 -334 350 351 349 -343 338 -342 -358 333 -341 -346 344 336 357 -335 -337 -340 339 354 348 345 -347 355 -352 0
331 -328 -330 332 329 327 -353 334 -350 351 349 -343 338 -342 -358 -333 -341 346 -344 -336 -357 335 337 340 339 354 348 345 -347 -355 -352 0
318 316 -315 -317 320 331 -325 -321 319 -328 322 -323 -330 -324 332 -326 -329 327 -353 334 -350 351 -349 343 -338 -342 -358 333 -341 346 -344 -336 357 335 -337 340 339 354 -348 -345 347 355 352 356 0
353 -350 351 -349 358 -346 344 357 -354 -348 -345 -347 355 352 -356 0
331 325 -328 323 -330 -324 332 -326 -329 -327 353 334 -350 351 -349 -343 -338 -342 358 333 -341 346 -344 -336 -357 335 -337 340 339 354 348 345 347 -355 352 356 0
-331 325 328 -322 323 330 324 -332 326 -329 327 353 -334 350 -351 -349 -343 338 342 -358 333 341 -346 -344 -336 357 -335 -337 -340 339 -354 348 -345 347 -355 352 -356 0
331 -325 -328 322 323 -330 324 332 -326 329 -327 353 334 -350 351 349 343 -338 342 358 -333 341 -346 344 336 -357 335 337 -340 -339 354 -348 345 -347 -355 -352 -356 -359 360 0
-308 -312 307 -318 300 304 306 305 314 299 -302 -313 303 301 311 -309 316 -310 -315 317 -320 -331 325 -321 319 -328 322 -323 -330 324 -332 -326 -329 -327 353 334 -350 -351 -349 343 -338 342 358 -333 -341 346 344 -336 -357 -335 337 -340 339 354 -348 -345 -347 355 352 -356 359 -360 361 0
318 -317 -320 331 -325 321 -319 328 -322 -323 330 324 332 -326 -329 -327 -353 -334 -350 -351 349 343 338 -342 358 333 341 -346 344 336 -357 335 337 -340 339 -354 -348 345 347 355 -352 356 -359 360 -361 0
-353 350 351 -349 343 -338 342 -358 341 346 344 -336 -357 337 -340 339 -354 348 345 -347 355 352 356 -359 -360 361 -362 -363 0
-363 0
-353 -350 351 349 -343 -338 342 -358 341 346 -344 357 -340 -339 -354 348 345 -347 355 -352 356 -359 360 361 362 -363 -364 365 0
-364 365 367 366 0
365 367 -366 368 370 369 0
353 350 -351 -349 343 338 342 358 341 346 344 -357 -340 339 -354 348 345 347 -355 -352 356 359 360 -361 362 363 -364 -365 -367 -366 -368 370 -369 371 0
-318 314 316 315 -317 -320 331 325 321 -319 -328 322 -323 -330 324 332 -326 -329 327 353 -334 350 351 349 -343 338 342 -358 -333 -341 -346 344 336 -357 -335 -337 -340 -339 -354 -348 345 -347 -355 352 356 -359 360 361 362 -363 364 -365 -367 366 -368 370 -369 -371 0
293 291 -295 292 -308 -312 -307 -297 -294 296 -298 -318 -300 304 306 -305 314 -299 302 313 -303 -301 311 309 316 -310 315 -317 -320 -331 -325 321 319 328 322 323 330 324 332 326 329 -327 353 -334 350 -351 349 343 -338 -342 358 -333 341 -346 344 336 357 -335 -337 340 339 354 -348 -345 347 355 -352 -356 -359 -360 361 -362 363 -364 -365 -367 -366 368 -370 369 -371 0
-287 -289 -290 -293 291 -286 295 -288 292 -308 312 -307 -297 294 -296 298 318 -300 304 306 305 314 299 -302 -313 -303 -301 -311 309 316 310 315 -317 -320 331 -325 -321 -319 328 322 -323 330 324 -332 -326 329 -327 -353 334 -350 351 349 -343 338 342 358 333 341 -346 -344 336 -357 335 -337 340 -339 354 -348 -345 347 355 -352 -356 -359 -360 361 -362 -363 -364 365 -367 -366 368 -370 -369 371 0
-365 367 -366 368 -370 369 371 0
-353 350 -351 349 -358 -357 354 355 -352 -356 359 360 -361 362 363 364 365 -367 -366 368 370 -369 371 372 0
364 365 -367 366 368 -370 369 371 372 0
370 371 372 -375 -374 0
368 370 -369 -371 372 375 -374 0
361 362 -363 364 -365 -367 366 368 370 369 -371 372 375 -374 0
-370 -371 372 375 374 0
365 367 -366 368 370 -369 371 372 375 374 0
-375 -374 0
320 -331 325 321 -328 322 323 330 324 332 -326 329 327 -353 334 350 -351 349 343 -338 342 358 333 -341 346 -344 -336 357 335 337 340 339 354 348 345 347 355 -352 -356 359 -360 -361 362 -363 -364 365 367 366 -368 370 -369 371 372 375 -374 373 377 -376 0
371 -372 -375 -374 373 -377 376 0
-331 328 -330 332 -329 -353 334 -350 351 349 -343 -338 342 358 -333 -341 -346 -344 336 357 335 -337 -340 -339 -354 -348 345 347 -355 -352 -356 359 360 -361 -362 363 -364 365 -367 366 -368 370 369 -371 372 375 -374 373 -377 -376 -388 378 379 0
-368 -370 369 -371 372 -375 -374 -373 377 -376 388 378 379 380 0
375 374 -373 377 -376 -388 378 379 -380 383 381 0
358 357 356 359 360 -361 -362 -363 364 -365 -367 -366 368 370 -369 -371 -372 375 374 373 377 376 -388 378 -379 -380 -383 -381 392 0
368 370 -369 371 372 375 374 -373 -377 376 -388 -378 -379 -380 383 -381 392 384 -385 382 0
-367 366 368 -370 369 -371 -372 -375 -374 373 377 -376 388 -378 379 380 -383 -381 392 -384 -385 -382 -386 0
-331 325 -328 -330 332 -326 -329 -327 -353 -334 350 -351 -349 343 338 -342 358 333 -341 346 -344 336 357 335 337 340 -339 -354 -348 -345 -347 -355 352 -356 359 -360 -361 362 -363 -364 365 367 -366 368 370 369 371 372 -375 374 373 -377 -376 388 378 -379 -380 383 -381 392 -384 385 -382 -386 390 410 -387 0
358 357 -356 -359 360 361 -362 363 -364 -365 -367 -366 -368 370 -369 371 372 375 374 373 -377 376 388 378 379 -380 383 -381 -392 -384 385 382 -386 -390 410 -387 0
-388 -378 379 380 -383 381 -392 -384 385 382 386 390 410 387 391 -389 0
-388 -378 379 380 383 381 392 -384 -385 382 -386 390 -410 387 391 -389 0
331 328 330 -332 -329 327 353 334 -350 -351 349 -343 338 342 358 -333 -341 -346 344 336 -357 335 337 -340 -339 354 348 345 -347 355 352 -356 359 360 -361 -362 -363 -364 -365 367 -366 -368 -370 -369 371 -372 -375 -374 -373 -377 376 -388 378 379 -380 -383 -381 392 -384 385 382 386 390 -410 -387 -391 389 0
388 378 379 380 383 -381 392 384 -385 382 386 -390 -410 387 -391 389 398 -394 -397 -399 -393 0
-388 -378 -379 380 383 381 -392 -384 -385 382 386 390 410 387 391 389 -398 394 -397 -399 393 0
377 376 388 -378 -379 380 383 -381 392 -384 -385 -382 -386 -390 -410 -387 -391 389 -398 394 -397 -399 -393 -402 395 0
308 312 307 -297 -298 318 300 -304 -306 -305 -314 299 -302 -313 303 -301 311 -309 -316 -310 -315 -317 320 -331 -325 321 319 -328 322 323 330 324 332 -326 -329 -327 -353 334 350 351 349 -343 -338 342 358 333 -341 346 -344 -336 357 335 -337 340 339 354 -348 -345 -347 355 352 356 359 -360 361 362 363 364 365 -367 -366 -368 -370 -369 -371 372 -375 374 373 -377 376 388 -378 379 380 -383 -381 392 384 385 -382 -386 390 -410 -387 -391 389 -398 -394 -397 399 393 402 395 -403 0
410 -398 -394 -397 -399 402 -395 403 0
392 -390 -410 -391 -398 394 397 399 -393 -402 395 403 396 0
358 -357 356 -359 360 -361 362 -363 -364 -365 -367 366 368 -370 -369 -371 -372 -375 -374 373 -377 -376 -388 -378 379 380 -383 -381 392 -384 -385 -382 -386 -390 410 387 -391 389 398 -394 397 399 -393 402 395 403 396 -400 0
-372 375 -374 -373 377 -376 388 378 -379 380 -383 -381 392 -384 385 382 -386 390 -410 387 391 389 398 -394 -397 -399 393 402 -395 403 396 400 -405 0
392 -390 -410 391 -389 -398 394 397 399 -393 402 -395 403 -396 -400 -405 0
-372 375 -374 -373 377 376 -388 -378 379 380 -383 -381 -392 384 385 382 -386 390 410 387 391 389 -398 394 -397 399 -393 -402 -395 -403 -396 400 405 0
-358 -357 -355 -356 359 -360 -361 -362 363 364 -365 -367 -366 -368 -370 369 -371 372 -375 374 -373 377 376 -388 -378 379 -380 383 381 392 -384 -385 -382 386 -390 -410 -387 -391 389 -398 394 -397 -399 -393 -402 -395 -403 -396 -400 -405 401 0
-410 -398 -394 397 -399 -393 -402 395 403 -396 400 405 401 0
-368 370 369 -371 372 -375 374 373 -377 376 -388 -378 379 380 383 -381 392 384 -385 382 386 -390 410 387 391 -389 398 -394 397 399 -393 -402 -395 -403 -396 -400 -405 401 0
-361 -362 -363 364 -365 367 -366 368 -370 -369 -371 372 375 374 -373 377 376 -388 378 -379 380 383 381 392 384 385 382 -386 -390 410 -387 -391 -389 398 394 397 399 -393 402 395 -403 396 -400 -405 401 0
-353 -334 350 351 -349 -343 338 342 -358 -341 346 344 -336 357 -335 337 -340 339 -354 -348 345 -347 -355 352 356 359 -360 -361 362 -363 364 365 367 -366 -368 -370 -369 371 372 375 -374 -373 377 376 -388 -378 379 380 383 381 392 -384 -385 382 386 390 410 387 391 389 398 394 -397 399 393 402 395 -403 396 -400 -405 -401 0
388 -383 -392 -384 385 382 -386 -390 -410 387 391 389 -398 -394 397 399 393 402 395 403 396 -400 -405 401 406 407 0
-287 -289 290 293 -291 281 -284 -286 295 -282 288 -285 -283 -292 308 312 -307 297 -294 -296 -298 -318 -300 -304 306 305 -314 299 -302 -313 303 301 311 -309 -316 310 315 317 320 -331 -325 -321 -319 328 322 323 -330 -324 332 326 -329 327 353 334 -350 351 -349 -343 338 342 358 333 -341 346 344 -336 -357 -335 -337 340 -339 354 -348 -345 347 -355 352 356 359 360 -361 362 -363 364 -365 367 -366 368 370 -369 371 -372 375 -374 373 -377 376 -388 378 -379 380 -383 381 392 -384 385 -382 386 390 410 387 391 -389 -398 -394 397 -399 393 402 -395 -403 -396 400 405 -401 406 -407 0
368 370 369 371 372 -375 374 373 -377 -376 388 -378 379 380 -383 381 -392 -384 385 -382 386 -390 -410 387 391 -389 -398 394 397 399 -393 402 395 403 -396 -400 405 401 406 -407 404 0
-362 -363 -364 365 -367 366 -368 370 369 -371 372 -375 -374 373 -377 376 -388 -378 -379 380 383 -381 -392 384 385 382 -386 -390 410 387 391 389 398 -394 -397 399 393 402 395 403 -396 400 -405 -401 406 407 404 408 0
-367 -366 368 370 -369 -371 -372 -375 374 -373 377 -376 -388 378 -379 380 383 -381 -392 384 385 -382 386 390 410 -387 391 -389 398 394 397 -399 393 -402 395 403 396 -400 -405 401 406 407 -404 -408 -409 0
-388 -383 392 -384 385 382 386 390 -410 -387 -391 389 398 -394 -397 -399 393 402 395 403 -396 -400 -405 -401 406 -407 404 -408 -409 0
358 357 -356 -359 -360 -361 -362 -363 -364 365 367 -366 -368 370 -369 -371 372 375 -374 -373 377 376 388 -378 -379 -380 383 -381 -392 -384 385 -382 386 -390 -410 387 -391 389 -398 -394 -397 399 393 402 395 -403 -396 400 -405 -401 -406 407 -404 408 409 0
-410 -405 406 407 -404 -408 -409 0
-410 398 399 402 403 -400 -405 401 -406 407 404 408 409 -411 -412 0
410 402 403 400 405 401 -406 407 -404 408 -409 -411 -412 0
411 412 0
-358 -357 -356 -359 -360 361 -362 -363 -364 -365 367 366 368 -370 369 -371 -372 -375 -374 -373 377 376 -388 378 -379 380 383 381 -392 384 -385 -382 -386 -390 410 -387 391 389 398 -394 -397 -399 393 402 395 -403 396 -400 405 -401 406 407 -404 -408 -409 -411 -412 0
353 334 -350 -351 349 -343 338 -342 -358 333 -341 -346 344 -336 -357 -335 337 -340 -339 -354 348 345 347 -355 -352 -356 359 -360 -361 -362 363 364 365 -367 366 368 370 369 371 372 375 -374 373 -377 376 -388 -378 379 -380 383 381 392 384 -385 -382 -386 -390 410 387 -391 -389 398 -394 397 399 -393 402 395 403 396 -400 -405 -401 -406 407 404 408 409 411 -412 413 0
295 -308 312 -307 297 294 -296 298 318 -300 304 -306 305 -314 -299 302 313 303 301 -311 -309 -316 310 315 317 320 -331 -325 321 -319 328 322 -323 -330 324 332 -326 -329 -327 353 -334 -350 351 349 -343 338 -342 358 333 -341 -346 344 336 357 335 337 340 -339 -354 -348 345 -347 355 -352 356 -359 -360 361 -362 -363 -364 -365 -367 366 368 370 -369 -371 372 375 -374 -373 377 376 388 378 379 -380 -383 381 392 384 385 382 386 -390 410 387 -391 389 -398 -394 397 399 393 -402 -395 -403 396 -400 -405 401 -406 -407 404 408 409 411 412 -413 414 0
414 0
410 -398 397 399 -402 403 396 400 405 -401 406 -407 -404 408 -409 411 412 -413 414 415 0
414 415 -420 -416 -421 0
410 398 397 -399 402 403 -396 400 405 -401 406 -407 404 -408 -409 411 -412 413 414 415 -420 416 -421 418 419 -417 0
388 -383 392 384 385 -382 -386 -390 410 387 -391 -389 -398 -394 -397 399 393 402 395 403 -396 -400 -405 -401 -406 -407 -404 408 409 411 -412 413 414 415 420 -416 -421 418 419 -417 0
-358 -359 -360 -361 -362 363 364 365 367 -366 -368 -370 369 -371 372 -375 -374 -373 -377 -376 388 -378 379 -380 -383 -381 -392 384 -385 -382 -386 390 410 387 391 -389 398 -394 397 399 393 402 395 403 -396 400 -405 -401 -406 407 -404 408 409 -411 412 413 -414 -415 420 416 421 418 -419 -417 0
-363 -364 365 -367 -366 -368 370 -369 371 -372 375 374 373 -377 -376 388 378 -379 -380 -383 -381 392 -384 -385 -382 386 -390 410 -387 -391 389 398 -394 -397 -399 -393 402 -395 -403 396 400 -405 -401 406 407 404 408 409 -411 412 -413 414 -415 420 416 421 -418 419 417 0
-368 370 -369 371 372 -375 374 373 377 376 -388 378 379 -380 383 -381 392 -384 385 -382 386 -390 410 387 -391 -389 398 -394 -397 -399 -393 402 -395 403 396 400 -405 -401 -406 -407 404 -408 -409 -411 -412 -413 414 -415 420 -416 421 418 419 -417 0
-388 -392 390 410 -391 -389 398 -394 -397 399 -393 402 -395 403 396 -400 -405 401 -406 -407 404 408 409 411 -412 -413 414 415 420 416 -421 -418 -419 417 0
364 365 367 -366 368 -370 -369 371 -372 -375 -374 -373 -377 376 388 -378 379 380 383 -381 -392 384 385 -382 -386 -390 -410 387 391 -389 -398 -394 -397 -399 393 -402 395 403 396 400 405 401 -406 -407 -404 408 -409 -411 412 413 -414 415 -420 416 421 418 -419 -417 0
-361 362 363 364 -365 367 366 -368 -370 369 -371 372 375 -374 373 377 376 388 -378 379 -380 383 381 392 -384 -385 382 386 -390 410 387 -391 -389 398 -394 -397 -399 393 -402 -395 -403 396 400 -405 401 406 407 404 408 409 -411 -412 413 -414 -415 420 416 -421 418 419 417 0
 0
410 -398 -394 397 -399 -402 -395 -403 396 -400 405 -401 406 -407 -404 -408 409 411 -412 413 -414 415 420 416 421 -418 419 -417 422 0
388 -392 386 -390 410 -387 -391 -389 -398 -394 -397 399 393 402 395 -403 396 400 405 401 406 -407 -404 408 -409 -411 -412 -413 414 415 420 -416 -421 -418 419 417 -422 0
353 -334 350 -351 -349 -343 -338 342 -358 -341 346 -344 -336 357 -335 337 -340 -339 -354 -348 -345 347 355 -352 -356 359 360 361 -362 363 -364 365 367 366 368 370 -369 -371 -372 -375 374 -373 -377 -376 -388 -378 379 -380 -383 -381 392 384 -385 382 386 390 410 387 -391 -389 398 -394 397 399 -393 402 395 403 -396 -400 -405 -401 406 -407 404 408 -409 -411 -412 -413 -414 -415 -420 416 421 -418 -419 417 -422 0
-420 421 418 419 417 422 0
410 398 397 -399 -402 403 396 400 -405 401 -406 -407 404 408 409 -411 -412 -413 -414 415 420 416 421 -418 419 417 -422 -425 0
-410 -405 406 -407 408 409 -411 412 -413 -414 -415 -420 -416 421 -418 419 -417 -422 -425 0
-422 425 423 0
-410 405 406 407 408 -409 -411 -412 -413 -414 -415 420 -416 421 418 -419 -417 422 -425 -423 0
420 -416 -421 418 419 -417 422 -425 423 0
422 -425 -423 424 -426 0
412 413 -414 415 420 -416 -421 418 419 417 422 -425 423 -424 -426 0
426 0
-275 272 -268 -287 273 270 -278 271 -274 280 -289 269 -290 -279 293 291 277 281 284 -276 -286 295 282 -288 -285 -283 -292 308 -312 307 -297 -294 -296 298 -318 -300 -304 306 305 -314 -299 302 -313 -303 301 311 309 316 -310 -315 317 -320 -331 -325 -321 -319 -328 322 -323 330 324 332 326 -329 -327 -353 334 -350 351 349 343 338 -342 -358 -333 -341 346 344 336 357 -335 337 -340 339 -354 -348 345 -347 -355 352 -356 359 -360 -361 362 -363 364 -365 -367 -366 -368 370 369 -371 -372 -375 -374 373 377 376 388 -378 -379 -380 -383 381 392 384 -385 382 -386 390 -410 387 391 -389 -398 -394 397 399 -393 402 -395 403 396 400 -405 401 406 -407 404 408 409 -411 412 413 414 415 -420 416 -421 -418 419 417 -422 425 -423 424 -426 0
410 -398 -399 -402 403 -400 -405 401 -406 407 404 408 409 -411 -412 413 -414 415 -420 -416 -421 -418 419 417 -422 425 -423 -424 426 0
-436 428 443 -429 -432 430 0
410 405 406 -407 408 -409 -411 412 -413 -414 -415 420 -416 -421 -418 -419 -417 -422 425 -423 -424 426 427 -436 428 443 -429 432 -430 -447 434 0
-388 -392 390 410 391 389 -398 -394 397 399 -393 402 395 -403 -396 400 405 -401 -406 -407 404 408 409 -411 412 413 -414 415 420 416 -421 -418 419 417 -422 -425 423 -424 -426 -427 436 -428 443 429 432 -430 -447 434 0
331 325 -328 -323 -330 324 332 326 -329 -327 -353 334 -350 351 349 343 338 -342 358 333 341 -346 344 -336 -357 -335 -337 340 339 -354 348 -345 347 -355 -352 356 -359 -360 -361 362 -363 -364 365 367 -366 368 370 -369 -371 -372 -375 -374 373 -377 376 388 378 379 -380 383 -381 392 -384 385 382 -386 390 -410 387 391 -389 -398 -394 -397 399 393 402 -395 -403 -396 -400 405 401 406 407 404 -408 -409 411 412 -413 414 415 -420 -416 421 -418 419 417 422 425 -423 424 -426 -427 -436 -428 443 -429 -432 430 -447 434 -433 431 435 -438 457 0
415 -420 416 -421 -418 -419 -417 422 425 423 424 -426 427 436 -428 -443 429 -432 -430 -447 -434 -433 -431 435 -438 457 0
368 -370 -369 371 -372 -375 374 -373 377 376 388 378 -379 380 383 -381 392 -384 -385 382 386 390 410 -387 -391 -389 -398 -394 397 399 -393 -402 395 403 396 -400 -405 -401 406 -407 404 408 409 411 -412 -413 -414 -415 -420 -416 -421 418 -419 -417 -422 425 423 -424 426 -427 436 428 443 -429 432 430 447 -434 433 431 -435 -438 457 -437 0
331 325 -328 -322 323 -330 -324 -332 326 -329 327 353 -334 350 -351 -349 343 338 342 358 -333 -341 -346 344 336 357 335 337 340 -339 354 348 345 347 -355 352 -356 -359 -360 361 -362 363 364 -365 -367 366 -368 -370 369 371 372 -375 374 373 377 -376 -388 378 379 -380 383 -381 392 -384 -385 382 -386 390 -410 -387 -391 -389 -398 -394 -397 399 -393 -402 395 403 396 -400 405 401 -406 407 -404 -408 409 411 412 413 414 415 420 416 -421 418 -419 -417 422 -425 423 -424 -426 -427 -436 -428 -443 -429 -432 -430 -447 434 -433 -431 435 438 457 437 -439 0
426 -427 -436 428 443 429 -432 430 -447 -434 -433 431 -435 -438 -457 437 439 441 0
362 363 364 365 -367 366 -368 -370 369 -371 -372 375 -374 -373 -377 -376 388 -378 379 -380 383 -381 392 384 -385 -382 -386 390 -410 387 -391 389 -398 -394 397 -399 -393 402 395 403 -396 -400 -405 401 406 407 404 408 -409 411 -412 -413 414 415 -420 416 -421 -418 -419 417 -422 425 423 424 -426 427 436 -428 -443 -429 -432 430 -447 434 -433 -431 -435 438 -457 -437 439 -441 0
443 -447 438 457 437 439 -441 -440 442 451 0
358 -359 -360 -361 362 -363 -364 -365 367 -366 -368 370 -369 371 372 -375 -374 373 377 -376 388 -378 379 380 383 -381 -392 -384 -385 -382 -386 390 410 -387 -391 389 -398 -394 397 399 393 -402 -395 -403 396 -400 -405 -401 406 -407 -404 -408 -409 411 412 413 414 -415 420 416 -421 -418 -419 417 422 -425 423 424 -426 -427 -436 428 443 429 432 -430 447 434 433 431 435 438 457 437 -439 -441 440 -442 -451 0
410 -409 -411 412 -413 414 415 -420 416 421 -418 419 417 -422 -425 423 -424 -426 -427 -436 -428 -443 429 -432 -430 447 434 -433 431 435 -438 -457 -437 -439 -441 -440 -442 -451 0
-443 -447 -438 -457 -437 439 -441 -440 -442 451 449 0
-427 -436 -428 -443 429 432 430 447 434 -433 431 435 438 -457 -437 -439 -441 -440 442 451 -449 0
-436 443 429 -432 430 447 434 433 -431 -435 -438 -457 -437 439 441 440 442 451 449 -444 446 0
-420 416 -421 -418 419 -417 -422 425 -423 -424 -426 -427 436 -428 443 -429 -432 430 -447 434 433 431 -435 438 457 -437 439 441 -440 442 451 -449 444 446 -450 0
414 415 -420 -416 -421 418 419 -417 422 -425 -423 -424 426 -427 436 428 443 429 432 -430 -447 -434 -433 431 -435 438 -457 -437 -439 -441 -440 -442 -451 449 -444 446 -450 445 0
447 -457 451 449 446 450 445 -448 -453 0
443 -447 438 -457 -437 439 441 -440 442 -451 449 444 -446 450 445 448 -453 458 452 0
436 -443 -432 -430 447 434 433 431 -435 -438 457 437 439 -441 440 442 451 -449 444 -446 450 445 -448 -453 -458 -452 455 0
-436 443 -429 432 -430 -447 -434 433 -431 435 -438 457 437 -439 -441 440 442 451 449 -444 446 450 445 448 -453 458 452 455 454 0
-392 -390 -410 391 -398 -394 -397 -399 393 402 -395 403 396 400 -405 -401 -406 407 -404 408 409 411 -412 -413 -414 -415 420 416 421 418 419 417 422 -425 -423 424 426 427 436 428 443 -429 432 430 -447 434 433 -431 -435 -438 457 -437 439 -441 -440 -442 451 -449 -444 -446 -450 -445 -448 453 -458 452 -455 -454 456 0
443 -447 457 439 441 440 -442 451 -449 -444 446 -450 445 448 -453 -458 -452 455 -454 -456 0
-436 -443 429 432 -430 447 434 433 431 435 438 -457 -437 -439 441 440 442 -451 -449 -444 446 450 445 448 453 458 452 455 -454 -456 459 0
436 -443 429 -432 430 447 -434 -433 -431 435 438 -457 437 -439 -441 440 -442 451 449 444 446 450 445 448 -453 -458 -452 455 454 -456 -459 460 0
-436 428 -443 -429 432 430 447 -434 -433 -431 435 -438 457 -437 439 -441 -440 -442 451 -449 444 -446 -450 445 -448 -453 -458 -452 -455 -454 456 -459 -460 -462 0
462 0
-457 -453 458 455 454 -456 -459 460 462 -461 -463 0
368 370 369 371 -372 375 374 -373 -377 -376 -388 -378 -379 380 -383 381 392 384 385 -382 -386 390 -410 -387 391 389 398 -394 397 399 -393 402 395 403 396 400 -405 401 -406 407 -404 408 -409 -411 -412 413 -414 415 -420 -416 -421 418 -419 -417 422 425 423 -424 -426 427 -436 -428 -443 -429 -432 -430 447 -434 433 -431 435 438 457 -437 439 441 440 442 451 -449 -444 446 450 445 448 453 458 -452 -455 454 -456 459 -460 462 -461 -463 0
-462 -461 -463 466 -467 465 464 0
420 -421 422 425 -423 424 -426 -427 436 428 -443 429 -432 430 447 434 -433 431 435 438 -457 437 439 -441 -440 -442 451 449 -444 -446 450 445 -448 -453 -458 452 455 -454 456 -459 460 462 -461 -463 -466 467 465 -464 0
-427 -436 428 443 429 -432 -430 447 434 433 -431 -435 -438 457 -437 -439 -441 440 442 -451 -449 -444 -446 -450 445 448 453 458 -452 455 -454 -456 459 460 -462 -461 463 -466 467 -465 464 0
410 407 408 409 411 412 413 -414 415 420 416 -421 -418 -419 -417 422 425 -423 -424 426 -427 -436 428 -443 -429 432 -430 -447 -434 -433 431 435 438 457 -437 -439 -441 -440 442 -451 -449 444 -446 -450 445 -448 -453 458 452 -455 454 -456 -459 -460 -462 -461 463 -466 467 465 -464 0
436 -443 447 -434 435 -438 -457 437 439 441 440 442 -451 -449 -444 446 450 445 -448 -453 -458 452 -455 -454 456 459 460 462 -461 -463 -466 467 465 464 0
-420 -421 422 425 -423 -424 426 -427 436 -428 443 -429 432 -430 447 -434 -433 -431 -435 438 457 437 -439 441 440 442 -451 449 -444 -446 -450 445 -448 -453 458 -452 -455 -454 456 -459 -460 -462 -461 -463 466 467 -465 -464 468 0
-468 -470 -469 0
-443 -447 438 -457 437 -439 -441 -440 -442 -451 449 -444 -446 450 445 448 453 -458 -452 -455 454 -456 459 -460 -462 -461 463 -466 467 465 464 -468 -470 -469 -481 0
-436 -443 432 -430 -447 -434 433 -431 -435 -438 -457 437 439 441 440 -442 -451 -449 -444 446 -450 -445 448 -453 -458 452 -455 -454 456 459 460 462 461 463 466 -467 465 -464 468 -470 -469 481 471 486 472 -476 -485 0
457 -451 453 458 -452 -455 454 -456 -459 460 -462 461 -463 -466 -467 465 464 -468 -470 -469 481 -471 486 -472 -476 485 -494 -474 475 0
422 -425 -423 424 426 427 -436 -428 -443 -429 432 -430 447 434 -433 -431 -435 -438 -457 -437 -439 441 440 442 -451 -449 444 446 -450 -445 -448 -453 458 452 455 454 -456 459 -460 -462 461 463 466 -467 -465 464 468 -470 -469 -481 -471 486 472 476 485 494 -474 -475 473 478 487 -480 483 0
481 -486 -476 -485 -494 474 -475 -473 -478 -487 -480 483 477 0
-443 447 438 457 -437 439 441 -440 442 -451 -449 444 446 450 -445 -448 -453 458 452 -455 -454 -456 -459 -460 462 461 463 -466 467 -465 464 468 -470 469 481 -471 486 472 476 485 -494 474 -475 473 478 -487 -480 483 -477 -492 0
457 -458 -455 -454 456 -459 460 462 461 463 -466 467 -465 464 -468 470 -469 -481 471 486 472 -476 -485 494 -474 -475 -473 -478 -487 -480 483 477 -492 0
-425 -423 -424 426 427 -436 -428 -443 -429 432 -430 447 434 433 -431 435 438 -457 -437 439 441 -440 -442 -451 449 -444 446 450 -445 -448 453 -458 452 455 454 456 -459 -460 -462 461 -463 466 467 465 464 -468 470 -469 481 -471 -486 472 -476 -485 494 474 -475 473 478 -487 480 -483 477 492 -482 479 -491 0
-318 316 315 -317 320 331 325 -321 319 -328 322 323 330 324 -332 -326 329 327 353 334 -350 351 -349 343 338 342 358 -333 -341 -346 -344 336 357 335 337 340 339 -354 -348 345 -347 355 352 -356 -359 360 361 362 -363 -364 365 -367 -366 368 370 369 371 -372 -375 374 -373 377 376 388 378 379 380 -383 -381 392 384 -385 -382 386 390 410 -387 -391 -389 398 394 397 399 393 -402 395 -403 -396 -400 405 -401 406 -407 404 -408 409 -411 -412 -413 -414 415 -420 -416 421 418 419 -417 -422 425 -423 -424 -426 -427 -436 428 -443 429 -432 -430 447 434 433 431 -435 -438 457 437 439 441 440 -442 451 449 -444 446 450 -445 448 453 -458 -452 455 -454 -456 -459 -460 -462 461 -463 -466 467 -465 464 468 -470 -469 481 471 -486 472 476 485 494 -474 -475 473 478 -487 -480 483 477 492 -482 479 -491 0
-481 -486 -485 494 -487 480 483 492 482 -491 -484 -488 0
494 492 -491 -488 -500 0
-481 486 485 -494 487 480 483 -492 -482 -491 484 -488 500 0
-481 486 -476 -485 494 478 -487 -480 -483 477 -492 -482 479 491 -484 488 500 0
481 486 -476 485 -494 478 487 480 483 477 492 -482 -479 491 484 488 -500 0
-466 -467 465 468 -470 469 -481 471 486 472 476 485 -494 474 475 473 478 -487 -480 483 -477 492 482 479 491 -484 488 -500 495 -489 0
368 370 369 -371 372 -375 -374 -373 -377 -376 -388 378 379 380 383 381 392 -384 385 382 -386 -390 -410 387 391 389 398 394 397 -399 393 -402 395 -403 396 -400 405 -401 406 -407 -404 408 -409 -411 412 413 414 415 420 416 -421 -418 419 -417 -422 -425 -423 -424 -426 427 -436 428 -443 429 432 430 -447 434 433 431 -435 438 457 -437 -439 -441 440 -442 451 449 -444 -446 -450 -445 448 -453 458 452 455 -454 456 459 -460 462 461 -463 466 -467 465 464 -468 470 -469 -481 -471 486 -472 -476 485 -494 -474 -475 -473 478 487 480 -483 477 -492 -482 479 491 -484 -488 500 495 489 0
-466 -467 -465 464 468 -470 469 481 -471 -486 -472 -476 485 -494 474 475 -473 -478 -487 480 -483 477 492 -482 479 491 -484 488 500 495 489 -490 0
-436 443 -429 -432 430 447 -434 -433 -431 -435 -438 -457 -437 439 441 -440 -442 -451 -449 -444 446 450 -445 448 -453 458 452 455 454 -456 -459 460 462 461 -463 466 -467 -465 464 468 470 469 -481 471 486 -472 476 485 -494 474 475 -473 -478 487 -480 -483 -477 -492 482 -479 -491 -484 488 500 495 -489 -490 0
443 -447 457 439 441 -440 442 -451 -449 -444 -446 -450 445 -448 453 -458 -452 455 -454 456 459 -460 462 461 -463 466 -467 -465 464 -468 -470 469 481 471 -486 -472 -476 -485 494 474 475 473 478 487 -480 483 477 492 482 -479 -491 -484 488 -500 495 489 -490 493 499 497 -496 498 0
375 -374 -377 376 -388 -378 379 380 383 -381 392 -384 385 382 -386 390 -410 387 -391 -389 398 -394 -397 -399 393 402 -395 403 -396 -400 -405 -401 -406 407 404 408 -409 411 -412 413 -414 -415 420 -416 -421 418 -419 417 -422 425 -423 424 426 -427 -436 -428 -443 -429 -432 -430 447 434 -433 431 435 438 -457 437 439 -441 -440 442 -451 -449 -444 -446 450 445 -448 -453 458 -452 -455 454 456 459 -460 462 461 463 466 -467 -465 464 -468 470 469 481 -471 -486 -472 -476 -485 494 -474 475 -473 478 487 -480 483 477 -492 482 -479 491 -484 -488 500 495 -489 -490 -493 -499 -497 496 498 0
481 -486 485 -494 487 480 -483 -492 482 491 484 488 -500 -495 -489 -490 493 -499 -497 -496 -498 0
481 -486 -485 -494 -478 -487 -480 -483 492 482 -479 491 -484 -488 500 -495 489 -490 -493 499 -497 496 -498 0
-494 -492 -491 488 500 495 -489 490 493 -499 497 -496 -498 0
-331 328 330 332 -329 327 353 334 -350 -351 349 -343 338 342 -358 333 -341 -346 -344 -336 -357 -335 337 340 -339 -354 348 -345 -347 355 352 -356 -359 360 361 362 363 364 -365 -367 366 368 370 369 -371 372 375 -374 -373 -377 -376 -388 -378 379 380 -383 381 392 384 385 382 -386 390 -410 -387 391 389 -398 -394 -397 399 393 402 395 403 396 400 -405 401 406 -407 -404 408 -409 411 -412 -413 414 -415 420 416 -421 -418 -419 -417 422 425 -423 424 -426 427 -436 428 -443 429 432 430 -447 434 433 -431 -435 438 -457 -437 439 -441 440 -442 451 -449 444 446 450 -445 448 -453 458 452 455 -454 -456 -459 -460 462 461 -463 -466 -467 465 -464 468 -470 -469 -481 -471 486 472 -476 -485 -494 -474 475 473 478 487 -480 -483 -477 -492 -482 -479 -491 -484 488 500 -495 489 490 493 -499 -497 496 -498 0
-426 -427 436 428 443 429 -432 -430 -447 -434 433 431 -435 438 -457 437 439 -441 -440 442 -451 -449 444 446 -450 -445 448 453 458 -452 -455 -454 456 -459 460 -462 461 -463 466 -467 -465 464 -468 -470 469 481 -471 486 -472 476 -485 -494 -474 475 -473 478 -487 -480 -483 -477 492 -482 -479 491 -484 -488 -500 -495 489 490 -493 499 -497 -496 498 0
-481 -486 476 485 -494 474 -475 473 478 487 480 483 477 -492 482 479 -491 484 -488 500 495 -489 -490 493 -499 -497 -496 498 0
481 486 -485 494 487 480 483 -492 482 -491 -484 -488 -500 -495 489 -490 -493 499 -497 496 -498 0
358 -359 -360 361 362 -363 -364 -365 367 366 -368 370 -369 371 -372 375 -374 -373 377 376 -388 378 379 -380 -383 -381 392 -384 385 382 -386 390 410 387 391 -389 398 394 -397 399 -393 -402 395 403 -396 400 405 -401 406 -407 -404 408 -409 411 412 413 414 415 420 -416 421 418 -419 417 -422 425 423 424 -426 427 -436 428 -443 -429 -432 -430 -447 434 433 431 435 438 -457 -437 439 441 -440 -442 451 -449 444 -446 -450 445 -448 453 -458 452 455 454 456 459 -460 462 461 463 -466 -467 465 -464 468 470 469 481 -471 486 -472 -476 -485 494 -474 475 473 -478 -487 480 -483 -477 492 -482 479 491 484 -488 500 495 -489 -490 -493 -499 -497 -496 -498 0
-436 428 443 429 432 -430 -447 434 -433 431 -435 -438 -457 437 439 441 440 -442 -451 449 -444 -446 -450 -445 448 453 458 452 455 454 -456 459 460 462 -461 -463 466 -467 465 -464 -468 470 469 -481 471 486 472 476 -485 494 474 475 -473 -478 -487 480 -483 477 -492 -482 479 -491 -484 -488 -500 495 -489 -490 493 -499 497 -496 -498 0
375 374 377 -376 388 -378 -379 -380 -383 381 392 -384 385 382 -386 -390 -410 387 -391 -389 -398 394 397 399 -393 402 395 403 396 400 405 401 406 -407 404 408 409 411 412 -413 -414 415 420 416 421 418 419 -417 422 -425 423 -424 -426 -427 -436 428 -443 -429 -432 -430 -447 434 433 -431 435 438 457 -437 -439 441 440 -442 451 449 -444 446 450 -445 -448 453 458 452 455 -454 -456 -459 460 462 -461 463 466 467 465 464 468 -470 469 481 -471 486 472 476 -485 -494 474 475 -473 -478 487 -480 483 477 -492 482 479 -491 -484 -488 -500 -495 489 -490 -493 -499 497 -496 498 0
-365 367 366 -368 370 -369 -371 -372 -375 374 373 377 -376 388 378 379 380 -383 381 -392 384 385 -382 -386 390 -410 387 391 -389 -398 -394 -397 399 -393 -402 -395 403 396 400 -405 -401 -406 -407 -404 -408 -409 411 412 -413 -414 415 -420 -416 421 418 419 -417 -422 425 -423 -424 -426 427 -436 428 443 -429 432 430 -447 434 -433 -431 -435 438 457 -437 -439 -441 440 -442 -451 449 -444 446 450 -445 448 -453 458 -452 -455 454 456 459 -460 -462 461 463 -466 467 465 464 -468 470 469 481 -471 -486 472 -476 -485 -494 474 -475 473 478 487 -480 -483 -477 -492 -482 -479 491 484 488 -500 -495 -489 490 493 499 497 -496 498 0
481 -486 485 494 478 -487 480 483 -492 482 479 -491 -484 488 500 495 -489 -490 493 -499 497 -496 -498 0
-470 -481 -471 486 472 -476 485 -494 -474 475 -473 -478 -487 480 483 -477 -492 482 -479 -491 -484 488 500 495 489 490 -493 -499 497 496 498 0
-410 405 406 -407 -404 408 409 -411 412 413 414 -415 -420 416 -421 418 419 417 422 425 423 424 426 427 436 -428 -443 -429 -432 430 447 434 -433 431 -435 -438 457 -437 439 441 440 442 -451 449 444 446 -450 -445 448 -453 458 -452 455 -454 456 -459 -460 462 461 463 466 467 -465 464 -468 -470 -469 -481 471 486 -472 476 485 -494 474 475 -473 478 -487 480 -483 -477 492 -482 -479 491 -484 488 500 -495 489 -490 493 499 497 -496 498 0
-466 -467 465 468 -470 469 481 -471 -486 -472 -476 -485 -494 474 -475 473 478 487 -480 -483 477 -492 482 479 491 -484 -488 -500 -495 -489 -490 493 499 -497 496 -498 0
 0
-500 499 0
 0
 0
 0
443 447 -438 -457 437 439 -441 -440 -442 451 449 -444 -446 450 445 448 -453 -458 -452 -455 454 -456 459 460 462 -461 463 -466 467 465 -464 -468 -470 469 481 471 486 472 476 -485 -494 474 475 -473 -478 487 -480 -483 -477 -492 482 -479 491 -484 488 500 -495 489 -490 -493 -499 -497 -496 498 0
481 486 472 -476 -485 -494 474 475 473 -478 487 480 -483 477 492 -482 -479 -491 -484 -488 500 -495 489 490 -493 -499 -497 496 498 0
500 0
 0
494 -492 -491 488 500 -495 -489 490 493 499 497 -496 498 0
 0
 0
 0
 0
-500 0
462 463 -466 467 465 464 468 -470 469 -481 -471 486 -472 476 485 -494 -474 -475 -473 -478 487 -480 483 477 492 -482 -479 -491 484 488 500 495 489 490 -493 499 497 -496 -498 0
 0
427 -436 428 -443 429 -432 -430 -447 434 433 431 435 -438 -457 437 -439 -441 -440 442 -451 449 -444 -446 -450 445 448 453 -458 452 -455 -454 -456 459 -460 462 461 -463 -466 467 -465 -464 -468 470 469 -481 471 -486 472 476 -485 494 -474 -475 -473 -478 -487 -480 -483 -477 -492 482 479 491 484 488 500 495 489 490 -493 -499 -497 496 498 0
 0
 0
-470 -469 481 -471 486 -472 -476 485 -494 474 -475 473 478 -487 480 483 -477 -492 482 479 491 -484 -488 500 495 -489 490 -493 499 -497 496 -498 0
 0
494 -492 491 500 -495 -490 493 499 497 -496 498 0
 0
-494 492 491 488 500 495 -489 -490 -493 499 -497 -496 498 0
-443 -447 -457 451 449 444 -446 450 -445 448 453 458 -452 455 454 456 459 -460 -462 -461 -463 -466 467 -465 -464 468 -470 -469 481 -471 -486 -472 -476 -485 494 -474 475 -473 -478 -487 -480 -483 -477 492 -482 -479 -491 -484 488 -500 495 -489 490 493 499 -497 496 -498 0
 0
 0
 0
 0
500 0
420 421 -422 425 -423 -424 -426 427 436 428 443 429 432 430 447 -434 -433 -431 -435 -438 -457 -437 439 -441 -440 -442 451 449 -444 446 -450 -445 448 453 -458 -452 455 -454 456 -459 460 -462 461 463 -466 467 465 464 -468 -470 469 481 -471 486 472 476 485 494 -474 -475 -473 -478 -487 -480 -483 477 -492 -482 -479 491 484 488 500 -495 489 -490 -493 499 -497 496 -498 0
443 447 438 457 -437 -439 -441 -440 442 451 449 -444 446 450 445 -448 453 -458 -452 -455 454 -456 459 460 462 -461 -463 -466 467 465 464 -468 -470 -469 -481 471 -486 472 476 -485 494 -474 -475 -473 478 -487 480 483 477 492 482 -479 -491 484 488 500 495 489 490 -493 -499 497 496 -498 0
 0
 0
-422 425 -423 -424 426 427 -436 -428 -443 -429 -432 430 447 -434 433 -431 435 438 -457 -437 439 -441 -440 442 451 -449 -444 446 -450 -445 -448 -453 458 -452 -455 454 456 459 -460 -462 -461 -463 466 -467 465 464 468 470 -469 -481 -471 486 472 -476 485 494 474 -475 473 -478 -487 480 483 477 492 482 -479 -491 -484 -488 -500 -495 -489 490 493 -499 497 -496 498 0
 0
 0
 0
 0
 0
 0
 0
 0
 0
-457 453 458 455 454 -456 -459 460 462 461 463 -466 467 -465 -464 468 -470 -469 481 -471 -486 472 -476 -485 494 474 475 473 -478 487 -480 -483 477 -492 -482 -479 491 484 -488 -500 -495 489 -490 -493 499 497 -496 -498 0
410 406 407 408 -409 411 -412 413 414 -415 420 416 421 418 419 -417 422 -425 423 424 -426 427 -436 -428 443 -429 -432 430 -447 434 433 431 -435 438 457 437 439 441 440 442 -451 -449 -444 446 -450 -445 448 -453 458 -452 -455 -454 456 459 460 462 -461 463 466 467 465 -464 -468 470 469 -481 -471 486 -472 476 -485 -494 474 475 -473 -478 487 -480 -483 -477 492 -482 479 -491 -484 -488 -500 -495 489 490 -493 499 -497 496 -498 0
 0
 0
 0
 0
 0
 0
 0
 0
 0
 0
 0
 0
 0
 0
 0
-500 499 0
 0
 0
 0
 0
 0
 0
 0
 0
 0
388 383 392 -384 -385 382 -386 390 -410 387 391 389 398 -394 -397 -399 -393 -402 -395 -403 -396 -400 405 -401 406 -407 -404 -408 -409 411 412 -413 414 415 420 -416 -421 -418 -419 -417 422 -425 423 -424 426 427 -436 428 443 -429 -432 430 -447 434 -433 431 435 438 -457 437 -439 441 -440 -442 451 449 444 446 -450 445 -448 -453 -458 452 -455 454 456 -459 460 462 -461 -463 -466 467 -465 464 468 -470 469 481 -471 486 -472 476 -485 -494 474 -475 -473 -478 487 480 -483 -477 492 482 -479 491 484 -488 -500 495 489 490 -493 499 -497 -496 498 0
 0
 0
 0
 0
 0
 0
 0
 0
486 -494 487 492 491 488 500 -495 -489 -490 493 -499 -497 496 -498 0
 0
 0
 0
 0
 0
 0
 0
 0
 0
 0
 0
 0
 0
 0
 0
 0
 0
 0
 0
 0
 0
 0
 0
 0
 0
 0
 0
 0
 0
 0
 0
 0
 0
 0
 0
