c Type 1: interval ordering (permuted), n=30, m=40
p cnf 30 40
9 20 -27 -11 -21 -15 3 -10 -6 14 -18 -28 24 0
-1 8 0
14 -18 0
3 -10 -6 14 18 0
-14 28 -24 0
-2 0
-5 9 13 0
-9 -20 -27 -12 -11 -21 0
16 0
-5 0
 0
-3 -6 14 18 0
9 -20 27 11 -21 15 0
-7 4 -19 0
14 28 24 0
9 -17 23 20 30 27 0
 0
16 -5 26 25 0
 0
9 -17 -23 20 0
 0
 0
-28 -24 0
 0
-24 0
 0
-28 24 0
16 -5 26 -25 0
-22 -1 -8 -16 0
1 -8 16 -5 0
14 -18 28 -24 0
-5 -9 -13 -17 0
2 0
14 18 -28 24 0
 0
-22 0
-24 0
14 18 28 -24 0
-14 -18 -28 -24 0
9 13 -17 -23 0
