c Type 1: interval ordering (permuted), n=80, m=100
p cnf 80 100
-16 0
19 50 63 34 -69 66 -53 0
-52 -10 74 79 -71 -35 18 -20 -12 -4 9 23 0
18 -4 68 30 -77 54 -49 -17 -57 -31 51 28 2 0
-19 50 63 34 -69 0
-52 -10 -74 79 -71 35 0
-18 -4 -68 30 -5 77 -54 37 -49 17 0
52 -35 -18 -4 -9 23 -8 -21 -68 30 75 -5 -60 0
-18 4 -68 30 5 77 -54 -37 49 17 32 -57 31 1 -51 28 2 0
18 -4 68 -30 -77 54 37 -49 -17 -32 57 31 -1 0
48 47 19 50 -63 -34 -69 66 53 14 0
-19 50 0
-14 29 -55 -11 -73 -64 0
18 -4 68 -30 5 -77 -54 -37 -49 -17 32 57 0
65 0
56 0
 0
-48 61 43 47 0
 0
 0
52 10 -74 79 71 35 -18 20 12 4 0
-18 4 -68 -30 77 -54 -49 17 32 57 -31 -1 -51 -28 0
-18 -4 68 30 -5 77 -54 -44 -41 -37 49 -17 0
-52 -35 18 -4 -9 -23 8 21 0
-52 35 -18 -4 -9 23 -8 21 -68 0
62 0
-52 -10 74 -79 71 35 -18 20 12 4 -9 -23 8 -21 68 0
16 0
19 50 -63 -34 -69 0
-18 -4 -68 30 -5 77 54 37 49 17 38 25 32 -57 31 -1 -51 -28 2 0
 0
-19 50 -63 0
52 74 -79 35 -18 -12 4 9 0
-48 -61 -47 0
-52 27 10 74 79 -71 35 -18 -20 0
18 -4 -21 -68 -30 75 5 -60 0
 0
24 0
-18 4 68 30 -77 -54 -49 -17 -32 57 -31 -1 -51 28 2 0
18 -4 68 30 5 -77 54 -37 49 17 0
-65 76 0
-14 -29 -55 11 73 0
-18 -4 68 30 5 77 -54 44 -41 -37 49 -17 38 25 0
7 48 -61 -33 43 -47 0
-40 0
35 18 4 9 -23 -8 21 68 -30 75 5 -60 0
18 4 -68 -30 5 77 -54 44 41 37 49 -17 -38 25 32 -57 0
-56 0
-16 0
40 0
40 0
-19 50 63 34 -69 -66 -53 14 29 55 0
7 48 61 -33 0
-52 -74 79 -35 -18 -20 12 4 -9 0
-7 0
35 -18 -4 -9 23 -8 21 0
 0
-66 53 0
-18 -4 68 -30 -5 -77 54 -37 -49 -17 -38 25 -32 57 31 1 51 28 -2 0
15 0
62 0
52 74 -79 -35 18 20 -12 4 0
29 11 -64 52 0
52 74 -35 18 -12 -4 -9 23 8 -21 68 0
-62 0
-64 52 46 0
52 -74 -79 -35 18 -12 4 0
19 50 -63 0
52 46 -27 10 -74 -79 -71 35 -18 -20 -12 -4 -9 -23 -8 0
14 -29 55 11 -73 64 52 0
40 -62 0
52 74 -79 35 -18 12 -4 9 23 8 0
42 0
 0
29 11 64 52 46 0
52 35 -18 12 -4 9 -23 8 0
18 -4 -68 30 77 -54 49 -17 57 31 -1 51 28 2 0
 0
-67 36 -22 -78 0
 0
18 -4 -23 8 -21 68 30 75 5 0
-18 4 -68 30 -77 -54 49 17 -57 31 -51 28 2 0
18 -4 68 30 -5 77 -54 44 -41 -37 49 17 -38 -25 32 57 31 1 51 -28 -2 0
-18 -4 21 68 -30 -75 5 -60 77 -54 44 41 37 49 17 -38 25 32 -57 31 1 51 28 2 0
48 61 33 43 -47 0
 0
50 -63 -34 -69 -66 53 -14 -29 -55 11 73 64 -52 0
 0
40 0
 0
18 -4 -68 -30 77 54 -49 -51 2 0
42 0
19 -50 63 -34 69 0
-18 -4 68 -30 5 77 54 44 41 -37 49 -17 38 -25 -32 57 31 1 -51 -28 -2 0
19 50 -63 -34 69 0
-18 4 68 -30 -5 60 -77 -54 44 0
 0
52 -74 79 35 18 12 -4 9 23 -8 0
19 50 63 -34 -69 66 -53 0
13 0
