c Type 1: interval ordering (ordered), n=150, m=180
p cnf 150 180
1 0
1 0
-2 0
-2 0
 0
3 -4 0
 0
-3 -4 5 6 7 10 -9 0
7 10 -9 0
-7 -10 -9 8 11 0
10 -9 -8 11 0
7 -10 9 -8 -11 12 0
14 0
15 16 0
 0
17 0
-16 -17 0
-14 15 16 17 0
 0
-19 0
19 -18 0
-19 18 0
21 0
23 -24 -48 29 33 0
20 21 -23 -24 22 -48 -29 33 0
-24 -48 29 -33 -26 0
24 48 29 -33 26 -25 0
24 48 29 33 26 25 0
-48 -33 30 -40 -36 32 34 35 0
-48 29 -33 -27 30 40 36 -28 32 -34 -35 0
-48 29 33 -26 27 30 -40 -36 -28 32 34 35 -31 -42 -37 0
-48 -29 -33 -26 27 30 -40 -36 28 32 34 35 31 -42 -37 0
48 -33 -40 36 32 34 -35 -31 -42 -37 0
48 -33 -30 -40 -36 -32 -34 -35 31 42 -37 0
-48 33 -40 -36 -34 -35 42 -37 -39 -41 -44 -38 0
48 -33 40 -36 -34 -35 -42 37 -39 -41 -44 38 0
-48 40 36 -35 -42 -37 39 -41 -44 38 -67 47 -43 0
-48 -40 42 -39 41 -44 -67 47 43 -45 0
48 42 44 -67 -47 -43 45 0
-48 40 42 -37 -39 41 -44 -38 -67 47 43 -45 -49 46 0
48 33 40 36 -34 -35 -42 -37 -39 41 -44 38 -67 -47 -43 -45 49 -46 -60 50 -52 0
-48 67 -47 -49 -60 -50 52 0
48 44 -67 -47 -45 49 46 60 50 -52 0
-48 67 -47 -49 46 60 50 52 51 -58 0
67 60 -50 52 51 58 53 0
-48 42 -41 -44 67 -47 -43 -45 -49 46 60 50 -52 51 -58 53 0
67 -60 -50 52 51 -58 -53 0
-48 -67 47 49 -60 50 -52 -51 58 -53 -55 0
-48 -33 40 36 -34 35 42 -37 -39 -41 -44 -38 -67 47 -43 -45 49 46 -60 50 -52 51 -58 -53 -55 0
67 -60 58 53 55 63 54 0
67 -60 58 -53 -55 63 -54 0
-48 67 -49 60 50 52 51 58 -53 -55 63 54 0
-67 60 -58 53 -55 -63 54 0
67 -60 -58 -55 63 0
67 60 -58 63 72 59 0
-67 60 -58 -63 72 -59 -61 -65 0
67 -60 -58 63 -72 -59 -61 65 -57 -56 0
-67 60 58 -63 72 -59 61 -65 -57 56 -113 0
67 60 -58 -63 -72 59 -61 -65 -57 -113 0
-67 -60 -58 63 -72 -59 -61 -65 57 -56 -113 0
67 60 -63 72 61 65 -113 0
67 -60 58 63 72 59 -61 65 -57 -56 113 0
-67 63 72 61 -65 113 0
67 -63 -72 -61 65 -113 -64 -62 0
-67 63 72 61 -65 -113 -64 62 66 0
67 -72 -65 113 64 66 0
67 -72 -113 -66 73 -70 0
-67 72 -113 -66 73 -70 80 0
67 72 113 -66 -73 -70 80 0
67 -72 113 73 -70 -80 71 0
-67 -72 -113 -73 -70 -80 71 68 0
113 73 -80 85 93 89 74 -114 75 77 0
-113 73 80 85 93 89 74 -114 -75 77 0
113 -73 80 85 93 89 74 -114 75 -77 107 0
-113 80 85 -93 89 74 114 75 -77 107 82 79 76 84 0
-113 -80 -85 -93 89 -74 -114 -75 -77 -107 -82 79 -76 -84 -115 0
113 -80 85 93 -89 -114 77 107 -82 79 76 -84 115 0
113 80 85 93 -89 -114 77 107 82 79 -76 84 115 -78 96 0
-113 80 -85 -93 89 -74 114 75 77 107 82 -79 -76 84 -115 78 -96 83 0
-113 80 -85 -93 -89 -114 -107 -82 79 84 115 -96 83 87 -95 0
113 80 85 93 89 -114 107 82 84 115 96 83 87 95 -91 81 0
113 -80 85 93 89 74 -114 75 -77 107 82 -79 -76 -84 115 -78 96 -83 87 95 91 -81 0
-113 -80 85 -93 89 -114 -107 82 84 115 -96 83 87 -95 -91 81 0
113 85 93 -89 114 107 -82 84 -115 -96 -83 87 -95 -91 0
-113 -85 -93 89 -114 107 82 84 115 -96 -83 87 -95 -91 0
-113 -80 -85 93 89 114 107 -82 -79 84 115 96 -83 87 -95 -91 81 -86 0
-113 80 -85 -93 -89 -114 107 -82 84 115 -96 -83 -87 95 91 -81 86 -88 94 -90 -100 -116 0
113 80 85 93 -89 -114 107 -82 79 -84 -115 96 -83 87 -95 91 81 -86 -88 -94 90 -100 -116 -97 99 -123 110 104 122 0
113 -93 114 107 -115 96 -95 91 -94 -100 116 -97 -99 123 -110 -104 -122 92 0
-113 93 114 107 115 -96 -95 -91 94 -100 116 -97 -99 123 -110 104 122 92 0
113 114 107 115 -96 -95 100 116 -97 -99 -123 110 -104 122 -98 117 -101 102 0
-113 114 -107 115 100 -116 97 -99 123 -110 -104 122 -98 -117 101 102 0
113 -93 -89 -114 -107 -115 -96 87 95 -91 -86 -88 -94 90 -100 -116 -97 -99 -123 110 104 -122 -92 98 -117 -101 102 -109 103 0
113 114 -107 -115 -96 95 100 -116 -97 -99 123 -110 -104 -122 98 -117 -101 102 -109 103 0
-113 114 -107 -115 -116 123 110 104 122 117 102 109 103 112 -134 0
113 -114 107 -115 -116 123 110 -104 -122 -117 -109 -103 112 -134 118 0
113 80 85 93 -89 114 -107 82 -79 -84 115 96 83 87 95 91 81 -86 -88 -94 90 100 116 97 99 123 110 -104 -122 92 98 -117 -101 102 -109 103 112 134 -118 0
113 -114 -107 -115 96 -100 116 97 -99 -123 -110 104 122 -98 117 -101 102 -109 103 -112 134 118 0
113 -114 107 -115 -116 123 -110 -104 122 -117 -109 -103 -112 -134 -118 0
113 114 -107 -115 116 -123 110 104 -122 -117 -109 112 134 -118 -105 -111 -128 -132 0
113 114 -107 115 116 -123 110 -104 -122 117 109 103 -112 -134 -118 -105 111 128 -132 -106 0
113 114 107 115 -116 123 -110 104 122 -117 -109 -112 -134 118 105 111 -128 132 106 0
113 93 114 -107 -115 96 95 -94 -100 -116 97 99 123 110 -104 -122 92 -98 -117 101 -102 -109 103 -112 134 118 105 111 -128 132 106 -120 0
-113 114 107 115 -116 123 -110 -104 122 -117 102 -109 103 -112 134 -118 -105 -111 -128 132 -106 -120 0
113 93 -114 -107 -115 96 -95 -94 -100 116 97 99 123 -110 104 -122 92 -98 -117 -101 102 -109 -103 112 134 -118 -105 111 128 -132 106 -120 0
113 114 107 115 116 -123 -110 -104 -122 -117 109 -112 134 -118 105 -111 128 -132 -106 120 0
113 114 -107 -115 116 123 -110 104 122 -117 -102 -109 -103 112 -134 -118 -105 -111 128 132 106 120 108 0
113 -114 107 -115 116 -123 110 -122 117 -109 112 -134 -118 -111 128 -132 -106 120 -108 -124 -126 0
113 93 114 107 -115 -96 95 -91 94 100 116 97 -99 123 110 -104 122 -92 -98 -117 101 -102 109 103 -112 134 118 -105 -111 -128 132 106 120 -108 -124 126 0
-113 -114 107 -115 116 123 110 122 -117 109 112 134 118 105 -111 -128 -132 106 120 -108 124 -126 0
-113 -114 107 115 -116 123 110 -104 -122 117 -109 112 -134 -118 -105 111 -128 132 -106 -120 108 -124 126 -119 0
113 114 115 116 -123 -110 -122 -117 109 112 -134 118 111 128 -132 -120 124 -126 119 129 0
-113 -114 -107 -115 -96 -95 -100 116 -97 -99 -123 110 104 122 -98 -117 -101 -102 109 -103 -112 -134 118 -105 111 128 -132 -106 120 -108 -124 -126 119 129 0
113 -114 -107 -115 116 -123 110 104 -122 117 109 112 134 118 -105 111 128 -132 -106 -120 -108 -124 126 -119 129 125 0
-113 -114 107 -115 -116 123 -110 -104 122 117 109 -112 -134 -118 105 -111 -128 -132 106 -120 108 124 -126 -119 129 -125 139 0
-113 114 -107 -115 116 123 110 -104 -122 117 102 109 103 -112 134 -118 -105 111 128 -132 -106 120 108 124 -126 -119 129 -125 -139 0
113 114 -115 -116 123 -122 -117 134 -118 128 132 -120 124 126 -119 129 -125 139 -137 0
-113 93 -114 107 -115 -96 95 -94 100 116 -97 -99 -123 110 -104 -122 -98 117 -101 102 -109 -103 -112 134 -118 105 111 128 -132 -106 -120 108 124 -126 -119 129 125 139 137 0
113 -114 107 115 116 -123 -110 -122 117 109 -112 134 -118 111 -128 132 106 -120 108 -124 -126 119 129 125 -139 137 0
115 116 -123 -122 117 -134 -118 -128 132 120 124 -126 119 129 -125 -139 -137 -121 0
123 122 -134 -118 -128 132 120 -124 -126 119 129 -125 139 -137 -121 127 0
-123 -122 117 -134 -118 128 132 -120 124 126 -119 -129 -125 -139 -137 -121 -127 0
134 128 -132 -129 -139 137 127 130 0
134 128 -132 -129 139 -137 -127 -130 -146 0
-113 114 -115 -116 -123 -122 -117 134 118 128 -132 120 124 -126 -119 129 125 139 137 -121 127 130 146 147 0
-123 122 -117 -134 118 -128 132 -120 -124 126 119 -129 125 -139 -137 121 127 130 -146 147 131 -133 -149 136 -145 0
-134 -132 139 -137 146 -147 133 149 136 -145 -135 0
123 122 -134 -128 132 -124 126 -129 125 -139 137 121 127 -130 146 147 -131 133 -149 136 145 -135 0
-139 -137 -146 -147 149 136 -145 -135 150 0
-139 137 146 147 149 145 150 0
-139 146 -147 -149 145 150 -138 -140 0
146 147 149 -145 150 -140 0
-146 -147 -149 -145 150 140 142 148 -141 0
-146 -147 -149 145 150 -148 -144 -143 0
-146 147 -149 -145 -150 148 -144 143 0
-146 147 -149 145 -150 -148 144 0
146 -147 -149 145 150 148 -144 0
147 -149 -150 -148 0
-146 -147 149 145 150 -148 -144 0
146 -147 149 145 150 148 144 0
-146 -147 -149 -145 150 -148 0
 0
 0
 0
 0
 0
 0
 0
 0
 0
 0
 0
 0
 0
 0
 0
 0
 0
 0
 0
 0
 0
 0
 0
 0
 0
 0
 0
 0
 0
 0
 0
 0
 0
 0
 0
 0
 0
 0
 0
