c Type 1: interval ordering (ordered), n=30, m=40
p cnf 30 40
2 0
-1 -2 -3 0
-2 3 0
-7 0
-7 0
-7 -6 0
7 -6 5 -4 0
 0
9 -29 0
-9 -29 0
9 -29 20 -26 0
-9 -29 20 -26 0
9 29 -20 26 22 0
9 29 20 26 -22 -27 -10 24 0
29 -20 26 22 27 -10 -24 23 11 -13 -16 0
-29 -20 -26 22 27 10 24 -23 11 -13 -16 0
-29 -20 26 22 27 -10 -24 -23 11 -13 -16 -17 28 -30 25 0
29 -20 26 22 27 -10 24 23 -11 -13 -16 -17 -28 30 25 -15 19 -12 14 18 0
29 -20 -26 -22 -27 10 24 23 11 13 16 17 28 -30 25 -15 -19 12 -14 -18 0
-29 20 26 22 -27 10 -24 -23 11 -13 -16 -17 28 30 25 -15 -19 -12 14 18 21 0
-29 20 -26 22 27 10 24 23 -11 13 -16 -17 28 -30 -25 15 -19 -12 -14 -18 -21 0
29 -20 -26 22 27 24 23 -13 16 -17 -28 30 -25 -15 -19 14 -18 -21 0
29 -20 -26 -22 -27 24 -23 16 17 -28 30 25 15 19 18 -21 0
29 -20 26 -22 -27 -24 -23 -16 17 28 30 25 -15 -19 14 18 21 0
-29 -20 -26 22 -27 24 -23 -16 17 -28 30 -25 15 19 -18 -21 0
-29 -20 -26 22 -27 24 -23 28 -30 -25 -19 18 21 0
29 20 26 -22 27 -24 23 28 -30 25 19 21 0
29 -20 26 22 27 10 24 -23 -11 -13 -16 -17 -28 -30 25 -15 -19 12 14 -18 -21 0
29 -20 -26 22 27 24 23 -28 -30 -25 -19 21 0
-29 -20 -26 22 27 24 23 -13 -16 17 28 -30 25 15 19 12 14 -18 21 0
-29 -20 -26 -22 27 -10 24 -23 11 13 16 -17 -28 30 25 -15 -19 12 -14 -18 -21 0
-29 -20 -26 -22 27 24 23 13 -16 -17 28 30 -25 -15 -19 -14 18 -21 0
29 20 26 22 27 24 23 28 -30 -25 19 21 0
29 -20 -26 22 27 -24 23 -16 -17 28 -30 -25 15 -19 18 21 0
29 -20 26 -22 27 24 -23 28 -30 25 -19 21 0
29 20 26 22 -27 24 23 -28 -30 25 -19 -21 0
29 -20 26 22 27 24 23 -28 -30 25 -19 21 0
-29 -20 26 -22 -27 24 23 28 30 25 -21 0
-29 20 26 -22 27 24 23 11 -13 -16 -17 -28 -30 -25 15 -19 12 -14 18 -21 0
-29 -26 -22 -27 24 -23 28 -30 25 21 0
