c Type 1: interval ordering (permuted), n=150, m=180
p cnf 150 180
-99 -14 -111 -2 140 67 66 -41 0
53 -99 68 -14 111 2 -81 -140 67 66 -41 0
 0
-99 -140 -41 -83 -104 -110 -70 79 115 0
 0
51 0
150 -21 -4 -50 26 0
 0
 0
-140 -79 117 28 12 -6 72 43 0
124 -63 -84 -1 29 -65 48 -103 -25 -127 122 0
-108 -90 139 -64 136 125 -113 0
 0
141 -56 -150 -21 -4 50 -26 -101 73 106 -107 -89 85 74 -98 -124 -102 -121 -63 84 33 0
-1 65 -25 -127 -122 16 52 144 0
86 -40 0
141 -56 0
-89 -85 -98 -124 102 63 84 -33 1 -82 129 -126 7 149 -3 -29 65 -48 -11 103 25 0
-89 85 -98 124 -102 121 0
-21 -26 -101 73 106 -107 -89 -85 -74 98 -124 -102 121 -63 -84 -33 62 -1 -82 129 126 7 -149 0
 0
40 0
46 -42 37 30 -61 123 -133 36 53 -116 -93 -99 -134 -5 0
-101 106 -107 89 0
 0
-28 -9 -108 60 -95 -90 -139 64 -136 -125 113 -97 58 18 -77 -131 78 -137 128 -76 75 17 -19 0
-89 85 -98 -124 102 -121 63 84 -33 62 1 82 129 -126 -7 -149 -3 29 -65 48 11 103 -25 127 122 16 52 0
150 -21 -4 -50 0
-46 42 37 -30 -123 133 36 53 116 93 99 -134 5 146 -138 80 -68 145 14 -130 -94 0
 0
46 42 37 -13 24 -20 30 -61 123 133 0
30 -53 -99 -68 14 -130 39 -45 23 -111 55 92 -2 -81 -140 -47 67 -71 -66 0
15 -10 59 51 -46 42 -37 8 13 -24 -20 -30 -61 -123 133 -36 0
-108 -90 139 125 -113 97 58 18 77 131 78 137 128 0
-56 -150 0
-15 10 59 -51 46 -42 -37 8 13 -24 -20 30 61 0
46 -42 37 13 24 -20 30 61 -123 -133 36 53 -116 93 99 134 -5 146 -138 80 68 145 14 130 -94 39 -45 23 111 -55 0
 0
-46 -42 -30 -123 133 -36 -53 116 -93 99 -134 -5 -146 -138 80 -68 -145 -14 130 94 0
59 51 0
-46 -42 37 30 -123 133 36 53 -116 -93 99 -134 5 146 -138 80 68 -145 14 130 94 0
28 9 120 108 60 95 -90 139 -64 -136 -125 113 -97 -58 -18 -77 -131 78 0
-108 90 139 -136 -125 113 -97 58 18 77 -131 0
-124 63 -84 -1 -29 -65 48 103 -25 -127 122 -16 -52 0
-34 -141 -56 0
-76 -75 -17 0
-31 -91 -15 -10 59 51 0
17 19 -22 0
147 -54 49 0
-89 -85 -98 124 -102 -121 63 84 33 -62 -1 -82 -129 126 7 149 0
119 142 143 -118 -147 54 -49 112 -31 -91 15 10 59 -51 -46 -42 -37 -8 -13 24 -20 -30 -61 -123 0
-30 -53 99 68 14 39 45 -23 -111 55 -92 0
84 1 -65 103 25 -127 122 16 -52 144 114 -119 142 -143 118 147 54 49 -112 31 91 -15 -10 0
-141 -56 -150 21 -4 50 26 101 73 -106 107 -89 -85 0
147 54 49 -112 -31 91 -15 10 -59 51 0
28 -9 87 -32 -120 -108 60 95 90 139 64 -136 125 -113 97 58 -18 -77 -131 78 0
40 0
-30 -53 99 146 -68 14 -130 39 -45 -23 111 55 92 0
-108 90 -139 -64 -136 -125 -113 -97 58 -18 77 131 78 0
30 -53 99 146 -68 -14 130 39 0
-101 106 107 89 -85 -74 98 124 -102 0
-30 -53 99 68 14 -23 -111 -55 -92 -2 81 0
-108 -90 -139 64 136 125 -113 -97 58 -18 77 -131 -78 137 128 76 -75 -17 19 -22 -35 -109 86 -40 0
-109 86 -40 0
28 108 60 -95 90 -139 64 -136 125 113 97 58 0
26 101 -73 106 107 -89 -85 -74 98 -124 -102 -121 63 84 -33 62 -1 82 129 -126 7 149 3 -29 65 48 -11 0
53 99 -68 -14 23 111 55 -2 81 140 47 -67 -71 0
 0
-28 -9 120 108 -60 -95 -90 139 0
124 102 63 84 -1 3 -29 0
-53 99 -14 -111 -2 -81 140 67 -66 41 69 0
99 -14 -111 -2 81 -140 -67 -66 41 0
46 42 -37 13 -24 -20 0
-140 -79 -28 -12 -72 43 100 0
-147 54 112 31 91 -15 -10 59 51 -46 -42 37 8 -13 24 -20 30 -61 123 -133 36 53 116 93 -99 -134 5 0
-90 139 -125 113 -97 -58 -18 -77 -131 -78 -137 -128 76 75 17 0
26 0
 0
109 0
99 140 -41 83 104 -70 -79 -115 117 0
-91 -15 10 59 51 46 -42 -37 -8 -13 24 20 -30 0
108 90 -139 -64 -136 125 -113 -97 58 -18 -77 -131 78 -137 128 -76 0
-99 -111 -2 140 67 -41 -44 -83 -104 27 -105 -38 -110 0
51 0
 0
-101 -106 -107 -89 -85 -74 98 124 -102 121 0
-53 99 -68 -14 111 2 -81 140 -67 -66 41 -69 0
30 -123 -53 -99 134 146 -68 -145 14 130 -94 -39 -45 -23 111 55 0
-141 -56 150 -21 4 -50 26 0
 0
79 28 12 -72 -43 100 0
-86 40 0
-89 85 98 124 102 121 63 84 -33 -62 1 82 -129 0
-99 14 -111 -2 140 67 -41 -44 83 -104 -27 105 38 110 0
 0
99 140 41 -83 -104 -110 -70 -79 115 0
-28 -108 95 -90 -139 0
91 15 -10 -59 51 46 42 37 8 -13 -24 -20 -30 61 123 -133 0
 0
 0
30 -123 -53 116 99 134 146 138 80 -68 145 14 130 -94 0
90 139 -125 113 -97 -58 18 -77 131 78 137 -128 -76 75 0
28 -9 -120 -108 60 -95 90 0
15 10 -59 0
75 17 -19 -22 35 -109 -86 40 0
 0
-89 85 98 124 -102 -121 -63 84 33 62 -1 82 129 -126 -7 149 0
-30 123 -133 -36 53 -116 -93 99 134 5 146 -138 0
 0
-21 26 101 73 -106 107 -89 85 74 -98 124 102 -121 -63 -84 33 62 0
76 -75 17 0
-46 -42 37 30 -61 123 -133 36 -53 -116 -93 99 0
-28 108 60 -95 90 139 -64 136 125 113 -97 -58 0
-56 -150 21 -4 50 -26 0
-99 14 111 -2 140 -67 41 44 83 0
 0
89 85 98 -124 102 -63 -84 33 62 1 -82 129 126 7 149 0
46 -42 37 8 13 24 -20 30 61 123 -133 0
 0
 0
118 147 -54 49 -112 0
-1 -25 127 0
 0
46 -42 37 -8 -13 -24 20 0
-127 -122 -16 52 144 -114 0
150 0
-86 40 0
 0
46 42 37 -30 123 133 -36 -53 116 -93 -99 -134 5 146 -138 -80 -68 145 14 130 -94 39 -45 -23 111 -55 92 0
-56 150 -21 4 -50 26 0
99 140 -83 70 -79 115 117 28 -12 -57 -6 88 -72 0
46 -42 37 -30 61 -123 -133 36 53 -116 93 -99 0
118 -147 -54 49 -112 31 91 0
-21 -26 101 73 -106 0
 0
-15 -10 59 0
-46 42 -37 30 -123 133 -36 -53 116 0
-28 -9 -120 108 -60 -95 90 -139 64 -136 -125 0
75 -17 -19 22 35 109 -86 0
-30 53 -99 68 -14 -39 0
51 46 -42 37 8 -13 -24 20 -30 61 -123 -133 -36 53 116 93 -99 -134 -5 146 -138 80 -68 -145 -14 0
89 85 98 -124 -102 121 63 84 33 -62 1 82 129 126 7 149 0
 0
35 109 0
-122 0
-59 0
 0
28 -108 -95 -90 -139 -64 -136 125 -113 97 -58 -18 77 -131 -78 -137 -128 0
30 53 -99 -68 14 -23 111 -55 -92 0
-89 85 -98 -124 102 121 63 84 33 62 1 -82 129 -126 7 149 0
-108 -90 -139 125 -113 97 -58 -18 -77 131 -78 0
-28 108 -95 90 139 64 136 -125 -113 97 -58 -18 77 131 78 -137 0
30 -123 -53 116 99 134 -146 -138 -80 68 145 -14 0
-28 9 108 -60 -95 -90 -139 64 -136 -125 -113 -97 -58 18 -77 -131 -78 0
-99 140 -41 -83 70 79 115 117 28 -12 -57 0
-28 148 9 87 -32 120 108 -60 95 0
-46 42 -37 -8 13 -24 -20 30 61 123 -133 -36 53 -116 -93 -99 -134 -5 -146 -138 -80 -68 -145 14 130 94 0
-85 -98 124 102 63 -84 -33 -1 82 129 -126 7 0
59 0
 0
 0
-90 139 125 113 -97 -131 -78 -137 128 76 75 17 19 -22 0
 0
-46 -42 -37 -30 61 123 133 36 53 116 93 99 -134 -5 146 138 -80 0
-147 54 49 -112 -31 -91 -15 10 0
-108 -90 139 64 136 -125 113 -97 -58 -18 77 131 -78 0
-28 -148 -9 -87 32 -120 108 60 95 90 0
-150 -21 -4 50 0
147 -54 -112 31 91 -15 10 -59 -51 46 -42 -37 -8 13 24 -20 -30 -61 -123 133 36 53 116 93 -99 134 -5 -146 -138 -80 -68 -145 0
-140 79 -28 12 -72 -43 0
-90 -139 -125 113 -97 -58 -18 77 -131 78 0
96 -34 0
30 123 53 99 -134 -146 68 -145 14 0
 0
119 -142 -143 -118 147 54 49 112 -31 91 0
-119 142 -143 0
91 0
22 -35 -109 -86 -40 0
140 79 117 28 -12 -6 -72 43 0
 0
