c Type 2: interval ordering (ordered), n=100, m_intervals=100, t=3
p cnf 100 400
2 1 -4 0
-2 1 -4 0
2 -1 4 0
-2 1 -4 0
-2 -1 4 0
-2 1 4 0
-2 1 4 0
2 -1 4 0
2 4 3 0
-2 -4 -3 0
2 -4 -3 0
2 -4 -3 0
-4 -3 5 0
4 3 5 0
-4 -3 5 0
-4 -3 -5 0
4 -3 -5 0
4 -3 -5 0
4 3 -5 0
-4 -3 -5 0
4 -3 -5 0
4 -3 -5 0
4 3 5 0
4 -3 5 0
-4 -3 5 0
4 3 5 0
-4 3 5 0
4 -3 -5 0
4 3 -5 0
4 3 5 0
-4 3 -5 0
-4 3 5 0
-4 3 -5 0
4 3 -5 0
-4 3 -5 0
-4 -3 5 0
4 -3 -5 0
-4 -3 -5 0
4 -3 -5 0
4 3 -5 0
-5 6 -7 0
-5 -6 -7 0
5 6 7 0
5 6 7 0
-7 13 -8 0
7 -13 8 0
7 13 8 0
7 13 -8 0
13 -8 9 0
-13 8 -9 0
-13 8 -9 0
13 -8 -9 0
13 8 9 0
-13 8 9 0
13 -8 9 0
13 -8 9 0
-13 8 9 0
-13 8 9 0
-13 8 9 0
13 8 -9 0
-13 -10 -11 0
13 10 11 0
13 -10 -11 0
-13 10 -11 0
-13 -10 11 0
-13 -10 -11 0
-13 10 11 0
13 10 11 0
13 -10 11 0
13 10 11 0
-13 10 -11 0
13 -10 -11 0
-13 10 -11 0
-13 -10 -11 0
-13 -10 11 0
-13 10 -11 0
-13 11 19 0
-13 -11 19 0
13 -11 19 0
13 -11 19 0
-11 18 12 0
11 -18 12 0
-11 -18 -12 0
-11 18 -12 0
18 36 14 0
18 36 -14 0
-18 -36 -14 0
-18 36 14 0
-18 -23 -36 0
18 23 36 0
18 23 36 0
-18 23 -36 0
19 -18 36 0
19 -18 36 0
19 18 36 0
19 18 36 0
-19 -18 -36 0
-19 18 -36 0
-19 18 -36 0
-19 -18 -36 0
19 -18 -23 0
19 18 -23 0
19 -18 23 0
-19 18 -23 0
19 -18 -23 0
19 18 -23 0
-19 18 23 0
19 18 -23 0
23 36 -17 0
-23 36 17 0
23 -36 17 0
23 36 -17 0
19 23 17 0
-19 -23 17 0
19 23 17 0
19 -23 17 0
-19 23 36 0
-19 23 -36 0
19 -23 -36 0
19 23 36 0
-23 -36 -21 0
23 36 21 0
-23 -36 -21 0
23 -36 21 0
23 36 -35 0
23 36 -35 0
23 -36 35 0
-23 -36 -35 0
36 -40 -31 0
-36 40 31 0
-36 40 -31 0
-36 -40 31 0
-29 -37 31 0
-29 37 31 0
-29 -37 31 0
-29 37 31 0
-25 -26 -27 0
-25 26 -27 0
25 26 27 0
25 26 27 0
39 -40 -35 0
39 -40 35 0
39 -40 35 0
-39 -40 -35 0
-37 31 -28 0
-37 -31 28 0
37 -31 28 0
-37 31 28 0
29 -28 -33 0
29 -28 -33 0
29 -28 33 0
-29 -28 -33 0
36 -38 -41 0
-36 38 -41 0
36 38 -41 0
-36 -38 41 0
-37 38 -42 0
-37 -38 -42 0
37 -38 -42 0
-37 -38 -42 0
40 -35 -42 0
40 35 -42 0
-40 35 -42 0
40 35 -42 0
-37 -38 -34 0
-37 38 -34 0
-37 -38 -34 0
-37 -38 -34 0
39 -40 42 0
-39 40 42 0
-39 -40 42 0
39 40 -42 0
42 -41 -45 0
42 -41 -45 0
42 41 -45 0
-42 -41 -45 0
68 -91 48 0
-68 91 -48 0
68 91 48 0
68 -91 -48 0
45 53 48 0
-45 53 -48 0
-45 -53 -48 0
45 53 -48 0
45 -53 44 0
-45 -53 -44 0
45 -53 44 0
-45 53 44 0
-53 43 -91 0
53 -43 91 0
53 43 -91 0
53 -43 -91 0
45 -43 91 0
-45 43 91 0
45 43 91 0
-45 43 -91 0
45 43 46 0
-45 43 46 0
-45 -43 46 0
-45 43 -46 0
46 -49 64 0
46 -49 -64 0
-46 -49 -64 0
46 -49 -64 0
48 -46 64 0
-48 46 64 0
-48 46 -64 0
48 46 -64 0
48 56 51 0
48 56 -51 0
-48 56 51 0
-48 56 51 0
91 56 98 0
-91 56 98 0
-91 -56 98 0
-91 -56 98 0
-91 48 51 0
91 -48 51 0
-91 48 -51 0
-91 -48 51 0
49 56 54 0
49 56 -54 0
-49 56 -54 0
49 -56 54 0
-53 -52 51 0
53 52 -51 0
-53 52 51 0
-53 52 51 0
-68 98 54 0
-68 -98 -54 0
-68 98 -54 0
-68 98 -54 0
-91 -56 -51 0
-91 56 -51 0
-91 -56 51 0
91 -56 -51 0
91 51 70 0
91 -51 70 0
-91 51 70 0
-91 -51 70 0
-68 56 -60 0
68 -56 -60 0
-68 -56 -60 0
-68 -56 -60 0
-53 -51 -70 0
53 -51 70 0
-53 -51 70 0
-53 -51 70 0
-91 52 -64 0
91 -52 64 0
-91 -52 -64 0
91 -52 -64 0
-91 56 82 0
-91 56 -82 0
-91 -56 -82 0
91 56 82 0
-75 -58 95 0
-75 -58 95 0
-75 -58 -95 0
-75 -58 95 0
-60 -67 -95 0
60 67 -95 0
60 -67 -95 0
-60 67 -95 0
64 -56 -98 0
64 -56 98 0
64 -56 98 0
64 56 98 0
-56 75 -89 0
56 -75 -89 0
56 -75 89 0
56 -75 89 0
68 -91 -58 0
-68 91 -58 0
68 -91 58 0
-68 91 -58 0
-59 -75 62 0
59 75 62 0
-59 75 62 0
-59 75 62 0
57 73 72 0
57 -73 -72 0
-57 73 -72 0
-57 73 72 0
60 -59 65 0
60 -59 -65 0
-60 -59 65 0
-60 -59 65 0
91 -75 -65 0
-91 -75 -65 0
91 75 -65 0
-91 -75 65 0
-70 62 -82 0
-70 62 82 0
-70 62 82 0
70 62 82 0
-62 -73 65 0
-62 -73 65 0
-62 -73 65 0
-62 -73 -65 0
68 -62 -89 0
68 -62 -89 0
-68 62 89 0
68 62 89 0
-62 -89 65 0
-62 89 65 0
-62 -89 -65 0
-62 -89 65 0
-98 -75 -61 0
98 -75 61 0
98 75 -61 0
98 -75 61 0
-95 97 63 0
-95 97 -63 0
95 -97 -63 0
95 -97 -63 0
98 70 82 0
98 70 -82 0
98 70 -82 0
98 -70 -82 0
-68 70 95 0
-68 -70 -95 0
68 -70 95 0
-68 -70 95 0
-82 97 86 0
82 97 86 0
-82 97 86 0
82 97 86 0
-75 69 -86 0
75 69 -86 0
75 69 86 0
-75 69 -86 0
-91 -72 -80 0
91 72 80 0
-91 72 80 0
-91 72 80 0
75 89 83 0
-75 89 -83 0
-75 -89 83 0
-75 89 83 0
-95 -86 -87 0
-95 -86 -87 0
95 86 -87 0
-95 86 87 0
-72 -83 96 0
72 -83 96 0
72 -83 96 0
-72 83 96 0
91 -83 90 0
-91 -83 -90 0
91 83 -90 0
-91 83 -90 0
-91 -75 97 0
91 75 -97 0
-91 75 -97 0
91 -75 -97 0
-95 -90 99 0
95 90 -99 0
-95 90 99 0
95 -90 99 0
-82 85 76 0
82 -85 76 0
82 -85 76 0
-82 -85 76 0
95 77 -94 0
-95 77 -94 0
-95 -77 -94 0
95 77 -94 0
-75 -95 -94 0
75 95 -94 0
75 -95 -94 0
-75 95 -94 0
-96 -99 -76 0
-96 99 76 0
-96 -99 76 0
96 -99 76 0
-97 -80 94 0
-97 80 -94 0
-97 -80 -94 0
97 80 94 0
-98 82 -79 0
-98 82 -79 0
98 -82 -79 0
98 -82 79 0
-89 86 -100 0
-89 -86 -100 0
89 -86 -100 0
89 -86 -100 0
89 97 -80 0
-89 -97 -80 0
89 97 -80 0
-89 -97 80 0
-97 85 87 0
-97 -85 87 0
97 85 87 0
97 85 -87 0
81 92 -79 0
-81 -92 79 0
-81 92 -79 0
81 92 -79 0
