c Type 2: interval ordering (ordered), n=100, m_intervals=100, t=4
p cnf 100 400
11 -17 -5 -2 0
-11 17 5 2 0
11 17 5 -2 0
11 -17 -5 -2 0
-11 -17 5 2 0
-11 17 -5 2 0
-11 -17 5 -2 0
-11 -17 5 -2 0
11 -5 2 14 0
11 5 -2 -14 0
-11 -5 2 14 0
11 -5 -2 -14 0
-11 5 -2 14 0
11 -5 -2 -14 0
-11 -5 -2 -14 0
11 -5 -2 -14 0
5 -2 14 -16 0
-5 2 -14 -16 0
5 2 -14 -16 0
-5 -2 14 -16 0
11 -17 -5 -14 0
-11 -17 -5 14 0
-11 -17 -5 -14 0
11 17 5 14 0
11 14 16 -7 0
-11 14 -16 7 0
11 14 16 7 0
11 -14 -16 -7 0
-11 -16 -7 4 0
-11 -16 -7 4 0
11 -16 -7 -4 0
-11 -16 7 -4 0
-11 14 16 -30 0
-11 -14 -16 30 0
-11 -14 16 30 0
11 -14 16 30 0
-11 -5 30 -29 0
11 -5 -30 29 0
11 -5 -30 -29 0
-11 -5 -30 29 0
-5 16 30 -29 0
-5 16 -30 -29 0
5 -16 30 -29 0
-5 16 30 -29 0
11 5 -16 6 0
11 5 16 6 0
11 -5 -16 -6 0
11 5 16 -6 0
14 -9 -8 -12 0
-14 9 8 12 0
14 9 -8 12 0
14 -9 -8 -12 0
-12 -35 -13 -25 0
-12 35 -13 -25 0
12 35 -13 -25 0
-12 35 -13 25 0
-16 30 -29 13 0
-16 -30 29 13 0
-16 30 29 13 0
-16 -30 29 -13 0
17 -16 29 35 0
17 -16 -29 -35 0
17 -16 -29 35 0
17 16 -29 35 0
-17 -16 -30 35 0
17 -16 -30 -35 0
17 16 -30 -35 0
-17 -16 -30 35 0
30 -25 26 21 0
30 25 -26 -21 0
30 -25 -26 -21 0
-30 -25 26 21 0
-16 29 -35 -26 0
-16 29 35 -26 0
16 -29 -35 26 0
16 29 35 -26 0
-17 26 19 51 0
17 -26 -19 51 0
-17 26 -19 51 0
17 26 -19 51 0
-30 21 -36 24 0
30 21 36 24 0
30 21 36 24 0
30 -21 36 -24 0
-25 -51 43 22 0
-25 -51 43 -22 0
25 51 43 22 0
-25 -51 -43 -22 0
30 29 -35 -25 0
-30 -29 -35 25 0
30 29 -35 25 0
-30 29 35 -25 0
29 36 -43 22 0
-29 36 43 -22 0
-29 36 -43 -22 0
-29 36 -43 22 0
-35 25 26 -51 0
-35 -25 26 51 0
-35 -25 -26 51 0
-35 25 26 51 0
30 29 51 -36 0
-30 29 -51 -36 0
30 29 51 -36 0
30 29 51 -36 0
-30 -29 36 -43 0
-30 29 -36 43 0
-30 -29 -36 -43 0
30 -29 -36 -43 0
-30 51 36 -43 0
-30 -51 36 -43 0
30 -51 36 43 0
-30 -51 36 -43 0
30 36 -31 -32 0
-30 36 31 -32 0
-30 36 -31 32 0
30 -36 31 -32 0
-35 -43 34 -45 0
35 43 -34 -45 0
35 -43 34 45 0
35 -43 -34 45 0
-36 -43 33 -45 0
-36 -43 -33 45 0
-36 -43 33 45 0
36 -43 -33 45 0
-35 -51 -34 -45 0
-35 51 34 -45 0
35 51 -34 -45 0
35 -51 -34 -45 0
51 46 -45 -60 0
51 -46 45 60 0
51 46 45 -60 0
51 46 -45 60 0
-43 -45 -40 39 0
43 -45 -40 39 0
43 -45 -40 39 0
-43 -45 -40 39 0
43 46 45 -49 0
-43 46 -45 49 0
43 -46 -45 -49 0
-43 -46 45 49 0
51 46 45 60 0
-51 46 -45 -60 0
-51 -46 45 60 0
51 46 -45 60 0
51 45 -60 49 0
-51 45 -60 -49 0
-51 45 -60 49 0
-51 45 -60 49 0
51 -46 45 -60 0
-51 -46 -45 -60 0
-51 46 -45 -60 0
-51 46 45 60 0
43 46 45 49 0
-43 -46 45 -49 0
43 46 45 -49 0
-43 46 45 -49 0
51 46 -45 60 0
51 46 45 -60 0
-51 46 -45 60 0
51 46 -45 -60 0
46 45 60 -41 0
-46 45 -60 -41 0
-46 -45 60 -41 0
46 45 -60 41 0
51 45 60 -49 0
51 45 -60 -49 0
-51 -45 -60 -49 0
51 45 60 -49 0
46 -45 60 -49 0
-46 45 -60 -49 0
-46 45 -60 49 0
-46 -45 60 -49 0
51 -45 60 -49 0
51 45 60 -49 0
-51 45 60 -49 0
51 -45 60 49 0
-45 -60 -49 -47 0
-45 60 -49 -47 0
45 -60 49 -47 0
45 -60 49 47 0
-51 46 -47 50 0
-51 46 47 50 0
-51 46 -47 50 0
51 46 -47 50 0
-51 46 60 47 0
-51 -46 60 47 0
-51 -46 -60 -47 0
51 -46 60 47 0
51 60 -47 44 0
-51 60 47 44 0
51 60 47 -44 0
51 -60 47 -44 0
51 46 -45 60 0
51 46 -45 -60 0
51 46 -45 60 0
51 -46 45 -60 0
-51 -46 45 -60 0
51 46 45 -60 0
-51 46 45 60 0
51 -46 45 60 0
-51 -46 -60 52 0
51 -46 60 52 0
-51 46 60 52 0
51 -46 60 52 0
49 -47 50 -52 0
49 -47 50 -52 0
49 -47 50 52 0
-49 -47 -50 -52 0
51 60 -50 52 0
51 60 50 -52 0
51 60 -50 52 0
-51 -60 50 52 0
-51 58 73 81 0
51 58 73 -81 0
-51 -58 -73 -81 0
51 58 73 -81 0
60 -50 58 73 0
-60 50 58 73 0
-60 50 58 -73 0
60 50 -58 -73 0
60 73 81 -53 0
60 73 81 53 0
60 73 81 53 0
-60 -73 -81 -53 0
-51 60 -52 54 0
51 -60 52 -54 0
51 -60 52 -54 0
-51 -60 -52 -54 0
51 -60 -73 81 0
51 -60 73 81 0
-51 60 -73 -81 0
-51 60 73 81 0
60 -58 73 72 0
-60 58 -73 -72 0
-60 58 -73 -72 0
60 58 -73 -72 0
-58 -53 -72 -77 0
-58 -53 72 -77 0
-58 53 -72 77 0
-58 -53 -72 -77 0
60 -52 54 77 0
-60 -52 54 77 0
-60 52 54 -77 0
-60 -52 -54 77 0
58 -54 -72 77 0
-58 -54 72 77 0
-58 -54 72 -77 0
-58 -54 -72 -77 0
58 -73 54 -72 0
58 -73 54 -72 0
-58 -73 -54 -72 0
58 73 -54 72 0
73 54 55 77 0
-73 -54 -55 -77 0
-73 -54 55 77 0
73 -54 -55 -77 0
58 73 -77 -57 0
58 73 77 57 0
58 73 -77 -57 0
-58 -73 77 -57 0
58 -55 77 59 0
-58 -55 77 -59 0
-58 -55 -77 -59 0
58 -55 77 -59 0
77 -57 -69 -56 0
77 57 69 56 0
77 -57 69 -56 0
77 -57 -69 -56 0
-60 -73 -72 -67 0
60 73 -72 -67 0
60 -73 -72 67 0
-60 73 72 67 0
-81 72 -69 -66 0
81 -72 -69 66 0
-81 -72 -69 66 0
81 72 69 -66 0
60 81 -59 -62 0
-60 -81 59 62 0
60 81 59 62 0
-60 81 -59 62 0
-73 77 67 -61 0
73 -77 67 61 0
-73 -77 67 -61 0
-73 77 -67 -61 0
-73 67 -66 61 0
73 -67 -66 -61 0
-73 -67 66 61 0
73 -67 66 61 0
73 -81 -72 -77 0
73 -81 -72 77 0
-73 81 72 -77 0
-73 -81 72 77 0
-81 67 64 63 0
-81 -67 -64 63 0
-81 67 -64 -63 0
81 67 -64 -63 0
-81 69 -67 -70 0
81 69 -67 -70 0
-81 -69 -67 70 0
81 69 -67 -70 0
-73 -81 66 80 0
73 81 -66 -80 0
-73 -81 66 -80 0
73 81 66 80 0
81 -67 -66 -76 0
81 67 66 -76 0
-81 67 -66 76 0
-81 -67 66 -76 0
77 -70 -80 87 0
77 -70 -80 -87 0
77 -70 -80 87 0
-77 70 -80 -87 0
-87 83 -82 -74 0
-87 83 82 -74 0
87 -83 82 74 0
87 83 -82 74 0
-77 80 87 76 0
77 80 87 -76 0
77 -80 -87 76 0
-77 80 87 -76 0
77 80 -83 -79 0
77 -80 83 -79 0
-77 -80 -83 -79 0
-77 -80 -83 -79 0
-73 81 83 -71 0
-73 81 -83 71 0
73 81 83 71 0
73 81 83 71 0
73 -77 75 -78 0
73 77 75 -78 0
73 77 -75 -78 0
-73 -77 75 78 0
77 83 -78 -90 0
-77 -83 78 -90 0
77 -83 78 -90 0
77 83 78 -90 0
-81 -80 90 84 0
81 -80 -90 84 0
-81 -80 90 -84 0
81 80 90 -84 0
-81 87 78 -84 0
-81 -87 78 84 0
81 87 78 84 0
-81 87 -78 84 0
-80 -79 78 84 0
80 79 78 84 0
-80 -79 -78 -84 0
80 79 78 84 0
-80 87 -84 -85 0
80 87 -84 85 0
80 -87 -84 85 0
-80 87 -84 -85 0
-81 80 -82 -84 0
-81 -80 -82 84 0
81 -80 82 84 0
-81 -80 -82 84 0
83 90 -84 85 0
-83 90 -84 85 0
-83 90 84 85 0
83 90 -84 -85 0
-87 -84 -89 -85 0
-87 -84 -89 -85 0
-87 -84 89 85 0
87 84 89 85 0
87 84 -85 -91 0
87 84 -85 -91 0
87 84 -85 -91 0
-87 84 85 91 0
87 -90 -84 89 0
87 90 -84 89 0
87 90 -84 -89 0
-87 90 -84 89 0
-87 89 -91 86 0
-87 89 91 86 0
87 89 91 86 0
-87 89 -91 86 0
90 89 91 92 0
90 89 -91 -92 0
90 89 91 -92 0
-90 -89 91 92 0
-91 -92 94 -99 0
-91 -92 94 99 0
91 92 94 99 0
91 -92 94 99 0
92 -94 -99 -100 0
92 94 -99 -100 0
-92 -94 99 -100 0
-92 -94 99 -100 0
91 -94 -93 -99 0
91 -94 93 99 0
91 94 -93 -99 0
-91 94 93 99 0
-95 -99 96 97 0
-95 -99 -96 -97 0
95 99 -96 97 0
-95 -99 -96 -97 0
95 100 96 97 0
95 -100 -96 97 0
95 100 96 97 0
95 -100 96 -97 0
