c Type 2: interval ordering (permuted), n=25, m_intervals=25, t=4
p cnf 25 100
12 -15 -23 -20 0
15 -20 8 1 0
-4 11 -3 -5 0
-20 -17 -9 18 0
-12 15 23 20 0
-15 -8 17 25 0
-15 23 8 -16 0
15 -20 17 9 0
-4 -11 3 -5 0
-4 -11 3 -5 0
-4 -3 -5 19 0
-15 -20 -17 9 0
5 12 -15 23 0
15 -20 -17 -9 0
12 -15 -23 -20 0
4 13 11 3 0
12 -15 -23 -20 0
15 23 -8 -16 0
15 8 -22 2 0
-15 -20 -16 -22 0
-15 8 -17 -25 0
12 -15 -23 20 0
-4 -11 -3 5 0
-12 15 -23 20 0
12 -15 -23 -20 0
4 13 11 -3 0
4 -5 -19 12 0
-4 11 -3 5 0
20 -8 16 -22 0
-15 8 -17 25 0
15 20 17 9 0
5 12 -15 -23 0
-4 5 19 12 0
4 -3 19 7 0
-4 11 -5 -19 0
-17 -25 24 10 0
-12 15 23 20 0
5 -12 -15 -23 0
-4 -13 -11 3 0
-15 -23 -8 16 0
5 12 -14 -15 0
17 -25 -24 10 0
-5 -12 -14 -15 0
15 -20 -8 1 0
-12 -15 -23 -8 0
4 -3 5 19 0
-4 -13 -11 3 0
20 -8 16 -22 0
12 15 -23 -8 0
4 5 -19 12 0
15 -20 -8 1 0
15 8 -22 -2 0
12 15 23 20 0
-12 15 -23 -20 0
-12 15 -23 -20 0
4 -5 19 -12 0
15 20 16 22 0
-4 -3 -19 7 0
5 12 14 -15 0
4 -11 -5 -19 0
17 -25 24 10 0
-12 -15 23 20 0
12 -15 -23 20 0
12 15 -23 -8 0
-15 -8 17 25 0
-12 15 23 20 0
-20 -17 -9 -18 0
12 -15 -23 -20 0
4 -5 -19 -12 0
-15 8 -22 -2 0
4 13 11 3 0
-4 3 19 -7 0
-20 -17 9 -18 0
-4 -11 3 5 0
-15 23 8 -16 0
-4 -11 -3 -5 0
-15 -20 16 22 0
4 5 -19 12 0
-4 13 11 -3 0
4 13 11 3 0
15 8 22 2 0
-4 -11 3 5 0
-4 -5 19 -12 0
4 3 -19 -7 0
-15 -20 -8 1 0
12 15 23 8 0
4 3 -5 -19 0
20 -8 -16 22 0
-17 -25 -24 -10 0
-15 -20 16 22 0
12 15 -23 -20 0
-20 8 -16 22 0
4 -5 19 -12 0
4 3 5 -19 0
20 17 -9 -18 0
-4 13 11 -3 0
-4 -11 -5 -19 0
4 -11 -5 19 0
-5 12 -14 15 0
-5 -12 -15 -23 0
