c Type 2: interval ordering (ordered), n=50, m_intervals=50, t=4
p cnf 50 200
2 -1 5 3 0
-2 1 -5 -3 0
2 1 -5 -3 0
-2 -1 5 3 0
-2 1 -5 3 0
-2 -1 5 3 0
-2 -1 5 3 0
2 -1 5 3 0
2 -1 5 -3 0
2 -1 -5 3 0
-2 -1 5 -3 0
-2 -1 -5 -3 0
2 -1 5 3 0
2 -1 -5 -3 0
-2 1 -5 -3 0
2 -1 5 3 0
-2 1 -5 3 0
2 1 5 3 0
-2 1 5 3 0
-2 1 -5 3 0
-2 -1 -5 -3 0
-2 -1 5 3 0
-2 -1 -5 3 0
2 1 5 -3 0
2 5 -3 4 0
2 5 3 4 0
-2 -5 -3 -4 0
2 5 -3 4 0
-5 6 -7 -8 0
5 6 7 8 0
-5 6 7 8 0
5 6 7 8 0
-6 7 -8 -19 0
6 -7 8 -19 0
6 7 8 -19 0
-6 7 -8 -19 0
-7 -8 -19 -9 0
-7 -8 19 9 0
-7 -8 19 9 0
7 -8 19 9 0
8 19 -9 11 0
-8 19 9 -11 0
-8 -19 9 11 0
8 19 9 -11 0
-8 19 -9 -11 0
8 19 9 11 0
-8 19 9 -11 0
8 19 -9 11 0
8 -19 -9 -11 0
-8 -19 9 11 0
-8 19 9 11 0
8 -19 9 -11 0
8 19 -9 11 0
8 -19 9 -11 0
-8 -19 9 -11 0
8 19 -9 11 0
8 -19 -9 11 0
8 19 9 -11 0
-8 -19 -9 11 0
8 19 -9 -11 0
-19 9 -11 -10 0
-19 9 -11 10 0
-19 9 -11 -10 0
19 9 -11 -10 0
-19 9 -11 -10 0
19 9 11 10 0
-19 9 -11 -10 0
-19 9 11 10 0
19 11 -10 17 0
-19 11 -10 17 0
19 11 -10 -17 0
-19 -11 10 -17 0
19 11 -17 -18 0
-19 11 17 18 0
-19 11 -17 -18 0
-19 -11 -17 18 0
-19 -11 -17 18 0
-19 11 -17 18 0
19 -11 -17 18 0
19 11 -17 18 0
19 11 17 18 0
19 11 -17 18 0
-19 -11 -17 -18 0
19 -11 -17 -18 0
19 11 17 -18 0
19 -11 -17 -18 0
19 11 -17 18 0
-19 11 -17 -18 0
-19 11 17 18 0
19 11 17 -18 0
19 -11 17 18 0
-19 -11 -17 18 0
-19 -11 -17 -18 0
19 -11 17 18 0
-19 -11 17 -18 0
-19 -11 17 18 0
19 -11 17 23 0
-19 11 -17 23 0
-19 11 17 -23 0
19 11 17 23 0
-19 -17 18 -16 0
19 17 -18 16 0
19 -17 18 -16 0
-19 -17 -18 16 0
17 -18 -23 -16 0
-17 -18 -23 -16 0
-17 18 23 16 0
-17 -18 23 -16 0
17 -18 -23 14 0
17 -18 -23 -14 0
-17 18 -23 14 0
17 18 -23 14 0
-17 -16 15 22 0
17 16 15 -22 0
-17 16 15 22 0
17 16 15 22 0
19 -18 23 20 0
-19 -18 23 20 0
19 -18 -23 -20 0
19 -18 23 -20 0
19 -18 -32 25 0
19 -18 -32 25 0
19 18 -32 25 0
-19 -18 32 -25 0
-23 -25 37 -21 0
23 -25 -37 21 0
-23 25 37 21 0
23 -25 -37 21 0
-23 32 39 -21 0
-23 -32 39 21 0
-23 32 -39 -21 0
-23 -32 -39 -21 0
39 22 -28 29 0
-39 -22 28 -29 0
39 -22 -28 29 0
39 22 -28 29 0
-24 37 38 -31 0
-24 -37 38 31 0
24 -37 -38 -31 0
24 -37 38 -31 0
-39 22 -25 -24 0
39 22 -25 -24 0
39 22 -25 -24 0
39 22 25 -24 0
-23 39 22 37 0
23 -39 -22 37 0
23 39 -22 37 0
-23 39 22 -37 0
-32 -28 -38 -31 0
32 -28 38 31 0
32 28 38 -31 0
-32 28 -38 -31 0
-32 -39 37 29 0
32 -39 -37 -29 0
-32 39 37 -29 0
-32 -39 37 29 0
32 -28 -38 -31 0
-32 28 -38 -31 0
32 -28 -38 31 0
32 -28 -38 -31 0
-39 37 31 26 0
39 37 -31 26 0
-39 -37 31 -26 0
39 -37 -31 -26 0
-39 -25 -31 26 0
39 -25 31 26 0
39 25 -31 -26 0
39 -25 31 26 0
-37 -29 -31 26 0
37 -29 31 26 0
-37 -29 -31 -26 0
-37 -29 31 26 0
32 38 -36 48 0
32 -38 36 48 0
32 -38 -36 48 0
-32 38 36 -48 0
37 -28 -29 -34 0
-37 28 -29 34 0
37 -28 -29 34 0
37 -28 -29 -34 0
-39 48 43 33 0
39 -48 43 -33 0
-39 -48 43 -33 0
-39 -48 43 33 0
44 48 -40 43 0
44 48 -40 -43 0
-44 48 -40 -43 0
-44 -48 -40 -43 0
38 36 -42 43 0
38 36 -42 -43 0
38 36 42 43 0
-38 36 42 -43 0
-39 36 48 -43 0
39 36 -48 -43 0
-39 -36 -48 43 0
-39 -36 48 -43 0
-39 37 38 47 0
-39 -37 38 -47 0
-39 37 -38 -47 0
-39 -37 -38 47 0
