c Type 2: interval ordering (permuted), n=50, m_intervals=50, t=3
p cnf 50 200
48 -45 -3 0
48 45 -3 0
42 23 -2 0
16 -33 39 0
-15 -21 32 0
-43 5 13 0
-16 33 39 0
43 -13 -47 0
22 -10 -7 0
-6 -8 34 0
10 -7 25 0
23 -2 -35 0
-37 17 41 0
-43 -5 13 0
14 -15 21 0
43 13 -47 0
-23 2 28 0
22 10 7 0
-48 -45 -3 0
-19 -30 -22 0
-16 33 -39 0
-37 -17 -41 0
16 33 39 0
-29 -14 -38 0
-15 21 -32 0
-42 -23 -2 0
29 14 -38 0
-36 -29 -14 0
-27 26 50 0
-19 -30 -22 0
14 -38 15 0
19 30 -22 0
-1 -24 -43 0
-48 -45 3 0
-11 -19 12 0
-23 -35 27 0
37 -17 -41 0
29 14 -38 0
43 -5 13 0
-48 -45 -3 0
-42 23 -2 0
14 15 -21 0
-15 21 32 0
29 14 -38 0
-2 -28 -35 0
29 -14 38 0
-29 -14 38 0
-37 17 41 0
48 45 3 0
-1 43 5 0
-40 42 -23 0
-10 7 25 0
-40 42 23 0
-37 -17 41 0
29 14 38 0
-23 35 -27 0
-16 33 39 0
-43 -13 -47 0
-1 -43 -5 0
48 45 3 0
15 -21 -32 0
-11 19 12 0
48 -45 3 0
42 23 -2 0
-27 26 50 0
-16 -33 39 0
-16 33 -39 0
-40 -42 23 0
48 45 -3 0
-37 -17 41 0
-1 -43 -5 0
-23 35 -27 0
-37 16 -33 0
10 7 25 0
1 24 43 0
-48 -45 3 0
2 -28 35 0
37 16 33 0
37 -16 33 0
37 -16 -33 0
6 8 -34 0
37 17 -41 0
-23 -2 28 0
-37 17 41 0
-48 -45 3 0
37 -17 41 0
-48 45 -3 0
-43 -5 -13 0
43 13 47 0
43 -13 -47 0
-40 -42 23 0
-23 -2 35 0
-42 23 2 0
-37 17 -41 0
11 -19 -12 0
-43 5 13 0
14 38 15 0
48 -45 -3 0
29 -14 38 0
-15 21 -32 0
-31 -37 -17 0
-42 -23 2 0
36 -29 -14 0
-48 45 -3 0
11 19 -12 0
1 24 -43 0
-15 -21 32 0
-48 45 3 0
29 -14 -38 0
48 -45 -3 0
22 -10 7 0
16 -33 39 0
-6 8 34 0
-10 -7 25 0
48 45 3 0
-14 -15 -21 0
-1 43 -5 0
11 -19 -12 0
-42 -23 -2 0
43 13 -47 0
-43 -13 47 0
11 19 12 0
-16 33 39 0
-11 -19 12 0
-10 7 -25 0
48 45 3 0
11 19 12 0
-29 14 38 0
-48 45 3 0
-15 -21 -32 0
-33 -11 -19 0
31 37 17 0
-2 28 -35 0
-27 26 -50 0
22 -10 -7 0
-16 -33 -39 0
-23 35 27 0
48 -45 3 0
37 -17 -41 0
11 -19 12 0
-15 21 32 0
23 -2 28 0
29 -14 -38 0
-11 -19 12 0
16 -33 39 0
33 -11 -19 0
14 38 -15 0
-1 24 -43 0
48 45 -3 0
-31 37 -17 0
-23 -2 -35 0
-43 13 47 0
2 -28 35 0
27 -26 50 0
-33 -11 19 0
29 14 -38 0
16 33 -39 0
6 -8 -34 0
23 2 -28 0
-48 -45 -3 0
-43 -5 13 0
-10 -7 -25 0
33 11 19 0
48 -45 -3 0
42 23 -2 0
-43 -5 13 0
-31 -37 17 0
29 -14 -38 0
11 19 -12 0
29 -14 38 0
42 -23 -2 0
48 -45 -3 0
14 -15 -21 0
-42 23 2 0
-48 45 3 0
-14 38 -15 0
-10 -7 -25 0
-23 2 35 0
43 13 -47 0
-43 13 47 0
11 19 12 0
-48 -45 3 0
-15 21 32 0
-42 -23 2 0
48 -45 -3 0
15 -21 -32 0
-42 23 2 0
-37 -17 41 0
-48 45 3 0
36 -29 -14 0
-19 30 -22 0
-43 13 -47 0
15 21 32 0
15 -21 32 0
10 7 -25 0
43 -5 13 0
29 14 38 0
-36 29 -14 0
-43 -13 -47 0
-29 14 38 0
