c Type 2: n=1000, t=3
p cnf 1000 4000
509 557 -724 0
-181 215 -83 0
894 219 -843 0
742 -446 978 0
25 -695 651 0
96 467 -773 0
-693 -100 741 0
6 -625 583 0
845 -141 -606 0
606 751 762 0
104 -298 -551 0
-411 -763 438 0
-595 -212 764 0
-724 625 191 0
-318 -757 -694 0
671 -451 967 0
243 480 -484 0
503 375 55 0
-349 795 204 0
879 742 473 0
724 625 -954 0
838 -62 620 0
743 399 567 0
902 691 -583 0
-179 176 302 0
6 -113 193 0
859 60 -525 0
-598 -256 332 0
882 491 -591 0
-476 -102 -158 0
956 -746 -773 0
-893 638 389 0
587 -838 -323 0
744 871 -467 0
658 -290 -860 0
-188 -436 991 0
879 -742 -473 0
-985 476 394 0
621 867 -129 0
313 155 -138 0
37 -224 -622 0
718 44 748 0
-850 -980 964 0
-380 -840 997 0
158 251 736 0
-353 150 762 0
310 -143 892 0
892 960 194 0
-123 801 -387 0
-807 200 290 0
-110 -130 -519 0
123 364 -933 0
850 980 964 0
-359 -388 -717 0
-849 -364 180 0
-519 -893 312 0
-48 -669 105 0
80 74 759 0
-123 -801 387 0
-312 -615 -409 0
-807 929 420 0
-476 158 275 0
445 68 224 0
59 -542 -833 0
-285 216 -307 0
155 -735 -842 0
-956 -746 773 0
-755 -861 188 0
-846 -63 390 0
-476 -824 -911 0
-381 -475 -690 0
211 894 414 0
-847 -841 -265 0
876 -731 685 0
-480 -666 -381 0
181 -376 -829 0
624 -57 304 0
-456 900 -633 0
859 -60 -525 0
-759 316 -181 0
-96 -467 -773 0
563 -210 -149 0
-659 456 -905 0
498 635 -202 0
957 -215 -629 0
-813 -212 -427 0
-295 -169 153 0
-759 404 167 0
-123 490 598 0
940 250 58 0
-664 -576 777 0
12 25 -959 0
211 94 584 0
-81 474 -244 0
-451 504 -859 0
181 629 435 0
128 -575 910 0
-96 919 -773 0
-107 659 -881 0
-353 -531 -118 0
-838 145 -62 0
673 440 438 0
934 883 -169 0
-229 -976 -269 0
-892 -722 -581 0
6 -724 -68 0
6 333 -160 0
-659 -56 -881 0
-12 -607 -427 0
595 -211 769 0
-217 -852 -700 0
6 333 -534 0
-70 -111 -267 0
-755 -861 -188 0
991 48 -828 0
662 -90 -513 0
-123 490 827 0
-845 735 -141 0
598 -256 -332 0
-809 311 -410 0
887 468 755 0
125 859 99 0
846 63 390 0
680 -985 476 0
516 374 -692 0
900 -127 39 0
-456 900 633 0
-699 379 907 0
-390 -805 -408 0
511 -853 211 0
96 -746 247 0
-801 680 -933 0
-73 223 709 0
6 -28 776 0
-849 -933 -180 0
-593 536 891 0
-269 -71 608 0
898 -579 38 0
-310 143 -892 0
-759 1000 -316 0
-399 335 -717 0
-879 -359 337 0
-401 -35 971 0
633 -326 72 0
-838 -145 -834 0
713 -573 -424 0
-380 382 -811 0
-823 -295 -400 0
809 -523 -369 0
-489 -125 760 0
353 -43 472 0
-503 375 55 0
-128 -390 815 0
28 -509 557 0
113 -445 510 0
838 -620 137 0
-310 -143 -892 0
-868 -784 -273 0
-557 -907 -954 0
390 -456 983 0
427 -840 248 0
-233 -763 440 0
-211 -901 146 0
833 -483 -60 0
102 553 -158 0
621 -979 -541 0
-759 -1000 181 0
-951 -383 -514 0
-203 -744 298 0
-921 -763 -438 0
211 894 414 0
476 824 -119 0
318 -441 -525 0
-598 -256 -332 0
353 118 -851 0
280 -490 -827 0
6 -333 -28 0
-841 961 -839 0
181 -629 222 0
179 -176 302 0
759 -316 -181 0
-128 -797 815 0
-557 -954 113 0
941 832 253 0
-871 168 641 0
-765 452 650 0
-232 544 138 0
960 -194 241 0
-224 662 -676 0
141 353 713 0
104 551 -348 0
206 488 183 0
-371 -328 41 0
-155 -232 -544 0
-526 -73 806 0
993 220 35 0
-784 466 632 0
476 824 119 0
390 -495 -657 0
-81 986 -883 0
-991 -669 105 0
-714 59 -225 0
-316 -328 41 0
-158 -736 654 0
-6 291 -987 0
211 243 1 0
-318 -694 525 0
827 680 702 0
845 842 3 0
-849 680 -985 0
25 597 -427 0
-956 -96 444 0
898 38 -680 0
-813 -819 -391 0
-841 -961 839 0
-784 308 -398 0
-850 -887 -468 0
-266 318 59 0
-266 -198 -785 0
-128 -390 -910 0
-217 852 700 0
-986 -847 210 0
973 -742 271 0
509 987 570 0
35 942 -258 0
724 68 -817 0
-981 344 -411 0
900 127 -39 0
879 203 -551 0
833 -571 748 0
511 -813 391 0
104 -551 -348 0
-253 869 -852 0
755 861 188 0
-128 390 910 0
744 -871 -467 0
128 -797 390 0
899 819 -607 0
123 8 429 0
181 629 435 0
-886 179 176 0
-664 -576 -777 0
-51 841 744 0
-822 -803 -613 0
-872 -908 -774 0
-320 805 -127 0
-239 -807 -696 0
440 511 -106 0
841 -245 -263 0
-847 -841 265 0
878 -280 647 0
156 -123 -809 0
156 -123 -809 0
69 809 201 0
868 356 -590 0
-519 -893 312 0
714 -59 225 0
-599 630 -781 0
-411 -921 438 0
902 -645 -903 0
673 -111 438 0
853 120 33 0
-123 490 598 0
-624 -57 304 0
-759 -209 -181 0
53 459 -477 0
-409 -6 -333 0
-353 606 424 0
-630 -788 344 0
-841 263 298 0
-973 742 271 0
-724 97 -172 0
-25 -370 651 0
849 -680 327 0
212 693 -959 0
960 241 -508 0
-813 -243 146 0
-51 -10 869 0
-724 -224 -513 0
592 -766 229 0
-491 110 -520 0
25 -480 651 0
-817 224 -539 0
-724 -625 191 0
-110 642 130 0
878 -647 862 0
233 763 707 0
957 215 -629 0
511 -243 144 0
724 -583 -172 0
436 -991 48 0
593 -536 891 0
316 209 -181 0
-784 -497 308 0
838 -145 -62 0
-735 -842 141 0
444 635 -399 0
-673 913 -111 0
-892 722 -581 0
-868 466 -30 0
-868 712 -995 0
-390 657 -135 0
113 191 207 0
-849 680 -327 0
-6 28 625 0
624 -277 -904 0
-104 498 202 0
-742 498 -444 0
-211 -894 -414 0
-179 176 -302 0
906 469 -717 0
-740 190 546 0
-94 -25 940 0
128 -390 -910 0
511 -707 -747 0
432 471 -45 0
-859 60 525 0
353 -69 -713 0
-115 431 101 0
-365 115 825 0
349 795 204 0
-312 -615 -409 0
-155 845 735 0
-850 -964 -822 0
-876 731 945 0
956 -871 498 0
96 -348 202 0
258 -346 744 0
-409 -6 160 0
168 -388 -324 0
491 110 -963 0
868 -898 569 0
-592 766 -229 0
832 -700 -787 0
807 208 -200 0
868 784 500 0
743 717 426 0
906 -388 800 0
359 -906 -399 0
-701 -882 491 0
476 -824 -911 0
-558 246 127 0
-894 -875 -714 0
-43 751 652 0
96 348 -202 0
625 -279 -172 0
876 563 945 0
-181 -376 829 0
456 246 900 0
-673 -233 111 0
-43 -162 406 0
-849 -680 -970 0
123 898 283 0
-250 -840 -811 0
579 -849 -680 0
-898 -38 -680 0
-123 -827 -364 0
789 990 49 0
894 -518 793 0
-986 -501 20 0
539 272 599 0
960 508 -722 0
-511 -243 212 0
-90 981 617 0
-359 -773 170 0
856 380 769 0
-12 -25 427 0
-250 -840 811 0
813 -212 427 0
743 -399 -567 0
399 335 -717 0
-579 -849 680 0
-90 630 -788 0
-90 -272 -788 0
823 295 400 0
158 -275 -396 0
-436 -991 -48 0
25 -370 -651 0
69 614 590 0
979 864 -84 0
850 964 -822 0
-977 -954 -580 0
311 -50 185 0
-724 -224 -513 0
511 -120 -144 0
-858 99 -917 0
-152 -802 -846 0
579 866 -343 0
-838 -620 137 0
-503 82 239 0
-853 901 -33 0
-894 -840 -362 0
6 28 625 0
902 -691 583 0
-371 328 -41 0
-801 849 -387 0
123 -38 680 0
-476 -824 -911 0
-957 215 629 0
858 -318 859 0
63 -988 943 0
595 211 901 0
-353 150 762 0
-813 480 -206 0
-595 363 -211 0
673 -763 70 0
909 75 -732 0
541 -640 -166 0
147 593 536 0
510 37 -224 0
-511 595 -819 0
-960 -508 722 0
846 -128 390 0
-977 -691 97 0
-784 738 331 0
-156 367 712 0
-399 -335 717 0
-411 921 -438 0
181 -629 435 0
940 -250 -58 0
-239 -807 -696 0
401 412 -806 0
128 -797 -390 0
809 579 -996 0
181 629 222 0
-743 -765 609 0
110 -130 -519 0
179 176 302 0
763 361 -616 0
59 -690 -793 0
210 -668 -91 0
-833 322 99 0
858 -483 -525 0
813 -12 212 0
563 604 347 0
-986 847 -210 0
-809 22 548 0
212 -382 -997 0
-590 201 -341 0
606 367 -278 0
-789 820 -628 0
850 -980 964 0
-724 645 -279 0
833 -464 -877 0
813 -12 -212 0
-833 -483 -60 0
509 902 -776 0
239 208 -290 0
-921 707 106 0
-973 979 -867 0
-193 -37 -197 0
595 813 243 0
-250 840 811 0
986 -604 -624 0
-850 -984 980 0
784 -619 -311 0
-250 840 -927 0
-401 -621 298 0
707 -813 -899 0
690 -793 671 0
212 -693 959 0
444 399 800 0
182 100 -825 0
-53 459 -477 0
906 388 800 0
-69 -614 -590 0
858 -451 125 0
90 -272 -788 0
-414 584 -693 0
985 -476 -394 0
337 -800 -915 0
-847 -454 872 0
-406 -619 796 0
-662 622 539 0
320 805 127 0
856 -380 -769 0
447 430 -989 0
-659 -56 881 0
352 117 716 0
-181 376 -234 0
-411 233 -440 0
868 466 30 0
406 -466 -796 0
-123 827 -364 0
859 -760 -65 0
511 -243 -212 0
-211 94 -584 0
-906 -388 -800 0
125 -859 -99 0
152 -114 290 0
827 598 -187 0
509 776 -580 0
-858 -451 125 0
311 -50 -185 0
-472 751 678 0
-847 841 223 0
600 -238 402 0
-353 3 69 0
-123 -878 647 0
859 694 99 0
-510 -37 622 0
-809 -311 -410 0
-900 127 39 0
-476 -507 -394 0
-38 -849 933 0
-365 -115 825 0
-693 -471 198 0
152 420 988 0
-977 -691 -97 0
472 751 -678 0
-934 604 688 0
-876 624 710 0
-673 233 -111 0
353 531 -118 0
-12 -25 -554 0
979 864 -84 0
-833 -926 968 0
104 551 348 0
-510 37 -622 0
921 438 853 0
-892 928 -960 0
-316 -328 41 0
-600 411 -921 0
-353 -514 -809 0
850 -964 -822 0
724 224 513 0
-15 -832 -228 0
-600 -411 -921 0
658 -290 860 0
868 712 995 0
673 -111 -438 0
73 223 -709 0
-850 729 -372 0
-759 -209 46 0
-601 456 983 0
80 316 209 0
-575 -56 -159 0
-659 516 456 0
716 -114 802 0
899 -281 12 0
-6 28 -113 0
-809 -398 -798 0
-295 -169 -153 0
841 -263 298 0
-960 -508 722 0
-957 560 -215 0
659 -516 -456 0
-784 -398 -798 0
-179 -176 -302 0
-714 -857 101 0
188 -436 991 0
981 -599 617 0
-409 -6 -333 0
-807 152 -290 0
755 861 -188 0
104 -298 551 0
6 -912 -726 0
-539 233 -763 0
-399 -717 609 0
850 -964 822 0
577 -293 -811 0
-498 202 -469 0
-875 -318 -115 0
-94 764 -25 0
777 66 886 0
985 476 -394 0
832 -700 -787 0
599 -950 462 0
801 680 -933 0
-318 -671 -125 0
113 -191 -207 0
239 -208 -290 0
-850 980 -964 0
609 882 430 0
592 -766 -229 0
-43 -573 -794 0
-80 -316 209 0
-878 -358 490 0
365 -115 825 0
-906 -800 469 0
495 439 -135 0
784 497 -308 0
-609 75 549 0
-211 901 146 0
784 -497 308 0
-181 -560 435 0
98 941 -869 0
-633 -326 72 0
921 913 -161 0
-926 -968 -730 0
-6 -625 583 0
-899 -146 894 0
813 250 432 0
690 -793 -671 0
-353 -162 951 0
-353 162 -951 0
-346 -744 263 0
-892 928 -960 0
-444 -635 399 0
155 -842 156 0
-849 364 -180 0
-188 -436 -991 0
-432 741 -431 0
809 308 185 0
-568 156 -118 0
59 -542 -833 0
-577 293 -811 0
-850 -964 822 0
956 271 -226 0
297 -986 918 0
-509 -902 -776 0
401 51 -942 0
817 -662 90 0
-155 845 -735 0
181 -215 435 0
813 -243 146 0
128 575 910 0
-123 -868 303 0
123 827 -996 0
847 51 -14 0
-759 215 629 0
-203 -40 104 0
-399 -717 909 0
-155 845 -735 0
-6 625 583 0
-684 -934 -939 0
-724 -572 -34 0
-480 666 381 0
557 -625 583 0
401 -621 298 0
-509 -354 -987 0
-179 -176 302 0
986 624 -292 0
168 388 324 0
-921 763 -853 0
436 991 48 0
876 731 -945 0
-123 490 827 0
757 -44 968 0
171 801 187 0
217 -852 700 0
-15 -832 -228 0
-141 472 -606 0
-381 -475 690 0
-6 -912 726 0
59 -542 958 0
456 -246 -900 0
281 -33 -12 0
600 -411 -921 0
841 -245 -263 0
746 168 -202 0
847 -841 -265 0
-906 641 324 0
-359 -498 -388 0
266 858 718 0
975 469 259 0
-577 115 219 0
743 765 609 0
957 215 629 0
-503 -375 -55 0
813 747 675 0
-353 -43 472 0
367 712 -500 0
-921 -111 -26 0
-833 -322 99 0
-879 -203 551 0
156 606 762 0
503 375 -55 0
-6 724 -68 0
69 809 -201 0
564 680 343 0
-601 516 623 0
382 -183 -101 0
847 841 223 0
380 198 115 0
480 -666 381 0
-707 -595 747 0
868 784 500 0
123 -878 -647 0
718 926 165 0
90 630 788 0
542 671 -483 0
-858 578 441 0
-211 -894 414 0
181 629 -222 0
624 -57 304 0
-973 -832 -795 0
735 -842 141 0
-519 -312 -95 0
898 355 490 0
724 645 279 0
-114 860 -988 0
310 547 914 0
123 -898 -283 0
986 -604 624 0
784 497 -308 0
158 275 396 0
-680 364 -933 0
98 -941 869 0
964 -822 613 0
868 -809 311 0
-156 367 -712 0
-850 887 468 0
-724 572 527 0
-624 277 904 0
-37 -539 -90 0
-59 694 571 0
155 845 -735 0
-266 183 101 0
876 -685 -823 0
-577 293 -811 0
595 899 -12 0
322 -694 -465 0
414 -584 -693 0
724 625 286 0
-59 -690 793 0
308 -798 273 0
934 883 169 0
456 -900 -633 0
-878 -647 862 0
359 -765 909 0
673 -233 -511 0
986 973 84 0
-123 849 564 0
-755 -861 188 0
845 735 141 0
-353 43 -472 0
-71 -608 664 0
123 -632 -740 0
-488 811 741 0
-51 -526 -806 0
-849 -933 180 0
-6 -445 -37 0
191 903 445 0
-409 -333 160 0
746 168 -202 0
-714 -857 101 0
765 452 650 0
-763 -511 -853 0
-906 641 324 0
-113 191 207 0
-114 -860 988 0
599 630 -781 0
250 840 -927 0
-90 -981 -617 0
353 606 -514 0
155 -232 544 0
-269 71 608 0
-621 -979 541 0
-411 233 440 0
-380 693 382 0
409 -6 -160 0
390 -720 815 0
960 508 722 0
-759 -209 -46 0
-476 102 -553 0
-371 328 41 0
-901 1 -391 0
411 -921 438 0
-579 -866 343 0
858 -99 407 0
987 -557 907 0
349 -795 204 0
509 776 -580 0
81 -876 685 0
-155 -735 -842 0
233 -440 -161 0
759 677 -46 0
-707 595 899 0
-444 635 -399 0
445 955 -37 0
878 -740 190 0
-609 -75 549 0
-147 -593 -536 0
991 -669 105 0
-123 827 364 0
123 -753 -190 0
224 -662 676 0
483 322 421 0
94 -597 -434 0
-48 669 105 0
847 841 223 0
141 -69 156 0
-399 335 -717 0
-1000 181 -603 0
118 367 -109 0
102 553 158 0
432 741 -431 0
872 879 261 0
456 374 657 0
823 -9 -904 0
-847 -454 872 0
6 -509 -557 0
-519 893 -389 0
845 69 -531 0
233 -913 111 0
-838 -145 834 0
503 82 239 0
964 -822 613 0
-765 447 -491 0
-80 74 -759 0
-123 -801 387 0
-107 -659 -56 0
-503 375 -55 0
-872 -908 774 0
891 -450 636 0
-879 -104 978 0
-123 490 827 0
155 -353 463 0
-6 -68 -207 0
713 -573 -424 0
-659 516 -456 0
-401 -412 -806 0
-981 -812 -618 0
155 -232 544 0
894 840 -362 0
-759 1000 -603 0
-359 -168 870 0
724 68 -817 0
539 233 -763 0
986 -936 15 0
755 861 -188 0
-147 -593 -536 0
-359 -444 717 0
-858 578 -441 0
986 -624 210 0
680 -364 -933 0
-960 194 241 0
-861 -188 -719 0
349 -795 204 0
-807 208 200 0
956 743 168 0
-658 -290 860 0
-960 508 -722 0
986 -973 -864 0
-789 990 49 0
-495 -439 135 0
102 553 -158 0
-250 -959 -198 0
-359 906 399 0
-986 -993 35 0
511 853 211 0
800 -711 -469 0
-476 -824 -911 0
-123 364 -933 0
-427 100 741 0
575 56 159 0
-489 125 -760 0
666 577 811 0
-401 -621 -979 0
-833 926 968 0
-921 -511 26 0
569 -740 753 0
-981 344 411 0
539 -599 830 0
483 99 65 0
886 179 -176 0
312 615 409 0
-832 700 -252 0
-382 488 858 0
-101 59 -542 0
-152 -846 386 0
-489 125 -760 0
606 -367 278 0
-466 429 410 0
-191 68 -207 0
-488 -811 741 0
-313 155 -138 0
-759 -181 215 0
-879 956 634 0
519 -893 389 0
318 -718 -465 0
-251 -736 654 0
-991 -669 -105 0
680 985 476 0
63 720 815 0
-210 993 -874 0
401 -841 -203 0
155 845 735 0
-813 -484 959 0
-6 724 68 0
476 102 158 0
-759 -1000 -181 0
-266 -858 -718 0
986 -847 -942 0
-491 -110 -963 0
882 -491 -591 0
921 440 -111 0
-272 -599 781 0
-744 631 919 0
141 69 156 0
539 -599 830 0
595 212 764 0
-353 -69 -713 0
899 146 894 0
878 -280 -647 0
-598 256 332 0
359 -498 -388 0
-489 -99 -60 0
621 867 129 0
318 441 525 0
90 -617 -630 0
810 -236 313 0
-823 -297 -295 0
519 312 -95 0
673 913 111 0
-724 224 -513 0
-476 158 -275 0
-310 143 892 0
-211 901 -146 0
-765 -770 882 0
123 -490 598 0
390 720 -815 0
277 401 454 0
-158 736 -654 0
845 -141 -43 0
-759 -181 -215 0
476 -102 553 0
-158 1000 -316 0
-6 -113 -193 0
266 45 577 0
-281 33 12 0
-813 -243 -146 0
367 712 -500 0
-104 -337 -717 0
-991 48 -669 0
-25 -840 2 0
123 -8 -429 0
155 -845 -735 0
641 324 259 0
322 441 -464 0
-809 -308 185 0
432 -382 651 0
659 -456 905 0
-6 445 -37 0
-853 813 819 0
898 -355 490 0
-847 -936 709 0
-595 212 -764 0
316 181 328 0
-316 -328 -41 0
-921 511 26 0
-310 -547 -914 0
-909 75 732 0
-975 -469 259 0
-960 -508 722 0
853 813 819 0
489 671 483 0
-755 -861 188 0
876 731 945 0
-845 -735 -141 0
516 -596 374 0
693 100 741 0
-630 -788 -344 0
401 621 979 0
-871 -631 299 0
-123 -784 -798 0
71 608 -664 0
-996 -801 933 0
211 901 212 0
809 523 369 0
-816 850 984 0
-298 742 348 0
-898 753 -665 0
-807 208 200 0
-845 842 -353 0
673 111 438 0
-128 -575 -836 0
-595 -506 901 0
-229 976 269 0
211 243 -1 0
-868 -356 590 0
51 993 501 0
-169 -304 -904 0
850 -887 -468 0
-28 113 -691 0
519 -312 95 0
906 -335 -717 0
-489 -99 60 0
934 -883 169 0
-743 259 765 0
669 105 -52 0
-858 833 -504 0
-662 -90 513 0
-181 -215 -83 0
879 -203 -551 0
-6 724 68 0
575 -56 -159 0
-353 43 472 0
6 -291 -987 0
743 765 -609 0
-516 596 -374 0
-316 181 -328 0
894 380 -293 0
-6 -912 -726 0
-12 25 427 0
298 -742 -348 0
353 531 -118 0
960 241 -508 0
-699 379 907 0
158 251 -736 0
464 748 -525 0
-856 380 769 0
59 -967 322 0
-432 -695 -858 0
-206 488 -183 0
128 575 659 0
-224 -662 -676 0
845 735 141 0
-563 604 -347 0
-921 -440 -111 0
491 110 520 0
-587 838 -323 0
-951 -383 -514 0
755 861 -188 0
-906 -469 -717 0
495 374 336 0
90 -630 788 0
-483 322 421 0
123 -753 190 0
-97 -191 889 0
432 -714 -857 0
-878 -647 862 0
-203 744 -938 0
210 993 -874 0
-503 375 -55 0
847 -210 -872 0
-81 876 823 0
511 -146 -512 0
-858 489 -441 0
-6 954 645 0
858 -890 -671 0
320 -805 127 0
-6 -28 776 0
986 973 -84 0
123 -8 -429 0
-123 996 479 0
557 724 -583 0
90 781 -673 0
-353 -162 951 0
123 712 -995 0
291 -557 379 0
847 149 -401 0
-784 619 311 0
759 -181 215 0
-850 -984 -980 0
841 263 -298 0
981 599 -788 0
266 -183 101 0
986 973 -864 0
845 -735 141 0
-510 -37 -224 0
181 629 435 0
476 -102 -158 0
973 -979 -867 0
832 -96 -742 0
101 -671 -125 0
-498 635 446 0
233 502 767 0
-894 -875 -714 0
-297 986 -417 0
-526 -73 806 0
-312 -615 409 0
-467 -168 444 0
-211 94 894 0
557 -625 583 0
-957 215 629 0
6 28 -625 0
-827 -801 933 0
563 -417 -710 0
554 856 689 0
-511 853 243 0
298 742 348 0
48 669 105 0
759 316 181 0
-25 -840 -362 0
-800 -711 469 0
-755 861 188 0
-858 -489 -441 0
-921 -763 -438 0
96 -348 202 0
981 -812 -618 0
673 763 -70 0
-211 94 -212 0
847 -210 872 0
-401 930 -20 0
233 763 -707 0
81 934 -939 0
-743 -399 567 0
-390 982 -235 0
-892 -960 -194 0
832 96 742 0
986 936 -15 0
511 595 120 0
353 -606 514 0
-833 322 99 0
-179 -176 -302 0
-6 -333 160 0
809 311 798 0
-735 842 -141 0
-476 158 275 0
80 -74 759 0
-466 429 -410 0
973 -621 -541 0
25 840 -362 0
63 797 720 0
-272 599 781 0
-822 -803 613 0
-986 277 153 0
96 -467 -444 0
123 -598 -999 0
-179 -176 -503 0
595 506 901 0
-367 809 341 0
-12 25 -427 0
456 -900 633 0
784 -308 -398 0
801 -680 933 0
316 -209 181 0
-815 575 -836 0
316 -209 181 0
275 80 -759 0
-399 717 -609 0
-444 -399 -800 0
509 902 776 0
81 -563 945 0
179 -176 -302 0
118 -367 109 0
-759 -677 46 0
557 -724 583 0
-200 290 929 0
833 -571 -748 0
-746 -168 -202 0
-15 -832 -228 0
755 -861 188 0
921 913 -161 0
-592 -766 229 0
-827 801 -933 0
593 536 891 0
509 -776 -580 0
-858 -489 483 0
886 -179 176 0
-973 832 -795 0
-833 757 -924 0
-816 -850 984 0
-898 -753 -665 0
-191 -903 445 0
-973 956 348 0
447 -882 -884 0
503 -375 -55 0
934 -604 688 0
94 -250 484 0
-476 -102 -553 0
838 62 -620 0
382 318 643 0
-359 765 -909 0
-509 557 -724 0
-123 849 933 0
-893 -638 -389 0
-906 335 -717 0
-353 -606 -424 0
-894 475 -489 0
-168 -444 -906 0
673 -233 511 0
-899 -281 -12 0
-511 767 -813 0
-868 -898 -569 0
191 -572 -193 0
-921 438 853 0
25 -840 2 0
297 986 -417 0
-6 -724 -68 0
153 -668 401 0
-777 -66 761 0
-312 409 -6 0
-51 -223 -265 0
59 -967 -322 0
-266 198 -785 0
367 406 -809 0
-90 -981 -617 0
-957 -215 629 0
-788 -411 763 0
-569 -740 753 0
868 466 30 0
-871 -168 -399 0
-69 156 713 0
-456 -900 633 0
-6 -625 -113 0
801 -680 933 0
-51 -942 98 0
-858 318 859 0
563 -624 -292 0
322 -441 -464 0
-352 -117 716 0
789 990 49 0
63 -797 720 0
-563 624 292 0
685 -474 -823 0
-191 -68 -207 0
841 242 104 0
-81 -876 823 0
557 -954 113 0
-879 104 -746 0
858 -483 -525 0
250 432 -266 0
81 876 685 0
-876 -685 823 0
123 -827 364 0
63 797 -720 0
-491 110 -520 0
-69 -531 156 0
80 316 -209 0
152 -846 386 0
-152 -164 -696 0
-858 -483 525 0
-850 -887 -468 0
-987 557 907 0
-96 746 247 0
409 -333 160 0
158 251 736 0
322 -441 -464 0
-427 -100 -741 0
539 599 -830 0
-5 810 -236 0
882 -491 591 0
921 707 -106 0
625 113 -172 0
579 -849 680 0
-690 -793 671 0
308 796 -898 0
-191 -572 -193 0
-724 -676 -272 0
-353 -118 851 0
233 763 440 0
90 -781 344 0
-318 -441 525 0
-94 25 -940 0
746 168 202 0
-68 -510 622 0
853 595 813 0
-15 -832 -228 0
-427 -840 -248 0
771 600 -683 0
401 621 -298 0
740 -190 546 0
850 729 -372 0
81 876 685 0
986 973 864 0
-765 -452 -650 0
-759 317 -103 0
-253 869 852 0
-211 -243 -1 0
69 156 497 0
-179 176 -302 0
841 -242 104 0
353 -606 -851 0
503 550 239 0
894 -266 -875 0
-685 -474 244 0
606 -751 762 0
510 37 -622 0
-788 411 763 0
-69 -809 201 0
25 370 -651 0
511 -243 144 0
-365 115 -825 0
841 -973 -203 0
832 -700 787 0
313 155 -138 0
-595 -363 -211 0
-158 275 736 0
456 900 -633 0
-432 741 431 0
845 141 606 0
-69 -751 762 0
743 765 609 0
-899 211 -53 0
-876 295 -934 0
809 579 -996 0
-25 840 -2 0
673 233 111 0
-97 191 -889 0
-879 203 551 0
-168 444 -906 0
476 -433 325 0
51 -526 806 0
156 -472 -713 0
59 -542 -958 0
181 -215 -83 0
-503 375 -55 0
353 -156 -573 0
445 68 224 0
333 160 28 0
891 450 -636 0
-724 583 172 0
-979 -832 -203 0
-577 -115 219 0
539 -781 -673 0
353 -514 809 0
558 246 -127 0
973 -742 271 0
-188 -719 436 0
432 695 858 0
-941 -253 709 0
593 536 -891 0
606 -303 -201 0
921 763 853 0
-476 102 -158 0
973 -744 -247 0
784 619 311 0
838 -145 -834 0
-600 238 402 0
312 -615 409 0
503 375 -55 0
59 542 833 0
-633 326 72 0
-156 -472 -713 0
-669 -105 52 0
-107 -659 56 0
-6 28 -776 0
-451 504 -859 0
-838 620 137 0
-941 832 -253 0
359 -906 -399 0
-813 819 -391 0
-401 412 806 0
-73 -223 709 0
69 156 -713 0
-25 370 651 0
568 156 118 0
-203 744 -298 0
601 -516 623 0
98 10 221 0
-956 826 -271 0
-367 -614 -341 0
-43 -162 406 0
838 620 -482 0
765 -770 -882 0
755 861 -188 0
-147 -593 536 0
807 200 -290 0
-724 645 279 0
-526 73 806 0
898 579 -38 0
-476 -507 -394 0
-123 -898 680 0
-898 355 490 0
495 905 983 0
-996 38 564 0
476 102 -553 0
-673 233 511 0
427 840 -248 0
-51 -841 -744 0
664 -576 -777 0
-788 -411 763 0
894 -219 -843 0
152 -846 -988 0
353 -156 -573 0
-71 -608 664 0
28 113 -691 0
367 712 -500 0
-96 -746 247 0
-35 942 258 0
-491 110 963 0
-401 -930 -20 0
-823 -297 295 0
875 -318 -115 0
-310 547 -914 0
401 930 -20 0
461 -362 -266 0
-511 -120 144 0
-141 -353 713 0
461 362 -266 0
476 -433 824 0
-708 770 -701 0
-318 -694 525 0
-96 -348 202 0
850 -984 -980 0
90 981 -617 0
-359 -444 641 0
-876 -731 685 0
-503 375 -55 0
490 827 -566 0
-882 491 -591 0
176 -416 -503 0
986 -973 864 0
-759 209 181 0
853 813 819 0
-155 845 531 0
-511 -595 819 0
25 597 427 0
511 -120 -1 0
699 -379 907 0
833 -757 924 0
-447 430 -989 0
-894 875 -714 0
-38 -849 -933 0
981 599 -617 0
673 913 111 0
12 -607 427 0
-809 -311 -798 0
879 299 -444 0
833 125 525 0
-743 717 -426 0
224 662 676 0
-80 654 -537 0
813 -747 675 0
-6 509 557 0
-815 575 836 0
-401 -621 -979 0
853 901 -33 0
275 80 -759 0
318 757 -694 0
-158 275 -396 0
114 -860 -988 0
-498 -635 -202 0
-633 326 -72 0
-606 303 -201 0
-853 -595 243 0
-659 56 881 0
-664 -576 -777 0
883 -710 918 0
-69 -531 156 0
-777 66 -886 0
-572 -23 955 0
-891 -450 -636 0
-475 -59 319 0
716 -114 802 0
-158 -1000 -316 0
807 -200 290 0
-285 216 -307 0
179 176 302 0
-51 993 501 0
-724 97 -172 0
409 -6 -333 0
-784 -619 -311 0
-861 -188 -719 0
191 -572 193 0
158 736 -654 0
511 -767 -813 0
63 988 -943 0
-97 191 889 0
-876 -295 -934 0
861 188 719 0
-563 -210 454 0
986 624 -210 0
-511 813 -391 0
-285 216 -307 0
707 -595 -747 0
-155 -845 531 0
-845 -842 353 0
-977 691 97 0
511 146 -512 0
-99 -44 148 0
155 845 -531 0
-701 -882 491 0
-308 796 -898 0
-390 495 -657 0
-495 374 -336 0
-96 -919 773 0
-744 226 -635 0
-440 511 -106 0
879 -104 -978 0
-25 695 -651 0
-269 -71 -608 0
-847 936 -709 0
898 -753 665 0
-996 -38 680 0
993 258 10 0
724 193 -207 0
367 -809 341 0
-232 -544 -138 0
-498 -661 170 0
-743 -717 426 0
941 253 709 0
-456 -246 900 0
986 -401 91 0
-849 364 -180 0
-495 905 -374 0
641 -975 -388 0
491 -345 21 0
-809 523 369 0
926 -968 730 0
872 51 -526 0
742 -422 -749 0
285 216 -307 0
-449 -45 666 0
-233 -111 -855 0
233 -111 -855 0
724 -193 -207 0
-743 444 717 0
601 -516 -623 0
-759 -1000 -603 0
-986 -993 35 0
-809 -523 -369 0
503 375 55 0
-69 531 156 0
-557 954 113 0
-38 849 -933 0
724 -113 -903 0
-876 624 -710 0
-509 557 724 0
872 879 971 0
107 659 -56 0
-266 858 718 0
-511 -120 -144 0
788 411 763 0
-906 915 -324 0
476 102 158 0
-90 -272 981 0
609 -75 -770 0
-81 876 823 0
6 445 -552 0
-333 177 699 0
51 -10 869 0
957 560 -215 0
680 985 476 0
665 -598 256 0
-973 -621 541 0
743 765 -609 0
-399 717 909 0
-788 -411 763 0
-849 -680 970 0
564 680 -343 0
-311 -50 -185 0
659 456 -905 0
-179 -176 -416 0
-81 -474 244 0
606 -751 -762 0
476 824 -911 0
-850 984 980 0
-353 606 -851 0
-498 635 446 0
-592 766 229 0
-557 -907 954 0
-849 -364 -180 0
901 243 -146 0
-98 -941 -869 0
233 511 -707 0
280 490 -827 0
-724 572 34 0
-104 -498 202 0
-956 -743 -168 0
868 898 569 0
59 690 793 0
827 -598 -579 0
-599 950 462 0
680 985 -476 0
-563 624 -292 0
871 168 641 0
-280 -490 827 0
759 1000 -316 0
-456 900 -633 0
-996 -38 -564 0
743 399 909 0
-6 572 -552 0
-909 -481 -452 0
-253 869 -852 0
320 -805 -127 0
879 299 -444 0
-123 868 -303 0
-759 181 -163 0
-986 -993 -35 0
390 720 815 0
-986 -277 -153 0
-891 450 -636 0
724 583 172 0
-128 575 836 0
-592 -766 229 0
155 842 156 0
685 474 823 0
6 -445 552 0
956 -871 498 0
308 -796 -898 0
-815 575 -836 0
-439 -17 -814 0
-476 -102 158 0
-409 6 333 0
-182 100 -825 0
-789 -990 -49 0
-669 105 -52 0
743 765 -609 0
691 -580 97 0
353 3 69 0
-269 -71 608 0
-606 -278 -201 0
-921 511 -26 0
-94 -25 -940 0
-736 -74 -654 0
128 575 -910 0
595 -211 -769 0
-809 -308 185 0
-491 345 -21 0
-210 -993 874 0
-606 -278 201 0
845 735 141 0
-115 -431 101 0
-310 -547 -914 0
277 -401 454 0
858 99 917 0
832 96 742 0
-593 536 -891 0
70 -111 267 0
765 452 -650 0
12 -607 -427 0
940 382 778 0
789 -820 628 0
-251 736 -654 0
-858 99 407 0
-845 141 -606 0
899 -211 53 0
759 -181 -215 0
847 936 709 0
-595 -211 901 0
563 -604 347 0
-858 99 407 0
181 376 -234 0
921 -438 853 0
509 -354 -557 0
-498 -202 -469 0
827 680 -702 0
892 722 -581 0
-258 346 -744 0
-316 209 -181 0
28 -724 -776 0
-318 671 125 0
-193 -37 -197 0
846 128 -390 0
72 876 731 0
104 359 467 0
-940 382 -778 0
96 -919 773 0
-436 991 48 0
-6 -68 207 0
-662 622 -539 0
203 -40 -104 0
476 102 -158 0
-759 316 -181 0
879 359 337 0
-609 -882 -430 0
6 -625 -113 0
-960 508 -722 0
-743 -765 -609 0
-188 -719 436 0
-359 498 -388 0
-71 608 664 0
81 -474 244 0
353 -531 -118 0
-853 595 901 0
123 -898 -801 0
-179 176 -302 0
-233 111 -855 0
-155 845 531 0
71 608 -664 0
367 -614 341 0
893 -638 389 0
-128 390 -881 0
-966 452 -708 0
511 -853 243 0
-104 337 -717 0
-554 856 689 0
-456 -900 -633 0
-491 -110 -963 0
509 987 -570 0
367 614 -341 0
432 695 -858 0
-200 290 929 0
-498 661 -170 0
-724 68 -817 0
606 -278 -201 0
-90 781 -344 0
868 -809 -311 0
-68 510 -622 0
-76 -549 966 0
-179 -176 -503 0
-6 -28 -113 0
-973 956 -348 0
771 600 683 0
-308 798 -273 0
-297 986 918 0
511 -595 819 0
-311 632 878 0
-346 -744 263 0
-155 845 735 0
-673 763 -70 0
-523 -827 566 0
-716 114 802 0
210 668 -91 0
411 763 -438 0
-563 -210 454 0
-353 -472 -118 0
-359 444 -717 0
-906 388 -399 0
491 -345 -21 0
892 -960 194 0
-269 -71 608 0
-409 -333 -160 0
353 514 -809 0
-599 630 781 0
401 621 298 0
-266 318 59 0
777 66 -761 0
-850 964 -822 0
926 -968 -730 0
258 -203 -242 0
-6 -724 -68 0
-181 629 435 0
973 -742 271 0
69 156 497 0
-258 -203 242 0
-59 542 833 0
-871 168 399 0
152 -164 -696 0
-158 275 736 0
833 -322 99 0
809 -311 -798 0
906 975 -800 0
35 98 979 0
123 -996 -564 0
-171 78 -866 0
-850 887 468 0
-563 -210 149 0
-724 -572 527 0
475 59 -319 0
743 399 -909 0
823 -883 -36 0
-382 183 101 0
-104 298 551 0
-921 -111 -26 0
-898 -579 -38 0
-981 812 618 0
784 -398 798 0
-511 853 727 0
-81 -934 -939 0
275 80 759 0
-842 -353 -531 0
-784 -308 398 0
519 -893 389 0
-817 662 90 0
318 757 -694 0
6 113 193 0
-813 -120 140 0
6 -28 776 0
868 784 273 0
755 -861 188 0
-233 -913 -111 0
-757 44 -968 0
-191 68 207 0
110 130 519 0
-168 -444 -906 0
759 404 167 0
-318 718 -465 0
456 -900 633 0
367 614 -341 0
-579 866 343 0
480 -182 858 0
-337 -800 915 0
-123 -364 -933 0
-960 -241 -508 0
-147 -593 -536 0
-156 367 -712 0
-311 632 878 0
-104 245 252 0
253 -869 852 0
-579 866 343 0
101 671 -125 0
-104 359 -467 0
673 -111 438 0
401 -51 942 0
-233 -913 -111 0
-503 375 -55 0
-6 333 534 0
-141 -568 -156 0
-94 250 484 0
-906 641 -324 0
68 -193 37 0
-996 -801 -933 0
-707 -813 899 0
716 114 -802 0
-993 -220 35 0
-203 -744 938 0
-850 984 -980 0
101 59 542 0
476 507 394 0
-476 102 553 0
308 -796 898 0
-51 942 -98 0
-104 -245 252 0
921 440 -111 0
-141 472 -606 0
763 511 -853 0
759 -677 -46 0
-977 691 97 0
-152 114 290 0
847 454 -872 0
-406 -619 -796 0
-380 -693 -382 0
-986 401 91 0
-152 -846 386 0
-155 -845 531 0
685 474 823 0
-272 -599 781 0
-188 -719 436 0
-883 -710 918 0
-128 815 -575 0
-735 -842 -141 0
981 812 618 0
624 277 904 0
-940 382 778 0
-81 -934 -939 0
-456 -900 633 0
12 -25 -554 0
-266 45 577 0
128 -797 -815 0
17 -814 470 0
464 748 -525 0
673 -111 -775 0
-871 631 -299 0
-951 -383 -514 0
-308 798 -273 0
451 504 -859 0
-807 929 -420 0
-80 -316 -209 0
-823 297 -295 0
511 -243 -212 0
892 928 -960 0
595 -211 769 0
986 261 -841 0
-104 337 -717 0
432 714 -857 0
-853 -595 813 0
625 -445 510 0
-432 382 651 0
872 -908 -774 0
-695 -488 -666 0
-662 -622 539 0
902 691 583 0
-432 -714 -857 0
809 22 -548 0
-37 -224 -622 0
599 -630 781 0
838 -145 -62 0
-233 -763 -707 0
-902 645 -903 0
498 635 -446 0
-838 620 -137 0
789 -990 49 0
589 -28 -726 0
-43 -573 794 0
158 -275 736 0
-731 685 474 0
624 -169 -847 0
353 606 -851 0
-842 353 531 0
847 -149 401 0
-181 560 435 0
-401 841 -203 0
-318 757 694 0
179 176 302 0
-909 481 452 0
-861 -188 -719 0
158 -1000 -316 0
181 -629 -435 0
-964 822 613 0
957 -215 -629 0
-312 -615 409 0
856 380 -769 0
563 210 -454 0
181 957 560 0
-847 -51 -14 0
841 -242 -104 0
-960 -508 -722 0
353 531 -118 0
94 -250 -484 0
-850 -984 -980 0
359 444 717 0
788 411 -763 0
759 181 163 0
-104 -245 -252 0
181 -215 83 0
633 81 -443 0
206 488 -183 0
-359 -444 641 0
123 38 680 0
-110 130 -519 0
625 279 172 0
-511 853 -243 0
-211 94 -584 0
51 -223 -265 0
-107 659 -881 0
-128 -575 836 0
511 -767 -813 0
90 617 -630 0
858 318 -859 0
823 -295 -400 0
-876 -295 934 0
-353 -118 851 0
-899 -146 -894 0
-63 988 943 0
181 -629 -435 0
-179 -176 -302 0
-495 374 -336 0
-51 841 -744 0
-664 576 777 0
-759 1000 -603 0
572 -23 -955 0
-99 -44 148 0
353 -606 -851 0
-960 -508 -722 0
853 -901 -33 0
879 -104 -746 0
-6 -699 583 0
-353 606 -514 0
-699 -724 218 0
-809 -594 332 0
-280 -331 -350 0
-337 765 909 0
-476 102 -553 0
784 738 331 0
277 401 -454 0
476 102 158 0
168 -337 469 0
-81 934 -939 0
-609 -882 -430 0
-841 -961 839 0
-318 -671 125 0
476 -507 394 0
-427 -449 -250 0
-181 -957 560 0
498 -661 -170 0
592 766 -229 0
-480 381 -100 0
-684 934 939 0
850 -964 822 0
-986 -261 841 0
509 -354 -557 0
-382 -183 -101 0
759 -1000 316 0
99 44 -148 0
-155 -735 842 0
960 508 722 0
244 -295 688 0
107 -659 881 0
-665 598 256 0
-542 671 -483 0
152 846 386 0
-906 800 469 0
899 -146 894 0
-243 -480 484 0
-498 469 -259 0
850 984 -980 0
476 433 824 0
123 -849 -933 0
-28 509 557 0
-211 -94 -212 0
-211 901 146 0
-921 707 106 0
141 353 713 0
128 390 910 0
-876 624 710 0
-813 -212 427 0
-599 950 462 0
-511 595 -120 0
868 784 500 0
15 -930 869 0
476 102 -553 0
-892 960 194 0
-827 680 -702 0
90 781 -673 0
-609 -75 -549 0
993 -258 -10 0
104 -298 -551 0
-155 845 -735 0
-153 668 401 0
-63 720 -815 0
-503 82 239 0
-926 968 730 0
813 -484 959 0
849 -680 970 0
838 -145 62 0
827 -598 -187 0
72 876 -731 0
511 120 1 0
-232 544 138 0
128 575 836 0
-6 445 207 0
71 608 664 0
-813 -819 391 0
986 501 -20 0
-68 510 -622 0
673 -111 775 0
-956 271 -226 0
6 -625 -583 0
-432 -714 -857 0
251 -736 654 0
-876 563 945 0
-906 335 -717 0
-523 -827 -566 0
858 578 441 0
353 606 424 0
659 516 456 0
63 -720 -815 0
813 12 212 0
744 -631 919 0
724 -676 272 0
-986 847 -210 0
475 59 -319 0
-516 -374 692 0
-390 -657 135 0
899 -819 607 0
-600 -238 402 0
-181 376 234 0
123 -598 -999 0
-90 617 -630 0
6 954 645 0
595 211 -901 0
891 -450 -636 0
179 -176 302 0
-901 -243 -146 0
53 597 -854 0
-475 59 -319 0
6 -699 583 0
868 -466 30 0
-456 900 -633 0
-813 -480 -206 0
232 -544 138 0
476 -433 325 0
838 62 -620 0
-269 -71 608 0
-894 518 793 0
-519 -312 -95 0
359 388 717 0
569 -740 753 0
809 311 -410 0
-871 -168 -399 0
-845 -69 531 0
665 598 256 0
-743 399 -909 0
239 208 -290 0
973 621 -541 0
-894 219 -843 0
-63 -720 -815 0
-503 -550 -239 0
906 -975 -800 0
810 236 -313 0
155 845 735 0
-141 568 -156 0
-878 -740 190 0
-641 324 259 0
541 640 166 0
43 -573 794 0
491 345 21 0
191 -903 445 0
-701 882 491 0
563 -417 -710 0
-123 490 827 0
956 743 -168 0
813 -243 -146 0
-107 659 -56 0
-37 -539 90 0
-409 6 -333 0
817 -662 90 0
-878 358 490 0
-523 827 566 0
-409 6 160 0
960 -508 -722 0
-128 -575 881 0
-809 -398 798 0
868 -809 -311 0
956 -271 226 0
743 765 609 0
900 -127 -39 0
98 -941 -869 0
680 985 476 0
-887 468 -755 0
-906 -975 -800 0
-353 -472 118 0
68 -193 -37 0
-809 -579 171 0
316 181 -328 0
-771 600 683 0
-456 -900 633 0
809 -398 798 0
-51 -10 869 0
-367 406 809 0
592 766 -229 0
406 619 796 0
-986 -973 -84 0
789 820 -628 0
940 250 -58 0
511 -853 -727 0
-986 -936 15 0
872 -879 -261 0
986 621 -258 0
-861 188 -719 0
-807 -152 290 0
456 374 657 0
838 62 620 0
-606 367 -614 0
838 -620 -137 0
934 604 -688 0
-176 416 -503 0
76 -549 -966 0
-539 -233 763 0
-123 -849 -564 0
353 162 951 0
-272 -599 781 0
476 433 325 0
-853 595 -813 0
156 -606 -762 0
850 -887 -468 0
353 514 809 0
724 -572 34 0
592 766 229 0
876 731 685 0
516 596 -374 0
-801 -849 387 0
181 215 435 0
-1000 181 -603 0
-878 -280 647 0
981 599 788 0
850 -887 -468 0
-123 996 479 0
-593 536 891 0
-232 -544 -138 0
966 452 -708 0
203 744 298 0
693 100 741 0
182 100 -825 0
123 364 -933 0
-894 219 843 0
-539 272 599 0
-6 -28 113 0
592 766 229 0
625 -113 -572 0
673 111 -775 0
-399 717 609 0
-641 324 -259 0
960 194 -241 0
71 608 664 0
275 80 759 0
123 632 740 0
-789 -820 -628 0
310 143 -892 0
-101 489 -890 0
-210 -668 91 0
-784 -466 -632 0
-359 -444 641 0
-744 871 -467 0
258 832 640 0
128 -575 -881 0
6 -625 -113 0
-941 253 709 0
125 -859 99 0
-511 -595 -819 0
-763 -511 853 0
-495 905 -983 0
827 598 579 0
-51 -879 -621 0
539 781 -673 0
-322 -694 465 0
921 763 438 0
-902 645 903 0
-476 -433 325 0
-104 337 -717 0
-94 597 434 0
601 -456 -983 0
991 669 -105 0
898 -827 -387 0
664 -576 -777 0
-258 346 744 0
-188 -719 436 0
-906 800 469 0
141 -713 606 0
759 215 629 0
-81 -731 474 0
-94 764 25 0
171 78 866 0
-891 -450 636 0
53 -459 477 0
601 -516 623 0
280 -331 -350 0
490 827 566 0
-813 747 675 0
859 760 -65 0
-498 469 259 0
759 -181 163 0
871 168 641 0
519 893 -312 0
-921 763 853 0
809 594 332 0
-480 -381 100 0
755 -861 188 0
158 -275 -736 0
-380 840 997 0
503 -82 -239 0
511 853 -727 0
-572 23 955 0
-847 -51 14 0
765 -447 491 0
-809 898 569 0
-957 -163 -435 0
297 986 -918 0
-179 -176 302 0
595 363 211 0
641 -975 388 0
-188 -436 -991 0
-724 -981 -617 0
809 -579 -171 0
272 -411 -683 0
-956 -871 -498 0
-800 711 469 0
827 598 187 0
-6 -445 -37 0
833 571 -748 0
436 -991 48 0
-6 -572 -552 0
-557 625 -583 0
853 -595 901 0
510 -37 -224 0
-960 508 -722 0
894 266 -875 0
876 -685 -823 0
-673 913 -111 0
-37 -224 -622 0
503 -375 55 0
-673 440 -438 0
-114 929 -420 0
-956 -96 -444 0
921 438 -853 0
759 317 103 0
-63 -720 815 0
-823 9 904 0
409 6 160 0
-777 66 761 0
168 -337 -469 0
-558 246 -127 0
-595 -813 -243 0
-789 -990 -49 0
755 861 188 0
-503 -375 55 0
-489 125 -760 0
-572 23 -955 0
123 801 387 0
845 69 -531 0
210 -401 -872 0
-609 882 -430 0
765 -770 882 0
-991 -48 -669 0
480 -182 -858 0
731 -685 -474 0
250 840 927 0
957 163 -435 0
188 436 991 0
359 -168 -870 0
156 606 424 0
411 -233 440 0
713 -573 424 0
-51 -942 -98 0
-519 -893 312 0
25 -597 -427 0
606 367 278 0
-832 96 -742 0
-104 -359 467 0
409 -92 -333 0
846 63 -390 0
-411 763 438 0
832 700 252 0
973 -744 247 0
859 694 99 0
-382 -183 -101 0
81 -876 -244 0
742 -422 -749 0
838 -323 -4 0
-128 575 910 0
-51 -942 -98 0
181 -376 -829 0
-511 813 -243 0
-841 973 -203 0
759 404 -167 0
209 -181 560 0
-691 -580 -97 0
-845 -735 141 0
827 801 933 0
625 -113 -172 0
480 182 -858 0
-876 563 -945 0
-833 -483 -60 0
-838 145 -62 0
850 -887 -468 0
-979 -832 203 0
312 -615 -409 0
-250 -959 198 0
510 37 -224 0
511 243 144 0
-152 802 846 0
511 -813 -243 0
81 876 244 0
309 -801 849 0
155 -842 -156 0
777 66 -761 0
181 215 435 0
476 -824 -119 0
-579 -849 -680 0
489 671 483 0
-838 620 -137 0
563 -210 454 0
-110 -642 130 0
-600 238 402 0
921 -913 161 0
858 833 504 0
491 -110 520 0
-483 -99 65 0
-878 -647 862 0
707 595 -899 0
-179 176 -302 0
390 -805 127 0
-269 71 608 0
659 -56 -881 0
906 335 717 0
-123 -8 -429 0
838 62 -620 0
38 849 -933 0
-390 -516 596 0
141 -713 -606 0
-409 92 333 0
-876 731 945 0
483 99 65 0
-850 729 372 0
850 -984 980 0
-587 -838 323 0
845 141 -606 0
-845 69 531 0
-809 398 798 0
-188 -719 -436 0
-868 -784 -273 0
337 -800 915 0
-101 489 -890 0
-872 879 261 0
509 -557 -724 0
-244 295 -688 0
-498 635 202 0
894 318 -714 0
-229 976 269 0
-784 -466 632 0
209 -181 -560 0
742 -446 -978 0
-759 -209 -181 0
123 -996 801 0
181 -957 560 0
-152 420 988 0
498 -635 -202 0
-193 -37 197 0
233 616 586 0
-624 -169 -847 0
-759 1000 181 0
-633 -326 -72 0
563 210 -149 0
476 433 -824 0
-168 -444 -906 0
-606 -303 -201 0
956 -826 271 0
899 -819 -607 0
569 -965 -665 0
-807 929 420 0
-724 97 172 0
858 578 441 0
-472 -751 -678 0
152 114 -658 0
-98 -10 221 0
156 606 -424 0
-390 -575 -107 0
956 96 444 0
-699 379 907 0
-823 -883 -36 0
624 169 -847 0
-188 -436 -991 0
-777 -66 886 0
763 440 -855 0
-297 986 -417 0
858 -489 483 0
-724 97 -172 0
-784 -738 -331 0
6 -509 -557 0
-699 -724 218 0
-209 181 560 0
759 -1000 603 0
724 625 191 0
801 849 387 0
-909 -481 452 0
838 -620 137 0
291 557 379 0
879 -104 746 0
680 -985 476 0
-557 625 583 0
872 51 526 0
757 44 -968 0
-432 695 -858 0
-445 -68 224 0
-606 367 278 0
390 805 127 0
853 595 -901 0
511 813 -391 0
-68 510 -622 0
-96 -467 -444 0
-14 640 221 0
232 -544 -138 0
-850 -964 -822 0
-809 -308 -185 0
-272 -411 683 0
-813 12 -212 0
-1000 209 -677 0
859 -760 -65 0
-193 37 197 0
-152 -420 -988 0
-353 -156 -573 0
858 -451 125 0
872 51 526 0
-141 713 -606 0
892 960 -194 0
-353 -606 424 0
483 322 421 0
-817 -224 -539 0
390 -575 -107 0
123 868 303 0
593 536 -891 0
-511 595 -120 0
909 -75 -732 0
-975 -469 -259 0
-128 575 659 0
879 -359 -337 0
-123 -490 -598 0
69 -751 762 0
-724 -625 -286 0
592 -766 -229 0
-673 233 -111 0
-480 -182 858 0
-981 599 -788 0
-233 616 586 0
724 -981 617 0
872 -879 261 0
-847 149 401 0
609 75 770 0
-232 544 -138 0
-155 232 544 0
-898 -38 680 0
-432 -382 651 0
859 -694 -99 0
-759 677 -46 0
123 -898 680 0
-624 57 -304 0
809 523 -355 0
147 -593 536 0
128 -815 -575 0
-476 102 553 0
-90 -272 788 0
833 -571 -748 0
147 593 -536 0
-906 -469 717 0
-708 -770 701 0
-123 -898 -801 0
-975 -469 -259 0
-440 -511 -106 0
-731 -685 474 0
-272 411 683 0
-625 -445 -510 0
401 -841 -203 0
-759 316 209 0
12 -607 427 0
359 168 -870 0
-401 -621 979 0
-577 115 219 0
-849 680 -985 0
-390 -805 -408 0
-427 449 -250 0
233 -511 707 0
809 594 332 0
-98 10 221 0
-110 642 -130 0
-390 -516 596 0
906 915 324 0
156 606 424 0
101 671 125 0
258 832 640 0
181 -376 -234 0
68 -193 37 0
-853 595 -243 0
-353 -156 573 0
557 724 583 0
476 -824 -119 0
-695 488 -666 0
-220 -806 -223 0
-809 -22 548 0
406 -619 796 0
996 -38 -564 0
-171 78 -866 0
-960 508 722 0
595 -212 764 0
664 576 777 0
310 143 892 0
-724 572 -34 0
316 209 18 0
-233 -616 586 0
849 -933 -180 0
986 -847 210 0
724 625 -954 0
-269 71 608 0
498 -202 469 0
861 188 719 0
-592 766 229 0
-724 -645 279 0
-28 -724 -776 0
147 -593 -536 0
-807 208 -200 0
991 -48 -828 0
76 -549 -966 0
90 272 981 0
-158 -251 736 0
311 -50 185 0
-456 900 -633 0
-59 694 -571 0
-409 6 333 0
-156 472 -713 0
630 -788 -344 0
6 -572 552 0
-1000 209 -677 0
123 -712 -995 0
-81 -876 -244 0
353 -472 -118 0
879 -742 -473 0
832 -700 -787 0
-868 712 -995 0
37 -539 -90 0
-43 -162 406 0
511 -707 -747 0
123 -849 -564 0
280 -331 350 0
72 -876 731 0
53 459 477 0
70 -111 267 0
411 -233 440 0
28 724 -776 0
789 -990 -49 0
606 367 614 0
-847 -841 -223 0
-179 -176 -503 0
-191 -572 -193 0
390 -982 -235 0
789 -990 -49 0
-125 859 99 0
5 -810 236 0
90 617 630 0
153 668 401 0
-707 -595 -899 0
-104 245 252 0
250 432 266 0
171 801 -187 0
353 3 -69 0
-981 -599 617 0
-476 824 911 0
-894 -318 -714 0
-809 -22 548 0
-981 344 411 0
-718 -926 -165 0
-809 -523 -355 0
593 -536 891 0
906 -469 717 0
-564 680 343 0
-956 -746 -773 0
876 -295 -934 0
879 -299 444 0
-813 -747 -675 0
212 -693 959 0
5 810 -236 0
842 -353 -531 0
-6 -333 -28 0
353 69 -713 0
-6 445 -552 0
899 -819 607 0
-250 -840 -811 0
-868 356 590 0
-809 -523 -355 0
-894 840 362 0
220 -806 -223 0
599 630 788 0
-359 -773 170 0
-51 -223 265 0
-724 -224 -513 0
-701 -882 -491 0
-685 -474 244 0
833 125 -525 0
-179 176 -503 0
-53 597 854 0
921 763 -438 0
-390 -982 -235 0
-94 764 25 0
-6 -445 -37 0
898 827 29 0
-589 -28 726 0
-158 275 736 0
-390 456 -983 0
211 94 212 0
879 746 -226 0
233 511 -707 0
894 475 489 0
-693 -471 -198 0
-801 -849 -387 0
-147 -593 536 0
-557 907 954 0
511 -707 -747 0
755 -861 188 0
-467 168 444 0
690 793 671 0
147 593 -536 0
390 805 127 0
-110 642 -130 0
-921 763 -853 0
-432 741 431 0
-476 102 553 0
-123 -598 -999 0
-322 694 465 0
510 -37 622 0
80 -654 -537 0
-128 -390 -881 0
850 -964 822 0
833 -464 877 0
90 272 -981 0
128 390 -881 0
823 -297 295 0
-447 -882 -884 0
-633 326 -72 0
-269 71 608 0
128 -575 -659 0
-973 956 348 0
871 -168 -641 0
-906 915 324 0
-892 -928 960 0
59 -542 -958 0
-763 361 -616 0
845 -842 3 0
-312 -615 409 0
847 -841 265 0
899 211 -53 0
-37 539 90 0
123 -878 647 0
53 -597 -854 0
-823 -9 904 0
-171 801 -187 0
832 242 -773 0
838 -323 -4 0
-503 375 -55 0
872 879 971 0
-554 856 -689 0
736 74 -654 0
-128 575 881 0
759 209 -46 0
707 -595 747 0
266 183 -101 0
-169 -304 -904 0
-879 104 746 0
742 498 444 0
-28 -113 691 0
-359 906 -399 0
90 272 981 0
-128 390 -815 0
-390 657 -135 0
-883 710 918 0
765 447 491 0
-813 -120 -140 0
714 -59 225 0
123 827 996 0
-158 736 654 0
-6 -28 -625 0
-847 936 709 0
-6 -28 625 0
986 847 -942 0
-813 -120 140 0
842 962 -69 0
-858 -99 407 0
156 606 -424 0
-310 -547 -914 0
266 45 577 0
-155 -353 463 0
-251 -736 654 0
188 719 436 0
483 99 65 0
-69 809 -201 0
845 -141 -43 0
-879 359 -337 0
-6 -445 -552 0
-879 -746 -226 0
-981 -599 617 0
90 -676 272 0
80 -654 -537 0
-476 433 824 0
909 481 452 0
-724 113 903 0
128 -575 -659 0
-759 -1000 181 0
-511 120 -1 0
850 887 468 0
986 -936 15 0
788 -411 763 0
759 -1000 -46 0
743 -717 -426 0
757 -44 -968 0
845 -735 -141 0
-63 720 815 0
-809 579 -171 0
941 832 253 0
633 81 443 0
842 -962 -69 0
699 724 -218 0
503 82 239 0
-659 -900 -127 0
-401 51 942 0
846 128 390 0
724 68 -817 0
-595 -813 -243 0
526 73 -806 0
993 -258 10 0
-695 488 666 0
-887 468 755 0
-488 811 -741 0
94 764 -25 0
-861 -188 719 0
-6 333 -534 0
849 680 327 0
6 699 -583 0
380 -198 115 0
-809 -523 355 0
893 -638 -389 0
-258 203 242 0
210 401 -872 0
977 -954 580 0
411 921 -438 0
807 -152 290 0
390 -456 -983 0
-188 -719 436 0
51 993 -501 0
495 -340 -374 0
-850 887 -468 0
12 -25 -959 0
-233 111 -855 0
-503 375 -55 0
102 553 -158 0
823 295 400 0
-755 -861 188 0
-934 -604 -688 0
155 232 -544 0
312 -409 -6 0
12 -25 -959 0
-156 -123 809 0
316 -209 18 0
503 82 -239 0
28 -509 -557 0
-868 784 -500 0
-123 712 995 0
-128 390 815 0
-991 -48 828 0
-456 -900 -633 0
-15 -930 -869 0
-973 744 247 0
210 -401 -872 0
503 -82 239 0
-986 -621 -258 0
-406 466 796 0
-827 -801 933 0
90 -676 -272 0
353 3 69 0
-894 -380 293 0
313 155 138 0
-743 -399 -909 0
906 388 800 0
90 -676 272 0
-128 -797 815 0
-123 -996 -801 0
-156 -123 809 0
542 -671 -483 0
511 707 -747 0
-401 412 806 0
-141 353 -713 0
318 718 -465 0
-6 625 113 0
-81 -563 -945 0
827 -680 702 0
6 572 -552 0
996 -38 -680 0
-123 898 -283 0
-1000 181 603 0
-743 -444 -717 0
590 201 -341 0
-849 680 327 0
-557 724 -583 0
-516 374 -692 0
-318 -694 -525 0
-156 -606 762 0
311 -632 -878 0
114 860 -988 0
542 671 483 0
-211 -94 584 0
-409 333 -160 0
-432 -471 45 0
-353 531 -118 0
-480 381 -100 0
181 -215 -435 0
90 781 -344 0
-456 -246 900 0
724 -625 -191 0
-986 604 624 0
899 -281 -12 0
-179 -176 -416 0
269 71 -608 0
-6 28 -625 0
-367 -809 341 0
511 243 -144 0
359 -444 717 0
211 -94 -894 0
-886 -179 -176 0
152 846 988 0
-90 272 -788 0
589 28 -726 0
841 -973 -203 0
63 720 -815 0
-887 468 755 0
285 216 -307 0
-250 -959 -198 0
-838 -62 -620 0
-871 631 299 0
-480 -666 -381 0
-200 -290 929 0
-156 472 713 0
707 595 -747 0
-981 599 -788 0
-456 -900 -633 0
203 -744 -938 0
211 94 894 0
-742 422 -749 0
-43 -573 -794 0
490 -827 -566 0
-312 -409 6 0
-181 376 -234 0
633 81 -443 0
-595 -211 769 0
850 984 -980 0
625 -279 172 0
-718 -44 748 0
906 -800 469 0
-123 849 -933 0
503 -375 -55 0
439 -17 -814 0
673 -853 361 0
96 467 -444 0
-599 950 -462 0
59 -967 322 0
-128 -797 815 0
-476 -553 360 0
-380 449 -584 0
609 -75 549 0
380 -840 -997 0
-539 -781 -673 0
-25 -695 -651 0
838 62 -620 0
-123 -827 -996 0
390 -982 -235 0
841 -973 -203 0
211 -901 212 0
-595 899 12 0
724 -224 513 0
-447 -882 -884 0
-211 243 -1 0
-832 242 -773 0
51 -526 806 0
333 -177 -699 0
-1000 -209 677 0
724 -113 -903 0
-337 765 -909 0
838 62 620 0
-759 -1000 -46 0
233 -763 -440 0
-509 987 570 0
810 313 -155 0
-310 -143 -892 0
-233 -913 -111 0
104 -359 -467 0
-659 -900 127 0
480 381 -100 0
666 -577 811 0
-476 -553 -360 0
-841 -242 -104 0
744 -871 -467 0
940 -382 778 0
-6 333 160 0
-879 -104 -978 0
-986 621 258 0
-714 59 225 0
495 340 374 0
440 -511 106 0
-399 717 -609 0
-390 575 -107 0
-511 853 -243 0
-128 390 -815 0
-539 -599 -830 0
-878 280 647 0
-6 -699 583 0
-96 -746 -247 0
673 853 -361 0
-316 209 -18 0
-986 -624 -210 0
724 676 -272 0
625 113 -172 0
838 -62 -620 0
858 890 671 0
695 -488 -666 0
-353 531 118 0
-951 383 514 0
-956 96 444 0
666 577 -811 0
-312 409 -6 0
516 374 692 0
-432 471 -45 0
-876 624 710 0
439 -17 -814 0
53 597 854 0
298 742 348 0
-878 358 -490 0
-147 -593 536 0
495 905 983 0
-673 233 511 0
671 -451 -967 0
-69 -156 497 0
718 -44 748 0
-101 59 -542 0
-155 845 531 0
833 483 60 0
80 -74 759 0
380 -382 -811 0
-123 -996 479 0
285 216 -307 0
-440 -511 106 0
-996 801 -933 0
-838 620 482 0
-266 198 785 0
-503 -82 239 0
-823 -883 -36 0
-73 223 709 0
-269 71 608 0
-838 -620 482 0
568 156 118 0
81 731 -474 0
894 518 793 0
850 -964 -822 0
-69 -156 713 0
179 176 -503 0
476 824 911 0
858 99 917 0
845 141 -43 0
511 853 -727 0
-464 748 -525 0
390 495 -657 0
815 575 836 0
960 508 -722 0
-891 450 -636 0
590 201 341 0
-155 -845 -735 0
476 824 -911 0
-359 906 446 0
-250 -432 -266 0
176 416 503 0
-380 693 382 0
155 232 -544 0
-107 659 -881 0
-986 -261 -841 0
-558 -246 -127 0
-68 193 -37 0
503 375 55 0
-476 824 119 0
-853 -595 243 0
-503 550 -239 0
810 -236 313 0
-894 -380 293 0
-495 439 -135 0
-483 -322 421 0
878 -740 190 0
-957 560 215 0
662 90 -513 0
-759 -317 -103 0
-380 -449 -584 0
-838 323 -4 0
35 -942 258 0
742 422 -749 0
-498 -469 259 0
-842 962 69 0
258 -346 744 0
-973 832 -795 0
-606 278 -201 0
-842 353 531 0
-842 -962 -69 0
-921 440 -111 0
-841 961 -839 0
-509 354 -557 0
-181 376 -234 0
-90 -781 344 0
849 680 985 0
489 -99 60 0
-37 224 -622 0
-838 -62 620 0
-956 -743 168 0
115 -431 -101 0
-90 -781 673 0
461 -362 -266 0
-94 -250 484 0
-838 -62 -620 0
243 -480 484 0
-43 -751 652 0
-440 -511 106 0
876 -563 -945 0
-859 -694 -99 0
-868 712 995 0
-104 -498 -202 0
-563 -210 -149 0
156 367 -712 0
489 671 483 0
490 827 -566 0
541 640 -166 0
-380 382 -811 0
-168 337 -469 0
409 6 -333 0
-371 -328 -41 0
-847 210 -872 0
-152 -114 658 0
511 -813 -243 0
-977 954 -580 0
123 -996 801 0
-909 -75 -732 0
744 -631 919 0
15 930 869 0
-258 832 640 0
832 242 -773 0
898 827 387 0
-333 -160 -28 0
6 68 207 0
-858 -833 -504 0
-511 595 120 0
-318 -694 525 0
-390 575 -107 0
233 -440 -161 0
-956 871 -498 0
-606 -367 614 0
12 -25 -554 0
114 -929 420 0
-759 1000 46 0
894 -266 875 0
-152 -114 -290 0
-359 498 -388 0
-359 -388 -717 0
155 -845 735 0
878 -358 -490 0
659 900 -127 0
489 -99 60 0
495 905 -374 0
96 -919 773 0
861 188 719 0
51 -993 501 0
-807 152 -290 0
-390 805 408 0
-179 -176 -302 0
-847 -149 -401 0
809 -898 569 0
-713 573 424 0
81 563 945 0
-813 -484 959 0
-101 -489 -890 0
-401 930 20 0
838 145 834 0
-810 313 -155 0
557 907 -954 0
-906 -641 -324 0
244 -295 688 0
894 840 -362 0
266 -858 -718 0
409 -6 333 0
25 480 -651 0
759 181 163 0
359 -906 446 0
6 -28 625 0
587 -838 -323 0
-147 593 -536 0
310 547 -914 0
-451 -504 859 0
382 488 858 0
476 -824 911 0
-906 -975 -800 0
169 304 904 0
-266 318 59 0
-691 -580 97 0
188 -719 -436 0
-123 996 801 0
-191 -903 -445 0
-833 757 924 0
680 -364 933 0
853 120 33 0
859 -60 -525 0
188 436 -991 0
-81 -986 883 0
-724 -113 -903 0
-94 597 434 0
-6 954 645 0
179 176 302 0
-401 -51 -942 0
621 979 541 0
-755 -861 188 0
809 579 -996 0
436 -991 -48 0
784 738 -331 0
991 -48 105 0
-858 99 -917 0
-155 735 -842 0
898 827 29 0
595 -899 -12 0
-985 -476 -394 0
-592 766 229 0
243 480 484 0
-899 281 -12 0
-516 596 -374 0
285 -216 307 0
-845 -842 -353 0
250 -840 927 0
838 62 620 0
991 48 669 0
-233 -763 -707 0
-436 -991 -48 0
436 991 48 0
15 930 -869 0
-724 981 617 0
-511 -813 391 0
601 -456 983 0
-569 965 665 0
472 751 678 0
-822 803 613 0
810 236 313 0
390 516 596 0
966 452 708 0
-891 450 -636 0
-847 -454 -872 0
179 -176 -503 0
43 -751 652 0
684 934 939 0
845 -842 -3 0
-51 -223 265 0
724 -193 -207 0
14 -640 -221 0
-390 657 -135 0
359 -906 -446 0
-156 -606 -762 0
511 120 -1 0
-169 304 -904 0
-123 -849 -933 0
-833 926 968 0
123 996 -564 0
179 176 -416 0
-539 272 599 0
353 472 118 0
-181 629 -222 0
-986 -624 -292 0
-693 471 198 0
-203 -744 -298 0
759 404 -167 0
59 -542 -958 0
-564 -680 -343 0
495 -340 374 0
258 -203 -242 0
-987 -557 -907 0
-390 805 408 0
-250 -959 198 0
318 671 -125 0
-894 475 -489 0
-901 243 -146 0
-6 -68 -207 0
-123 753 -190 0
673 -440 438 0
-633 -326 -72 0
-445 -68 -224 0
-809 898 569 0
986 847 942 0
51 879 -621 0
-901 1 391 0
849 -933 180 0
-810 -236 -313 0
-883 710 918 0
-621 -979 541 0
-456 -374 657 0
-333 -177 -699 0
-810 313 155 0
554 856 -689 0
-258 832 -640 0
-81 -474 -244 0
-70 -111 267 0
973 -621 541 0
-991 -48 -105 0
624 -169 847 0
-960 -508 -722 0
-401 841 203 0
-511 146 -512 0
838 -145 62 0
-858 -318 859 0
599 630 788 0
382 -488 858 0
-833 -125 525 0
894 318 -714 0
-390 516 596 0
-838 62 620 0
-898 -355 -490 0
-759 -215 -629 0
158 275 736 0
957 560 -215 0
-742 446 978 0
503 375 55 0
158 -275 -736 0
-724 625 -286 0
986 501 -20 0
113 191 207 0
128 -390 -495 0
957 163 435 0
878 740 -190 0
827 -598 -187 0
128 815 -575 0
-382 318 643 0
986 501 -20 0
-957 -163 435 0
986 973 84 0
-724 -625 -954 0
-123 632 -740 0
-155 -845 -735 0
759 209 -181 0
809 311 410 0
495 439 135 0
-838 62 -620 0
-879 742 473 0
123 784 -798 0
-35 98 -979 0
606 303 -201 0
987 557 907 0
-707 595 -899 0
759 317 103 0
155 -232 -544 0
921 -111 26 0
179 176 -503 0
-659 -456 -905 0
-891 -450 -636 0
-123 -898 680 0
-847 210 -872 0
789 990 49 0
-956 -826 271 0
850 -984 980 0
-784 308 398 0
-817 662 90 0
291 557 379 0
673 -440 -438 0
-838 -145 62 0
-879 -299 444 0
123 -868 303 0
-845 -842 -3 0
-858 833 -504 0
-509 -776 -580 0
188 -719 -436 0
-921 511 -26 0
-784 -398 -798 0
-809 -579 -996 0
876 -731 -685 0
-382 -318 643 0
-51 841 -744 0
673 -853 361 0
673 -763 70 0
-671 -451 967 0
-72 -876 731 0
156 472 713 0
-671 451 967 0
-817 -224 539 0
209 181 -560 0
-414 -584 693 0
659 900 -127 0
-511 -853 -211 0
-141 -713 606 0
-6 -509 -557 0
-809 898 -569 0
-211 -901 -212 0
-894 -475 489 0
-563 -624 292 0
-380 -449 584 0
846 63 390 0
-813 120 -140 0
-98 -10 221 0
845 141 -43 0
-155 -845 -735 0
-427 449 250 0
-266 183 -101 0
875 318 115 0
-285 -216 307 0
110 -642 831 0
-595 -506 901 0
466 429 -410 0
90 -676 272 0
380 382 811 0
-892 722 -581 0
-724 -224 -513 0
-447 -882 -884 0
-168 -388 -324 0
-539 -233 -763 0
266 -45 577 0
359 388 717 0
156 472 713 0
-316 -328 -41 0
337 -800 -915 0
155 -845 531 0
-833 -464 -877 0
833 -926 -968 0
-633 326 -72 0
206 -488 -183 0
-503 375 -55 0
59 694 -571 0
-823 -883 36 0
-353 606 -514 0
894 318 714 0
152 -114 -658 0
81 563 945 0
-476 824 911 0
-123 -827 -996 0
872 879 -971 0
-6 -445 -207 0
921 111 26 0
625 -113 172 0
-845 -842 -353 0
-179 -176 416 0
606 -751 762 0
-577 293 811 0
123 849 564 0
838 -62 -620 0
-155 -845 735 0
-25 -597 -427 0
833 757 924 0
6 333 534 0
-800 -711 469 0
986 401 91 0
-346 -744 263 0
-81 986 -883 0
-233 502 -767 0
-832 242 773 0
-118 367 -109 0
-156 472 713 0
609 75 -770 0
996 801 -933 0
-503 -375 55 0
-879 -956 634 0
476 -824 119 0
-239 -807 696 0
-353 -531 -118 0
-986 -847 -942 0
906 -388 399 0
858 890 -671 0
-233 616 -586 0
-81 731 -474 0
-69 614 590 0
6 -291 -987 0
789 990 49 0
-382 318 643 0
621 -867 -129 0
128 -575 881 0
879 956 -634 0
439 -17 814 0
90 -630 -788 0
495 905 -983 0
941 -832 -253 0
-179 176 -302 0
123 -632 740 0
-211 -94 -212 0
-59 967 322 0
996 38 680 0
-503 375 55 0
-48 669 105 0
-759 -316 -209 0
-69 751 -762 0
-858 -489 -441 0
-367 -712 -500 0
724 -193 207 0
898 827 387 0
898 827 29 0
380 -693 382 0
-816 850 984 0
476 824 -119 0
-593 -536 891 0
-359 168 870 0
832 700 -252 0
110 642 831 0
333 -160 28 0
-743 259 -765 0
868 784 -273 0
-128 390 -881 0
-110 -642 -831 0
-809 311 -798 0
203 -744 -938 0
25 -840 -2 0
-6 28 113 0
633 81 -443 0
595 -211 901 0
-6 333 28 0
-986 -624 -292 0
-316 209 -18 0
353 150 -762 0
960 508 722 0
563 417 -710 0
-641 -324 -259 0
503 375 -55 0
-853 595 813 0
-359 -773 170 0
-359 -773 170 0
401 35 -971 0
-309 -801 849 0
816 -850 -984 0
-765 447 491 0
-181 -629 435 0
-449 45 666 0
233 502 -767 0
-12 25 -959 0
-94 -597 -434 0
763 -440 855 0
-123 996 -564 0
891 450 -636 0
123 996 479 0
128 -390 495 0
-846 128 390 0
941 253 709 0
297 -986 417 0
-277 -401 454 0
743 444 -717 0
-152 114 -658 0
155 -845 -735 0
-96 467 -773 0
850 -887 468 0
158 1000 -316 0
-593 536 -891 0
69 -156 497 0
-541 640 166 0
-960 -508 722 0
-810 236 313 0
-595 -813 243 0
-476 -824 -911 0
123 784 798 0
-309 -801 849 0
-233 -440 -161 0
853 595 -901 0
210 993 874 0
-123 -38 -680 0
-979 -864 84 0
81 -986 -883 0
182 100 -825 0
-736 74 654 0
-960 508 722 0
-685 474 -244 0
-6 -724 -68 0
991 -48 828 0
-879 -104 -978 0
-680 985 -476 0
810 313 155 0
312 -409 6 0
853 901 33 0
-191 68 -207 0
-759 215 -629 0
592 766 229 0
-849 -680 970 0
495 -905 -374 0
-181 -560 435 0
-625 -113 572 0
509 -354 987 0
-123 898 -283 0
-763 361 616 0
658 290 -860 0
569 -740 753 0
872 -879 971 0
-680 364 -933 0
813 480 206 0
-445 955 -37 0
445 -955 -37 0
-380 449 584 0
476 -553 360 0
141 472 -606 0
-155 842 156 0
973 -832 -795 0
894 875 714 0
-155 -845 -531 0
759 1000 -316 0
233 -440 161 0
-838 -62 620 0
625 -113 -572 0
-476 -158 -275 0
-399 -717 -909 0
593 -536 -891 0
-595 -506 901 0
589 -28 726 0
-740 190 -546 0
724 -625 286 0
599 630 788 0
-699 724 -218 0
680 -985 476 0
212 -693 -959 0
-755 861 -188 0
498 -469 259 0
181 376 234 0
708 770 701 0
-503 -375 55 0
-625 445 510 0
-401 35 -971 0
-346 -744 263 0
-724 676 -272 0
813 819 391 0
69 614 590 0
641 -975 388 0
-563 -604 -347 0
519 -893 -312 0
902 -645 903 0
-411 -763 -438 0
99 -44 -148 0
244 295 688 0
-593 536 891 0
-155 353 463 0
128 797 390 0
6 -445 207 0
986 -624 292 0
-406 466 -796 0
-744 -226 635 0
853 120 33 0
-128 -815 575 0
-901 1 -391 0
-809 -579 171 0
957 215 -629 0
6 -333 -160 0
575 56 -159 0
352 117 -716 0
81 -876 -685 0
-1000 209 677 0
-894 -380 -293 0
-123 996 -564 0
51 -879 -621 0
155 -353 463 0
-833 125 -525 0
-104 -551 -348 0
763 440 -855 0
813 -250 432 0
6 912 726 0
427 -840 -248 0
593 536 891 0
-662 -90 -513 0
409 -92 -333 0
101 -59 542 0
-380 -840 -997 0
281 -33 -12 0
759 1000 -46 0
-239 807 -696 0
498 635 446 0
-310 -547 -914 0
879 956 -634 0
-606 -367 614 0
-850 729 -372 0
-901 243 146 0
979 -832 -203 0
743 -399 567 0
-25 -840 -362 0
467 -168 444 0
-664 576 -777 0
-113 445 510 0
590 -201 -341 0
-850 -984 -980 0
406 -466 796 0
-401 -35 -971 0
179 176 -503 0
-569 965 665 0
740 -190 546 0
838 -620 -482 0
-427 -449 250 0
-898 827 -29 0
310 -547 -914 0
-973 979 867 0
-509 354 -987 0
-691 -580 97 0
25 -840 362 0
875 318 115 0
986 -277 153 0
158 275 736 0
171 801 -187 0
-736 74 -654 0
-229 976 269 0
-114 929 420 0
76 549 -966 0
777 66 886 0
906 -915 -324 0
593 536 -891 0
367 -406 -809 0
898 579 -38 0
-210 -668 91 0
827 -598 -579 0
-742 -498 444 0
51 879 -621 0
-625 -113 572 0
390 -720 -815 0
956 -746 -773 0
-203 40 -104 0
43 -162 406 0
-239 208 290 0
-743 444 -717 0
509 -902 776 0
-476 -102 158 0
853 813 -819 0
-444 399 800 0
63 -720 815 0
81 876 -823 0
744 226 635 0
181 -560 -435 0
934 883 169 0
110 642 -831 0
-359 -765 -909 0
-956 -826 271 0
841 245 263 0
853 120 -33 0
-280 -331 350 0
-891 -450 636 0
-25 -695 651 0
960 508 -722 0
693 471 -198 0
-609 75 770 0
960 508 -722 0
898 -38 -680 0
894 -266 -875 0
822 -803 613 0
-152 -802 846 0
-991 48 669 0
141 -472 -606 0
158 -275 -396 0
141 568 156 0
894 518 -793 0
-724 -583 172 0
568 156 -118 0
813 250 -432 0
-409 92 -333 0
476 102 158 0
152 -164 696 0
-212 382 997 0
557 -954 -113 0
-973 -956 -348 0
141 69 -156 0
892 -960 194 0
101 -671 -125 0
35 -98 -979 0
-823 -9 -904 0
445 -955 -37 0
322 -694 -465 0
353 150 762 0
-447 -430 989 0
-743 -259 765 0
-724 -981 617 0
59 694 -571 0
141 -568 -156 0
-685 474 -823 0
-203 -40 -104 0
-390 805 -127 0
-461 362 266 0
708 770 701 0
592 766 229 0
-899 -211 -53 0
744 -631 -919 0
724 572 -527 0
-641 -975 388 0
498 202 -469 0
233 763 -440 0
115 431 101 0
724 -224 513 0
-509 -354 -987 0
-718 -926 -165 0
-858 -489 483 0
-599 -630 -788 0
-833 464 877 0
-123 -878 -647 0
176 -416 503 0
456 -374 657 0
-94 -25 940 0
210 -401 872 0
-964 -822 -613 0
902 691 583 0
-381 -475 690 0
868 -356 -590 0
-188 719 -436 0
-152 846 -988 0
-5 810 -236 0
-59 690 -793 0
563 -417 710 0
-868 -898 -569 0
-152 -802 -846 0
-6 445 -207 0
28 -113 691 0
-310 143 892 0
-901 1 -391 0
-6 333 28 0
742 498 -444 0
523 -827 566 0
322 -441 464 0
489 671 483 0
-266 -198 785 0
-14 -640 221 0
-71 608 664 0
-593 -536 891 0
539 272 -599 0
519 893 -312 0
784 398 798 0
291 -557 379 0
6 28 -625 0
906 -388 -399 0
-996 -38 -680 0
-352 -117 716 0
-211 -901 212 0
168 388 -324 0
-996 38 -564 0
921 913 -161 0
-891 -450 -636 0
-14 640 -221 0
763 511 -853 0
759 209 46 0
569 -965 665 0
51 10 869 0
-986 401 -91 0
-449 -45 -666 0
-850 -964 822 0
-43 751 652 0
-337 -765 909 0
-128 797 -390 0
118 -367 109 0
63 -797 720 0
-359 -765 909 0
200 290 929 0
673 853 -361 0
179 176 302 0
-233 -511 707 0
-979 864 -84 0
813 212 -427 0
123 898 -801 0
-318 718 -465 0
476 -553 -360 0
-684 -934 -939 0
991 48 105 0
759 -316 209 0
519 -893 312 0
960 -508 -722 0
810 -236 313 0
-718 44 -748 0
-509 -987 -570 0
-960 -241 508 0
-69 531 156 0
-956 -271 -226 0
-771 -600 -683 0
69 156 -713 0
-449 45 -666 0
858 -489 441 0
-390 -456 -983 0
-850 964 -822 0
-977 954 580 0
444 635 399 0
12 25 -554 0
-595 899 12 0
6 -113 -193 0
-155 -232 -544 0
81 -876 244 0
-353 -118 851 0
788 411 -763 0
17 814 470 0
-979 -832 -203 0
960 508 722 0
-80 -654 -537 0
476 102 -158 0
1000 181 -603 0
-123 -753 -190 0
-488 -811 -741 0
498 -661 170 0
-850 984 980 0
838 -145 -62 0
495 -340 -374 0
316 -181 -328 0
966 -452 708 0
-921 707 -106 0
665 598 256 0
466 429 410 0
673 111 775 0
-101 489 -890 0
-17 814 470 0
12 25 -427 0
51 -526 -806 0
859 760 -65 0
-601 -456 983 0
-311 632 -878 0
-986 624 210 0
141 69 -156 0
113 -445 510 0
427 -100 741 0
973 -979 -867 0
-266 318 -59 0
114 929 420 0
432 -382 651 0
-714 857 101 0
179 -176 302 0
-96 467 -773 0
-743 -259 -765 0
-233 502 -767 0
827 -598 -579 0
-789 990 49 0
876 685 823 0
181 376 -829 0
123 784 -798 0
-841 -263 298 0
-511 -813 243 0
-847 51 -14 0
986 604 624 0
123 -598 999 0
-625 -445 510 0
123 898 -680 0
128 390 495 0
-731 -685 474 0
906 388 399 0
-212 382 -997 0
6 954 645 0
755 -861 188 0
-784 466 632 0
879 746 226 0
312 -409 6 0
432 471 45 0
308 798 273 0
-28 724 776 0
-295 169 -153 0
-272 411 -683 0
312 -409 -6 0
-28 -509 -557 0
-879 -746 226 0
476 -102 -553 0
367 406 -809 0
-188 -719 -436 0
-152 114 290 0
-104 498 -202 0
-123 898 -801 0
872 -51 -526 0
871 631 -299 0
-156 -472 -713 0
809 -594 -332 0
-113 -445 510 0
724 -625 -954 0
868 -809 -311 0
-179 -176 -302 0
-69 751 762 0
593 -536 891 0
-155 845 735 0
-337 -765 -909 0
858 451 -125 0
427 -100 -741 0
-940 -250 58 0
817 224 539 0
-755 -861 188 0
-353 69 713 0
-509 -354 -557 0
-467 168 -444 0
718 926 165 0
986 261 -841 0
-188 -436 -991 0
17 -814 470 0
90 -781 -673 0
519 893 389 0
577 -115 219 0
-707 -813 899 0
-993 -220 -35 0
380 -198 -115 0
-993 220 -35 0
-511 853 211 0
693 -100 -741 0
-853 -595 -243 0
153 668 -401 0
-519 -893 -312 0
-381 475 -690 0
-97 -191 889 0
212 -382 997 0
-849 680 985 0
-807 200 -290 0
-179 -176 -302 0
-892 -960 -194 0
-152 -420 -988 0
-858 -890 671 0
669 -105 -52 0
181 957 560 0
295 169 -153 0
-63 988 -943 0
981 -344 411 0
511 146 512 0
-414 -584 693 0
511 -243 212 0
495 -905 374 0
621 867 -129 0
171 78 866 0
-96 -467 444 0
-765 770 -882 0
986 993 35 0
220 -806 -223 0
25 480 -651 0
35 -98 -979 0
-892 960 -194 0
-123 -38 680 0
-763 440 855 0
-960 -508 722 0
312 409 6 0
6 291 -987 0
128 390 -495 0
503 550 -239 0
-380 198 115 0
-630 -788 -344 0
-993 258 -10 0
858 -483 -525 0
960 508 722 0
838 323 -4 0
707 -813 899 0
-123 -712 -995 0
872 -908 774 0
-991 48 -105 0
-724 -572 527 0
-333 -160 28 0
-382 -488 858 0
986 621 258 0
-813 -484 959 0
-511 -767 -813 0
-813 250 -432 0
810 236 -313 0
-399 -717 -909 0
179 -176 302 0
168 -337 469 0
152 846 988 0
-789 -990 49 0
-763 -361 616 0
832 -700 252 0
-476 -102 553 0
666 577 811 0
-960 194 241 0
-25 480 651 0
600 -411 921 0
-624 277 -904 0
-850 -887 468 0
-986 277 153 0
318 -441 -525 0
-595 -363 -211 0
-476 -102 -158 0
-250 -432 -266 0
-390 495 657 0
-232 544 138 0
-495 -374 336 0
359 906 446 0
476 824 911 0
714 857 -101 0
-871 -168 -399 0
35 -942 258 0
-858 489 483 0
898 753 -665 0
181 376 234 0
440 511 -106 0
281 -33 -12 0
-742 446 -978 0
359 444 641 0
-685 474 244 0
-309 -801 -849 0
367 -809 341 0
-280 490 827 0
456 900 -633 0
476 824 119 0
-662 -622 -539 0
-188 -719 -436 0
217 852 -700 0
447 430 989 0
625 -279 -172 0
-464 748 -525 0
211 -94 894 0
152 -164 696 0
81 -731 474 0
807 929 -420 0
440 511 106 0
-973 744 247 0
-841 245 263 0
-898 -827 387 0
-269 -71 608 0
-444 399 -800 0
297 986 -918 0
539 781 -673 0
6 724 68 0
813 480 -206 0
-333 177 699 0
759 -316 209 0
592 -766 -229 0
-744 226 -635 0
476 -102 -553 0
220 806 223 0
511 120 -144 0
-838 620 -137 0
