c Type 2: interval ordering (permuted), n=200, m_intervals=200, t=3
p cnf 200 800
-69 -3 -53 0
53 -196 15 0
-124 66 -5 0
-21 -10 170 0
-181 8 98 0
161 -66 170 0
50 59 -180 0
-102 40 47 0
190 24 10 0
-21 10 183 0
-102 -40 -47 0
-31 162 142 0
24 68 49 0
42 -145 83 0
-24 -10 -183 0
-85 161 -50 0
153 -81 -190 0
-81 -53 -166 0
40 -69 -194 0
-65 -162 -142 0
-184 11 -44 0
153 190 135 0
83 -142 25 0
-26 -15 -190 0
85 -87 49 0
-21 199 186 0
124 -66 -5 0
-21 93 17 0
-80 124 5 0
-26 -53 190 0
161 -2 176 0
153 -135 -50 0
-69 -195 -147 0
129 -9 109 0
-83 -69 88 0
122 52 -185 0
-65 -42 16 0
161 66 -170 0
-21 38 52 0
-133 43 52 0
80 10 133 0
109 -100 86 0
31 65 -83 0
-135 -161 50 0
112 16 162 0
83 168 45 0
109 -100 86 0
161 -80 117 0
-125 15 190 0
-21 38 -52 0
-50 21 68 0
-161 21 68 0
-118 -127 -150 0
-122 62 172 0
21 -10 170 0
125 40 -18 0
-194 81 53 0
85 153 -23 0
-65 42 -16 0
125 40 18 0
139 -129 -121 0
184 26 -23 0
122 -62 -172 0
-40 85 196 0
40 26 -15 0
53 196 -15 0
22 -80 46 0
-129 105 -141 0
-61 -85 194 0
-139 -178 121 0
123 185 -188 0
69 3 -53 0
85 -87 49 0
40 61 194 0
-21 -51 84 0
-26 -15 -190 0
102 40 -7 0
-113 -151 -17 0
-161 -10 -189 0
40 11 -194 0
113 151 17 0
-21 -66 -114 0
-21 123 -62 0
31 -162 142 0
-29 155 12 0
103 66 -92 0
-2 -170 5 0
-8 98 136 0
124 66 5 0
-125 -194 -18 0
88 -91 196 0
-16 168 -102 0
161 -80 117 0
-123 185 -188 0
-161 2 62 0
117 -68 -148 0
-171 194 159 0
118 -106 -97 0
21 122 140 0
83 -168 -45 0
85 10 17 0
113 151 17 0
-161 2 62 0
69 3 53 0
-153 -3 -190 0
31 65 -95 0
43 -66 -170 0
-157 124 -90 0
190 -24 10 0
157 -62 -158 0
-85 50 -21 0
26 53 -190 0
-133 -43 -52 0
122 38 5 0
-80 10 -133 0
40 69 195 0
-21 -51 -84 0
-65 -143 184 0
-40 61 -194 0
-9 -119 109 0
118 -150 96 0
113 -151 -103 0
181 -8 136 0
-31 -162 -29 0
-129 109 -105 0
31 65 -83 0
-133 -180 -151 0
-104 -181 -8 0
-24 10 183 0
-21 10 -183 0
-65 -42 16 0
-143 40 61 0
118 106 97 0
123 -52 72 0
-153 -190 135 0
2 62 114 0
-125 -184 -57 0
31 -162 29 0
-161 -2 -176 0
-69 26 -23 0
-118 106 97 0
103 66 92 0
-102 12 184 0
102 -40 7 0
-153 -135 -50 0
-31 162 142 0
-21 113 -59 0
31 100 -65 0
85 161 -50 0
129 9 -109 0
-102 12 184 0
-161 80 -117 0
-83 102 -143 0
-62 -84 52 0
147 166 73 0
-123 52 -72 0
81 120 167 0
-26 -15 -190 0
-123 38 -177 0
125 -194 -18 0
125 -81 -71 0
-21 -93 -17 0
85 -153 23 0
122 38 -185 0
85 153 23 0
83 -102 143 0
-42 162 -83 0
21 -174 -84 0
-21 -199 -186 0
-83 168 45 0
-85 21 80 0
-125 -88 -44 0
-85 161 -22 0
21 -10 -170 0
-40 -61 -194 0
-53 120 -135 0
-53 166 15 0
21 123 62 0
21 189 51 0
-80 2 -74 0
80 -10 -133 0
124 -62 -5 0
21 -80 124 0
120 135 192 0
153 -3 -87 0
69 26 23 0
-117 68 148 0
129 105 -141 0
-194 -81 53 0
21 -113 17 0
-125 184 194 0
-85 15 146 0
62 84 52 0
-104 -181 -8 0
71 3 159 0
-122 -52 -185 0
40 11 -194 0
161 -24 -49 0
21 189 -51 0
85 161 87 0
-62 84 52 0
102 40 47 0
-81 53 -166 0
124 -62 5 0
113 -151 -103 0
-71 -3 159 0
-133 -43 -52 0
147 -166 -73 0
31 -162 29 0
125 184 -194 0
65 -162 142 0
31 -86 -55 0
-153 -15 -135 0
-9 119 109 0
-100 65 -95 0
123 157 -185 0
-125 81 71 0
129 -109 -105 0
109 -65 86 0
80 -124 5 0
-129 -9 109 0
143 67 153 0
-118 -127 -150 0
-16 -168 77 0
181 -8 -98 0
118 127 150 0
-125 147 53 0
-118 -106 -97 0
-161 -21 68 0
85 -44 163 0
-26 15 190 0
113 -151 103 0
122 116 188 0
-21 78 92 0
190 -135 -50 0
-85 -161 87 0
153 26 -73 0
-122 38 185 0
190 24 10 0
85 81 26 0
-80 -10 133 0
-50 170 186 0
-40 -69 194 0
-157 62 158 0
44 -182 -4 0
118 150 96 0
161 -10 -189 0
22 80 46 0
50 122 -43 0
42 -145 83 0
-50 -21 68 0
10 -123 38 0
-16 -168 -102 0
190 -135 -50 0
38 -170 172 0
-85 -182 54 0
85 -22 -33 0
-53 120 -135 0
-194 -44 -53 0
161 21 68 0
157 -2 -74 0
-85 -22 33 0
161 74 -103 0
-21 -78 92 0
40 69 194 0
118 -127 -150 0
123 -62 -199 0
21 -80 124 0
-81 -120 -167 0
181 -8 98 0
-21 10 183 0
161 32 101 0
-129 9 119 0
-125 184 -57 0
50 -14 133 0
161 -101 -134 0
-184 11 44 0
-181 8 -98 0
80 10 133 0
-161 -90 -158 0
143 -67 -153 0
50 -170 186 0
24 -68 -49 0
-61 -85 -194 0
153 81 190 0
80 124 5 0
-2 -38 199 0
123 -38 -177 0
-181 -8 -98 0
125 15 190 0
139 -197 -6 0
-24 -68 49 0
21 -113 59 0
181 -8 -98 0
88 67 13 0
-161 -21 68 0
133 -180 -151 0
-50 5 -185 0
-104 -181 -8 0
-85 -15 146 0
194 44 53 0
-125 40 15 0
170 137 116 0
-122 -38 185 0
85 15 146 0
-118 106 97 0
-181 8 98 0
161 21 -10 0
125 -15 -18 0
-170 -137 -116 0
-50 -59 180 0
-123 157 158 0
181 8 98 0
-69 -13 3 0
-85 120 167 0
21 -113 -59 0
-31 -65 -83 0
-123 62 199 0
-190 -22 -68 0
135 161 -50 0
-153 -3 -190 0
104 181 8 0
-143 40 -61 0
123 -189 175 0
10 101 2 0
85 21 80 0
-53 196 -15 0
-42 145 -83 0
-31 65 -95 0
-21 113 -59 0
-43 -66 -170 0
153 -26 73 0
-88 -91 -196 0
42 162 83 0
-139 -178 -121 0
65 143 -184 0
-153 -3 190 0
-21 -66 114 0
181 8 98 0
-190 -135 -50 0
-2 -170 5 0
69 13 3 0
88 67 -13 0
-42 145 -83 0
-122 -62 -174 0
100 -65 -95 0
161 -101 134 0
123 -52 72 0
157 -62 158 0
50 170 186 0
-129 178 121 0
-129 -109 -105 0
10 -123 38 0
-153 3 -190 0
104 181 8 0
-21 174 -84 0
-181 -8 -98 0
85 -120 167 0
85 -182 54 0
179 -159 -20 0
16 -198 58 0
29 155 -12 0
194 44 53 0
-61 85 194 0
88 -91 196 0
-53 166 -15 0
-40 -69 -195 0
10 101 2 0
-50 -122 43 0
-184 11 44 0
-125 -40 -15 0
-181 -8 136 0
-139 129 121 0
-153 -3 -87 0
31 -125 7 0
-29 155 -12 0
31 -86 -55 0
181 -8 98 0
-21 122 140 0
21 124 -199 0
-125 -15 18 0
-157 124 90 0
135 -161 50 0
-80 -2 74 0
-143 -40 -61 0
194 -81 53 0
-118 -106 -97 0
40 85 -196 0
-81 -120 167 0
153 190 -135 0
-50 21 68 0
21 -124 199 0
-122 62 -174 0
-26 -53 190 0
-157 -2 74 0
129 -178 121 0
-85 81 26 0
123 62 -199 0
153 -81 -190 0
53 120 -135 0
-85 -50 21 0
129 -9 119 0
-109 -100 86 0
123 -189 -175 0
123 -157 185 0
113 151 103 0
122 -62 172 0
40 11 -194 0
53 166 15 0
50 5 185 0
-143 -44 -81 0
88 -67 13 0
80 -90 -66 0
69 -195 147 0
-139 -197 -6 0
85 -120 -167 0
-153 -3 -87 0
88 91 -196 0
-31 65 83 0
21 93 17 0
31 -65 45 0
190 24 10 0
31 -162 29 0
-21 78 -92 0
-104 181 8 0
139 197 6 0
-133 -43 52 0
85 -87 -49 0
-102 -40 7 0
-80 -90 -66 0
-153 -26 -73 0
8 -98 136 0
161 -21 -10 0
-139 -197 6 0
2 -62 114 0
161 -74 -103 0
-104 181 8 0
-42 162 -83 0
-21 -78 92 0
-71 3 159 0
-21 -10 170 0
-179 -159 20 0
170 -137 -116 0
-129 -105 -141 0
81 -53 166 0
-122 -38 185 0
-21 -93 17 0
-65 162 142 0
-85 -15 146 0
65 -143 184 0
125 -81 71 0
-122 -52 -185 0
153 15 -135 0
21 -80 -124 0
-171 194 -159 0
-83 -102 -143 0
194 44 -53 0
125 40 15 0
118 150 96 0
40 -69 -26 0
43 -66 170 0
-85 153 23 0
157 124 -90 0
-69 195 -147 0
139 -129 121 0
102 12 -184 0
-125 -15 -18 0
-143 -67 153 0
-135 161 50 0
161 -24 49 0
-85 -44 163 0
-122 -116 188 0
-123 189 -175 0
21 66 -114 0
12 11 -85 0
118 -127 -150 0
31 86 -55 0
-21 51 -84 0
125 -194 -18 0
43 -66 170 0
118 -127 -150 0
85 120 167 0
-53 -166 -15 0
-85 161 -22 0
125 -40 18 0
26 53 190 0
-171 -194 -159 0
8 -98 136 0
133 180 -151 0
-31 -65 95 0
123 38 177 0
85 -21 80 0
122 116 -188 0
-80 -2 -74 0
-16 168 -77 0
31 83 -25 0
-103 -66 92 0
21 80 -124 0
122 38 -5 0
-123 -185 188 0
-122 -62 174 0
21 124 199 0
123 157 185 0
-44 182 4 0
125 -147 -53 0
100 -65 95 0
-161 -2 62 0
-21 10 183 0
24 10 183 0
-85 182 -54 0
83 142 25 0
117 68 -148 0
-161 90 158 0
-85 -22 -33 0
2 170 5 0
-161 90 158 0
-31 100 65 0
-139 129 121 0
-31 83 -25 0
-40 -26 15 0
104 -181 8 0
-124 -62 -5 0
50 5 185 0
-143 -44 81 0
-2 -62 114 0
120 135 192 0
69 -195 147 0
112 16 162 0
-123 -157 -158 0
65 -162 142 0
80 90 66 0
-170 137 -116 0
31 -86 55 0
-181 8 136 0
-123 -185 -188 0
-122 52 -185 0
50 59 180 0
-85 22 33 0
-85 87 -49 0
-129 109 105 0
-31 -65 45 0
-179 -159 20 0
-143 44 81 0
-125 -184 -57 0
-21 66 114 0
-161 21 10 0
179 -159 -20 0
-65 -42 16 0
161 10 189 0
-109 65 -86 0
-44 182 -4 0
21 113 -17 0
42 162 -83 0
85 -44 163 0
-153 26 -73 0
40 69 -195 0
-161 -10 189 0
80 -10 133 0
-161 -80 -117 0
40 11 -194 0
-153 190 -135 0
21 -189 -51 0
10 -123 -38 0
161 66 170 0
-21 -51 -84 0
31 83 25 0
-50 176 174 0
-129 -9 -119 0
-81 120 -167 0
-122 -38 5 0
-21 199 -186 0
129 -178 121 0
12 -11 -85 0
-161 -101 134 0
83 142 25 0
-50 5 185 0
-31 -65 -45 0
-85 50 21 0
-161 24 -49 0
-21 123 62 0
184 26 23 0
147 166 -73 0
143 44 81 0
-117 -68 -148 0
-102 -40 -47 0
80 -2 74 0
40 -26 -15 0
50 14 133 0
-62 -84 52 0
-61 -85 -194 0
-31 100 65 0
-21 199 -186 0
-10 123 38 0
109 65 -86 0
53 -120 -135 0
-125 -88 -44 0
-10 101 -2 0
85 161 -87 0
-21 38 52 0
161 -32 -101 0
-9 119 109 0
21 174 -84 0
-184 -11 -44 0
-81 -53 166 0
124 62 5 0
-118 106 97 0
161 -2 176 0
38 -170 -172 0
-123 189 175 0
181 -8 98 0
-81 73 107 0
103 66 92 0
161 -66 -170 0
21 38 52 0
181 -8 98 0
157 -124 90 0
31 83 25 0
-125 -184 194 0
-31 -100 65 0
129 -105 -141 0
-125 15 190 0
-69 26 23 0
50 14 -133 0
-184 -26 -23 0
-171 194 159 0
-65 -143 184 0
40 69 -195 0
125 15 -18 0
143 -40 61 0
-122 38 -5 0
10 101 2 0
-85 -50 -21 0
-118 106 97 0
40 85 196 0
12 -11 -85 0
85 -44 -163 0
2 38 199 0
21 -122 -140 0
-125 81 71 0
-22 80 46 0
-2 -62 114 0
190 22 68 0
-85 -179 -26 0
161 -24 49 0
29 155 12 0
161 -2 -62 0
-21 189 51 0
-125 -194 -18 0
21 122 140 0
-44 -182 -4 0
16 198 -58 0
-40 -69 26 0
16 -198 -58 0
120 135 -192 0
-12 -11 -85 0
-31 125 -7 0
181 8 98 0
129 -9 109 0
125 -147 -53 0
-139 178 121 0
100 65 95 0
-113 151 -17 0
-24 -10 -183 0
-9 119 109 0
2 -38 -199 0
-190 -135 50 0
-161 74 -103 0
161 101 -134 0
-123 157 -158 0
-40 69 26 0
-161 -2 176 0
-112 -16 -162 0
118 -150 -96 0
125 -88 -44 0
69 -13 3 0
40 -85 196 0
-21 124 -199 0
-69 -3 -53 0
-26 53 190 0
21 113 17 0
16 198 -58 0
-157 62 -158 0
109 100 86 0
16 -168 102 0
16 168 77 0
-31 -65 -45 0
-81 73 107 0
-21 -174 84 0
85 10 17 0
-26 -53 -190 0
-147 166 -73 0
31 -125 -7 0
125 147 53 0
83 -69 88 0
38 -170 -172 0
69 -26 23 0
-133 180 151 0
-85 10 -17 0
85 -21 -80 0
-139 -178 121 0
161 32 -101 0
-22 80 46 0
-153 -3 87 0
-26 53 -190 0
-40 -61 194 0
109 -65 86 0
-129 9 -119 0
-50 170 -186 0
120 135 192 0
83 -69 88 0
88 -67 13 0
157 -2 -74 0
50 -59 180 0
71 3 -159 0
190 22 68 0
181 -8 98 0
80 -90 66 0
190 -22 -68 0
-83 69 88 0
-50 -21 -68 0
-40 26 -15 0
-31 -65 -95 0
85 161 87 0
-83 168 -45 0
85 81 26 0
-184 26 -23 0
-31 162 142 0
-125 -40 -15 0
-50 -176 174 0
-161 90 158 0
-157 2 -74 0
-85 -161 -22 0
8 98 136 0
122 -62 -172 0
122 62 174 0
-50 14 133 0
-102 40 -7 0
-153 -135 -50 0
124 66 -5 0
-125 -88 44 0
31 125 7 0
50 -122 -43 0
181 -8 -98 0
-40 -69 -26 0
80 10 -133 0
-153 -15 -135 0
50 176 174 0
24 -68 49 0
-85 -161 -50 0
125 15 190 0
21 -123 62 0
83 102 143 0
-53 196 -15 0
125 -40 18 0
16 -168 -102 0
-83 142 -25 0
-125 -184 -194 0
2 38 -199 0
-123 -157 -185 0
-26 53 -190 0
85 -10 -17 0
-118 -127 -150 0
-40 -69 194 0
118 -127 -150 0
-143 -67 153 0
-122 -116 188 0
-102 -12 184 0
153 -135 -50 0
50 176 -174 0
16 -168 77 0
153 -81 190 0
-21 -113 -17 0
-123 157 -158 0
-85 81 26 0
-85 -179 -26 0
80 124 -5 0
123 52 72 0
112 16 162 0
-181 8 -136 0
-129 178 121 0
-161 74 103 0
-123 62 -199 0
85 -179 -26 0
-161 -21 -10 0
69 -13 3 0
153 -15 -135 0
-125 -184 57 0
-2 170 -5 0
50 122 -43 0
-161 32 101 0
85 -182 54 0
-85 161 -50 0
38 -170 172 0
85 -179 -26 0
-81 73 107 0
-85 -161 -22 0
194 -81 -53 0
-80 10 -133 0
123 -38 177 0
81 -73 -107 0
