c Type 2: interval ordering (permuted), n=500, m_intervals=500, t=3
p cnf 500 2000
55 260 277 0
240 59 77 0
-326 375 -269 0
-489 90 185 0
69 266 396 0
-371 161 -467 0
-403 457 -129 0
-82 -286 -110 0
362 289 383 0
-158 488 -18 0
-328 -390 36 0
244 -113 -400 0
128 -433 -173 0
-379 -127 406 0
378 195 425 0
158 488 18 0
154 -115 204 0
-483 -135 -155 0
328 418 291 0
-349 126 -44 0
-372 -69 -202 0
154 -115 -204 0
414 -161 313 0
141 -61 -223 0
297 -244 -333 0
389 88 -467 0
-98 207 245 0
283 85 -462 0
-378 -26 499 0
434 -156 -379 0
-229 -320 180 0
-343 414 467 0
-228 422 -61 0
315 -222 -121 0
-483 312 -367 0
405 30 140 0
-390 -22 -496 0
-276 494 -473 0
-420 39 252 0
-141 -169 288 0
-59 342 62 0
493 420 437 0
-179 249 -430 0
227 328 -41 0
202 -396 -358 0
-196 283 332 0
150 439 -104 0
-279 34 195 0
128 -483 293 0
343 -379 389 0
225 341 -339 0
-393 -88 -414 0
-326 -409 155 0
-279 -304 483 0
-469 407 -493 0
195 433 39 0
-378 195 425 0
-414 -161 -489 0
-158 3 -278 0
-71 -23 -339 0
343 -371 186 0
-88 -406 -92 0
-17 -35 411 0
-90 -185 -256 0
-385 -179 290 0
17 -35 411 0
-489 -90 -101 0
360 -453 416 0
437 461 206 0
279 -34 -195 0
390 366 -387 0
252 -361 -310 0
136 177 121 0
371 172 -428 0
316 -307 -397 0
-328 -41 -218 0
-34 -432 235 0
-488 410 -238 0
-420 111 38 0
312 40 230 0
473 -393 -127 0
-328 -37 197 0
-275 370 -159 0
-429 -159 396 0
158 488 -18 0
20 284 -375 0
-482 20 -69 0
-69 471 319 0
-128 -481 296 0
-198 173 -482 0
-343 186 -92 0
433 -152 369 0
-461 -395 -235 0
402 -436 -145 0
489 324 -452 0
331 164 361 0
378 255 -385 0
266 -357 -413 0
355 -422 69 0
-350 -244 -94 0
276 343 389 0
69 284 -277 0
483 375 -448 0
-290 -491 102 0
17 -397 -227 0
-239 423 -275 0
472 -145 -455 0
318 249 31 0
331 164 361 0
-244 -113 -400 0
408 26 385 0
488 -53 -178 0
345 -193 109 0
98 -158 238 0
401 -324 452 0
343 -444 -389 0
291 -59 490 0
-276 343 -494 0
-255 -462 -3 0
326 409 155 0
-129 17 316 0
344 59 -89 0
-420 -432 -51 0
345 193 109 0
17 227 -6 0
-326 -187 -225 0
-346 -298 40 0
17 -316 -35 0
-408 -26 385 0
350 -84 492 0
52 -470 58 0
-276 379 43 0
-326 -409 -155 0
-385 407 290 0
152 239 -233 0
-152 176 -398 0
158 179 410 0
236 -222 121 0
290 233 -404 0
469 -407 493 0
271 461 380 0
-196 -378 255 0
-350 -481 268 0
242 -497 204 0
-489 97 401 0
160 20 470 0
227 -328 41 0
-372 69 -202 0
98 -158 238 0
-489 -97 263 0
-421 493 -420 0
-446 236 -343 0
-385 153 -281 0
17 35 -227 0
69 -266 396 0
-36 22 -366 0
-256 -241 -97 0
-125 82 348 0
401 -317 -98 0
-401 324 462 0
-41 240 59 0
-223 -180 -340 0
487 -393 127 0
-385 -30 31 0
-371 -389 -467 0
-331 28 -395 0
-193 130 9 0
-128 483 293 0
-82 -286 110 0
252 152 44 0
240 330 66 0
469 -158 -238 0
266 357 413 0
-401 317 -98 0
-324 -385 158 0
-242 20 -448 0
488 -53 297 0
63 -263 -196 0
243 -250 463 0
266 288 396 0
-446 -236 -343 0
-432 312 -292 0
-290 437 258 0
-372 229 -106 0
-372 202 -325 0
355 337 356 0
350 -321 60 0
316 -307 397 0
-276 379 43 0
421 493 -420 0
328 366 496 0
141 -61 -223 0
141 -169 288 0
-266 -288 -396 0
128 -483 -119 0
355 -326 347 0
-158 179 410 0
-372 -229 106 0
160 233 -118 0
-55 -260 277 0
-366 466 -270 0
154 115 204 0
-420 285 345 0
-355 326 347 0
-186 -428 467 0
-328 418 291 0
223 -180 340 0
-350 -290 195 0
61 -169 247 0
-316 307 -397 0
128 481 -296 0
160 233 -118 0
-20 -325 46 0
-428 -91 191 0
378 -26 499 0
153 -285 -164 0
71 -160 -169 0
252 -361 310 0
398 -427 65 0
218 390 36 0
372 362 -381 0
-343 379 389 0
375 -471 -337 0
401 -196 -360 0
-371 -389 467 0
-366 387 -287 0
-472 -275 427 0
225 204 117 0
-153 -483 472 0
113 271 321 0
158 3 -278 0
113 -271 -321 0
-345 -223 -470 0
44 454 -69 0
-276 379 -43 0
-473 127 43 0
328 490 -77 0
345 193 109 0
328 -37 197 0
-378 350 -333 0
239 223 -135 0
372 20 -145 0
-350 481 268 0
-195 433 39 0
71 -141 105 0
-228 -422 -61 0
244 -113 -400 0
420 -164 -447 0
366 466 270 0
-153 -483 -472 0
276 -473 -11 0
473 -393 -127 0
-355 326 -289 0
-421 435 -290 0
-153 -40 143 0
360 -453 416 0
242 266 -375 0
-271 -461 380 0
378 317 499 0
-428 161 460 0
-345 223 -470 0
460 90 185 0
276 343 494 0
-129 -17 316 0
283 416 -452 0
61 160 247 0
-378 350 -333 0
288 -383 -396 0
-372 -284 -497 0
461 321 -433 0
489 -97 -200 0
-69 -471 319 0
-316 -411 397 0
-371 172 -428 0
225 -204 -117 0
-136 177 121 0
290 -369 -122 0
-320 -356 -117 0
-315 -222 121 0
378 140 -53 0
307 -411 227 0
-41 -218 390 0
-276 379 -99 0
468 -156 -414 0
98 -207 245 0
85 -469 -300 0
-461 164 -146 0
-126 198 51 0
-312 40 230 0
-141 -169 -288 0
202 396 358 0
17 35 -411 0
437 -433 -252 0
-328 -41 -218 0
242 266 -375 0
-290 -369 122 0
472 -345 -298 0
371 487 11 0
390 123 287 0
-110 -248 -410 0
-278 179 -421 0
-343 414 -467 0
-152 52 -384 0
290 437 -258 0
-62 -446 222 0
276 -343 -494 0
-408 26 -385 0
333 475 335 0
290 228 184 0
-283 26 -431 0
483 -345 -173 0
290 491 -102 0
483 -361 -451 0
240 478 -59 0
41 -240 59 0
489 -256 200 0
334 -44 24 0
-153 334 141 0
379 -186 414 0
-345 -482 135 0
-372 -383 294 0
350 481 268 0
-343 371 186 0
-59 -197 -315 0
71 -160 -145 0
378 30 254 0
385 461 128 0
-390 -22 496 0
-244 -279 -144 0
-135 55 429 0
125 82 -348 0
-416 -469 -348 0
-111 -492 -349 0
455 -106 180 0
-59 -77 -222 0
90 185 -256 0
-320 -356 -117 0
-40 184 399 0
61 13 441 0
427 -46 358 0
-372 -20 -275 0
266 -220 95 0
-345 193 -109 0
-239 423 275 0
290 -39 361 0
469 -488 207 0
328 -390 36 0
-385 179 290 0
421 297 333 0
55 319 -294 0
288 497 117 0
428 -440 280 0
279 333 29 0
229 -484 282 0
350 321 -60 0
-374 97 401 0
350 290 195 0
481 -216 -447 0
275 -260 269 0
98 -158 -4 0
-283 85 462 0
26 385 407 0
343 379 -389 0
-283 416 -452 0
-494 21 -11 0
-61 -160 247 0
451 -423 193 0
-250 -37 62 0
457 -129 17 0
52 -398 465 0
290 228 184 0
-488 -53 -178 0
350 321 60 0
-469 158 110 0
-136 177 -121 0
-152 -122 -384 0
-278 -179 -421 0
-378 85 469 0
-328 -41 -418 0
-451 192 -61 0
-320 289 383 0
41 -240 -59 0
-36 -22 366 0
26 338 286 0
128 -152 112 0
-372 69 202 0
483 -160 -223 0
-20 -284 375 0
315 444 -393 0
-318 407 -34 0
328 37 -197 0
-71 23 339 0
429 -159 -396 0
328 -41 418 0
318 84 430 0
401 139 480 0
141 61 223 0
362 -247 -117 0
-20 -48 -201 0
256 241 -97 0
343 444 -389 0
483 334 -146 0
-244 -113 -400 0
385 30 -31 0
-472 -427 383 0
69 465 -47 0
292 -384 116 0
-378 -261 -350 0
-34 -432 235 0
-379 -127 -406 0
434 -186 11 0
401 139 -480 0
-320 151 117 0
-77 -315 -210 0
-355 -326 289 0
-489 256 -101 0
276 343 389 0
328 366 496 0
-385 349 -198 0
-393 88 414 0
421 297 333 0
17 -35 -227 0
-229 484 -282 0
-385 290 141 0
-266 154 383 0
240 -330 -66 0
461 164 -146 0
374 -97 401 0
59 -77 -89 0
-318 -407 34 0
414 -161 -313 0
-401 -317 -98 0
-279 304 483 0
-196 26 -139 0
-378 -30 254 0
-385 267 303 0
387 -265 -287 0
-378 -140 53 0
-488 -31 -461 0
-59 -177 270 0
344 59 89 0
-321 15 -259 0
155 201 -319 0
-434 -186 11 0
152 266 135 0
-482 229 -362 0
-401 -196 -360 0
275 -370 159 0
71 -141 -155 0
372 20 145 0
283 26 -431 0
483 375 448 0
-59 -77 -222 0
26 -469 -421 0
488 -53 297 0
-284 423 319 0
371 -393 172 0
469 158 -238 0
-239 -441 -266 0
420 412 -335 0
-290 233 -404 0
-195 433 39 0
320 151 117 0
469 488 207 0
-179 -279 102 0
-233 -398 -465 0
317 -452 -255 0
-321 296 285 0
134 337 -117 0
-469 -488 -207 0
390 -22 -496 0
-349 -126 -44 0
-333 -475 -335 0
-41 218 -418 0
-320 -289 -383 0
161 440 314 0
343 414 467 0
379 -127 -406 0
-153 -483 -472 0
-71 141 -105 0
-276 -473 -11 0
62 315 222 0
385 267 303 0
77 315 -210 0
13 -20 -229 0
385 -153 281 0
-428 440 -280 0
97 -263 -196 0
331 164 361 0
128 -153 -50 0
-271 -335 76 0
345 482 -135 0
-482 -423 392 0
350 84 492 0
355 220 -383 0
239 -441 -266 0
-288 -497 -117 0
446 -368 -468 0
160 -233 118 0
-349 -153 -365 0
-385 -481 -321 0
229 135 159 0
275 -340 -337 0
-196 -324 98 0
-290 -491 -102 0
401 -324 -453 0
69 266 -423 0
62 270 -210 0
316 307 -397 0
-483 -135 155 0
-428 91 191 0
223 180 -340 0
385 -461 -128 0
-202 347 -323 0
-61 169 247 0
289 -282 311 0
326 375 -269 0
255 462 3 0
290 -432 -126 0
-488 53 -178 0
-371 389 467 0
-442 -237 73 0
-279 -333 -29 0
-292 384 116 0
-242 -9 67 0
-161 440 314 0
50 44 -198 0
-97 -453 -332 0
153 40 143 0
385 -461 128 0
-489 -256 -200 0
366 466 -270 0
-20 -284 -145 0
-90 185 256 0
-153 40 -143 0
-77 315 210 0
482 20 -69 0
328 41 -59 0
-434 186 -11 0
481 216 -447 0
40 -259 -306 0
-128 164 361 0
-385 -290 415 0
436 193 145 0
-384 402 -214 0
375 -471 -337 0
385 421 -430 0
-278 113 -254 0
385 -267 -303 0
-350 290 -112 0
62 446 222 0
-161 440 -314 0
-416 469 348 0
71 160 145 0
-69 465 47 0
252 361 310 0
153 -334 141 0
378 26 -499 0
17 307 -397 0
276 379 99 0
371 -172 -428 0
-378 179 -18 0
409 -65 -155 0
378 -179 -18 0
-271 150 296 0
-378 -85 469 0
-432 -298 70 0
387 287 458 0
-421 435 -290 0
290 233 -404 0
-40 184 399 0
420 -164 447 0
-334 -44 -24 0
-343 -414 -467 0
41 218 390 0
-158 -405 -30 0
-320 -356 95 0
185 -256 101 0
-483 375 -448 0
-244 279 -144 0
-449 5 -336 0
324 385 158 0
385 -481 321 0
-250 240 -62 0
-337 -201 -95 0
193 130 9 0
276 -343 -11 0
433 -216 483 0
292 384 116 0
494 21 11 0
135 55 -429 0
473 393 127 0
-69 370 -260 0
-275 260 269 0
405 350 -249 0
-460 90 -185 0
-26 385 -407 0
321 483 252 0
52 -470 58 0
-490 -37 62 0
-20 -48 -201 0
207 -179 261 0
-378 -5 439 0
374 -97 401 0
-152 -52 -384 0
-345 223 470 0
-420 39 252 0
-179 -249 -430 0
-316 307 -397 0
26 82 -207 0
371 487 -11 0
-385 -430 -267 0
378 -30 254 0
-488 -53 297 0
-312 361 442 0
451 423 193 0
279 -34 380 0
372 -20 -275 0
-473 -393 127 0
385 492 -235 0
428 161 -460 0
229 -135 -159 0
-98 158 4 0
414 -161 -313 0
-409 65 155 0
-432 -312 -292 0
-483 -345 173 0
136 177 121 0
-158 -405 -30 0
276 -379 99 0
-420 -412 335 0
-385 -30 -31 0
-250 -37 -62 0
152 -239 233 0
461 164 -146 0
-449 -5 336 0
483 -361 -152 0
279 -304 -483 0
482 69 171 0
349 334 -152 0
242 -9 -67 0
97 -453 332 0
-350 -244 -94 0
13 20 229 0
-350 -321 -60 0
26 385 -407 0
152 -122 384 0
-442 237 73 0
-232 -288 464 0
-350 -290 112 0
-55 -319 358 0
-390 123 287 0
320 -356 -117 0
-283 85 462 0
113 271 -321 0
26 -338 286 0
-186 -428 -489 0
372 383 294 0
-469 488 -207 0
-343 379 428 0
-472 146 -60 0
-372 -20 275 0
-390 22 -496 0
-375 -471 -337 0
-401 -324 452 0
276 379 43 0
371 -393 -172 0
-152 436 -388 0
-225 -204 -117 0
-315 -444 -393 0
-416 469 348 0
-385 179 -290 0
360 -453 416 0
321 483 -252 0
379 -186 414 0
-372 362 -381 0
472 60 298 0
98 26 -140 0
-385 267 303 0
-252 -152 44 0
-202 -347 -323 0
283 -26 -431 0
-469 -158 110 0
-472 345 298 0
-152 298 442 0
457 129 17 0
385 461 128 0
-384 402 -214 0
229 -320 -180 0
179 131 -84 0
420 -334 -51 0
-271 -461 -380 0
275 370 159 0
331 483 50 0
-55 46 -234 0
-290 -461 335 0
55 319 -358 0
290 437 -258 0
-128 152 112 0
297 -244 -333 0
-242 20 -448 0
-372 20 275 0
-17 35 -6 0
-276 -368 199 0
-271 -335 -76 0
430 -394 93 0
-160 -233 118 0
155 -201 -319 0
472 -60 -298 0
-279 34 380 0
371 -172 -428 0
-321 15 -259 0
378 -140 53 0
-256 -299 -200 0
-196 -26 -139 0
278 179 -421 0
378 85 469 0
433 152 369 0
-218 -390 -36 0
111 -492 -349 0
437 472 -173 0
-405 -30 140 0
-343 -186 92 0
378 30 -254 0
-186 -161 -467 0
-372 202 325 0
-355 311 294 0
276 -368 199 0
161 489 386 0
-172 -161 489 0
-110 248 410 0
69 -465 47 0
403 -457 129 0
59 197 315 0
389 88 467 0
-152 -176 398 0
350 -290 -112 0
71 141 -105 0
-318 -84 -430 0
195 432 -192 0
196 -324 98 0
62 -315 222 0
-318 -407 34 0
-378 333 -373 0
401 324 -453 0
-397 227 328 0
290 461 335 0
26 469 421 0
-420 -432 51 0
468 -156 -414 0
250 240 -62 0
-437 -365 -472 0
243 250 463 0
30 -407 5 0
-472 -275 -427 0
385 -30 -31 0
372 284 154 0
371 -186 14 0
432 298 -70 0
-420 334 -51 0
362 -289 383 0
-379 -186 414 0
-372 284 154 0
-290 -369 -122 0
-128 152 112 0
-472 145 -455 0
489 97 263 0
158 -405 30 0
20 325 -46 0
369 355 143 0
-111 492 349 0
428 -161 -460 0
153 285 -164 0
-242 266 -375 0
331 -483 50 0
256 299 200 0
276 -343 11 0
-279 34 195 0
-247 427 -201 0
-434 -371 473 0
-344 -59 89 0
-312 -361 -442 0
-20 -325 -46 0
134 337 117 0
-401 -139 480 0
-128 481 -296 0
372 -202 -325 0
-161 440 -314 0
343 -371 414 0
-312 -230 -384 0
-315 222 121 0
242 -9 -67 0
-483 141 109 0
198 173 -482 0
-179 -407 481 0
461 285 -361 0
483 -334 -146 0
481 216 -447 0
-276 -343 11 0
378 317 -452 0
-128 -164 361 0
150 439 104 0
44 -298 -264 0
-283 -85 462 0
279 481 475 0
420 -432 -51 0
-414 161 489 0
-207 -179 -261 0
34 420 28 0
97 -453 332 0
36 22 366 0
393 88 414 0
-423 -289 413 0
-371 -172 -428 0
-239 441 266 0
437 -365 472 0
59 -77 -89 0
-196 283 -332 0
-128 -164 -361 0
-489 256 101 0
-84 -303 439 0
315 222 343 0
-290 -437 -252 0
455 106 180 0
343 371 -414 0
-439 -128 -93 0
202 -396 -358 0
-290 39 361 0
316 307 397 0
-128 -433 -173 0
17 227 6 0
-428 -91 191 0
378 -469 286 0
372 -362 381 0
-334 44 24 0
-371 -156 -473 0
-71 160 145 0
-372 202 325 0
-431 498 300 0
290 -298 -112 0
315 -222 -343 0
55 260 277 0
-276 473 -11 0
-52 470 -58 0
-128 483 -293 0
-328 -490 -77 0
252 -152 44 0
-242 -9 -67 0
331 -164 361 0
390 -418 -344 0
278 5 42 0
-17 -307 -411 0
-461 -60 173 0
-439 128 93 0
397 390 -22 0
-398 -427 -65 0
158 -179 410 0
153 -40 -143 0
-472 -239 48 0
349 -153 365 0
-55 -319 -294 0
196 -283 -332 0
-62 -315 468 0
-402 436 145 0
468 156 414 0
20 -284 -375 0
26 -82 -207 0
-179 407 481 0
-372 -284 -154 0
-55 319 358 0
317 -452 255 0
324 -385 -158 0
-135 55 429 0
488 -31 -461 0
-17 316 35 0
-40 259 -306 0
291 59 -490 0
-207 179 261 0
401 -196 -360 0
-343 379 -428 0
409 -65 155 0
153 483 472 0
110 -248 410 0
-493 -420 437 0
-372 -20 -145 0
-385 -350 407 0
232 288 -464 0
-279 481 -475 0
-55 -319 -358 0
-343 -186 92 0
-307 22 387 0
-97 263 -196 0
-186 428 -489 0
372 -20 -145 0
-416 -317 -462 0
318 -249 31 0
-321 483 -252 0
-41 -22 366 0
-420 -491 -216 0
-328 418 291 0
-196 324 -98 0
-161 -489 -386 0
-153 -432 -361 0
328 -41 -418 0
-378 -261 -350 0
-378 350 486 0
-469 158 238 0
439 -128 -93 0
-433 -216 483 0
-276 -222 371 0
266 -357 -413 0
-328 41 -59 0
50 44 198 0
317 -98 452 0
316 411 397 0
-346 -298 -40 0
-328 -41 418 0
77 37 197 0
343 -371 414 0
-290 437 252 0
372 362 381 0
-275 -340 337 0
483 -135 -155 0
-307 328 -22 0
-153 285 -164 0
378 140 53 0
-343 371 414 0
431 -498 300 0
489 97 200 0
-256 299 -200 0
-488 410 238 0
-315 186 -21 0
423 -289 413 0
-446 368 -468 0
71 -160 -145 0
158 3 -278 0
461 -60 -173 0
17 307 -411 0
-405 350 249 0
-469 488 -421 0
328 -41 218 0
77 368 500 0
421 -297 -333 0
255 462 3 0
-343 371 -186 0
-397 -227 -328 0
275 340 337 0
385 249 -144 0
41 -22 -366 0
482 423 392 0
324 278 300 0
437 461 -206 0
186 -161 467 0
128 -481 -296 0
-321 334 -384 0
-320 -289 383 0
337 201 -95 0
320 151 117 0
397 -390 22 0
61 -13 -441 0
397 41 -390 0
316 307 -397 0
141 -169 288 0
-378 195 -425 0
128 433 173 0
334 -346 -71 0
98 207 -245 0
-82 -286 110 0
-497 8 -269 0
434 -444 -156 0
355 -337 356 0
-378 255 385 0
44 -454 69 0
420 -111 -38 0
26 -82 -207 0
345 40 355 0
461 -395 235 0
-483 -160 223 0
-244 -279 144 0
421 297 -333 0
497 8 269 0
-71 -141 -155 0
26 82 -207 0
-326 -375 269 0
-321 -296 -285 0
-472 146 60 0
-423 -375 -180 0
387 287 458 0
266 220 95 0
-468 379 -393 0
-429 -159 -396 0
-153 432 -361 0
-284 -423 -319 0
405 350 -249 0
266 220 -95 0
-328 276 121 0
317 85 385 0
-62 270 -210 0
-355 -220 -383 0
-378 469 286 0
-180 -151 358 0
-371 393 -172 0
232 52 13 0
-317 98 452 0
378 -317 499 0
472 239 48 0
-202 347 323 0
69 -266 423 0
62 -446 222 0
-52 398 465 0
-243 -250 463 0
-378 179 -18 0
-328 390 36 0
328 -490 -77 0
-62 315 -468 0
378 333 373 0
-34 -420 -28 0
-483 -361 152 0
343 -379 -389 0
428 440 -280 0
385 -421 -430 0
-279 -304 -483 0
-279 34 -380 0
59 77 222 0
-389 414 406 0
-97 -196 10 0
276 -343 389 0
378 5 439 0
350 290 195 0
-321 296 -285 0
179 111 -142 0
497 -8 269 0
290 298 112 0
152 -122 384 0
-469 -158 -110 0
434 -371 473 0
-317 98 85 0
-288 -383 -396 0
292 -384 116 0
136 -62 -222 0
152 -436 -388 0
-59 77 -222 0
326 187 -225 0
-320 -356 -95 0
483 345 -173 0
420 -285 345 0
-318 249 31 0
389 414 -406 0
17 -307 411 0
13 -20 -229 0
-385 -198 -40 0
421 435 -290 0
366 -387 287 0
-152 239 -233 0
59 342 62 0
-41 240 -59 0
179 -279 -102 0
-346 228 132 0
152 -122 384 0
-250 -37 -62 0
-434 -371 473 0
-98 -26 -140 0
17 35 411 0
180 -151 358 0
77 -315 -210 0
34 420 -28 0
-350 84 492 0
-279 34 380 0
-385 153 -281 0
442 237 -73 0
179 -131 -84 0
371 389 467 0
372 69 202 0
-328 390 36 0
-69 -284 277 0
-483 -312 367 0
-468 -379 393 0
-41 -387 -243 0
-152 52 -384 0
17 307 -397 0
-472 -275 -427 0
20 -48 201 0
-317 98 -452 0
-279 34 195 0
-472 -239 -48 0
-355 -326 347 0
317 -207 -238 0
-153 432 361 0
-389 88 467 0
-346 -228 -132 0
77 -315 210 0
371 -172 -428 0
384 402 214 0
317 -98 -85 0
-428 -440 280 0
328 366 -496 0
289 282 311 0
-195 -433 -39 0
-110 248 410 0
334 346 -71 0
-487 -393 127 0
385 -481 321 0
-372 -284 -154 0
472 -345 298 0
469 -488 421 0
-371 156 473 0
30 -407 -5 0
-41 -218 418 0
-71 -160 169 0
420 164 -447 0
-82 -286 -110 0
61 13 441 0
449 5 336 0
-385 -430 267 0
-401 -324 452 0
-355 337 -356 0
328 418 291 0
-482 -20 -69 0
136 62 222 0
-180 -151 -358 0
-195 432 -192 0
-468 156 414 0
-307 -22 387 0
397 -41 -390 0
423 375 180 0
247 -427 -201 0
-315 222 -121 0
385 350 -407 0
-312 40 230 0
-276 -368 -199 0
-77 -37 -197 0
-283 -26 431 0
489 -324 452 0
59 -342 62 0
240 -478 -59 0
483 -345 -173 0
355 326 289 0
-393 -88 414 0
434 444 156 0
-488 -410 238 0
-218 390 -36 0
-371 161 -467 0
350 290 112 0
385 -492 235 0
-279 333 -29 0
179 -279 102 0
-240 478 -59 0
128 -153 50 0
-414 161 489 0
378 350 486 0
490 37 -62 0
242 -20 -448 0
-186 428 -489 0
-337 201 95 0
482 -69 171 0
-378 261 -350 0
-128 152 -112 0
469 158 -110 0
390 366 387 0
-198 173 482 0
-202 471 319 0
266 -220 -95 0
-472 362 135 0
126 -198 51 0
17 -35 411 0
349 126 44 0
-98 26 207 0
-17 316 35 0
228 -422 61 0
483 -160 -223 0
312 230 384 0
-232 -52 13 0
-346 -298 40 0
-229 -320 -180 0
-350 -481 268 0
71 -141 -105 0
-401 -324 462 0
-232 -52 13 0
-278 -113 254 0
-350 -290 -195 0
279 333 29 0
-420 -491 216 0
-321 -15 259 0
-20 340 -370 0
385 430 267 0
-385 -153 -281 0
126 198 51 0
250 -37 62 0
44 298 264 0
355 -326 -347 0
-328 41 -218 0
432 -298 -70 0
-69 471 -319 0
-202 471 -319 0
-271 150 296 0
-17 -35 -411 0
355 311 294 0
-482 -423 -392 0
-457 129 -17 0
160 20 470 0
-69 -471 319 0
-402 436 -145 0
-69 -266 396 0
-328 250 177 0
266 -288 396 0
288 -383 -396 0
473 127 -43 0
324 -385 -158 0
-433 -152 -369 0
-420 412 335 0
378 -350 486 0
420 285 345 0
390 -418 -344 0
350 -244 94 0
-128 -483 -119 0
229 484 282 0
98 26 140 0
-387 -265 -287 0
125 -82 348 0
483 334 -146 0
-77 37 197 0
276 -379 -99 0
312 -361 442 0
-389 414 406 0
408 -26 385 0
-290 298 -112 0
-239 441 266 0
61 169 247 0
-378 195 425 0
158 3 -278 0
307 -22 -387 0
446 -368 468 0
378 261 350 0
-374 97 -401 0
307 22 387 0
385 -290 141 0
179 -131 84 0
430 -394 -93 0
289 -282 311 0
-487 -393 127 0
290 -491 -102 0
69 370 260 0
-290 228 -184 0
-427 -46 -358 0
494 21 11 0
155 -201 319 0
446 236 343 0
-77 197 270 0
320 356 95 0
345 -482 -135 0
372 -284 -497 0
-316 411 -397 0
-318 271 -267 0
324 -278 -300 0
288 -497 -117 0
490 37 62 0
-489 90 185 0
-472 427 -383 0
50 44 -198 0
-136 62 222 0
-69 465 -47 0
385 -350 -407 0
-59 -77 -89 0
434 156 -379 0
343 -379 -428 0
-185 -256 -101 0
483 361 451 0
378 255 -385 0
434 186 -11 0
236 -222 121 0
483 -375 448 0
317 85 -385 0
-276 473 11 0
240 478 -59 0
469 407 -493 0
-423 375 -180 0
-483 -20 392 0
397 41 390 0
-437 -433 -252 0
20 284 375 0
420 111 38 0
-17 -397 227 0
55 260 -277 0
-186 -428 -467 0
290 -298 -112 0
-315 -222 343 0
84 -303 439 0
416 -317 462 0
355 -311 -294 0
328 -41 59 0
17 227 -6 0
-17 -307 -411 0
-469 158 -238 0
-378 317 452 0
285 -395 483 0
-328 41 59 0
-317 -207 238 0
405 350 249 0
-150 -439 -104 0
481 216 -447 0
186 -161 -467 0
-446 368 468 0
-483 20 -392 0
-20 48 201 0
-420 -39 -252 0
-457 -129 17 0
343 -371 -186 0
-77 -368 -500 0
-436 193 -145 0
-324 278 300 0
420 164 447 0
-483 -361 451 0
-333 -475 335 0
-349 -153 -365 0
328 250 177 0
420 -412 -335 0
437 -365 -472 0
321 15 -259 0
-330 -236 276 0
-472 60 -298 0
-318 271 267 0
218 390 36 0
-360 -453 -416 0
225 -341 339 0
-278 -179 421 0
343 -444 389 0
-430 -394 -93 0
98 -158 -4 0
372 -284 -497 0
-372 -229 -106 0
378 -469 -286 0
-489 -90 -185 0
98 158 238 0
-389 -88 467 0
-315 -186 21 0
378 317 499 0
-20 -325 -46 0
-489 -97 -401 0
196 -26 139 0
-483 141 109 0
-378 -333 373 0
328 -276 121 0
-390 -366 -387 0
134 337 -117 0
271 -335 -76 0
-186 -428 489 0
288 -383 396 0
-397 390 -22 0
-61 -169 247 0
402 436 -145 0
-179 -407 -481 0
88 -406 92 0
26 338 286 0
403 457 129 0
421 -435 290 0
41 -218 418 0
312 361 -442 0
432 312 -292 0
326 -187 -225 0
431 498 -300 0
193 130 -9 0
-385 -481 -321 0
-461 164 146 0
-202 -396 -358 0
-279 481 -475 0
-77 368 500 0
-41 218 -390 0
-20 -340 -370 0
-276 -222 -371 0
-41 218 418 0
431 498 300 0
-59 -177 270 0
-488 53 -178 0
428 91 -191 0
315 444 393 0
284 -423 -319 0
283 -416 452 0
-494 21 -11 0
-17 -307 -397 0
-482 69 171 0
472 -427 -383 0
318 271 -267 0
152 -298 442 0
297 -244 -333 0
473 -127 43 0
-389 -414 -406 0
-71 160 -169 0
291 59 -490 0
71 -23 -339 0
-401 324 -452 0
17 -35 227 0
-482 229 362 0
-26 -469 -421 0
-160 -20 -470 0
-290 -432 126 0
437 461 -206 0
-233 398 -465 0
-461 395 235 0
-71 -141 -155 0
52 398 465 0
321 334 384 0
-98 207 245 0
397 -227 328 0
-134 337 117 0
427 46 358 0
111 492 349 0
196 -378 255 0
290 -461 335 0
-77 -315 -210 0
-472 -275 427 0
-405 30 -140 0
-290 -432 126 0
318 271 267 0
312 40 230 0
483 20 -392 0
346 -228 -132 0
-385 492 -235 0
179 407 481 0
-385 -349 -198 0
-488 -31 461 0
-390 -366 387 0
-152 176 -398 0
-288 497 -117 0
-236 -222 -121 0
-290 -461 -335 0
179 -279 -102 0
69 -266 423 0
186 -428 467 0
250 240 -62 0
416 469 348 0
-446 236 343 0
196 -26 -139 0
153 -334 141 0
-69 284 -277 0
-256 299 200 0
160 -20 -470 0
-152 -239 -233 0
266 -154 -383 0
316 -411 397 0
-152 -176 -398 0
-482 -266 155 0
371 161 467 0
-271 -150 -296 0
-26 338 286 0
-372 -383 -294 0
-77 315 -210 0
-379 -186 -414 0
488 -410 238 0
-13 20 -229 0
-63 263 -196 0
460 90 185 0
-97 263 196 0
-489 97 200 0
-420 -491 -216 0
317 -98 -452 0
-172 161 489 0
-328 -276 121 0
-387 -287 458 0
152 -52 -384 0
61 13 -441 0
275 -260 269 0
242 -497 204 0
255 -462 -3 0
-345 -40 -355 0
-41 -387 -243 0
276 -343 494 0
317 -85 385 0
-242 20 448 0
-34 432 -235 0
-128 153 50 0
-397 41 390 0
-229 135 159 0
-483 -160 -223 0
158 -179 410 0
-17 -397 -227 0
-266 -288 396 0
98 -158 -4 0
-355 -422 69 0
-385 -349 198 0
152 -298 -442 0
429 159 396 0
-326 187 -225 0
366 -466 270 0
-247 427 201 0
-345 40 -355 0
397 390 -22 0
-345 -223 470 0
-401 -324 462 0
385 -249 144 0
62 -446 222 0
489 -256 374 0
-371 172 -428 0
88 406 -92 0
387 -287 -458 0
128 483 -293 0
69 -284 277 0
-472 146 60 0
-62 315 -468 0
328 276 -121 0
71 160 169 0
40 259 306 0
371 -172 -428 0
196 378 255 0
-469 -407 -493 0
-433 -216 -483 0
284 423 319 0
-77 368 -500 0
-55 -46 -234 0
-317 207 -238 0
434 -371 473 0
-461 -321 -433 0
-442 -237 73 0
-285 395 483 0
-420 -432 -51 0
384 402 -214 0
-321 -296 -285 0
-232 -288 464 0
-77 197 -270 0
225 -341 -339 0
-355 -311 294 0
-239 -423 -275 0
-489 -90 -101 0
489 256 374 0
307 -411 227 0
-437 433 -252 0
278 -5 -42 0
-328 -250 177 0
-62 270 210 0
-378 350 -486 0
-318 -249 31 0
-362 -289 -383 0
343 186 -92 0
362 247 117 0
-489 90 -101 0
-129 -17 316 0
-41 387 243 0
-482 20 -69 0
-152 436 388 0
26 -469 421 0
17 -35 -6 0
349 -44 -198 0
161 -489 -386 0
50 -44 198 0
490 -37 -62 0
497 8 269 0
-385 421 -430 0
-482 229 -362 0
40 259 -306 0
482 -266 155 0
252 -361 310 0
-158 -405 30 0
196 108 452 0
135 55 429 0
328 366 496 0
-240 330 -66 0
-17 -35 -411 0
385 -350 407 0
-179 -111 -142 0
-489 -324 -452 0
77 315 210 0
378 -26 499 0
-128 483 119 0
44 -454 -69 0
-337 -201 -95 0
437 -472 173 0
-153 -432 361 0
-320 -356 -95 0
278 -5 -42 0
307 411 -227 0
483 -20 -392 0
271 -150 296 0
128 -433 -173 0
-403 -457 129 0
-63 263 -196 0
455 -106 180 0
-401 -196 286 0
36 -22 366 0
-371 -156 -473 0
346 -298 40 0
-20 340 370 0
-290 -228 -184 0
371 487 -11 0
-275 260 -269 0
472 -345 -298 0
-385 -349 -198 0
-98 26 -207 0
489 -256 200 0
-372 284 497 0
-136 62 -222 0
-330 -236 -276 0
-316 -307 397 0
-349 -44 -198 0
-317 -98 -85 0
-430 -394 -93 0
371 -161 -467 0
-469 -488 -421 0
-152 266 -135 0
-390 -418 344 0
489 256 -374 0
77 37 197 0
20 -284 145 0
433 152 -369 0
-228 -422 61 0
-256 -241 -97 0
243 250 -463 0
-420 -334 -51 0
-469 488 -421 0
349 334 -152 0
97 -196 -10 0
489 324 -452 0
461 -321 -433 0
-17 227 -6 0
-433 -216 483 0
-239 -223 135 0
290 39 361 0
-385 198 40 0
390 -123 -287 0
-186 161 -467 0
-154 -115 204 0
315 222 343 0
-152 436 -388 0
-461 -285 361 0
427 -46 -358 0
290 -437 -252 0
-317 -98 85 0
-276 -368 -199 0
472 -60 298 0
-98 -158 -238 0
355 220 -383 0
472 -145 455 0
-320 -151 117 0
385 -290 415 0
-421 -493 420 0
409 -65 155 0
-318 84 -430 0
434 156 379 0
-285 -395 483 0
-240 59 77 0
-451 192 -61 0
483 135 -155 0
-371 186 14 0
30 -407 -5 0
-276 -494 473 0
-202 347 -323 0
345 40 -355 0
-473 127 -43 0
290 -369 -122 0
-401 139 480 0
-59 77 89 0
482 -229 362 0
240 59 -77 0
-355 337 -356 0
77 -197 -270 0
-232 -52 -13 0
256 -241 -97 0
-285 395 483 0
398 427 65 0
17 307 397 0
-378 -179 -18 0
-244 279 -144 0
326 375 -269 0
-321 334 -384 0
-369 355 -143 0
236 -222 121 0
449 -5 -336 0
-240 -330 -66 0
489 -97 -401 0
-34 -432 235 0
229 320 -180 0
-278 5 -42 0
26 -385 -407 0
-369 355 -143 0
401 324 453 0
-371 156 -473 0
17 35 6 0
366 -387 -287 0
371 -186 -14 0
-482 266 -155 0
-172 161 -489 0
385 -421 -430 0
17 35 -227 0
-434 -444 -156 0
315 -186 21 0
-482 -69 -171 0
-489 -97 -401 0
343 444 -389 0
-489 90 -101 0
202 471 319 0
378 -469 -286 0
-385 249 -144 0
317 -452 255 0
-97 -453 332 0
-266 154 -383 0
334 -346 71 0
61 -160 -247 0
385 198 40 0
366 387 287 0
55 -319 294 0
317 -207 238 0
-90 -185 256 0
378 -333 373 0
362 247 -117 0
-152 266 -135 0
-483 -312 -367 0
-451 -423 193 0
-349 44 -198 0
196 -283 332 0
-472 -362 -135 0
-461 -60 -173 0
233 -398 465 0
307 -328 -22 0
489 -256 200 0
-85 -469 300 0
276 -494 473 0
350 -244 -94 0
291 59 -490 0
-196 -108 -452 0
61 160 247 0
414 -161 -489 0
439 128 -93 0
390 -418 -344 0
-17 35 -411 0
-317 -452 255 0
371 186 14 0
-69 370 260 0
321 -334 384 0
-437 461 206 0
331 483 50 0
-276 343 389 0
-62 -315 -222 0
-324 278 -300 0
-330 236 276 0
-331 28 395 0
-489 -97 263 0
320 356 117 0
379 127 -406 0
372 -229 106 0
-196 378 255 0
401 -196 -286 0
152 -298 -442 0
141 -61 223 0
-129 -17 316 0
-489 97 200 0
-437 -472 173 0
432 298 -70 0
-483 -312 -367 0
378 85 -469 0
-401 317 -98 0
401 -196 286 0
-52 -398 -465 0
-428 -161 -460 0
233 -398 -465 0
-186 428 467 0
279 481 -475 0
-378 255 -385 0
-468 -379 -393 0
355 326 -289 0
489 -256 -374 0
488 53 297 0
227 -328 -41 0
-489 90 -185 0
-451 192 -61 0
88 406 -92 0
472 362 135 0
247 427 -201 0
98 -26 207 0
-196 -108 452 0
-355 -422 -69 0
-71 -23 -339 0
-472 -427 -383 0
-290 -437 258 0
-369 355 143 0
385 407 -290 0
387 265 287 0
229 -484 282 0
482 266 155 0
328 250 -177 0
-55 46 234 0
-59 177 270 0
455 -106 -180 0
331 483 -50 0
242 266 375 0
472 -146 60 0
128 -153 50 0
-59 -197 315 0
-378 5 439 0
-239 423 -275 0
493 -420 437 0
472 -362 135 0
-328 490 77 0
437 -472 173 0
385 -492 235 0
-126 -198 -51 0
276 -222 -371 0
179 249 -430 0
328 -37 -197 0
62 -315 -222 0
-385 407 -290 0
-185 -256 -101 0
276 -494 -473 0
-41 -22 366 0
-378 350 -333 0
-128 -483 119 0
125 82 348 0
-185 -256 -101 0
223 180 -340 0
150 439 104 0
240 -59 77 0
179 -111 142 0
-20 284 145 0
-343 379 -428 0
278 113 254 0
483 -361 451 0
-334 -346 71 0
-225 -204 -117 0
-34 420 -28 0
17 -316 35 0
-97 196 -10 0
-401 324 462 0
-97 -263 -196 0
397 -227 -328 0
-355 220 383 0
312 -230 -384 0
-113 271 -321 0
232 -288 -464 0
345 -482 135 0
468 379 393 0
275 370 -159 0
-193 130 -9 0
-161 -489 -386 0
-207 -179 261 0
-44 -298 264 0
-460 -90 185 0
315 -186 21 0
-451 -423 193 0
40 184 399 0
385 -290 -141 0
290 233 404 0
472 -239 -48 0
297 -244 -333 0
378 -317 452 0
17 -397 -227 0
-355 -422 69 0
-225 341 -339 0
423 -289 413 0
482 423 392 0
242 -497 204 0
128 -164 -361 0
-97 -196 10 0
315 444 393 0
489 -256 101 0
-420 -39 252 0
276 -222 371 0
461 285 -361 0
-387 265 -287 0
-195 -432 192 0
85 469 -300 0
420 491 216 0
-250 240 -62 0
-416 -317 462 0
-20 340 -370 0
59 -177 -270 0
-349 44 -198 0
-401 -324 453 0
385 430 267 0
85 469 300 0
-69 266 -423 0
-371 -487 11 0
-350 -84 -492 0
-489 -256 -101 0
-84 -303 439 0
483 -141 -109 0
416 -317 -462 0
55 -319 294 0
271 335 76 0
52 470 58 0
-290 39 361 0
461 -285 -361 0
-59 -197 315 0
-375 471 -337 0
461 -60 -173 0
283 416 -452 0
290 -437 -252 0
385 198 40 0
-385 179 -290 0
-307 -328 -22 0
-41 -387 -243 0
423 -289 -413 0
-461 -395 -235 0
-489 -97 263 0
421 -493 -420 0
488 31 461 0
-333 -475 335 0
420 -334 51 0
242 -497 -204 0
-17 -35 -6 0
385 -290 -415 0
-30 -407 5 0
278 113 254 0
-349 334 -152 0
331 -28 -395 0
331 28 395 0
-390 123 -287 0
-371 -393 172 0
-436 193 -145 0
-483 361 152 0
172 -161 489 0
461 321 -433 0
385 249 -144 0
239 -223 -135 0
-378 -317 -452 0
-289 282 -311 0
-98 26 -140 0
-334 44 -24 0
318 84 -430 0
-317 -85 -385 0
-321 483 -252 0
-290 432 -126 0
-71 141 155 0
62 270 210 0
434 444 156 0
378 350 -333 0
153 -334 141 0
-483 361 152 0
-196 -108 -452 0
307 -328 -22 0
-432 -312 -292 0
401 196 -286 0
41 218 -390 0
-378 -5 439 0
-62 315 -468 0
493 420 437 0
-44 -298 -264 0
153 -285 -164 0
362 289 383 0
-180 -151 358 0
401 -196 -360 0
196 324 -98 0
-229 -135 159 0
483 -141 -109 0
-20 -284 -145 0
-318 -407 34 0
69 -370 260 0
-349 -126 44 0
152 266 -135 0
-227 -328 -41 0
378 -317 499 0
-55 -46 234 0
-44 -454 69 0
84 -303 -439 0
-195 432 -192 0
-155 -201 319 0
-59 342 62 0
420 -285 -345 0
346 228 -132 0
69 -266 -396 0
-420 111 38 0
437 -365 -472 0
-372 383 -294 0
-405 -30 -140 0
-63 -263 -196 0
275 340 -337 0
-487 -393 127 0
312 230 384 0
398 -427 65 0
436 193 145 0
179 -131 84 0
344 -59 89 0
320 -289 383 0
434 156 379 0
423 -375 -180 0
252 -152 44 0
179 111 142 0
158 -488 -18 0
-349 153 -365 0
-437 -433 -252 0
-40 184 -399 0
-307 -411 -227 0
-98 -26 207 0
451 -192 61 0
266 -154 -383 0
-266 -357 -413 0
-276 343 -11 0
41 22 -366 0
-472 145 -455 0
-198 173 -482 0
202 471 -319 0
-330 -236 -276 0
77 -197 -270 0
385 290 141 0
239 -223 -135 0
385 -407 290 0
414 -161 313 0
-349 334 152 0
-362 -247 -117 0
179 -249 -430 0
-271 -461 380 0
326 -409 155 0
-385 -290 415 0
-483 334 146 0
