c Type 3: circular XOR (permuted), n=120, t=5, s=3
p cnf 120 640
-67 78 -12 52 104 0
-116 73 -49 48 -14 0
74 -34 8 84 -80 0
-20 111 -28 13 66 0
120 76 119 58 15 0
21 -42 -18 95 55 0
-67 -78 -12 -52 104 0
-74 34 -8 84 80 0
-62 98 64 7 -53 0
23 4 -45 82 -16 0
41 -24 100 112 89 0
40 -118 -88 -27 109 0
48 -14 -26 120 -76 0
9 50 2 110 103 0
-87 63 1 68 75 0
17 79 -60 -20 111 0
-7 53 90 -77 102 0
113 -69 -108 6 -22 0
-84 -80 -91 67 -78 0
5 37 94 107 59 0
-41 24 -100 -112 89 0
-120 -76 119 -58 -15 0
52 104 -44 -116 73 0
-87 63 -1 -68 75 0
68 75 3 -92 56 0
-7 53 -90 -77 -102 0
112 89 57 115 65 0
-115 65 -70 17 -79 0
-74 34 8 84 -80 0
-87 -63 -1 -68 -75 0
112 -89 57 115 -65 0
25 -71 93 5 37 0
-84 80 91 -67 78 0
52 -104 -44 -116 -73 0
-107 59 -114 96 11 0
-95 55 43 -46 -105 0
58 15 39 9 -50 0
117 85 -47 -35 61 0
7 53 90 -77 -102 0
7 -53 -90 77 102 0
74 34 8 -84 -80 0
-30 -51 33 62 -98 0
110 103 -81 -19 -106 0
68 75 -3 -92 -56 0
-110 -103 81 -19 106 0
84 -80 91 -67 78 0
96 11 -32 41 24 0
83 86 10 -40 -118 0
52 -104 44 -116 73 0
120 -76 119 58 -15 0
-115 -65 70 -17 79 0
-5 37 94 -107 59 0
-74 -34 8 84 80 0
-62 98 64 -7 53 0
-113 69 108 -6 -22 0
25 71 93 5 -37 0
-17 79 -60 20 111 0
117 -85 -47 35 61 0
20 111 28 -13 -66 0
46 -105 31 74 34 0
27 109 -101 -113 -69 0
92 -56 29 30 -51 0
83 -86 10 -40 118 0
112 -89 57 -115 65 0
-87 63 -1 68 -75 0
77 102 36 117 85 0
-77 102 36 117 -85 0
19 -106 -54 -25 -71 0
-48 14 -26 -120 76 0
9 50 -2 110 -103 0
21 -42 18 95 -55 0
-68 75 3 -92 -56 0
-21 -42 18 95 55 0
-41 24 -100 112 -89 0
-6 -22 38 -21 42 0
96 11 -32 -41 -24 0
-83 -86 -10 40 -118 0
-95 -55 43 -46 105 0
-87 -63 1 -68 75 0
-62 -98 -64 -7 53 0
20 111 -28 -13 66 0
-30 -51 -33 -62 -98 0
-120 -76 -119 -58 15 0
-52 104 44 -116 73 0
-19 -106 54 25 71 0
113 69 -108 6 22 0
117 -85 -47 -35 -61 0
116 -73 49 48 14 0
-110 103 -81 -19 106 0
9 -50 -2 110 103 0
20 -111 28 -13 66 0
115 -65 -70 17 -79 0
-25 -71 -93 -5 -37 0
-58 15 39 9 50 0
-84 -80 91 -67 -78 0
-30 51 33 62 98 0
27 -109 101 -113 -69 0
112 89 -57 115 -65 0
19 -106 -54 25 71 0
113 -69 108 6 22 0
-107 -59 114 96 11 0
-30 51 -33 62 -98 0
87 63 1 68 -75 0
-115 -65 -70 17 79 0
95 55 -43 -46 -105 0
35 -61 72 -83 -86 0
-7 -53 -90 -77 102 0
-84 80 91 67 -78 0
-48 14 26 -120 -76 0
-58 -15 39 9 -50 0
-13 -66 97 23 4 0
82 -16 99 -87 -63 0
-120 -76 -119 58 -15 0
-92 56 29 30 -51 0
-117 -85 47 35 61 0
9 50 2 -110 -103 0
-116 -73 -49 48 14 0
-40 -118 88 27 -109 0
82 -16 -99 87 -63 0
116 73 49 -48 14 0
-95 -55 -43 -46 -105 0
21 42 -18 -95 55 0
-110 -103 81 19 -106 0
-77 -102 -36 -117 85 0
-21 -42 18 -95 -55 0
-6 22 -38 -21 42 0
20 -111 -28 -13 -66 0
-17 79 60 -20 111 0
-5 -37 94 -107 -59 0
-52 -104 44 -116 -73 0
-21 42 18 -95 55 0
-46 -105 -31 74 34 0
77 -102 -36 -117 -85 0
-83 86 -10 40 118 0
112 -89 -57 -115 -65 0
35 -61 72 83 86 0
6 -22 38 21 42 0
48 14 26 120 -76 0
77 -102 36 117 -85 0
113 -69 -108 -6 22 0
-52 104 44 116 -73 0
77 -102 36 -117 85 0
-92 -56 29 30 51 0
7 -53 90 -77 102 0
117 85 47 35 61 0
120 -76 -119 -58 -15 0
-83 -86 10 -40 -118 0
19 106 -54 25 -71 0
27 -109 -101 113 -69 0
112 89 -57 -115 65 0
-52 -104 -44 116 -73 0
-20 111 28 -13 66 0
-40 118 88 -27 -109 0
-40 -118 88 -27 109 0
67 -78 12 -52 104 0
115 65 70 17 -79 0
25 -71 -93 5 -37 0
74 -34 -8 -84 -80 0
92 56 29 -30 -51 0
19 106 54 25 71 0
107 -59 114 96 -11 0
-120 76 119 58 -15 0
5 37 -94 107 -59 0
110 103 81 -19 106 0
-6 22 38 21 42 0
5 37 94 -107 -59 0
-92 -56 -29 -30 51 0
82 -16 -99 -87 63 0
9 -50 -2 -110 -103 0
23 -4 45 82 -16 0
-82 16 99 87 63 0
-83 86 10 -40 118 0
23 -4 -45 -82 -16 0
30 -51 -33 -62 98 0
-6 -22 -38 21 42 0
-46 -105 31 -74 34 0
-41 -24 -100 112 89 0
-13 66 97 23 -4 0
95 55 -43 46 105 0
-82 -16 -99 87 63 0
13 66 -97 23 -4 0
19 106 -54 -25 71 0
120 -76 119 -58 15 0
95 55 43 -46 105 0
41 24 100 -112 89 0
107 59 -114 -96 11 0
25 71 -93 5 37 0
35 61 -72 83 86 0
-21 42 18 95 -55 0
116 73 -49 48 14 0
-27 -109 101 -113 69 0
6 22 -38 -21 -42 0
-95 55 43 46 105 0
74 34 -8 -84 80 0
-25 71 -93 -5 37 0
107 -59 -114 -96 -11 0
77 -102 -36 117 85 0
-112 89 57 115 -65 0
-68 -75 -3 -92 -56 0
-116 73 49 48 14 0
20 -111 28 13 -66 0
-6 -22 38 21 -42 0
7 -53 90 77 -102 0
21 42 18 -95 -55 0
5 -37 94 -107 59 0
-21 -42 -18 95 -55 0
-107 59 -114 -96 -11 0
-19 106 54 -25 71 0
-41 -24 100 -112 89 0
58 15 -39 -9 -50 0
-110 -103 -81 -19 -106 0
41 -24 -100 -112 89 0
-5 -37 94 107 59 0
95 -55 43 46 105 0
-17 -79 -60 20 -111 0
-84 -80 -91 -67 78 0
-40 118 -88 27 -109 0
116 -73 49 -48 -14 0
23 4 45 82 16 0
7 53 90 77 102 0
-7 -53 90 -77 -102 0
113 69 108 6 -22 0
19 -106 54 25 -71 0
-52 104 -44 -116 -73 0
-25 71 -93 5 -37 0
-92 56 -29 -30 -51 0
58 15 39 -9 50 0
-5 37 -94 107 59 0
-17 -79 60 -20 -111 0
87 63 -1 -68 -75 0
-9 -50 2 -110 -103 0
107 59 114 -96 -11 0
25 71 93 -5 37 0
-107 -59 -114 96 -11 0
-58 15 -39 -9 50 0
6 -22 38 -21 -42 0
-92 56 29 -30 51 0
68 -75 3 92 56 0
87 -63 -1 -68 75 0
25 71 -93 -5 -37 0
83 86 10 40 118 0
20 111 28 13 66 0
-113 -69 108 6 -22 0
62 -98 64 -7 53 0
87 -63 1 68 75 0
-9 -50 -2 110 -103 0
-46 105 31 74 34 0
-113 69 -108 6 -22 0
58 -15 39 -9 -50 0
120 76 -119 -58 15 0
-74 34 8 -84 80 0
110 103 81 19 -106 0
13 66 97 23 4 0
46 -105 31 -74 -34 0
-48 -14 26 120 -76 0
13 66 97 -23 -4 0
67 -78 -12 52 104 0
-23 4 -45 -82 -16 0
-113 -69 -108 -6 -22 0
115 -65 -70 -17 79 0
-83 86 -10 -40 -118 0
-58 15 39 -9 -50 0
-41 24 100 112 89 0
41 -24 -100 112 -89 0
92 -56 -29 -30 -51 0
9 -50 2 -110 103 0
-68 -75 3 -92 56 0
74 34 -8 84 -80 0
30 51 -33 -62 -98 0
52 104 -44 116 -73 0
6 -22 -38 21 -42 0
-5 37 -94 -107 -59 0
-112 -89 -57 -115 65 0
68 -75 -3 92 -56 0
58 -15 39 9 50 0
-23 -4 -45 -82 16 0
-112 -89 57 -115 -65 0
-67 78 -12 -52 -104 0
-96 11 -32 41 -24 0
-116 73 49 -48 -14 0
13 66 -97 -23 4 0
27 109 101 -113 69 0
84 80 91 -67 -78 0
-20 -111 28 13 66 0
117 85 -47 35 -61 0
84 80 -91 67 -78 0
-110 -103 -81 19 106 0
46 105 -31 -74 -34 0
20 111 -28 13 -66 0
82 16 99 87 -63 0
68 -75 -3 -92 56 0
-96 11 32 -41 -24 0
-27 109 -101 113 -69 0
30 51 33 62 -98 0
83 -86 -10 -40 -118 0
-67 -78 12 -52 -104 0
-27 109 -101 -113 69 0
-62 98 -64 -7 -53 0
-107 -59 114 -96 -11 0
-19 -106 -54 -25 71 0
-7 53 90 77 -102 0
-7 -53 -90 77 -102 0
21 -42 -18 -95 -55 0
30 51 -33 62 98 0
-112 89 -57 115 65 0
-35 61 -72 83 -86 0
120 76 -119 58 -15 0
-20 111 28 13 -66 0
-40 -118 -88 27 109 0
110 -103 81 -19 -106 0
-82 16 -99 -87 63 0
48 14 26 -120 76 0
-107 59 114 -96 11 0
115 65 -70 17 79 0
-35 -61 72 -83 86 0
62 -98 64 7 -53 0
-46 -105 31 74 -34 0
-52 104 -44 116 73 0
115 65 -70 -17 -79 0
-48 14 -26 120 -76 0
96 11 32 41 -24 0
9 50 -2 -110 103 0
-25 71 93 -5 -37 0
92 56 -29 30 -51 0
110 -103 81 19 106 0
67 -78 12 52 -104 0
-113 69 108 6 22 0
-67 78 12 -52 104 0
30 -51 33 62 98 0
-92 -56 -29 30 -51 0
82 16 99 -87 63 0
-20 -111 -28 -13 66 0
-82 16 99 -87 -63 0
92 -56 29 -30 51 0
92 56 29 30 51 0
-82 -16 -99 -87 -63 0
27 109 -101 113 69 0
-21 42 -18 95 55 0
-23 -4 45 82 16 0
116 73 49 48 -14 0
-95 55 -43 -46 105 0
84 -80 -91 67 78 0
-27 -109 -101 -113 -69 0
-58 15 -39 9 -50 0
-87 -63 -1 68 75 0
17 -79 60 20 -111 0
120 76 119 -58 -15 0
107 59 114 96 11 0
-107 59 114 96 -11 0
-35 61 72 -83 -86 0
46 105 31 -74 34 0
7 53 -90 -77 102 0
-48 14 26 120 76 0
62 98 -64 7 -53 0
117 -85 47 35 -61 0
-112 -89 57 115 65 0
-74 -34 8 -84 -80 0
107 -59 -114 96 11 0
-120 76 119 -58 15 0
87 -63 1 -68 -75 0
40 -118 88 -27 -109 0
-58 -15 39 -9 50 0
-30 51 -33 -62 98 0
68 75 -3 92 56 0
52 -104 44 116 -73 0
23 4 45 -82 -16 0
19 106 54 -25 -71 0
-115 -65 -70 -17 -79 0
-20 -111 -28 13 -66 0
17 79 60 -20 -111 0
-25 71 93 5 37 0
17 -79 -60 -20 -111 0
84 80 91 67 78 0
-30 -51 -33 62 98 0
-87 -63 1 68 -75 0
-40 -118 -88 -27 -109 0
-35 -61 -72 -83 -86 0
-13 66 -97 -23 -4 0
-67 78 12 52 -104 0
-117 85 -47 35 61 0
-13 -66 -97 23 -4 0
115 -65 70 17 79 0
-19 -106 -54 25 -71 0
-35 -61 -72 83 86 0
41 24 100 112 -89 0
110 -103 -81 19 -106 0
83 86 -10 -40 118 0
46 105 31 74 -34 0
107 59 -114 96 -11 0
-17 79 -60 -20 -111 0
62 -98 -64 7 53 0
-13 -66 97 -23 -4 0
-13 66 -97 23 4 0
-5 37 94 107 -59 0
116 -73 -49 48 -14 0
-20 -111 28 -13 -66 0
68 -75 3 -92 -56 0
-48 -14 -26 120 76 0
41 24 -100 -112 -89 0
-112 89 -57 -115 -65 0
40 -118 88 27 109 0
-113 -69 108 -6 22 0
13 -66 -97 -23 -4 0
-58 -15 -39 -9 -50 0
-9 50 2 -110 103 0
116 73 -49 -48 -14 0
-110 103 81 19 106 0
117 -85 47 -35 61 0
77 102 -36 117 -85 0
35 -61 -72 83 -86 0
27 -109 -101 -113 69 0
-35 61 -72 -83 86 0
6 22 38 -21 42 0
-9 50 -2 -110 -103 0
-117 85 47 -35 61 0
21 -42 18 -95 55 0
30 -51 33 -62 -98 0
13 -66 97 23 -4 0
17 79 60 20 111 0
46 -105 -31 74 -34 0
-117 -85 -47 -35 61 0
-25 -71 93 -5 37 0
62 -98 -64 -7 -53 0
116 -73 -49 -48 14 0
-77 -102 36 -117 -85 0
-58 -15 -39 9 50 0
-82 16 -99 87 -63 0
74 -34 -8 84 80 0
-92 -56 29 -30 -51 0
-110 103 81 -19 -106 0
-116 -73 49 -48 14 0
-46 105 -31 -74 34 0
84 -80 91 67 -78 0
-117 85 47 35 -61 0
25 -71 93 -5 -37 0
-9 50 2 110 -103 0
87 63 -1 68 75 0
-74 -34 -8 84 -80 0
-62 -98 -64 7 -53 0
-5 -37 -94 107 -59 0
21 42 18 95 55 0
92 -56 -29 30 51 0
-96 -11 32 41 -24 0
-46 -105 -31 -74 -34 0
9 -50 2 110 -103 0
-116 73 -49 -48 14 0
35 61 72 -83 86 0
-68 -75 3 92 -56 0
107 -59 114 -96 11 0
-9 -50 2 110 103 0
-23 -4 -45 82 -16 0
48 -14 26 -120 -76 0
5 -37 -94 -107 -59 0
-96 -11 -32 -41 -24 0
-17 -79 60 20 111 0
74 -34 8 -84 80 0
52 104 44 -116 -73 0
17 -79 -60 20 111 0
48 -14 26 120 76 0
117 85 47 -35 -61 0
-82 -16 99 -87 63 0
-17 79 60 20 -111 0
-77 -102 -36 117 -85 0
40 118 88 27 -109 0
-77 102 -36 -117 -85 0
7 -53 -90 -77 -102 0
-27 -109 101 113 -69 0
-25 -71 93 5 -37 0
23 -4 45 -82 16 0
96 -11 -32 41 -24 0
83 -86 -10 40 118 0
-115 65 -70 -17 79 0
30 51 33 -62 98 0
-112 -89 -57 115 -65 0
-9 50 -2 110 103 0
92 56 -29 -30 51 0
5 37 -94 -107 59 0
-62 98 -64 7 53 0
41 24 -100 112 89 0
-6 22 -38 21 -42 0
87 63 1 -68 75 0
67 78 -12 52 -104 0
68 75 3 92 -56 0
-23 4 45 82 -16 0
-62 -98 64 -7 -53 0
-120 76 -119 -58 -15 0
-120 -76 119 58 15 0
7 53 -90 77 -102 0
46 105 -31 74 34 0
-46 105 31 -74 -34 0
30 -51 -33 62 -98 0
13 -66 -97 23 4 0
-23 4 45 -82 16 0
40 118 88 -27 109 0
58 -15 -39 9 -50 0
67 78 -12 -52 104 0
62 98 -64 -7 53 0
-112 89 57 -115 65 0
-116 -73 -49 -48 -14 0
-83 -86 -10 -40 118 0
62 98 64 7 53 0
-96 -11 32 -41 24 0
20 -111 -28 13 66 0
95 -55 -43 46 -105 0
-19 -106 54 -25 -71 0
-77 102 36 -117 85 0
-41 -24 100 112 -89 0
-74 -34 -8 -84 80 0
-113 -69 -108 6 22 0
-7 -53 90 77 102 0
-68 75 -3 -92 56 0
52 -104 -44 116 73 0
58 -15 -39 -9 50 0
40 118 -88 -27 -109 0
-35 61 72 83 86 0
-30 -51 33 -62 98 0
58 15 -39 9 50 0
5 -37 -94 107 59 0
-40 118 -88 -27 109 0
-46 105 -31 74 -34 0
-13 -66 -97 -23 4 0
-96 -11 -32 41 24 0
115 65 70 -17 79 0
77 102 36 -117 -85 0
23 4 -45 -82 16 0
52 104 44 116 73 0
-19 106 54 25 -71 0
-48 -14 26 -120 76 0
-113 69 -108 -6 22 0
95 -55 43 -46 -105 0
77 102 -36 -117 85 0
-83 86 10 40 -118 0
84 80 -91 -67 78 0
-41 24 100 -112 -89 0
-27 -109 -101 113 69 0
96 -11 -32 -41 24 0
-19 106 -54 25 71 0
-115 65 70 -17 -79 0
-68 -75 -3 92 56 0
35 -61 -72 -83 86 0
-6 -22 -38 -21 -42 0
-95 -55 43 46 -105 0
112 89 57 -115 -65 0
-30 51 33 -62 -98 0
-120 76 -119 58 15 0
-68 75 -3 92 -56 0
35 61 72 83 -86 0
74 34 8 84 80 0
67 -78 -12 -52 -104 0
120 -76 -119 58 15 0
-6 22 38 -21 -42 0
-74 34 -8 -84 -80 0
84 -80 -91 -67 -78 0
-84 -80 91 67 78 0
-52 -104 -44 -116 73 0
46 -105 -31 -74 34 0
-27 109 101 113 69 0
40 118 -88 27 109 0
6 22 38 21 -42 0
-40 118 88 27 109 0
-21 42 -18 -95 -55 0
-35 -61 72 83 -86 0
-87 63 1 -68 -75 0
96 -11 32 -41 -24 0
-23 4 -45 82 16 0
95 55 43 46 -105 0
67 78 12 -52 -104 0
40 -118 -88 27 -109 0
-117 -85 47 -35 -61 0
95 -55 -43 -46 105 0
67 78 12 52 104 0
-9 -50 -2 -110 103 0
-82 -16 99 87 -63 0
48 14 -26 120 76 0
110 -103 -81 -19 106 0
-117 85 -47 -35 -61 0
82 -16 99 87 63 0
96 11 32 -41 24 0
-117 -85 -47 35 -61 0
-52 -104 44 116 73 0
-41 -24 -100 -112 -89 0
-20 111 -28 -13 -66 0
-23 -4 45 -82 -16 0
25 -71 -93 -5 37 0
62 98 64 -7 -53 0
-83 -86 10 40 118 0
-84 80 -91 67 78 0
-115 -65 70 17 -79 0
82 16 -99 -87 -63 0
19 -106 54 -25 71 0
112 -89 -57 115 65 0
-68 75 3 92 56 0
-25 -71 -93 5 37 0
13 -66 97 -23 4 0
113 -69 108 -6 -22 0
17 -79 60 -20 111 0
-96 11 -32 -41 24 0
5 -37 94 107 -59 0
110 103 -81 19 106 0
-7 53 -90 77 102 0
-95 -55 -43 46 105 0
-107 -59 -114 -96 11 0
21 42 -18 95 -55 0
-67 -78 -12 52 -104 0
-13 66 97 -23 4 0
-115 65 70 17 79 0
-84 80 -91 -67 -78 0
-77 102 -36 117 85 0
-110 103 -81 19 -106 0
113 69 108 -6 22 0
-27 109 101 -113 -69 0
-62 -98 64 7 53 0
48 14 -26 -120 -76 0
113 69 -108 -6 -22 0
-17 -79 -60 -20 111 0
83 86 -10 40 -118 0
-21 -42 -18 -95 55 0
27 -109 101 113 69 0
-77 -102 36 117 85 0
27 109 101 113 -69 0
-95 55 -43 46 -105 0
-48 -14 -26 -120 -76 0
-116 -73 49 48 -14 0
115 -65 70 -17 -79 0
-5 -37 -94 -107 59 0
82 16 -99 87 63 0
17 79 -60 20 -111 0
23 -4 -45 82 16 0
-92 56 -29 30 51 0
48 -14 -26 -120 76 0
-67 -78 12 52 104 0
87 -63 -1 68 -75 0
35 61 -72 -83 -86 0
96 -11 32 41 24 0
83 -86 10 40 -118 0
41 -24 100 -112 -89 0
-96 11 32 41 24 0
-19 106 -54 -25 -71 0
6 22 -38 21 42 0
6 -22 -38 -21 42 0
