c Type 3: circular XOR (permuted), n=100, t=3, s=2
p cnf 100 200
-77 -67 -48 0
64 -62 -17 0
-98 -40 -9 0
100 88 -35 0
77 -67 48 0
71 83 -4 0
92 73 77 0
23 -87 -71 0
31 -91 79 0
17 82 39 0
-5 41 1 0
5 -41 1 0
-18 -84 69 0
-35 -72 85 0
22 78 18 0
65 56 64 0
-80 49 -90 0
-74 52 -30 0
79 -29 21 0
12 26 63 0
-2 24 5 0
-45 -47 23 0
-99 -14 70 0
-27 -81 44 0
-94 -11 -58 0
-54 -10 -65 0
-28 97 43 0
54 10 -65 0
-63 -38 2 0
98 -40 9 0
60 -3 -28 0
-77 67 48 0
-27 81 -44 0
-43 -96 -27 0
-75 66 -80 0
2 24 -5 0
-5 -41 -1 0
76 -36 -7 0
-99 14 -70 0
-7 25 100 0
99 -14 -70 0
-21 16 -92 0
-9 46 -60 0
22 -78 -18 0
95 89 99 0
75 -66 -80 0
75 66 80 0
-44 13 -15 0
-71 83 4 0
-70 -51 37 0
27 81 44 0
90 86 -22 0
5 41 -1 0
-85 -61 53 0
-79 29 21 0
48 -42 94 0
35 72 85 0
-35 72 -85 0
-7 -25 -100 0
-76 36 -7 0
43 96 -27 0
92 -73 -77 0
-4 -68 54 0
-95 89 -99 0
35 -72 -85 0
64 62 17 0
94 -11 58 0
-23 -87 71 0
85 61 53 0
15 8 31 0
45 -47 -23 0
30 -50 57 0
44 13 15 0
45 47 23 0
57 -20 45 0
7 -25 100 0
-31 91 79 0
95 -89 -99 0
28 -97 43 0
-48 -42 -94 0
-12 26 -63 0
-58 6 -95 0
-95 -89 99 0
1 -19 76 0
30 50 -57 0
76 36 7 0
-39 33 12 0
-60 3 -28 0
53 -55 -98 0
-1 -19 -76 0
9 46 60 0
37 -32 75 0
-22 78 -18 0
53 55 98 0
-71 -83 -4 0
-23 87 -71 0
69 34 59 0
-30 50 57 0
-92 -73 77 0
-48 42 94 0
7 25 -100 0
100 -88 35 0
-15 -8 31 0
18 -84 -69 0
-15 8 -31 0
-70 51 -37 0
-21 -16 92 0
4 68 54 0
21 16 92 0
-64 62 -17 0
12 -26 -63 0
-69 -34 59 0
-37 32 75 0
-76 -36 7 0
94 11 -58 0
-57 -20 -45 0
-64 -62 17 0
-28 -97 -43 0
-75 -66 80 0
-94 11 58 0
-65 -56 64 0
31 91 -79 0
-69 34 -59 0
-1 19 76 0
-4 68 -54 0
99 14 70 0
74 -52 -30 0
-90 -86 -22 0
-45 47 -23 0
-39 -33 -12 0
80 -49 -90 0
-18 84 -69 0
-37 -32 -75 0
-63 38 -2 0
28 97 -43 0
48 42 -94 0
65 -56 -64 0
44 -13 -15 0
54 -10 65 0
71 -83 4 0
-59 93 74 0
-74 -52 30 0
15 -8 -31 0
37 32 -75 0
74 52 30 0
-100 -88 -35 0
57 20 -45 0
-12 -26 63 0
-57 20 45 0
-54 10 65 0
-85 61 -53 0
70 51 37 0
43 -96 27 0
69 -34 -59 0
77 67 -48 0
39 -33 12 0
80 49 90 0
-65 56 -64 0
-53 55 -98 0
98 40 -9 0
85 -61 -53 0
-2 -24 -5 0
9 -46 -60 0
59 -93 74 0
39 33 -12 0
-58 -6 95 0
18 84 69 0
-59 -93 -74 0
-79 -29 -21 0
-9 -46 60 0
-53 -55 98 0
58 6 95 0
-30 -50 -57 0
-80 -49 90 0
-43 96 27 0
-17 -82 39 0
-98 40 9 0
-22 -78 18 0
90 -86 22 0
63 -38 -2 0
59 93 -74 0
27 -81 -44 0
-44 -13 15 0
58 -6 -95 0
70 -51 -37 0
79 29 -21 0
23 87 71 0
17 -82 -39 0
-92 73 -77 0
21 -16 -92 0
4 -68 -54 0
1 19 -76 0
60 3 28 0
-100 88 35 0
-90 86 22 0
2 -24 5 0
-17 82 -39 0
63 38 2 0
-31 -91 -79 0
-60 -3 28 0
