c Type 3: circular XOR (ordered), n=100, t=3, s=2
p cnf 100 200
1 -2 3 0
-1 2 3 0
-1 -2 -3 0
1 2 -3 0
-3 4 5 0
3 -4 5 0
3 4 -5 0
-3 -4 -5 0
5 6 7 0
-5 -6 7 0
-5 6 -7 0
5 -6 -7 0
-7 -8 -9 0
7 8 -9 0
7 -8 9 0
-7 8 9 0
9 -10 11 0
-9 10 11 0
-9 -10 -11 0
9 10 -11 0
11 12 -13 0
-11 -12 -13 0
-11 12 13 0
11 -12 13 0
13 14 15 0
-13 -14 15 0
-13 14 -15 0
13 -14 -15 0
-15 16 17 0
15 -16 17 0
15 16 -17 0
-15 -16 -17 0
17 18 -19 0
-17 -18 -19 0
-17 18 19 0
17 -18 19 0
19 -20 -21 0
-19 20 -21 0
-19 -20 21 0
19 20 21 0
21 -22 -23 0
-21 22 -23 0
-21 -22 23 0
21 22 23 0
-23 -24 25 0
23 24 25 0
23 -24 -25 0
-23 24 -25 0
-25 -26 -27 0
25 26 -27 0
25 -26 27 0
-25 26 27 0
27 28 -29 0
-27 -28 -29 0
-27 28 29 0
27 -28 29 0
29 -30 -31 0
-29 30 -31 0
-29 -30 31 0
29 30 31 0
-31 32 -33 0
31 -32 -33 0
31 32 33 0
-31 -32 33 0
33 -34 -35 0
-33 34 -35 0
-33 -34 35 0
33 34 35 0
-35 -36 37 0
35 36 37 0
35 -36 -37 0
-35 36 -37 0
-37 -38 -39 0
37 38 -39 0
37 -38 39 0
-37 38 39 0
39 -40 -41 0
-39 40 -41 0
-39 -40 41 0
39 40 41 0
41 42 -43 0
-41 -42 -43 0
-41 42 43 0
41 -42 43 0
-43 -44 45 0
43 44 45 0
43 -44 -45 0
-43 44 -45 0
45 -46 47 0
-45 46 47 0
-45 -46 -47 0
45 46 -47 0
-47 48 -49 0
47 -48 -49 0
47 48 49 0
-47 -48 49 0
49 50 -51 0
-49 -50 -51 0
-49 50 51 0
49 -50 51 0
51 52 53 0
-51 -52 53 0
-51 52 -53 0
51 -52 -53 0
-53 -54 55 0
53 54 55 0
53 -54 -55 0
-53 54 -55 0
55 56 57 0
-55 -56 57 0
-55 56 -57 0
55 -56 -57 0
57 58 59 0
-57 -58 59 0
-57 58 -59 0
57 -58 -59 0
59 -60 -61 0
-59 60 -61 0
-59 -60 61 0
59 60 61 0
-61 -62 63 0
61 62 63 0
61 -62 -63 0
-61 62 -63 0
63 64 65 0
-63 -64 65 0
-63 64 -65 0
63 -64 -65 0
-65 -66 67 0
65 66 67 0
65 -66 -67 0
-65 66 -67 0
-67 68 -69 0
67 -68 -69 0
67 68 69 0
-67 -68 69 0
-69 70 71 0
69 -70 71 0
69 70 -71 0
-69 -70 -71 0
71 72 73 0
-71 -72 73 0
-71 72 -73 0
71 -72 -73 0
-73 74 -75 0
73 -74 -75 0
73 74 75 0
-73 -74 75 0
-75 76 77 0
75 -76 77 0
75 76 -77 0
-75 -76 -77 0
77 -78 79 0
-77 78 79 0
-77 -78 -79 0
77 78 -79 0
-79 80 81 0
79 -80 81 0
79 80 -81 0
-79 -80 -81 0
-81 82 -83 0
81 -82 -83 0
81 82 83 0
-81 -82 83 0
-83 84 -85 0
83 -84 -85 0
83 84 85 0
-83 -84 85 0
85 -86 87 0
-85 86 87 0
-85 -86 -87 0
85 86 -87 0
87 -88 -89 0
-87 88 -89 0
-87 -88 89 0
87 88 89 0
-89 -90 -91 0
89 90 -91 0
89 -90 91 0
-89 90 91 0
-91 92 93 0
91 -92 93 0
91 92 -93 0
-91 -92 -93 0
-93 94 95 0
93 -94 95 0
93 94 -95 0
-93 -94 -95 0
-95 -96 -97 0
95 96 -97 0
95 -96 97 0
-95 96 97 0
-97 98 -99 0
97 -98 -99 0
97 98 99 0
-97 -98 99 0
99 -100 -1 0
-99 100 -1 0
-99 -100 1 0
99 100 1 0
