c Type 3: circular XOR (permuted), n=30, t=3, s=2
p cnf 30 60
-14 -11 -2 0
27 -15 20 0
-28 -16 -8 0
-8 13 19 0
-9 5 -3 0
26 30 -6 0
20 -22 26 0
-9 -5 3 0
-12 -21 23 0
8 13 -19 0
2 -17 29 0
6 4 -12 0
-20 22 26 0
25 1 9 0
14 11 -2 0
-12 21 -23 0
-27 15 20 0
-14 11 2 0
-19 24 25 0
19 24 -25 0
-25 -1 9 0
-3 7 -14 0
9 5 3 0
-6 4 12 0
-6 -4 -12 0
-26 -30 -6 0
29 -10 -27 0
-29 -10 27 0
-3 -7 14 0
-26 30 6 0
29 10 27 0
6 -4 12 0
12 21 23 0
12 -21 -23 0
-23 18 28 0
23 18 -28 0
25 -1 -9 0
-27 -15 -20 0
-19 -24 -25 0
-25 1 -9 0
-20 -22 -26 0
2 17 -29 0
26 -30 6 0
8 -13 19 0
-23 -18 -28 0
14 -11 2 0
28 16 -8 0
-2 17 29 0
-29 10 -27 0
-8 -13 -19 0
9 -5 -3 0
19 -24 25 0
3 -7 -14 0
23 -18 28 0
27 15 -20 0
-28 16 8 0
-2 -17 -29 0
20 22 -26 0
28 -16 8 0
3 7 14 0
