c Type 3: circular XOR (permuted), n=150, t=5, s=3
p cnf 150 800
-2 69 101 122 30 0
122 30 -117 -97 -138 0
14 84 77 105 16 0
124 -13 -145 11 108 0
-1 -136 -3 139 83 0
31 24 -18 -44 80 0
126 -35 -98 -12 -109 0
-94 -93 -15 57 110 0
94 93 15 57 -110 0
-97 138 -141 129 17 0
102 9 135 -2 -69 0
-97 -138 141 -129 -17 0
102 9 -135 2 -69 0
-8 -90 -19 -76 -99 0
94 93 -15 -57 -110 0
114 28 61 6 -116 0
-67 -87 113 31 -24 0
-128 -74 81 126 35 0
-130 144 89 -75 27 0
96 -22 133 -131 -37 0
-6 -116 -53 -73 50 0
148 4 -62 54 -33 0
122 -30 -117 -97 138 0
-1 -136 -3 -139 -83 0
-71 -7 137 -102 9 0
79 -100 -150 119 -59 0
-140 46 45 -124 -13 0
114 28 61 -6 116 0
-131 -37 104 -118 -149 0
-32 147 -143 -106 82 0
118 -149 25 -94 93 0
-40 -55 52 128 -74 0
91 -78 -26 -21 -115 0
-120 -29 5 -79 -100 0
-76 -99 132 123 85 0
-44 -80 -20 -65 -51 0
94 -93 15 -57 -110 0
-21 -115 -48 -14 84 0
54 -33 95 -71 -7 0
71 -7 -137 -102 9 0
129 17 92 -107 -134 0
31 24 18 -44 -80 0
-14 -84 -77 105 -16 0
10 43 -23 39 -49 0
32 147 -143 -106 -82 0
44 -80 20 65 51 0
75 27 58 66 -64 0
-102 9 135 2 -69 0
114 -28 61 -6 -116 0
123 -85 -41 32 147 0
96 22 -133 131 37 0
79 -100 150 119 59 0
14 -84 77 -105 16 0
57 110 142 40 55 0
148 4 -62 -54 33 0
-79 -100 150 -119 59 0
10 -43 -23 -39 -49 0
68 -121 72 120 -29 0
-105 16 -86 68 121 0
105 16 86 -68 -121 0
-122 -30 117 97 -138 0
-148 -4 62 54 33 0
-1 136 -3 139 -83 0
40 -55 52 128 74 0
-91 -78 26 21 115 0
-14 84 77 105 -16 0
-91 78 -26 -21 -115 0
-94 -93 15 57 -110 0
-119 59 -47 140 46 0
75 27 -58 -66 -64 0
-114 28 61 -6 -116 0
-118 -149 25 -94 -93 0
2 -69 -101 -122 30 0
-130 -144 -89 -75 27 0
-130 -144 89 75 27 0
75 -27 58 -66 -64 0
54 -33 -95 -71 7 0
97 -138 -141 -129 -17 0
-88 -42 112 127 -146 0
1 -136 3 139 83 0
107 134 -103 96 22 0
-79 100 150 119 59 0
-79 -100 150 119 -59 0
2 69 101 -122 30 0
10 43 -23 -39 49 0
120 -29 5 -79 100 0
-124 13 145 -11 108 0
39 -49 -125 -67 -87 0
-102 -9 135 -2 -69 0
91 78 26 -21 -115 0
11 -108 36 8 -90 0
148 -4 62 54 -33 0
76 -99 -132 123 85 0
-91 78 26 21 -115 0
65 -51 -38 148 -4 0
54 33 -95 -71 -7 0
75 27 58 -66 64 0
102 -9 135 2 -69 0
-88 42 112 -127 -146 0
-75 27 -58 66 -64 0
73 -50 -56 1 136 0
-114 28 -61 6 -116 0
-102 9 -135 -2 -69 0
68 -121 72 -120 29 0
-126 -35 98 12 109 0
-122 30 117 97 138 0
-114 -28 -61 -6 -116 0
39 49 -125 67 -87 0
97 -138 -141 129 17 0
-102 -9 135 2 69 0
126 -35 98 -12 109 0
96 -22 133 131 37 0
-40 -55 52 -128 74 0
106 82 -60 114 28 0
-91 -78 26 -21 -115 0
54 33 -95 71 7 0
-57 110 -142 -40 -55 0
129 -17 -92 -107 -134 0
-65 51 38 -148 -4 0
39 -49 125 67 -87 0
-114 28 -61 -6 116 0
126 35 98 -12 -109 0
-126 35 98 12 -109 0
-102 9 135 -2 69 0
11 -108 -36 -8 -90 0
-118 149 25 94 -93 0
-120 -29 5 79 100 0
-10 43 23 39 -49 0
-54 33 95 71 7 0
12 -109 -63 -130 -144 0
8 90 19 76 -99 0
-66 -64 -111 91 78 0
79 100 150 119 -59 0
129 17 -92 107 -134 0
54 -33 -95 71 -7 0
11 108 -36 -8 90 0
139 -83 -70 -88 42 0
73 -50 -56 -1 -136 0
-75 -27 58 66 -64 0
-73 50 56 -1 136 0
-2 69 -101 122 -30 0
-122 -30 117 -97 138 0
-31 24 -18 44 80 0
-75 -27 -58 -66 -64 0
-67 -87 -113 -31 -24 0
128 -74 -81 126 35 0
11 -108 36 -8 90 0
-32 -147 -143 -106 -82 0
130 -144 -89 -75 -27 0
39 -49 125 -67 87 0
88 -42 -112 127 -146 0
-8 90 -19 76 -99 0
-31 -24 -18 44 -80 0
-39 -49 -125 -67 87 0
-96 22 -133 131 -37 0
-32 -147 -143 106 82 0
-68 121 -72 120 29 0
-127 146 -34 10 -43 0
-21 -115 48 -14 -84 0
31 -24 18 44 -80 0
105 16 -86 -68 121 0
40 -55 -52 -128 74 0
-124 -13 145 -11 -108 0
-12 109 63 -130 144 0
-106 -82 60 -114 28 0
-120 29 5 -79 100 0
76 99 132 -123 -85 0
-140 46 -45 124 -13 0
119 59 -47 140 -46 0
120 -29 -5 79 100 0
-65 51 38 148 4 0
88 -42 -112 -127 146 0
-66 64 -111 -91 78 0
-40 55 -52 128 -74 0
-57 110 142 40 -55 0
-106 -82 -60 -114 -28 0
76 99 132 123 85 0
6 -116 53 -73 50 0
-105 16 86 68 -121 0
127 -146 34 10 43 0
-118 -149 -25 -94 93 0
71 7 137 102 -9 0
-96 -22 133 -131 37 0
-105 -16 -86 -68 121 0
66 -64 111 91 78 0
-131 -37 -104 118 -149 0
14 -84 -77 105 16 0
65 -51 -38 -148 4 0
-127 146 -34 -10 43 0
122 30 -117 97 138 0
140 46 -45 124 13 0
106 82 -60 -114 -28 0
-94 -93 15 -57 110 0
-71 7 -137 -102 9 0
-2 -69 -101 -122 -30 0
-75 27 -58 -66 64 0
-8 90 19 76 99 0
88 -42 112 -127 -146 0
40 55 -52 -128 -74 0
8 90 -19 -76 -99 0
131 37 104 -118 -149 0
21 -115 -48 14 84 0
-96 -22 -133 131 37 0
-10 43 -23 39 49 0
12 109 -63 -130 144 0
-105 -16 86 68 121 0
73 50 56 1 136 0
-44 80 20 -65 -51 0
-10 43 -23 -39 -49 0
-148 -4 -62 54 -33 0
119 -59 -47 -140 -46 0
129 -17 -92 107 134 0
-107 134 103 96 22 0
106 -82 60 114 28 0
67 87 113 -31 24 0
-140 46 45 124 13 0
-126 35 -98 -12 -109 0
-66 64 111 -91 -78 0
107 134 -103 -96 -22 0
44 80 20 65 -51 0
66 -64 -111 -91 78 0
-129 17 -92 107 134 0
123 -85 41 -32 147 0
-94 93 -15 57 -110 0
114 28 -61 6 116 0
-123 85 -41 -32 -147 0
-39 -49 125 67 87 0
106 82 60 -114 28 0
139 -83 -70 88 -42 0
-129 -17 -92 107 -134 0
-129 17 -92 -107 -134 0
-130 -144 -89 75 -27 0
1 -136 -3 139 -83 0
-128 -74 -81 -126 35 0
40 -55 52 -128 -74 0
-96 22 133 -131 -37 0
75 -27 -58 66 -64 0
-67 87 113 31 24 0
-68 121 72 120 -29 0
-21 -115 -48 14 -84 0
-128 -74 -81 126 -35 0
-2 -69 -101 122 30 0
106 -82 -60 114 -28 0
-67 -87 113 -31 24 0
12 -109 -63 130 144 0
-106 82 -60 -114 28 0
126 35 98 12 109 0
-105 16 86 -68 121 0
-127 -146 34 10 -43 0
-94 93 15 57 110 0
-54 -33 95 -71 7 0
128 74 81 -126 -35 0
-140 -46 45 124 -13 0
-68 -121 72 -120 -29 0
131 -37 -104 118 149 0
65 51 38 148 -4 0
-10 -43 23 39 49 0
105 16 -86 68 -121 0
-131 37 104 118 -149 0
-73 -50 56 -1 -136 0
39 49 125 -67 -87 0
-79 100 150 -119 -59 0
-97 138 141 -129 17 0
119 -59 47 -140 46 0
-123 85 -41 32 147 0
106 82 60 114 -28 0
127 146 34 10 -43 0
131 37 -104 -118 149 0
14 84 -77 105 -16 0
-148 -4 62 -54 -33 0
-40 55 52 -128 -74 0
-119 59 47 140 -46 0
139 83 70 88 -42 0
76 99 -132 -123 85 0
66 -64 111 -91 -78 0
-124 -13 145 11 108 0
140 46 -45 -124 -13 0
139 83 70 -88 42 0
-119 -59 -47 -140 46 0
-129 17 92 -107 134 0
-31 24 -18 -44 -80 0
-54 33 -95 -71 7 0
123 -85 41 32 -147 0
44 80 -20 -65 -51 0
65 51 -38 148 4 0
71 7 -137 -102 -9 0
-96 22 133 131 37 0
-76 99 -132 -123 -85 0
6 -116 -53 73 50 0
118 149 25 94 93 0
-68 -121 72 120 29 0
-67 87 113 -31 -24 0
-54 33 -95 71 -7 0
-106 82 60 114 28 0
-32 -147 143 106 -82 0
-122 30 117 -97 -138 0
39 -49 -125 67 87 0
-14 -84 77 105 16 0
-79 100 -150 -119 59 0
107 134 103 -96 22 0
119 59 47 -140 -46 0
-10 -43 -23 -39 49 0
129 17 -92 -107 134 0
-40 -55 -52 -128 -74 0
105 16 86 68 121 0
32 -147 143 106 82 0
2 69 -101 122 30 0
118 -149 -25 -94 -93 0
-44 -80 20 65 -51 0
-123 -85 41 32 147 0
120 -29 -5 -79 -100 0
102 -9 -135 2 69 0
-2 69 101 -122 -30 0
-31 -24 18 44 80 0
114 28 -61 -6 -116 0
140 46 45 124 -13 0
-118 149 -25 -94 -93 0
-2 -69 101 122 -30 0
6 116 53 -73 -50 0
-128 74 -81 126 35 0
2 -69 101 122 30 0
1 -136 -3 -139 83 0
94 93 -15 57 110 0
-102 -9 -135 -2 69 0
-148 -4 -62 -54 33 0
-6 -116 53 73 50 0
-21 115 -48 -14 -84 0
-79 -100 -150 119 59 0
-32 -147 143 -106 82 0
-118 -149 -25 94 -93 0
-75 -27 58 -66 64 0
-119 -59 -47 140 -46 0
-107 -134 103 -96 22 0
8 -90 -19 -76 99 0
88 42 -112 -127 -146 0
76 -99 -132 -123 -85 0
-91 -78 -26 -21 115 0
75 -27 -58 -66 64 0
10 43 23 39 49 0
-75 27 58 66 64 0
-120 29 -5 79 100 0
-126 -35 -98 -12 109 0
-97 -138 141 129 17 0
44 80 20 -65 51 0
11 108 36 -8 -90 0
68 121 72 120 29 0
10 -43 23 -39 49 0
-120 29 5 79 -100 0
102 -9 -135 -2 -69 0
8 -90 -19 76 -99 0
-8 -90 -19 76 99 0
88 -42 112 127 146 0
96 22 133 -131 37 0
148 4 62 54 33 0
10 43 23 -39 -49 0
-65 -51 38 -148 4 0
-76 -99 -132 -123 85 0
-105 -16 86 -68 -121 0
-11 -108 -36 8 -90 0
54 -33 95 71 7 0
127 146 -34 -10 -43 0
-124 13 145 11 -108 0
67 -87 113 31 24 0
107 -134 -103 -96 22 0
-127 -146 -34 10 43 0
-66 64 111 91 78 0
114 -28 -61 -6 116 0
-32 147 -143 106 -82 0
-96 22 -133 -131 37 0
-8 90 -19 -76 99 0
1 -136 3 -139 -83 0
-31 -24 18 -44 -80 0
21 -115 48 -14 84 0
44 -80 20 -65 -51 0
131 -37 -104 -118 -149 0
124 -13 -145 -11 -108 0
-11 108 -36 8 90 0
54 33 95 -71 7 0
-65 51 -38 -148 4 0
-97 -138 -141 -129 17 0
88 42 112 -127 146 0
-14 84 -77 -105 -16 0
96 22 133 131 -37 0
-14 -84 -77 -105 16 0
-148 4 -62 54 33 0
130 -144 -89 75 27 0
-11 -108 -36 -8 90 0
2 69 -101 -122 -30 0
-118 -149 25 94 93 0
-122 -30 -117 97 138 0
-11 -108 36 8 90 0
-105 16 -86 -68 -121 0
-1 136 -3 -139 83 0
131 37 104 118 149 0
-73 50 56 1 -136 0
127 146 34 -10 43 0
119 59 47 140 46 0
-129 17 92 107 -134 0
57 -110 -142 40 55 0
-102 -9 -135 2 -69 0
-12 109 -63 130 144 0
11 108 36 8 90 0
-119 59 47 -140 46 0
-54 -33 95 71 -7 0
79 100 -150 -119 -59 0
129 17 92 107 134 0
120 29 5 79 100 0
-75 27 58 -66 -64 0
-123 -85 41 -32 -147 0
-139 83 70 -88 -42 0
148 -4 -62 -54 -33 0
123 85 41 -32 -147 0
-6 -116 53 -73 -50 0
-128 74 81 126 -35 0
-139 -83 70 -88 42 0
-76 99 132 -123 85 0
-126 -35 -98 12 -109 0
73 50 56 -1 -136 0
-127 146 34 -10 -43 0
32 -147 -143 106 -82 0
91 -78 26 -21 115 0
97 138 -141 129 -17 0
-126 35 98 -12 109 0
118 149 -25 94 -93 0
139 83 -70 88 42 0
-107 134 -103 96 -22 0
66 -64 -111 91 -78 0
-114 -28 61 6 -116 0
-68 121 -72 -120 -29 0
-139 -83 -70 -88 -42 0
71 7 137 -102 9 0
66 64 -111 91 78 0
119 -59 -47 140 46 0
-14 84 77 -105 16 0
102 -9 135 -2 69 0
-131 37 -104 -118 -149 0
67 87 -113 31 24 0
71 7 -137 102 9 0
12 109 63 130 144 0
123 85 -41 -32 147 0
-129 -17 -92 -107 134 0
-68 -121 -72 120 -29 0
-71 -7 -137 102 9 0
57 110 -142 -40 55 0
1 136 3 -139 83 0
-39 49 125 67 -87 0
21 115 -48 14 -84 0
-91 -78 -26 21 -115 0
102 9 -135 -2 69 0
124 -13 145 11 -108 0
-12 -109 63 130 144 0
-44 80 -20 65 -51 0
-68 -121 -72 -120 29 0
-73 -50 56 1 136 0
68 -121 -72 -120 -29 0
-39 -49 125 -67 -87 0
-129 -17 92 -107 -134 0
120 29 -5 79 -100 0
105 -16 86 68 -121 0
140 -46 45 -124 -13 0
-39 49 -125 67 87 0
-107 -134 -103 -96 -22 0
-140 -46 -45 124 13 0
31 24 18 44 80 0
-91 78 26 -21 115 0
6 -116 53 73 -50 0
105 -16 86 -68 121 0
-14 -84 77 -105 -16 0
-44 -80 20 -65 51 0
-124 13 -145 11 108 0
21 -115 -48 -14 -84 0
67 -87 -113 31 -24 0
124 13 145 -11 -108 0
2 -69 -101 122 -30 0
130 144 89 -75 -27 0
-10 -43 23 -39 -49 0
71 -7 137 -102 -9 0
-130 144 -89 -75 -27 0
76 -99 132 123 -85 0
-44 80 -20 -65 51 0
-57 -110 142 40 55 0
-129 -17 92 107 134 0
-44 80 20 65 51 0
130 144 89 75 27 0
-102 9 -135 2 69 0
94 93 15 -57 110 0
-71 7 137 -102 -9 0
-107 -134 -103 96 22 0
-68 121 72 -120 29 0
-106 -82 60 114 -28 0
10 -43 23 39 -49 0
122 -30 117 -97 -138 0
-106 82 -60 114 -28 0
-140 -46 45 -124 13 0
-2 69 -101 -122 30 0
128 -74 81 126 -35 0
131 37 -104 118 -149 0
-67 87 -113 31 -24 0
-10 43 23 -39 49 0
91 78 -26 -21 115 0
122 30 117 -97 138 0
-131 37 104 -118 149 0
75 -27 58 66 64 0
-6 -116 -53 73 -50 0
-94 93 15 -57 -110 0
140 46 45 -124 13 0
122 -30 -117 97 -138 0
88 42 -112 127 146 0
-107 134 -103 -96 22 0
65 51 38 -148 4 0
131 -37 104 118 -149 0
73 -50 56 -1 136 0
-126 35 -98 12 109 0
-127 -146 34 -10 43 0
-39 49 125 -67 87 0
122 -30 117 97 138 0
97 -138 141 -129 17 0
65 51 -38 -148 -4 0
-57 -110 142 -40 -55 0
76 99 -132 123 -85 0
-139 -83 70 88 -42 0
-54 -33 -95 71 7 0
-65 -51 -38 148 4 0
-21 115 48 -14 84 0
-54 -33 -95 -71 -7 0
-11 108 -36 -8 -90 0
126 35 -98 12 -109 0
-31 24 18 -44 80 0
-73 -50 -56 1 -136 0
139 83 -70 -88 -42 0
31 24 -18 44 -80 0
-118 149 -25 94 93 0
119 59 -47 -140 46 0
54 33 95 71 -7 0
-10 -43 -23 39 -49 0
32 -147 143 -106 -82 0
-127 146 34 10 43 0
-148 4 62 -54 33 0
6 116 -53 73 -50 0
123 85 41 32 147 0
68 121 -72 -120 29 0
118 149 25 -94 -93 0
-32 147 143 106 82 0
-148 4 62 54 -33 0
44 -80 -20 65 -51 0
-122 30 -117 -97 138 0
130 144 -89 75 -27 0
-2 -69 101 -122 30 0
-128 74 -81 -126 -35 0
122 30 117 97 -138 0
-123 -85 -41 32 -147 0
12 109 -63 130 -144 0
65 -51 38 -148 -4 0
124 -13 145 -11 108 0
-96 -22 -133 -131 -37 0
11 108 -36 8 -90 0
14 84 77 -105 -16 0
-12 -109 -63 -130 144 0
-40 -55 -52 128 74 0
57 110 -142 40 -55 0
-54 33 95 -71 -7 0
-76 -99 -132 123 -85 0
66 64 111 91 -78 0
-8 -90 19 76 -99 0
129 -17 92 107 -134 0
-12 109 -63 -130 -144 0
-6 116 -53 73 50 0
1 136 -3 139 83 0
-73 50 -56 -1 -136 0
96 -22 -133 -131 37 0
94 -93 -15 57 -110 0
8 90 -19 76 99 0
128 74 -81 -126 35 0
120 -29 5 79 -100 0
114 -28 -61 6 -116 0
-139 83 -70 88 -42 0
126 35 -98 -12 109 0
118 -149 -25 94 93 0
107 -134 -103 96 -22 0
32 147 143 106 -82 0
73 50 -56 -1 136 0
105 -16 -86 68 121 0
-114 -28 -61 6 116 0
107 134 103 96 -22 0
71 -7 -137 102 -9 0
11 -108 -36 8 90 0
-12 -109 63 -130 -144 0
-140 -46 -45 -124 -13 0
32 147 -143 106 82 0
-120 29 -5 -79 -100 0
40 55 -52 128 74 0
-39 49 -125 -67 -87 0
12 -109 63 130 -144 0
129 -17 92 -107 134 0
107 -134 103 96 22 0
-139 83 -70 -88 42 0
31 -24 -18 44 80 0
14 84 -77 -105 16 0
-75 -27 -58 66 64 0
-66 64 -111 91 -78 0
73 -50 56 1 -136 0
-57 110 142 -40 55 0
-130 -144 89 -75 -27 0
71 -7 137 102 9 0
44 80 -20 65 51 0
-1 136 3 -139 -83 0
102 9 135 2 69 0
66 64 -111 -91 -78 0
32 147 143 -106 82 0
21 115 48 14 84 0
-65 51 -38 148 -4 0
-1 -136 3 -139 83 0
-140 46 -45 -124 13 0
57 -110 -142 -40 -55 0
-57 -110 -142 -40 55 0
127 146 -34 10 43 0
-88 -42 -112 -127 -146 0
-97 138 -141 -129 -17 0
-76 -99 132 -123 -85 0
6 116 -53 -73 50 0
140 -46 -45 -124 13 0
73 50 -56 1 -136 0
57 -110 142 40 -55 0
44 -80 -20 -65 51 0
-96 -22 133 131 -37 0
-131 -37 -104 -118 149 0
126 -35 -98 12 109 0
39 49 -125 -67 87 0
97 138 141 129 17 0
128 -74 -81 -126 -35 0
-91 78 -26 21 115 0
1 136 -3 -139 -83 0
10 -43 -23 39 49 0
-128 -74 81 -126 -35 0
-67 -87 -113 31 24 0
-119 59 -47 -140 -46 0
21 115 -48 -14 84 0
-148 4 -62 -54 -33 0
-11 -108 36 -8 -90 0
128 74 81 126 35 0
-71 -7 -137 -102 -9 0
-65 -51 38 148 -4 0
128 -74 81 -126 35 0
127 -146 34 -10 -43 0
119 -59 47 140 -46 0
-107 134 103 -96 -22 0
96 -22 -133 131 -37 0
-73 -50 -56 -1 136 0
126 -35 98 12 -109 0
79 100 -150 119 59 0
32 -147 -143 -106 82 0
40 -55 -52 128 -74 0
124 13 145 11 108 0
-66 -64 111 91 -78 0
106 -82 -60 -114 28 0
-76 99 132 123 -85 0
8 90 19 -76 99 0
79 -100 150 -119 -59 0
14 -84 77 105 -16 0
91 -78 -26 21 115 0
-124 -13 -145 -11 108 0
31 -24 18 -44 80 0
105 -16 -86 -68 -121 0
-118 149 25 -94 93 0
-79 100 -150 119 -59 0
-65 -51 -38 -148 -4 0
-88 42 -112 -127 146 0
-122 -30 -117 -97 -138 0
40 55 52 128 -74 0
-122 30 -117 97 -138 0
-66 -64 -111 -91 -78 0
-1 -136 3 139 -83 0
12 -109 63 -130 144 0
21 -115 48 14 -84 0
127 -146 -34 10 -43 0
118 -149 25 94 -93 0
-123 -85 -41 -32 147 0
-139 83 70 88 42 0
12 109 63 -130 -144 0
106 -82 60 -114 -28 0
79 -100 -150 -119 59 0
123 85 -41 32 -147 0
67 -87 113 -31 -24 0
91 -78 26 21 -115 0
-139 -83 -70 88 42 0
-39 -49 -125 67 -87 0
-71 7 -137 102 -9 0
-79 -100 -150 -119 -59 0
57 -110 142 -40 55 0
-94 -93 -15 -57 -110 0
148 -4 -62 54 33 0
148 4 62 -54 -33 0
120 29 -5 -79 100 0
94 -93 15 57 110 0
68 121 -72 120 -29 0
88 42 112 127 -146 0
-123 85 41 32 -147 0
130 -144 89 -75 27 0
-40 55 -52 -128 74 0
-97 -138 -141 129 -17 0
97 -138 141 129 -17 0
-124 -13 -145 11 -108 0
114 -28 61 6 116 0
-12 109 63 130 -144 0
76 -99 132 -123 85 0
-114 -28 61 -6 116 0
-94 93 -15 -57 110 0
-57 110 -142 40 55 0
-119 -59 47 -140 -46 0
-1 136 3 139 83 0
94 -93 -15 -57 110 0
-106 -82 -60 114 28 0
-32 147 143 -106 -82 0
-130 144 -89 75 27 0
8 -90 19 -76 -99 0
65 -51 38 148 4 0
-31 24 18 44 -80 0
-105 -16 -86 68 -121 0
-12 -109 -63 130 -144 0
139 -83 70 -88 -42 0
2 69 101 122 -30 0
-131 37 -104 118 149 0
118 149 -25 -94 93 0
8 -90 19 76 99 0
66 64 111 -91 78 0
-88 42 -112 127 -146 0
96 22 -133 -131 -37 0
-71 -7 137 102 -9 0
-88 -42 -112 127 146 0
140 -46 45 124 13 0
128 74 -81 126 -35 0
-71 7 137 102 9 0
57 110 142 -40 -55 0
-107 -134 103 96 -22 0
-66 -64 111 -91 78 0
-21 -115 48 14 84 0
39 49 125 67 87 0
6 116 53 73 50 0
91 78 26 21 115 0
79 100 150 -119 59 0
139 -83 70 88 42 0
-119 -59 47 140 46 0
-123 85 41 -32 147 0
67 87 113 31 -24 0
-120 -29 -5 79 -100 0
68 -121 -72 120 29 0
-130 144 89 75 -27 0
-106 82 60 -114 -28 0
75 27 -58 66 64 0
-128 74 81 -126 35 0
67 87 -113 -31 -24 0
-76 99 -132 123 85 0
-126 -35 98 -12 -109 0
140 -46 -45 124 -13 0
2 -69 101 -122 -30 0
97 138 -141 -129 17 0
130 144 -89 -75 27 0
-8 -90 19 -76 99 0
-131 -37 104 118 149 0
97 138 141 -129 -17 0
-120 -29 -5 -79 100 0
-97 138 141 129 -17 0
91 78 -26 21 -115 0
148 -4 62 -54 33 0
68 121 72 -120 -29 0
6 -116 -53 -73 -50 0
21 115 48 -14 -84 0
124 13 -145 11 -108 0
31 -24 -18 -44 -80 0
107 -134 103 -96 -22 0
-11 108 36 -8 90 0
-73 50 -56 1 136 0
-57 -110 -142 40 -55 0
-114 28 61 6 116 0
123 -85 -41 -32 -147 0
-6 116 53 73 -50 0
120 29 5 -79 -100 0
124 13 -145 -11 108 0
127 -146 -34 -10 43 0
-67 87 -113 -31 24 0
-21 115 -48 14 84 0
-6 116 -53 -73 -50 0
130 -144 89 75 -27 0
-124 13 -145 -11 -108 0
-31 -24 -18 -44 80 0
1 136 3 139 -83 0
-88 42 112 127 146 0
-44 -80 -20 65 51 0
131 -37 104 -118 149 0
-127 -146 -34 -10 -43 0
-14 84 -77 105 16 0
-8 90 19 -76 -99 0
-88 -42 112 -127 146 0
-11 108 36 8 -90 0
67 -87 -113 -31 24 0
-40 55 52 128 74 0
14 -84 -77 -105 -16 0
-6 116 53 -73 50 0
-21 115 48 14 -84 0
40 55 52 -128 74 0
