c Type 3: n=1000, t=3, s=2
p cnf 1000 2000
-201 521 -911 0
872 355 887 0
-682 -500 398 0
-303 181 -547 0
-436 -334 -790 0
-965 197 -152 0
185 62 -211 0
713 -540 -368 0
948 -179 420 0
647 669 780 0
206 -686 487 0
211 636 -236 0
862 -141 -551 0
895 -232 -954 0
-328 -225 -340 0
-244 615 962 0
789 -667 -638 0
-655 -731 101 0
414 -570 -51 0
-914 -845 840 0
826 95 -291 0
607 -842 -756 0
796 -988 653 0
-697 -202 -436 0
-633 -78 628 0
-470 -423 17 0
-761 807 -352 0
-409 -820 -37 0
17 364 466 0
921 204 -793 0
-818 458 690 0
352 -259 -875 0
-152 819 -513 0
936 -363 437 0
-5 -301 -822 0
723 463 83 0
579 -805 940 0
-584 -658 546 0
419 -3 701 0
80 -598 724 0
-261 410 -858 0
-258 945 297 0
213 951 -711 0
739 -478 210 0
-497 -165 854 0
953 616 -231 0
611 -781 723 0
-397 -935 119 0
-734 -932 -601 0
817 -446 280 0
546 -496 -531 0
-579 -805 -940 0
-384 -784 -771 0
822 -408 -105 0
-80 -598 -724 0
627 -239 611 0
299 -907 809 0
245 184 774 0
565 749 90 0
188 -441 -880 0
-981 -928 -224 0
858 249 -773 0
-712 -699 -12 0
553 396 596 0
806 -413 621 0
-652 969 -226 0
136 347 -830 0
-885 -282 527 0
-5 301 822 0
336 -139 -38 0
628 626 -24 0
748 -341 -530 0
773 337 -593 0
-999 -20 -285 0
942 296 459 0
192 -342 -748 0
-948 179 420 0
-893 238 767 0
-865 -927 997 0
365 924 -944 0
-971 557 270 0
-518 859 195 0
280 -50 76 0
375 604 758 0
-490 314 428 0
566 -868 -635 0
520 82 -559 0
698 891 -333 0
353 348 -836 0
-833 -293 -453 0
836 -1 -802 0
-498 -266 956 0
529 -752 -633 0
649 961 841 0
-90 -745 -438 0
788 994 -88 0
-428 -73 439 0
863 187 409 0
-723 -463 83 0
847 150 -729 0
-798 -831 221 0
-841 -196 792 0
-954 803 735 0
440 -124 461 0
509 330 941 0
-755 -168 657 0
677 81 -985 0
885 -282 -527 0
-545 -52 913 0
782 -900 275 0
-465 373 -816 0
36 -174 -688 0
31 382 664 0
-151 -844 365 0
-456 319 789 0
105 -4 -980 0
37 -35 -482 0
237 -888 -462 0
-612 -43 697 0
701 883 794 0
-349 -569 432 0
-245 -184 774 0
-712 699 12 0
91 -645 646 0
48 176 -68 0
-825 -950 166 0
-756 970 -666 0
780 407 -920 0
798 -831 -221 0
-880 -208 -185 0
247 -362 912 0
773 -337 593 0
851 744 886 0
-411 374 -743 0
535 -248 6 0
-532 931 470 0
980 849 -682 0
887 346 -509 0
175 -586 -258 0
906 205 -894 0
479 759 898 0
501 -651 -371 0
19 -452 309 0
389 493 303 0
388 -39 -827 0
-697 202 436 0
530 989 418 0
878 -491 -200 0
936 363 -437 0
-503 -810 298 0
-864 -125 -977 0
-863 -187 409 0
-647 669 -780 0
679 -430 112 0
269 -991 909 0
769 -890 -872 0
-771 283 -435 0
723 -463 -83 0
368 -594 156 0
-479 -759 898 0
578 -709 675 0
-468 -966 -263 0
-901 -111 608 0
-213 951 711 0
92 412 726 0
-543 -100 -775 0
-298 959 -975 0
211 -636 236 0
-640 -405 503 0
-677 -81 -985 0
5 301 -822 0
409 -820 37 0
353 -348 836 0
912 79 -154 0
437 824 361 0
358 716 -148 0
-466 727 768 0
-780 -407 -920 0
-577 -903 253 0
-156 -137 -764 0
151 844 365 0
764 556 -505 0
-285 -915 -871 0
545 52 913 0
-663 -933 -262 0
427 -42 -19 0
-418 835 172 0
579 805 -940 0
-102 670 870 0
-333 -947 -206 0
-370 -41 620 0
-587 -157 739 0
-858 -249 -773 0
804 860 -379 0
508 707 641 0
-535 -248 -6 0
869 89 976 0
823 -714 978 0
110 -558 -40 0
-432 -967 -786 0
-627 239 611 0
-821 -421 -795 0
450 313 -736 0
-487 -960 511 0
940 -814 -695 0
-291 -287 798 0
-504 763 -971 0
444 464 852 0
878 491 200 0
-575 -537 302 0
241 96 30 0
360 -320 173 0
-278 -356 -29 0
-532 -931 -470 0
524 290 613 0
-148 251 919 0
-997 -704 93 0
809 305 127 0
-59 186 -495 0
-595 -740 -999 0
93 -905 881 0
170 492 -32 0
169 -304 -354 0
509 -330 -941 0
-299 -907 -809 0
-911 982 -508 0
-365 924 944 0
-323 -321 -367 0
-770 797 972 0
390 113 -175 0
-366 -257 -479 0
-470 423 -17 0
663 933 -262 0
279 177 -863 0
963 158 -561 0
506 473 -953 0
-554 510 806 0
280 50 -76 0
-608 -84 336 0
794 -582 -575 0
-200 10 990 0
679 430 -112 0
115 -431 -315 0
-509 330 -941 0
-220 395 427 0
154 480 122 0
-711 -70 -553 0
-971 -557 -270 0
-929 623 545 0
-119 -746 678 0
-846 -467 -865 0
-706 215 -578 0
76 762 -535 0
58 189 -384 0
-253 668 974 0
-268 737 326 0
432 -967 786 0
-628 -626 -24 0
163 -475 -110 0
920 -526 833 0
653 222 -401 0
-812 71 -755 0
418 -835 172 0
-798 831 -221 0
-944 -837 -397 0
-723 463 -83 0
909 288 433 0
383 -460 -512 0
-566 -868 635 0
416 -55 45 0
-581 -99 338 0
128 676 120 0
-641 828 182 0
-269 -991 -909 0
-776 -472 -791 0
297 -295 -566 0
-33 934 -741 0
-543 100 775 0
-163 475 -110 0
468 966 -263 0
-649 961 -841 0
103 476 201 0
729 -108 -163 0
710 843 -550 0
654 -696 -77 0
494 -155 921 0
-118 -583 -292 0
-112 -9 -691 0
-726 271 -804 0
547 -815 -376 0
643 687 539 0
711 -70 553 0
-416 55 45 0
871 -717 -192 0
867 11 864 0
48 -176 68 0
-226 -322 554 0
-106 183 609 0
910 765 -419 0
635 8 339 0
323 -321 367 0
58 -189 384 0
163 475 110 0
-357 -107 53 0
-384 784 771 0
-85 -434 -710 0
690 312 -929 0
-847 150 729 0
116 811 -605 0
-240 -403 -279 0
786 630 948 0
299 907 -809 0
-289 451 629 0
-371 693 -59 0
495 -541 -987 0
855 -160 241 0
-735 555 381 0
367 109 -747 0
331 -671 14 0
-906 -205 -894 0
-972 -329 -813 0
817 446 -280 0
-804 -860 -379 0
-617 -861 952 0
-754 882 442 0
172 -474 118 0
-806 413 621 0
666 207 -585 0
384 -784 771 0
302 -64 220 0
-195 -661 145 0
-600 -779 627 0
734 932 -601 0
-734 932 601 0
638 -684 589 0
169 304 354 0
513 -738 -787 0
974 -129 103 0
420 -443 -595 0
613 -369 963 0
-377 -422 -299 0
-627 -239 -611 0
-881 -576 65 0
-782 -900 -275 0
-677 81 985 0
610 834 345 0
-581 99 -338 0
101 639 -404 0
-93 -905 -881 0
984 94 450 0
-486 -625 981 0
-887 346 509 0
267 720 31 0
224 392 229 0
221 742 151 0
801 -146 370 0
-948 -179 -420 0
-621 -209 -235 0
-795 -591 -117 0
760 590 -939 0
-873 930 -640 0
612 -43 -697 0
747 -673 -573 0
-634 -402 643 0
886 -902 465 0
420 443 595 0
361 -243 -325 0
532 -931 470 0
758 -926 -772 0
-949 69 655 0
151 -844 -365 0
398 572 -256 0
357 107 53 0
793 -683 910 0
-817 446 280 0
-964 -884 -388 0
-148 -251 -919 0
646 -485 240 0
-680 -517 -247 0
77 218 274 0
298 959 975 0
511 489 518 0
-827 61 -817 0
-876 874 -906 0
-756 -970 666 0
-607 842 -756 0
-736 -72 712 0
-674 132 -634 0
-870 -216 -754 0
121 -648 -674 0
440 124 -461 0
533 343 213 0
191 986 102 0
101 -639 404 0
250 -194 770 0
-747 -673 573 0
59 186 495 0
115 431 315 0
-331 -671 -14 0
-560 -829 -832 0
-498 266 -956 0
513 738 787 0
832 725 -300 0
482 -219 357 0
-729 -108 163 0
798 831 221 0
-525 134 48 0
854 730 351 0
59 -186 -495 0
675 199 -97 0
-365 -924 -944 0
36 174 688 0
-789 667 -638 0
655 -731 -101 0
719 753 -104 0
788 -994 88 0
131 -233 -823 0
-758 926 -772 0
-354 415 942 0
796 988 -653 0
-804 860 379 0
156 137 -764 0
-262 144 -106 0
285 -915 871 0
-906 205 894 0
-213 -951 -711 0
919 751 998 0
328 225 -340 0
876 -874 -906 0
85 434 -710 0
-511 489 -518 0
-360 -320 -173 0
-662 -255 501 0
465 373 816 0
525 -134 48 0
-773 -337 -593 0
682 500 398 0
813 -856 -85 0
974 129 -103 0
-635 -8 339 0
941 260 -481 0
-127 -946 -542 0
-801 -146 -370 0
-544 114 873 0
724 449 -308 0
652 969 226 0
-613 -369 -963 0
85 -434 710 0
-212 979 -456 0
897 -523 -801 0
-76 -762 -535 0
942 -296 -459 0
-975 87 -761 0
-770 -797 -972 0
-192 342 -748 0
53 622 -644 0
774 311 -584 0
-719 -753 -104 0
-442 49 -672 0
29 -728 -681 0
-136 -347 -830 0
-783 316 -524 0
-729 108 -163 0
-519 -516 -504 0
944 837 -397 0
131 233 823 0
-878 491 -200 0
-37 35 -482 0
559 -391 244 0
-596 993 -375 0
-457 -757 506 0
397 -935 -119 0
-911 -982 508 0
-450 -313 -736 0
-278 356 29 0
270 -167 984 0
331 671 -14 0
-821 421 795 0
688 -254 -15 0
292 -721 -416 0
-326 564 -885 0
-206 686 487 0
-571 -665 -698 0
-601 1000 -855 0
764 -556 505 0
-553 -396 596 0
284 -393 -317 0
-573 327 680 0
629 -13 -838 0
697 202 -436 0
-711 70 553 0
328 -225 340 0
920 526 -833 0
366 257 -479 0
-858 249 773 0
-420 443 -595 0
894 -548 457 0
267 -720 -31 0
688 254 15 0
258 945 -297 0
957 159 -624 0
-6 808 617 0
-504 -763 971 0
952 -484 965 0
-949 -69 -655 0
5 -301 822 0
-827 -61 817 0
-166 133 -358 0
897 523 801 0
-351 522 5 0
562 943 660 0
336 139 38 0
-854 730 -351 0
997 -704 -93 0
384 784 -771 0
221 -742 -151 0
-792 -22 -812 0
666 -207 585 0
-535 248 6 0
-613 369 963 0
437 -824 -361 0
978 164 -115 0
-482 219 357 0
-587 157 -739 0
-956 597 862 0
984 -94 -450 0
770 -797 972 0
-794 -582 575 0
358 -716 148 0
345 637 -916 0
-45 -18 323 0
957 -159 624 0
-871 717 -192 0
68 -889 -579 0
242 -483 914 0
-335 995 847 0
-571 665 698 0
-689 937 -897 0
278 356 -29 0
-518 -859 -195 0
-120 800 25 0
-836 -1 802 0
-574 -896 -529 0
-115 -431 315 0
117 -606 -386 0
352 259 875 0
-875 -777 136 0
481 372 36 0
-289 -451 -629 0
-511 -489 518 0
-957 -159 -624 0
274 -214 -642 0
226 -322 -554 0
261 -410 -858 0
-531 -853 654 0
611 781 -723 0
822 408 105 0
376 230 -904 0
561 700 -895 0
584 -658 -546 0
-242 483 914 0
-772 -938 310 0
354 415 -942 0
479 -759 -898 0
-610 834 -345 0
-315 359 -783 0
-51 -246 57 0
-438 281 -278 0
706 215 578 0
-366 257 479 0
470 -423 -17 0
552 -528 -893 0
678 -908 734 0
785 588 -713 0
585 538 -525 0
302 64 -220 0
-469 -344 -272 0
532 931 -470 0
-818 -458 -690 0
258 -945 297 0
-349 569 -432 0
790 74 499 0
664 54 121 0
681 -2 -328 0
-336 -139 38 0
695 -445 587 0
-102 -670 -870 0
-952 484 965 0
-92 -412 726 0
-589 983 -250 0
279 -177 863 0
97 -766 679 0
954 -803 735 0
972 -329 813 0
-996 -631 -825 0
462 -614 -901 0
121 648 674 0
-439 394 610 0
442 49 672 0
-975 -87 761 0
-755 168 -657 0
678 908 -734 0
-280 -50 -76 0
-863 187 -409 0
-560 829 832 0
621 209 -235 0
-105 -4 980 0
887 -346 509 0
-894 -548 -457 0
-117 606 -386 0
-352 259 -875 0
-561 -700 -895 0
145 471 -689 0
613 369 -963 0
486 -625 -981 0
795 591 -117 0
-376 -230 -904 0
621 -209 235 0
780 -407 920 0
-386 -149 -245 0
632 567 -692 0
-513 738 -787 0
-381 703 662 0
761 807 352 0
-691 -350 33 0
573 -327 680 0
864 125 -977 0
-506 473 953 0
261 410 858 0
-646 -485 -240 0
657 -123 494 0
65 602 750 0
711 70 -553 0
-981 928 224 0
701 -883 -794 0
285 915 -871 0
371 693 59 0
-267 720 -31 0
381 -703 662 0
914 -845 -840 0
977 -592 -632 0
419 3 -701 0
-761 -807 352 0
284 393 317 0
-529 -752 633 0
543 -100 775 0
-127 946 542 0
-32 -454 -212 0
188 441 880 0
25 514 -191 0
865 -927 -997 0
-866 502 957 0
-585 -538 -525 0
867 -11 -864 0
-381 -703 -662 0
-231 -968 390 0
-785 -588 -713 0
508 -707 -641 0
976 694 -353 0
-93 905 881 0
-662 255 -501 0
93 905 -881 0
104 918 389 0
241 -96 -30 0
531 853 654 0
122 307 131 0
297 295 566 0
971 -557 270 0
836 1 802 0
-499 26 -58 0
-596 -993 375 0
-495 -541 987 0
893 -238 767 0
-832 -725 -300 0
504 763 971 0
-398 -572 -256 0
-792 22 812 0
-297 -295 566 0
956 -597 862 0
-796 988 653 0
57 -973 -469 0
-291 287 -798 0
-698 -891 -333 0
399 153 -552 0
256 -16 -468 0
37 35 482 0
-600 779 -627 0
571 665 -698 0
462 614 901 0
-252 180 656 0
-21 277 -498 0
-533 -343 213 0
559 391 -244 0
292 721 416 0
-987 380 -237 0
789 667 638 0
154 -480 -122 0
847 -150 729 0
490 -314 428 0
600 -779 -627 0
-795 591 117 0
-767 -385 -677 0
-530 -989 418 0
376 -230 904 0
-940 814 -695 0
-77 218 -274 0
-383 -460 512 0
-656 799 486 0
511 -489 -518 0
-869 -89 976 0
461 -925 -663 0
21 277 498 0
-512 400 949 0
-401 -23 -178 0
178 718 706 0
595 740 -999 0
-323 321 367 0
-748 341 -530 0
876 874 906 0
656 799 -486 0
-657 -123 -494 0
750 286 92 0
-726 -271 804 0
-840 599 -732 0
813 856 85 0
-771 -283 435 0
-272 63 876 0
386 -149 245 0
268 -737 326 0
525 134 -48 0
851 -744 -886 0
200 10 -990 0
487 -960 -511 0
220 395 -427 0
-609 217 565 0
634 402 643 0
448 955 776 0
247 362 -912 0
627 239 -611 0
833 293 -453 0
-866 -502 -957 0
706 -215 -578 0
-253 -668 -974 0
-310 406 867 0
-620 -447 -649 0
-450 313 736 0
503 810 298 0
-653 222 401 0
497 165 854 0
-237 -888 462 0
965 197 152 0
201 521 911 0
-126 -135 448 0
-940 -814 695 0
535 248 -6 0
755 168 657 0
-308 -429 444 0
172 474 -118 0
929 623 -545 0
-235 -778 128 0
-793 683 910 0
469 344 -272 0
262 -144 -106 0
-691 350 -33 0
486 625 981 0
980 -849 682 0
349 -569 -432 0
977 592 632 0
435 324 -261 0
913 46 -936 0
-284 -393 317 0
830 425 -600 0
638 684 -589 0
12 265 543 0
916 -130 -414 0
105 4 980 0
741 917 331 0
-495 541 -987 0
14 -650 -571 0
300 -603 -91 0
981 928 -224 0
-247 362 912 0
939 7 289 0
608 84 336 0
-545 52 -913 0
-895 232 -954 0
656 -799 486 0
236 733 267 0
-25 514 191 0
-461 925 -663 0
895 232 954 0
-339 -294 533 0
-151 844 -365 0
-300 -603 91 0
-428 73 -439 0
-270 167 984 0
633 -78 -628 0
804 -860 379 0
-527 568 -866 0
862 141 551 0
-462 614 -901 0
136 -347 830 0
-539 162 -544 0
-774 311 584 0
855 160 -241 0
953 -616 231 0
-760 590 939 0
-830 425 600 0
387 -66 846 0
-116 811 605 0
190 -203 -607 0
-897 523 -801 0
262 144 106 0
-638 684 589 0
-85 434 710 0
90 -745 438 0
795 -591 117 0
-701 -883 794 0
530 -989 -418 0
712 699 -12 0
-768 -264 -169 0
-710 -843 -550 0
898 -426 519 0
-851 -744 886 0
833 -293 453 0
-999 20 285 0
507 -580 -958 0
-505 892 -377 0
-409 820 37 0
388 39 827 0
-469 344 272 0
325 -147 -785 0
-169 304 -354 0
-275 -536 -869 0
-106 -183 -609 0
-17 364 -466 0
782 900 -275 0
-279 177 863 0
227 -223 -387 0
-227 -223 387 0
-579 805 940 0
825 950 166 0
-131 233 -823 0
881 -576 -65 0
-609 -217 -565 0
617 861 952 0
754 -882 442 0
175 586 258 0
939 -7 -289 0
-607 -842 756 0
-865 927 -997 0
-339 294 -533 0
-782 900 275 0
-852 306 366 0
755 -168 -657 0
-920 526 833 0
520 -82 559 0
-280 50 76 0
-97 -766 -679 0
-19 -452 -309 0
-224 392 -229 0
-368 594 156 0
-29 728 -681 0
-920 -526 -833 0
-40 -879 652 0
30 -708 188 0
821 421 -795 0
213 -951 711 0
303 -181 -547 0
-760 -590 -939 0
756 -970 -666 0
560 829 -832 0
-91 645 646 0
747 673 573 0
-552 -528 893 0
550 715 -190 0
996 -631 825 0
-620 447 649 0
633 78 628 0
-695 -445 -587 0
518 859 -195 0
401 -23 178 0
544 -114 873 0
-459 67 -647 0
-442 -49 672 0
997 704 93 0
-247 -362 -912 0
772 -938 -310 0
-748 -341 530 0
-340 -86 562 0
-117 -606 386 0
529 752 633 0
791 -922 507 0
-942 296 -459 0
-418 -835 -172 0
531 -853 -654 0
-263 -899 411 0
830 -425 600 0
-796 -988 -653 0
335 -995 847 0
-188 -441 880 0
15 -850 -126 0
-550 -715 -190 0
578 709 -675 0
250 194 -770 0
698 -891 333 0
-235 778 -128 0
-390 -113 -175 0
-562 -943 660 0
326 -564 -885 0
-913 46 936 0
119 746 678 0
-634 402 -643 0
-397 935 -119 0
-292 721 -416 0
360 320 -173 0
-990 60 349 0
662 255 501 0
-31 382 -664 0
453 -848 577 0
886 902 -465 0
-128 -676 120 0
506 -473 953 0
952 484 -965 0
875 777 136 0
-566 868 -635 0
-237 888 -462 0
-895 -232 954 0
664 -54 -121 0
-894 548 457 0
512 -400 949 0
-939 -7 289 0
-110 -558 40 0
253 668 -974 0
790 -74 -499 0
229 455 722 0
-584 658 -546 0
-962 -171 252 0
971 557 -270 0
-632 -567 -692 0
-675 199 97 0
776 472 -791 0
712 -699 12 0
-387 -66 -846 0
990 -60 349 0
370 -41 -620 0
-274 214 -642 0
739 478 -210 0
231 968 390 0
533 -343 -213 0
399 -153 552 0
24 273 -719 0
-190 -203 607 0
490 314 -428 0
732 -143 440 0
-98 923 -760 0
-227 223 -387 0
826 -95 291 0
-520 82 559 0
263 -899 -411 0
-499 -26 58 0
-367 109 747 0
-358 716 148 0
226 322 554 0
97 766 -679 0
38 -140 -360 0
546 496 531 0
-655 731 -101 0
-317 -618 -335 0
-76 762 535 0
-681 -2 328 0
-229 455 -722 0
182 -47 -826 0
201 -521 -911 0
-646 485 240 0
-826 -95 -291 0
949 -69 655 0
-855 160 241 0
354 -415 942 0
-788 994 88 0
-172 -474 -118 0
-118 583 292 0
-92 412 -726 0
333 947 -206 0
127 946 -542 0
-119 746 -678 0
325 147 785 0
45 18 323 0
519 -516 504 0
-112 9 691 0
-806 -413 -621 0
-840 -599 732 0
-565 749 -90 0
389 -493 -303 0
792 -22 812 0
-764 -556 -505 0
-303 -181 547 0
-438 -281 278 0
-612 43 -697 0
-487 960 -511 0
898 426 -519 0
-552 528 -893 0
-998 -378 -549 0
-976 694 353 0
981 -928 224 0
818 -458 690 0
173 702 -532 0
-801 146 370 0
674 132 634 0
-388 39 -827 0
866 502 -957 0
-201 -521 911 0
30 708 -188 0
-191 -986 102 0
498 266 956 0
-453 -848 -577 0
-57 -973 469 0
-524 290 -613 0
-448 955 -776 0
-494 -155 -921 0
367 -109 747 0
-17 -364 466 0
152 819 513 0
539 -162 -544 0
-656 -799 -486 0
875 -777 -136 0
-398 572 256 0
210 27 -383 0
608 -84 -336 0
-105 4 -980 0
719 -753 104 0
-136 347 830 0
166 133 358 0
470 423 17 0
-724 -449 -308 0
553 -396 -596 0
629 13 838 0
-980 -849 -682 0
466 -727 768 0
-802 56 -560 0
672 -534 -612 0
366 -257 479 0
-785 588 713 0
-520 -82 -559 0
544 114 -873 0
119 -746 -678 0
-743 -619 -170 0
-876 -874 906 0
985 685 -964 0
505 -892 -377 0
38 140 360 0
-809 305 -127 0
577 903 253 0
998 -378 549 0
768 -264 169 0
-629 13 -838 0
357 -107 -53 0
-297 295 -566 0
-977 592 -632 0
954 803 -735 0
-131 -233 823 0
-652 -969 226 0
428 -73 -439 0
643 -687 -539 0
-722 877 574 0
871 717 192 0
127 -946 542 0
349 569 432 0
649 -961 -841 0
-389 -493 303 0
-701 883 -794 0
499 -26 -58 0
-325 147 -785 0
-642 488 581 0
-855 -160 -241 0
866 -502 957 0
527 -568 -866 0
-847 -150 -729 0
76 -762 535 0
256 16 468 0
542 -75 -284 0
647 -669 -780 0
642 488 -581 0
152 -819 -513 0
-361 243 -325 0
-941 260 481 0
427 42 19 0
-152 -819 513 0
466 727 -768 0
-919 751 -998 0
549 -138 -788 0
-692 705 -659 0
-285 915 871 0
585 -538 525 0
-559 -391 -244 0
-367 -109 -747 0
-910 -765 -419 0
178 -718 -706 0
-869 89 -976 0
-77 -218 274 0
972 329 -813 0
-680 517 247 0
550 -715 190 0
-436 334 790 0
-872 355 -887 0
-508 707 -641 0
-411 -374 743 0
609 217 -565 0
-659 228 851 0
-679 -430 -112 0
-647 -669 780 0
365 -924 944 0
-997 704 -93 0
465 -373 -816 0
-980 849 682 0
680 517 -247 0
-841 196 -792 0
743 -619 170 0
767 385 -677 0
-241 -96 30 0
487 960 511 0
-736 72 -712 0
-653 -222 -401 0
-641 -828 -182 0
596 -993 -375 0
229 -455 -722 0
-12 265 -543 0
-178 -718 706 0
-690 -312 -929 0
-432 967 786 0
-985 685 964 0
-6 -808 -617 0
-780 407 920 0
-531 853 -654 0
-116 -811 -605 0
761 -807 -352 0
-822 -408 105 0
628 -626 24 0
-987 -380 237 0
-527 -568 866 0
-826 95 291 0
390 -113 175 0
624 193 996 0
996 631 -825 0
-524 -290 613 0
-175 -586 258 0
-221 742 -151 0
958 142 242 0
-256 -16 468 0
-170 -492 -32 0
291 -287 -798 0
825 -950 -166 0
-459 -67 647 0
-809 -305 127 0
166 -133 -358 0
-195 661 -145 0
-562 943 -660 0
192 342 748 0
-97 766 679 0
-58 189 384 0
-325 -147 785 0
-546 496 -531 0
345 -637 916 0
-440 124 461 0
-929 -623 -545 0
617 -861 -952 0
404 477 490 0
-65 -602 750 0
32 -454 212 0
-173 -702 -532 0
-909 288 -433 0
-262 -144 106 0
-507 580 -958 0
31 -382 -664 0
-735 -555 -381 0
-221 -742 151 0
-448 -955 776 0
771 283 435 0
-358 -716 -148 0
252 180 -656 0
863 -187 -409 0
-353 -348 -836 0
227 223 387 0
-854 -730 351 0
-269 991 909 0
-390 113 175 0
607 842 756 0
-21 -277 498 0
-816 234 98 0
-386 149 245 0
128 -676 -120 0
-873 -930 640 0
-481 372 -36 0
-170 492 32 0
-885 282 -527 0
-643 687 -539 0
-635 8 -339 0
-589 -983 250 0
-231 968 -390 0
291 287 798 0
-577 903 -253 0
104 -918 -389 0
6 -808 617 0
893 238 -767 0
-338 44 -782 0
-115 431 -315 0
872 -355 -887 0
-611 -781 -723 0
741 -917 -331 0
870 216 -754 0
-909 -288 433 0
-878 -491 200 0
326 564 885 0
-241 96 -30 0
-719 753 104 0
-681 2 -328 0
539 162 544 0
253 -668 974 0
-551 -417 520 0
-786 -630 948 0
-210 27 383 0
793 683 -910 0
873 930 640 0
459 -67 -647 0
-972 329 813 0
-654 696 -77 0
990 60 -349 0
-497 165 -854 0
881 576 65 0
-962 171 -252 0
894 548 -457 0
-12 -265 543 0
565 -749 -90 0
-388 -39 827 0
-830 -425 -600 0
-529 752 -633 0
411 -374 -743 0
-236 -733 267 0
-53 622 644 0
527 568 866 0
-638 -684 -589 0
-29 -728 681 0
461 925 663 0
-88 -563 -116 0
-654 -696 77 0
-768 264 169 0
654 696 77 0
-182 47 -826 0
605 -276 -818 0
51 246 57 0
-38 -140 360 0
379 -198 821 0
-546 -496 531 0
308 -429 -444 0
-508 -707 641 0
-80 598 724 0
-352 -259 875 0
450 -313 736 0
726 -271 -804 0
697 -202 436 0
-897 -523 801 0
401 23 -178 0
14 650 571 0
497 -165 -854 0
612 43 697 0
653 -222 401 0
-963 158 561 0
689 937 897 0
-549 138 -788 0
663 -933 262 0
-672 534 -612 0
182 47 826 0
212 -979 -456 0
999 -20 285 0
-206 -686 -487 0
561 -700 895 0
-871 -717 192 0
499 26 58 0
-678 -908 -734 0
-732 143 440 0
-258 -945 -297 0
457 -757 -506 0
126 -135 -448 0
-30 708 188 0
-101 -639 -404 0
-775 857 -268 0
-501 -651 371 0
-19 452 309 0
690 -312 929 0
-660 34 -21 0
102 -670 870 0
880 -208 185 0
-916 -130 414 0
231 -968 -390 0
-823 -714 -978 0
-68 889 -579 0
964 -884 388 0
-267 -720 31 0
-767 385 677 0
235 -778 -128 0
750 -286 -92 0
444 -464 -852 0
-192 -342 748 0
-916 130 -414 0
554 510 -806 0
126 135 448 0
-747 673 -573 0
-605 -276 818 0
90 745 -438 0
-101 639 404 0
695 445 -587 0
456 -319 789 0
929 -623 545 0
-335 -995 -847 0
-867 11 -864 0
-976 -694 -353 0
726 271 804 0
-494 155 921 0
112 9 -691 0
-375 -604 758 0
289 451 -629 0
-154 480 -122 0
-252 -180 -656 0
958 -142 -242 0
-674 -132 634 0
-904 -992 269 0
-990 -60 -349 0
-292 -721 416 0
-825 950 -166 0
775 -857 -268 0
92 -412 -726 0
-644 424 878 0
941 -260 481 0
736 -72 -712 0
713 540 368 0
-706 -215 578 0
-985 -685 -964 0
173 -702 532 0
-14 650 -571 0
-672 -534 612 0
965 -197 -152 0
25 -514 191 0
-122 -307 131 0
519 516 -504 0
-310 -406 -867 0
51 -246 -57 0
-984 94 -450 0
469 -344 272 0
-956 -597 -862 0
-433 -332 -497 0
601 -1000 -855 0
120 -800 25 0
397 935 119 0
-169 -304 354 0
409 820 -37 0
-302 -64 -220 0
-769 890 -872 0
436 334 -790 0
-633 78 -628 0
-36 174 -688 0
818 458 -690 0
298 -959 -975 0
659 -228 851 0
-813 856 -85 0
-621 209 235 0
-315 -359 783 0
433 332 -497 0
-24 273 719 0
-525 -134 -48 0
-851 744 -886 0
840 599 732 0
-270 -167 -984 0
-585 538 525 0
386 149 -245 0
-212 -979 456 0
-775 -857 268 0
459 67 647 0
573 327 -680 0
-40 879 -652 0
17 -364 -466 0
-952 -484 -965 0
416 55 -45 0
641 828 -182 0
-812 -71 755 0
323 321 -367 0
-166 -133 358 0
963 -158 561 0
106 -183 609 0
545 -52 -913 0
722 -877 574 0
-904 992 -269 0
-507 -580 958 0
120 800 -25 0
-505 -892 377 0
806 413 -621 0
975 -87 -761 0
-224 -392 229 0
-200 -10 -990 0
263 899 411 0
236 -733 -267 0
21 -277 -498 0
978 -164 115 0
195 -661 -145 0
-154 -480 122 0
901 111 608 0
-864 125 977 0
-103 -476 201 0
340 86 562 0
770 797 -972 0
-25 -514 -191 0
65 -602 -750 0
481 -372 -36 0
504 -763 -971 0
816 234 -98 0
-862 -141 551 0
-958 142 -242 0
841 -196 -792 0
574 -896 529 0
-632 567 692 0
722 877 -574 0
675 -199 97 0
644 424 -878 0
-539 -162 544 0
660 -34 -21 0
-226 322 -554 0
524 -290 -613 0
-513 -738 787 0
-354 -415 -942 0
-353 348 836 0
-275 536 869 0
-416 -55 -45 0
-387 66 846 0
692 705 659 0
620 447 -649 0
-24 -273 -719 0
98 -923 -760 0
-886 902 465 0
-404 477 -490 0
783 -316 -524 0
841 196 792 0
303 181 547 0
-229 -455 722 0
-279 -177 -863 0
-420 -443 595 0
-608 84 -336 0
574 896 -529 0
-561 700 895 0
-791 -922 -507 0
-551 417 -520 0
-236 733 -267 0
-437 -824 361 0
838 161 -399 0
640 405 503 0
-695 445 587 0
-644 -424 -878 0
-263 899 -411 0
864 -125 977 0
-939 7 -289 0
-121 -648 674 0
601 1000 855 0
754 882 -442 0
88 -563 116 0
122 -307 -131 0
-776 472 791 0
962 -171 -252 0
-769 -890 872 0
315 359 783 0
-689 -937 897 0
-963 -158 -561 0
453 848 -577 0
575 537 302 0
-817 -446 -280 0
-816 -234 -98 0
593 515 769 0
200 -10 990 0
672 534 612 0
439 -394 610 0
-593 -515 769 0
852 306 -366 0
-466 -727 -768 0
794 582 575 0
682 -500 -398 0
-414 570 -51 0
505 892 377 0
381 703 -662 0
542 75 284 0
858 -249 773 0
338 -44 -782 0
-317 618 335 0
-110 558 -40 0
-509 -330 941 0
641 -828 182 0
-786 630 -948 0
624 -193 -996 0
-419 3 701 0
457 757 506 0
-250 -194 -770 0
-351 -522 -5 0
-361 -243 325 0
308 429 444 0
-657 123 494 0
68 889 579 0
272 -63 876 0
-465 -373 816 0
787 -318 796 0
24 -273 719 0
-368 -594 -156 0
662 -255 -501 0
921 -204 793 0
106 183 -609 0
333 -947 206 0
-333 947 206 0
361 243 325 0
-98 -923 760 0
680 -517 247 0
448 -955 -776 0
-435 324 261 0
418 835 -172 0
83 28 -80 0
-942 -296 459 0
-175 586 -258 0
-574 896 529 0
240 -403 279 0
278 -356 29 0
600 779 627 0
748 341 530 0
-914 845 -840 0
235 778 128 0
275 536 -869 0
-48 -176 -68 0
387 66 -846 0
317 618 -335 0
-690 312 929 0
-660 -34 21 0
268 737 -326 0
-977 -592 632 0
-486 625 -981 0
-628 626 24 0
827 -61 -817 0
-88 563 116 0
12 -265 -543 0
-414 -570 51 0
785 -588 713 0
351 -522 5 0
339 294 533 0
605 276 818 0
987 380 237 0
-919 -751 998 0
-544 -114 -873 0
-145 471 689 0
767 -385 677 0
-437 824 -361 0
310 406 -867 0
885 282 527 0
110 558 40 0
98 923 760 0
657 123 -494 0
812 71 755 0
-268 -737 -326 0
-379 -198 -821 0
-822 408 -105 0
543 100 -775 0
112 -9 691 0
998 378 -549 0
-958 -142 242 0
956 597 -862 0
-624 -193 996 0
-793 -683 -910 0
436 -334 790 0
547 815 376 0
371 -693 -59 0
-833 293 453 0
-663 933 262 0
913 -46 936 0
-910 765 419 0
435 -324 261 0
802 56 560 0
-601 -1000 855 0
315 -359 -783 0
768 264 -169 0
501 651 371 0
987 -380 -237 0
270 167 -984 0
310 -406 867 0
-710 843 550 0
760 -590 939 0
736 72 712 0
-921 -204 -793 0
587 -157 -739 0
985 -685 964 0
783 316 524 0
581 -99 -338 0
869 -89 -976 0
-274 -214 642 0
145 -471 689 0
-921 204 793 0
677 -81 985 0
29 728 681 0
-482 -219 -357 0
-256 16 -468 0
801 146 -370 0
118 -583 292 0
498 -266 -956 0
-401 23 178 0
620 -447 649 0
-15 -850 126 0
846 467 -865 0
-419 -3 -701 0
414 570 51 0
19 452 -309 0
-593 515 -769 0
660 34 21 0
-547 815 -376 0
634 -402 -643 0
340 -86 -562 0
838 -161 399 0
587 157 739 0
-773 337 593 0
-790 74 -499 0
909 -288 -433 0
-978 -164 -115 0
-220 -395 -427 0
-173 702 532 0
554 -510 806 0
-261 -410 858 0
-375 604 -758 0
-758 -926 772 0
-376 230 904 0
-383 460 -512 0
438 281 278 0
948 179 -420 0
-832 725 300 0
32 454 -212 0
635 -8 -339 0
-774 -311 -584 0
571 -665 698 0
-15 850 -126 0
-389 493 -303 0
-240 403 279 0
-643 -687 539 0
191 -986 -102 0
375 -604 -758 0
-479 759 -898 0
772 938 310 0
220 -395 427 0
640 -405 -503 0
40 -879 -652 0
642 -488 581 0
787 318 -796 0
999 20 -285 0
-953 -616 -231 0
827 61 817 0
-688 -254 15 0
-875 777 -136 0
-506 -473 -953 0
-964 884 388 0
224 -392 -229 0
-250 194 770 0
-302 64 220 0
-83 -28 -80 0
-328 225 340 0
652 -969 -226 0
-126 135 -448 0
377 422 -299 0
802 -56 -560 0
-791 922 507 0
-340 86 -562 0
-404 -477 490 0
432 967 -786 0
880 208 -185 0
495 541 987 0
-553 396 -596 0
195 661 145 0
-794 582 -575 0
-284 393 -317 0
-996 631 825 0
-610 -834 345 0
272 63 -876 0
-611 781 723 0
-688 254 -15 0
-309 -839 -227 0
-31 -382 664 0
-185 -62 -211 0
735 555 -381 0
80 598 -724 0
-33 -934 741 0
309 839 -227 0
-370 41 -620 0
-210 -27 -383 0
368 594 -156 0
-145 -471 -689 0
674 -132 -634 0
-435 -324 -261 0
-578 709 675 0
-547 -815 376 0
-360 320 173 0
-783 -316 524 0
816 -234 98 0
244 615 -962 0
-530 989 -418 0
252 -180 656 0
-787 318 796 0
-898 426 519 0
-433 332 497 0
33 -934 -741 0
-898 -426 -519 0
-565 -749 90 0
245 -184 -774 0
-675 -199 -97 0
792 22 -812 0
786 -630 -948 0
584 658 546 0
562 -943 -660 0
691 350 33 0
-185 62 211 0
-789 -667 638 0
577 -903 -253 0
-439 -394 -610 0
-211 636 236 0
846 -467 865 0
-741 -917 331 0
912 -79 154 0
156 -137 764 0
-754 -882 -442 0
-659 -228 -851 0
-103 476 -201 0
-936 -363 -437 0
398 -572 256 0
335 995 -847 0
-519 516 504 0
33 934 741 0
512 400 -949 0
57 973 469 0
-336 139 -38 0
-880 208 185 0
212 979 456 0
-444 -464 852 0
274 214 642 0
944 -837 397 0
438 -281 -278 0
-331 671 14 0
852 -306 366 0
575 -537 -302 0
-838 161 399 0
-468 966 263 0
-48 176 68 0
118 583 -292 0
-345 637 916 0
-984 -94 450 0
769 890 872 0
-573 -327 -680 0
6 808 -617 0
-836 1 -802 0
-739 -478 -210 0
-724 449 308 0
-722 -877 -574 0
-936 363 437 0
-912 79 154 0
551 417 520 0
-978 164 115 0
-104 918 -389 0
-245 184 -774 0
-732 -143 -440 0
103 -476 -201 0
116 -811 605 0
-90 745 438 0
-65 602 -750 0
-649 -961 841 0
-399 -153 -552 0
-713 -540 368 0
-453 848 577 0
552 528 893 0
-974 129 103 0
-692 -705 659 0
914 845 840 0
-605 276 -818 0
-68 -889 579 0
40 879 652 0
-542 75 -284 0
595 -740 999 0
428 73 439 0
-698 891 333 0
237 888 462 0
-901 111 -608 0
518 -859 195 0
646 485 -240 0
-182 -47 826 0
-629 -13 838 0
-578 -709 -675 0
-678 908 734 0
-790 -74 499 0
206 686 -487 0
-813 -856 85 0
911 982 508 0
-104 -918 389 0
300 603 91 0
309 -839 227 0
242 483 -914 0
338 44 782 0
-664 -54 121 0
976 -694 353 0
-944 837 397 0
854 -730 -351 0
732 143 -440 0
975 87 761 0
655 731 101 0
-682 500 -398 0
-823 714 978 0
821 -421 795 0
940 814 695 0
610 -834 -345 0
-642 -488 -581 0
756 970 666 0
-750 -286 92 0
-36 -174 688 0
-954 -803 -735 0
-886 -902 -465 0
117 606 386 0
185 -62 211 0
904 -992 -269 0
870 -216 754 0
-300 603 -91 0
-741 917 -331 0
240 403 -279 0
351 522 -5 0
-58 -189 -384 0
906 -205 894 0
-533 343 -213 0
-461 -925 663 0
-427 -42 19 0
-53 -622 -644 0
-750 286 -92 0
-887 -346 -509 0
962 171 252 0
275 -536 869 0
-542 -75 284 0
-953 616 231 0
809 -305 -127 0
823 714 -978 0
-846 467 865 0
507 580 958 0
581 99 338 0
-802 -56 560 0
-121 648 -674 0
-57 973 -469 0
-965 -197 152 0
964 884 -388 0
-38 140 -360 0
503 -810 -298 0
774 -311 584 0
-764 556 505 0
873 -930 -640 0
596 993 375 0
53 -622 644 0
-490 -314 -428 0
383 460 512 0
244 -615 962 0
593 -515 -769 0
-91 -645 -646 0
148 -251 919 0
-666 207 585 0
317 -618 335 0
15 850 126 0
-399 153 552 0
589 983 250 0
729 108 163 0
776 -472 791 0
190 203 607 0
743 619 -170 0
456 319 -789 0
724 -449 308 0
911 -982 -508 0
-345 -637 -916 0
589 -983 -250 0
377 -422 299 0
-893 -238 -767 0
609 -217 565 0
681 2 328 0
210 -27 383 0
-178 718 -706 0
-188 441 -880 0
-787 -318 -796 0
659 228 -851 0
433 -332 497 0
919 -751 -998 0
269 991 -909 0
-309 839 227 0
-503 810 -298 0
840 -599 -732 0
439 394 -610 0
-501 651 -371 0
710 -843 550 0
916 130 414 0
-191 986 -102 0
832 -725 300 0
-326 -564 885 0
-298 -959 975 0
735 -555 381 0
-30 -708 -188 0
-357 107 -53 0
865 927 997 0
-128 676 -120 0
910 -765 419 0
-156 137 764 0
-371 -693 59 0
551 -417 -520 0
791 922 -507 0
-788 -994 -88 0
-862 141 -551 0
734 -932 601 0
904 992 269 0
148 251 -919 0
45 -18 -323 0
379 198 -821 0
-998 378 549 0
-379 198 821 0
-462 -614 901 0
494 155 -921 0
-211 -636 -236 0
-172 474 118 0
644 -424 878 0
-772 938 -310 0
901 -111 -608 0
-299 907 809 0
691 -350 -33 0
88 563 -116 0
-163 -475 110 0
-957 159 624 0
-913 -46 -936 0
-743 619 170 0
-481 -372 36 0
-456 -319 -789 0
-559 391 244 0
-838 -161 -399 0
-120 -800 -25 0
-575 537 -302 0
-739 478 210 0
-37 -35 482 0
771 -283 -435 0
83 -28 80 0
-440 -124 -461 0
289 -451 629 0
-595 740 999 0
775 857 268 0
-427 42 -19 0
692 -705 -659 0
758 926 772 0
-338 -44 782 0
482 219 -357 0
560 -829 832 0
-679 430 112 0
-881 576 -65 0
404 -477 -490 0
-45 18 -323 0
-272 -63 -876 0
-549 -138 788 0
949 69 -655 0
-244 -615 -962 0
549 138 788 0
339 -294 -533 0
-14 -650 571 0
-617 861 -952 0
-912 -79 -154 0
-190 203 -607 0
-32 454 212 0
-974 -129 -103 0
-83 28 80 0
632 -567 692 0
370 41 620 0
-872 -355 887 0
-941 -260 -481 0
-59 -186 495 0
-666 -207 -585 0
-444 464 -852 0
170 -492 32 0
-377 422 299 0
-867 -11 864 0
91 645 -646 0
-624 193 -996 0
-457 757 -506 0
566 868 635 0
442 -49 -672 0
-870 216 754 0
468 -966 263 0
-122 307 -131 0
-554 -510 -806 0
77 -218 -274 0
-308 429 -444 0
689 -937 -897 0
-640 405 -503 0
-51 246 -57 0
-664 54 -121 0
-852 -306 -366 0
-242 -483 -914 0
-550 715 190 0
-512 -400 -949 0
411 374 743 0
812 -71 -755 0
-713 540 -368 0
102 670 -870 0
