c Type 3: circular XOR (permuted), n=200, t=3, s=2
p cnf 200 400
-33 -77 57 0
128 -47 -30 0
131 -151 -122 0
-14 66 -89 0
170 185 -59 0
16 -70 -179 0
13 163 -90 0
-106 -105 102 0
-61 44 178 0
-96 84 176 0
111 126 -20 0
152 -6 -3 0
110 -9 -186 0
-102 97 114 0
38 -138 33 0
121 144 -42 0
-60 1 128 0
-170 -185 -59 0
-41 127 67 0
-186 154 115 0
-156 148 46 0
-133 -43 16 0
19 -62 143 0
-121 -144 -42 0
-37 -7 40 0
198 184 -149 0
200 174 157 0
168 35 -141 0
88 -11 -94 0
200 -174 -157 0
-60 -1 -128 0
46 -18 -19 0
61 -44 178 0
-198 -184 -149 0
19 62 -143 0
-199 80 64 0
159 -75 -95 0
33 -77 -57 0
-106 105 -102 0
37 -7 -40 0
-99 -112 155 0
-50 51 -119 0
-199 -80 -64 0
-89 -181 -195 0
79 -4 117 0
-189 -25 -41 0
41 127 -67 0
79 4 -117 0
-120 165 135 0
-94 -173 -190 0
-61 -44 -178 0
158 187 61 0
-158 -187 61 0
3 82 120 0
-53 65 -92 0
40 15 83 0
-59 -123 189 0
-90 175 199 0
-50 -51 119 0
-118 -98 169 0
-48 -132 170 0
170 -185 59 0
114 78 -158 0
-58 -26 -38 0
156 -148 46 0
-88 11 -94 0
85 -125 -197 0
115 -134 -137 0
83 142 55 0
-95 -172 -53 0
22 -31 130 0
-55 -124 -85 0
-114 78 158 0
-19 62 143 0
-13 163 90 0
92 8 50 0
-3 -82 120 0
-149 -107 36 0
-171 166 -198 0
-79 -4 -117 0
23 -194 156 0
-17 91 23 0
122 -81 76 0
-156 -148 -46 0
-87 86 68 0
-155 21 -12 0
-79 4 117 0
-40 15 -83 0
118 -98 -169 0
111 -126 20 0
-85 125 -197 0
-46 -18 19 0
-157 -93 106 0
-135 -113 140 0
-200 174 -157 0
-120 -165 -135 0
149 107 36 0
37 7 40 0
117 167 111 0
-57 27 -104 0
-102 -97 -114 0
20 153 -99 0
95 172 -53 0
117 -167 -111 0
76 -161 129 0
198 -184 149 0
-39 56 109 0
39 56 -109 0
-158 187 -61 0
-68 -180 -110 0
171 166 198 0
89 -181 195 0
64 101 -121 0
20 -153 99 0
-55 124 85 0
-19 -62 -143 0
-36 100 -14 0
33 77 57 0
156 148 -46 0
59 -123 -189 0
-176 -5 -37 0
-190 -108 -168 0
-83 142 -55 0
-179 63 28 0
36 -100 -14 0
-189 25 41 0
190 -108 168 0
42 -183 58 0
-59 123 -189 0
90 -175 199 0
-119 -116 22 0
-135 113 -140 0
-96 -84 -176 0
74 -71 -131 0
-168 35 141 0
197 -146 -118 0
3 -82 -120 0
110 9 186 0
121 -144 42 0
109 182 -96 0
30 -177 13 0
42 183 -58 0
-76 -161 -129 0
-12 160 -60 0
178 -192 88 0
87 -86 68 0
195 -193 -74 0
-52 24 -133 0
29 -150 162 0
102 -97 114 0
-95 172 53 0
176 -5 37 0
64 -101 121 0
-30 177 13 0
109 -182 96 0
-115 134 -137 0
169 -73 159 0
-64 -101 -121 0
-152 6 -3 0
-34 45 -52 0
-89 181 195 0
106 -105 -102 0
157 -93 -106 0
-74 -71 131 0
67 32 171 0
-140 -54 39 0
58 26 -38 0
137 -10 -29 0
-195 193 -74 0
-178 192 88 0
-109 -182 -96 0
102 97 -114 0
55 -124 85 0
-168 -35 -141 0
48 132 170 0
191 -196 152 0
-197 146 -118 0
141 69 103 0
133 43 16 0
-3 82 -120 0
168 -35 141 0
178 192 -88 0
60 -1 128 0
23 194 -156 0
16 70 179 0
-169 -73 -159 0
30 177 -13 0
94 173 -190 0
53 -65 -92 0
-76 161 129 0
-111 -126 -20 0
-176 5 37 0
-191 196 152 0
164 188 34 0
-110 9 -186 0
140 54 39 0
-128 -47 30 0
-14 -66 89 0
-171 -166 198 0
120 -165 135 0
-12 -160 60 0
140 -54 -39 0
-13 -163 -90 0
157 93 106 0
-131 151 -122 0
-111 126 20 0
-57 -27 104 0
-129 49 17 0
-16 -70 179 0
199 80 -64 0
-155 -21 12 0
-133 43 -16 0
46 18 19 0
-16 70 -179 0
39 -56 109 0
103 -147 79 0
12 -160 -60 0
171 -166 -198 0
-143 145 -200 0
13 -163 90 0
-88 -11 94 0
119 -116 -22 0
58 -26 38 0
-103 -147 -79 0
189 -25 41 0
17 91 -23 0
197 146 118 0
-83 -142 55 0
-38 -138 -33 0
-128 47 -30 0
92 -8 -50 0
-42 183 58 0
195 193 74 0
90 175 -199 0
-30 -177 -13 0
-94 173 190 0
-130 -2 87 0
-68 180 110 0
-20 153 99 0
12 160 60 0
104 72 191 0
14 -66 -89 0
-118 98 -169 0
-17 -91 -23 0
14 66 89 0
-92 -8 50 0
57 -27 -104 0
29 150 -162 0
-198 184 149 0
68 -180 110 0
40 -15 -83 0
38 138 -33 0
-190 108 168 0
-29 -150 -162 0
-104 72 -191 0
-104 -72 191 0
-164 -188 34 0
52 -24 -133 0
149 -107 -36 0
-191 -196 -152 0
199 -80 64 0
-122 -81 -76 0
52 24 133 0
-29 150 162 0
162 -139 -164 0
50 51 119 0
-37 7 -40 0
76 161 -129 0
159 75 95 0
94 -173 190 0
186 -154 115 0
99 112 155 0
-149 107 -36 0
89 181 -195 0
-92 8 -50 0
152 6 3 0
179 63 -28 0
-36 -100 14 0
-58 26 38 0
-200 -174 157 0
118 98 169 0
85 125 197 0
-195 -193 74 0
-39 -56 -109 0
34 45 52 0
96 -84 176 0
68 180 -110 0
-179 -63 -28 0
36 100 14 0
128 47 30 0
104 -72 -191 0
60 1 -128 0
-152 -6 3 0
129 49 -17 0
-52 -24 133 0
-42 -183 -58 0
-85 -125 197 0
-122 81 76 0
-129 -49 -17 0
106 105 102 0
155 -21 -12 0
-90 -175 -199 0
-130 2 -87 0
158 -187 -61 0
59 123 189 0
50 -51 -119 0
143 145 200 0
186 154 -115 0
122 81 -76 0
-117 167 -111 0
88 11 94 0
-114 -78 -158 0
-162 -139 164 0
41 -127 67 0
133 -43 -16 0
-186 -154 -115 0
155 21 12 0
-103 147 79 0
-109 182 96 0
-33 77 -57 0
162 139 164 0
74 71 131 0
103 147 -79 0
-137 10 -29 0
53 65 92 0
48 -132 -170 0
-23 194 156 0
-67 -32 171 0
190 108 -168 0
137 10 29 0
-74 71 -131 0
135 113 140 0
141 -69 -103 0
17 -91 23 0
61 44 -178 0
28 -136 48 0
-159 -75 95 0
-99 112 -155 0
34 -45 -52 0
189 25 -41 0
-159 75 -95 0
-121 144 42 0
120 165 -135 0
96 84 -176 0
114 -78 158 0
-110 -9 186 0
130 2 87 0
-170 185 59 0
95 -172 53 0
-22 31 130 0
-48 132 -170 0
22 31 -130 0
169 73 -159 0
-141 -69 103 0
-162 139 -164 0
115 134 137 0
176 5 -37 0
119 116 22 0
-20 -153 -99 0
67 -32 -171 0
-67 32 -171 0
-64 101 121 0
83 -142 -55 0
-115 -134 137 0
-28 -136 -48 0
-197 -146 118 0
57 27 104 0
-46 18 -19 0
130 -2 -87 0
-137 -10 29 0
-131 -151 122 0
87 86 -68 0
-41 -127 -67 0
-178 -192 -88 0
164 -188 -34 0
99 -112 -155 0
55 124 -85 0
-140 54 -39 0
28 136 -48 0
143 -145 -200 0
-38 138 33 0
-117 -167 111 0
-34 -45 52 0
-40 -15 83 0
179 -63 28 0
135 -113 -140 0
-23 -194 -156 0
-164 188 -34 0
-28 136 48 0
-157 93 -106 0
-169 73 159 0
-143 -145 200 0
-53 -65 92 0
-22 -31 -130 0
129 -49 17 0
-87 -86 -68 0
-141 69 -103 0
-119 116 -22 0
191 196 -152 0
131 151 122 0
