c Random 3-SAT, n=40, m=100
p cnf 40 100
13 8 -3 0
-7 -40 -31 0
19 -20 8 0
5 10 27 0
-19 1 -10 0
-25 -11 -36 0
-29 22 -24 0
-31 6 -20 0
14 33 11 0
-4 37 24 0
-24 17 -32 0
1 36 -37 0
25 31 -36 0
8 -31 10 0
-37 19 -31 0
37 -15 27 0
-40 -8 39 0
-9 3 23 0
11 6 36 0
-11 20 5 0
10 -17 34 0
31 23 2 0
-7 -37 -12 0
21 -1 -2 0
-19 -6 37 0
-31 -35 36 0
2 32 36 0
24 -8 6 0
-17 -19 9 0
-40 19 -5 0
29 40 -26 0
-32 18 -27 0
-27 -30 -13 0
-14 -1 -21 0
39 38 40 0
-9 -8 -2 0
39 -5 32 0
-20 17 9 0
35 26 24 0
3 -30 16 0
-38 -13 11 0
-3 33 -6 0
31 23 15 0
-30 20 -11 0
-23 20 36 0
22 -21 -27 0
-20 -24 -6 0
-2 -14 -40 0
39 26 21 0
-29 31 -10 0
35 4 5 0
-28 -6 -29 0
1 38 -22 0
34 3 -27 0
22 2 -9 0
-39 15 -19 0
-21 -28 -13 0
-12 13 -40 0
-19 7 -5 0
-37 20 33 0
-35 -18 36 0
-17 18 14 0
-25 -38 6 0
37 -7 32 0
27 -38 24 0
6 -35 39 0
4 -21 -37 0
31 10 16 0
18 13 7 0
-6 -31 -26 0
25 -40 -34 0
-11 7 -26 0
-27 32 -31 0
-29 35 13 0
25 8 16 0
-23 3 -2 0
-14 -40 -39 0
18 -22 -20 0
-14 36 -27 0
-17 4 11 0
-10 -33 19 0
30 -1 31 0
12 -27 -2 0
-23 35 9 0
-26 6 25 0
-14 30 -6 0
-3 -13 -21 0
32 6 33 0
-17 -29 -8 0
-13 -2 20 0
-35 4 -31 0
31 -34 -20 0
10 -37 -18 0
25 -11 -17 0
24 -32 5 0
10 -22 12 0
39 -15 30 0
-5 4 -8 0
-19 15 -11 0
-5 35 -33 0
