c Difficile (critique): random 3-SAT sans structure, n=200, m=852, ratio=4.26
p cnf 200 852
-38 134 -27 0
80 161 87 0
-183 109 -3 0
-131 -158 -104 0
-41 -200 68 0
143 -12 -16 0
-62 48 -100 0
139 41 -196 0
113 183 36 0
117 -157 137 0
24 -73 81 0
119 147 -33 0
-73 197 84 0
102 188 27 0
112 -21 200 0
7 160 172 0
-103 -101 -151 0
24 130 -92 0
167 -121 159 0
96 -155 12 0
-85 -102 120 0
89 -116 187 0
60 114 58 0
-168 -101 -193 0
102 -67 -138 0
73 -68 77 0
182 -96 47 0
57 15 112 0
71 133 164 0
-85 -28 -89 0
-44 29 61 0
-175 -103 67 0
64 43 -181 0
-143 -52 111 0
109 50 -18 0
65 114 -7 0
200 13 -77 0
170 -10 37 0
-195 98 176 0
-150 -147 7 0
76 153 61 0
-16 -42 -167 0
-184 -88 -101 0
153 175 52 0
99 -85 -24 0
-14 -175 -8 0
-103 -12 126 0
-6 -44 -144 0
132 57 -178 0
133 -173 119 0
-183 -93 170 0
-53 122 192 0
45 -106 -200 0
111 -45 -3 0
-27 100 -61 0
-118 114 -37 0
11 -120 -72 0
-130 57 172 0
-109 40 -66 0
147 -100 196 0
132 -174 -3 0
-78 171 -40 0
57 -77 130 0
4 -25 187 0
-113 -23 -190 0
-143 -25 150 0
-160 -10 -141 0
146 -171 -24 0
-17 -125 115 0
159 105 14 0
-133 -140 95 0
153 54 -133 0
182 -162 -127 0
-56 89 -183 0
112 84 157 0
-47 -8 -174 0
-21 47 181 0
76 -46 72 0
116 157 -85 0
113 -99 -200 0
-114 42 195 0
47 -190 -102 0
-153 -124 -38 0
-120 157 130 0
-76 9 162 0
-87 -35 -106 0
45 43 -91 0
136 -55 -130 0
-5 90 -108 0
146 71 51 0
19 41 68 0
-39 189 -130 0
123 -11 41 0
-72 -174 139 0
36 80 -65 0
156 143 -82 0
-141 -52 59 0
-53 148 -3 0
-56 -97 -162 0
-46 -121 -66 0
195 148 133 0
19 -36 -145 0
189 13 102 0
164 152 -120 0
118 129 -120 0
172 -189 50 0
-98 -80 -90 0
134 -199 -160 0
104 -109 -172 0
129 139 -107 0
-91 -75 -188 0
24 99 40 0
99 46 -82 0
144 -181 46 0
-155 101 168 0
-52 87 73 0
160 -195 4 0
111 -83 47 0
47 -191 178 0
-87 1 57 0
100 -81 -196 0
188 -173 8 0
-52 154 -128 0
126 29 122 0
-41 174 -97 0
127 -125 -149 0
112 -81 179 0
-193 27 18 0
-56 94 87 0
64 -192 11 0
140 10 -14 0
59 -116 -177 0
87 57 -81 0
173 152 28 0
-99 -114 14 0
76 67 180 0
130 -143 45 0
54 -10 9 0
177 137 -164 0
150 -165 21 0
-102 -190 -158 0
-150 28 -79 0
-137 -138 25 0
53 -154 -136 0
-167 -195 -141 0
163 54 -21 0
93 172 -42 0
-167 -187 154 0
92 -107 -32 0
-122 141 -161 0
83 84 44 0
-90 130 33 0
-156 -95 54 0
-88 -53 -99 0
198 -31 12 0
-159 176 103 0
26 -159 -97 0
-107 98 -19 0
-30 71 -154 0
130 -84 -74 0
21 -154 14 0
-92 132 108 0
173 49 -194 0
38 -137 98 0
-180 -196 -21 0
61 73 107 0
-104 -55 6 0
-129 200 -189 0
181 84 -59 0
39 78 163 0
61 114 -197 0
-152 -109 97 0
133 85 -141 0
67 182 -92 0
-198 49 -166 0
-140 -35 -33 0
-100 -103 173 0
110 44 98 0
76 170 99 0
-192 128 196 0
-8 -177 -49 0
58 -175 90 0
-172 -41 116 0
156 188 109 0
-191 64 -99 0
-43 -143 91 0
-26 72 28 0
70 169 -81 0
151 -134 84 0
-197 -152 -108 0
53 193 69 0
-59 182 -47 0
-99 74 -196 0
40 124 130 0
169 110 -149 0
-196 34 86 0
-173 126 -22 0
-123 18 69 0
35 -162 -181 0
65 131 -71 0
26 148 -190 0
137 160 -50 0
-58 -38 196 0
136 194 -102 0
147 -186 -152 0
-34 -77 -57 0
-196 -47 45 0
151 -146 50 0
200 46 -146 0
-45 55 -165 0
25 121 135 0
-109 170 172 0
176 94 39 0
-159 -131 126 0
35 -108 -140 0
-57 22 140 0
-200 50 -9 0
159 73 -85 0
-115 -127 -32 0
161 -143 -190 0
45 -79 -178 0
188 -123 180 0
19 -177 69 0
58 -11 169 0
73 -185 179 0
167 72 -70 0
41 112 42 0
-121 -191 150 0
-27 -98 183 0
-163 -55 -97 0
-67 87 38 0
170 -13 -141 0
27 -42 7 0
-53 -43 -117 0
33 65 -165 0
115 -27 114 0
171 115 170 0
85 -82 -58 0
68 -116 -109 0
183 -106 -164 0
22 129 198 0
-200 198 174 0
-86 -191 184 0
-174 -172 16 0
-193 -106 -70 0
-108 127 139 0
-112 57 -38 0
44 189 -121 0
-120 -6 -164 0
139 189 -108 0
39 177 -198 0
50 -100 149 0
91 93 161 0
77 184 67 0
20 -120 67 0
-84 65 75 0
142 78 124 0
193 -73 -94 0
6 153 -25 0
130 -72 -44 0
132 -144 9 0
-172 16 -65 0
113 94 74 0
-111 -102 -99 0
102 -90 108 0
-80 -170 -137 0
-78 77 -176 0
111 -151 136 0
85 -81 -115 0
30 171 -54 0
102 128 -141 0
-56 -29 125 0
-60 74 146 0
-14 133 -171 0
24 -83 96 0
75 -24 -119 0
71 -195 -94 0
183 32 -71 0
144 -119 105 0
24 -26 -7 0
86 -145 -193 0
-43 51 -95 0
-16 -38 12 0
-186 83 98 0
-191 -127 145 0
-128 17 -49 0
67 -81 -4 0
-82 31 189 0
-137 -49 -97 0
-130 65 -179 0
-141 -43 133 0
40 68 -198 0
95 -132 -194 0
-66 134 -41 0
-168 -160 -135 0
-35 -151 12 0
-35 161 -24 0
79 159 16 0
138 68 -160 0
-95 160 -7 0
-112 87 -125 0
155 8 132 0
5 -22 -190 0
69 -13 35 0
-48 -152 134 0
-132 -116 137 0
114 -39 -156 0
-199 12 1 0
-20 79 -140 0
106 -151 -124 0
-134 -62 -81 0
73 -68 -164 0
-123 166 59 0
52 -161 -64 0
-64 145 -61 0
64 40 58 0
144 -43 79 0
147 -194 5 0
10 -62 -165 0
-131 -12 -173 0
-89 -53 -163 0
5 -14 -34 0
-169 -89 18 0
-55 103 119 0
125 11 5 0
-197 31 -86 0
93 179 -88 0
-130 -20 35 0
56 13 24 0
179 -100 187 0
85 163 -1 0
-119 -58 90 0
-174 -21 -119 0
-90 8 -189 0
-37 -119 -159 0
-133 187 -156 0
120 102 6 0
-39 -156 151 0
-44 81 183 0
-77 3 33 0
-101 -147 98 0
164 76 196 0
5 58 18 0
73 -164 -196 0
-140 131 -14 0
-139 -130 -104 0
-6 92 61 0
1 -50 63 0
-42 36 85 0
-64 -4 160 0
-139 -114 -33 0
65 -125 -168 0
-20 -59 -21 0
-128 55 48 0
-63 -4 91 0
-133 -8 -74 0
4 126 166 0
34 -175 137 0
-37 -102 -107 0
-102 -199 97 0
-44 98 130 0
43 -134 181 0
-156 -168 -47 0
88 -129 -126 0
105 -34 111 0
79 -71 -99 0
99 -133 -63 0
101 -190 -26 0
200 -39 -21 0
-21 71 177 0
-60 -190 70 0
147 186 -150 0
141 118 180 0
200 -14 106 0
167 -159 -10 0
-27 18 161 0
64 191 126 0
161 -97 178 0
145 135 84 0
-181 -187 64 0
146 161 42 0
-69 140 -30 0
-108 -49 113 0
-172 -165 -160 0
124 -72 39 0
-21 182 37 0
21 112 -171 0
165 -128 -87 0
-186 -136 191 0
182 -45 -23 0
-7 197 -95 0
-178 97 159 0
169 44 -68 0
-26 -36 97 0
58 -178 107 0
-168 164 134 0
-24 -34 -74 0
186 -178 -174 0
-95 -91 125 0
-162 113 -153 0
-64 79 -140 0
-153 -142 -23 0
176 -158 87 0
117 196 28 0
119 79 -90 0
-183 -41 -187 0
95 40 -179 0
63 -161 182 0
104 53 -111 0
-174 97 43 0
14 158 -66 0
16 -159 36 0
167 188 -5 0
-163 12 -96 0
-33 68 96 0
-169 -71 -191 0
89 84 -168 0
-31 -175 -198 0
-36 -156 175 0
-95 103 -166 0
-73 -53 84 0
-190 132 167 0
-179 -81 162 0
54 38 -160 0
-143 -15 -1 0
135 -27 71 0
-96 6 -51 0
139 -69 131 0
-35 147 -117 0
183 151 -32 0
77 -112 27 0
50 168 -137 0
190 24 177 0
95 -130 118 0
143 -184 114 0
-26 -15 -55 0
54 -169 -163 0
-20 -51 79 0
-119 69 120 0
-175 -152 -54 0
-106 -30 -43 0
-119 -95 -24 0
193 -117 -138 0
84 172 -190 0
-32 -113 -62 0
28 13 -2 0
-196 -1 15 0
32 71 192 0
60 -78 16 0
-192 -47 -84 0
67 -195 -127 0
-48 -150 54 0
90 -194 -25 0
-57 88 169 0
-103 -36 -170 0
57 167 -77 0
-111 -61 53 0
-110 -39 104 0
-126 -141 144 0
-107 -158 -34 0
-60 -81 -20 0
172 16 79 0
-6 -171 179 0
-73 -17 67 0
195 -71 104 0
191 89 -15 0
152 112 51 0
-149 -144 72 0
-69 -98 143 0
69 116 -87 0
-62 181 159 0
183 107 88 0
-70 23 -159 0
-156 -78 -114 0
-123 187 -51 0
192 -195 -131 0
4 -147 12 0
104 140 -87 0
10 164 52 0
12 87 133 0
136 -82 176 0
140 115 62 0
-58 -84 47 0
-128 171 146 0
147 -196 -51 0
-145 163 -63 0
-170 8 -7 0
-55 -126 166 0
-28 -66 -196 0
-35 64 -72 0
-38 -68 -194 0
23 -59 84 0
-195 149 70 0
183 30 107 0
-78 149 -43 0
-92 65 184 0
87 16 38 0
-10 149 177 0
15 125 -105 0
-81 1 111 0
82 137 20 0
-140 157 -164 0
-170 36 -136 0
167 56 -11 0
-125 -112 -35 0
188 -99 151 0
-143 165 -60 0
72 9 2 0
110 -137 -155 0
109 -51 143 0
151 54 -7 0
-48 -99 -57 0
-150 -166 17 0
-132 -128 -155 0
122 100 169 0
193 59 186 0
-196 -151 75 0
183 87 131 0
-136 78 63 0
36 6 -100 0
103 83 -30 0
-167 123 113 0
161 -29 -12 0
107 97 63 0
-11 -33 -174 0
105 87 187 0
89 109 -107 0
9 -11 114 0
193 -82 81 0
-79 -109 151 0
-74 -167 181 0
-109 -34 118 0
-104 -181 -36 0
171 -42 189 0
58 173 134 0
10 -32 -160 0
3 -92 -101 0
73 -57 43 0
-26 81 -200 0
-31 188 198 0
133 195 91 0
-177 -60 13 0
60 -1 193 0
-5 -35 59 0
-167 -85 -49 0
-130 -149 -175 0
-44 172 50 0
67 -49 -146 0
105 -143 5 0
152 158 7 0
-95 13 145 0
-42 151 10 0
140 141 -49 0
58 52 94 0
21 -184 -130 0
-101 -192 -187 0
-128 127 21 0
-6 -122 -55 0
-76 100 -19 0
-100 171 -73 0
21 145 133 0
154 141 -139 0
82 -162 -112 0
48 -20 -101 0
177 -103 189 0
-139 -88 166 0
22 -6 113 0
-10 196 124 0
42 -50 -122 0
143 190 -31 0
58 -113 -64 0
-44 48 -188 0
35 163 -177 0
15 167 118 0
-147 174 -162 0
52 153 125 0
-182 -129 190 0
-93 152 53 0
-31 66 -175 0
12 -10 115 0
119 -26 -136 0
110 -107 180 0
-33 -101 39 0
2 -10 200 0
-31 130 -77 0
-55 -176 106 0
-101 -66 -94 0
60 -173 -94 0
165 148 -168 0
-24 -98 83 0
-186 -160 -158 0
-108 -86 -111 0
-145 10 43 0
45 160 -64 0
-126 47 99 0
68 85 13 0
-97 -81 93 0
84 -134 -139 0
-147 -102 -150 0
-65 13 -31 0
62 157 105 0
26 155 98 0
46 -84 -131 0
111 -81 173 0
-62 80 -27 0
-60 191 -25 0
126 -45 26 0
163 -88 -62 0
1 -146 -97 0
53 8 137 0
-105 191 -122 0
-120 5 -23 0
47 -91 -121 0
-68 114 -123 0
-65 -190 -50 0
107 -169 -22 0
-73 -15 163 0
191 -91 -44 0
-48 -116 27 0
63 3 -115 0
181 200 44 0
-3 119 178 0
-41 -142 -47 0
43 83 48 0
-75 131 -77 0
28 55 -25 0
-14 -199 -5 0
-34 -156 -94 0
7 108 -169 0
-163 -24 169 0
51 -135 -133 0
196 -49 172 0
-81 -71 -4 0
-61 60 113 0
123 -130 162 0
47 -81 119 0
-90 -81 -14 0
-25 -36 63 0
-158 189 98 0
-102 -78 -191 0
127 194 84 0
-103 -60 190 0
-88 -8 -67 0
-148 -190 -137 0
149 -47 88 0
161 3 -62 0
-37 -125 -93 0
110 181 -31 0
-161 -158 -20 0
121 96 134 0
-85 171 38 0
16 -162 -95 0
-144 136 -160 0
148 -108 -8 0
-108 100 -2 0
-144 -85 -107 0
-104 96 -192 0
59 157 171 0
-70 42 -51 0
-80 93 -46 0
-137 122 -179 0
-124 -130 -36 0
136 192 68 0
96 155 54 0
-65 -132 -171 0
17 -39 103 0
-164 105 199 0
-4 -61 -136 0
-126 -54 182 0
119 -138 -169 0
-167 91 -56 0
-39 -168 -104 0
-61 21 18 0
-36 148 -42 0
-22 129 -60 0
-91 -90 -41 0
-68 147 -75 0
-120 -110 -56 0
182 21 113 0
82 -199 -21 0
-156 153 168 0
60 -154 35 0
118 -40 -166 0
-80 34 137 0
120 100 -13 0
169 82 176 0
-57 190 -168 0
-26 -181 148 0
-16 180 44 0
-94 156 -117 0
-74 136 -160 0
18 -115 -24 0
52 25 16 0
-148 -84 -34 0
-1 175 -71 0
-118 10 -151 0
17 193 150 0
26 128 -68 0
-165 -148 175 0
-183 -166 -18 0
-24 -136 147 0
118 -113 -36 0
-180 122 -199 0
175 111 -176 0
-140 -149 -114 0
18 170 182 0
124 -150 -113 0
-84 58 98 0
66 57 -103 0
170 193 36 0
13 93 -120 0
-98 93 -17 0
-26 -151 -49 0
166 75 49 0
-172 -163 153 0
-7 2 -168 0
179 -93 -128 0
174 53 -140 0
-104 28 133 0
-44 90 -89 0
-31 -74 106 0
-161 45 180 0
-179 65 -199 0
-161 153 57 0
171 30 34 0
111 159 -8 0
-23 175 107 0
-15 147 -190 0
-117 39 84 0
182 -188 99 0
-180 75 -82 0
38 -70 -67 0
-23 112 -93 0
176 -167 -155 0
49 -131 114 0
-3 83 163 0
115 -40 -94 0
-79 132 151 0
110 196 199 0
-149 162 -76 0
180 -193 50 0
-62 26 -82 0
177 179 150 0
-140 -43 50 0
-141 -14 -198 0
105 31 -133 0
-16 -87 -148 0
-110 -94 99 0
-125 95 -37 0
-142 -36 -174 0
-97 -53 156 0
-1 -124 120 0
122 115 50 0
58 62 159 0
65 67 5 0
-53 -161 -110 0
-96 -88 -164 0
-36 144 -63 0
46 -176 -114 0
132 172 -52 0
-196 -15 -172 0
192 47 180 0
-147 -89 169 0
105 -150 163 0
-15 60 -173 0
149 -93 190 0
42 19 120 0
-87 105 198 0
71 97 133 0
76 198 -70 0
-117 -8 134 0
114 107 -129 0
-27 -88 -70 0
24 -164 -89 0
-82 199 -1 0
82 -107 15 0
-75 -158 -3 0
-117 -96 148 0
116 140 133 0
-128 -45 -93 0
115 -164 102 0
101 20 186 0
-177 -161 -67 0
11 44 -188 0
47 167 116 0
176 81 -166 0
41 -96 -14 0
136 150 199 0
-40 -88 -6 0
-136 77 19 0
-186 171 66 0
84 27 137 0
146 14 132 0
49 6 194 0
120 149 -162 0
-99 190 -139 0
32 61 -103 0
-100 -179 156 0
130 99 -144 0
-157 39 198 0
107 -126 49 0
199 -178 -97 0
-25 -12 -179 0
99 105 -73 0
152 -61 104 0
-162 -129 -48 0
23 -148 -49 0
-189 90 120 0
61 117 95 0
-53 103 104 0
-92 106 -138 0
-169 13 132 0
73 169 75 0
122 80 128 0
-168 84 143 0
-143 14 186 0
-37 -80 -189 0
-86 159 120 0
-157 -187 70 0
33 157 19 0
84 91 -199 0
-97 163 -123 0
-66 -117 22 0
21 -126 4 0
37 -119 178 0
108 116 -96 0
9 15 193 0
3 120 67 0
138 -72 194 0
131 184 100 0
-125 45 108 0
151 35 200 0
-165 -11 -136 0
62 -11 128 0
-54 9 -159 0
-81 14 -141 0
124 89 -71 0
-85 -128 154 0
-104 52 -128 0
-95 -57 -28 0
53 47 111 0
9 -84 -170 0
183 -117 153 0
52 -63 -197 0
-70 166 -126 0
-47 32 -167 0
146 79 18 0
10 30 167 0
178 168 -68 0
-41 -87 -124 0
-42 -148 -135 0
22 147 180 0
