c Difficile (sparse): random 3-SAT sans structure, n=30, m=60, ratio=2.00
p cnf 30 60
18 2 -16 0
29 25 9 0
24 -3 -25 0
-18 21 -22 0
5 3 -18 0
21 6 20 0
15 17 1 0
-13 2 -20 0
3 -29 12 0
14 -16 20 0
5 -11 3 0
18 -17 3 0
13 -7 -22 0
-3 -7 -6 0
25 -8 -9 0
24 6 -25 0
-8 -23 -5 0
30 27 -4 0
-5 9 3 0
-26 -10 4 0
-14 -9 4 0
10 -17 -3 0
18 -9 -10 0
28 -15 -17 0
24 30 4 0
-20 -4 -10 0
-8 13 -17 0
12 18 13 0
4 12 -11 0
-29 23 -1 0
-5 -26 7 0
20 -16 11 0
21 -4 8 0
27 15 18 0
-29 4 15 0
-3 -17 -14 0
5 -19 20 0
-25 19 29 0
6 -19 -2 0
-13 -7 6 0
-25 -2 -1 0
-6 -27 -25 0
3 30 22 0
-22 -21 -3 0
6 -17 -29 0
-21 -19 4 0
-21 5 -16 0
-19 1 15 0
13 29 -10 0
-29 -24 -3 0
-27 13 7 0
-27 -14 17 0
-7 23 28 0
28 5 -10 0
4 21 -2 0
-26 22 15 0
-8 -26 -25 0
22 -18 12 0
2 1 9 0
27 10 6 0
