c Formule géneree pour le test du solveur DP-SAT
p cnf 11 50
-11 1 -9 0
-7 8 -6 0
-11 2 3 0
3 6 9 0
-8 -6 -11 0
2 -1 5 0
-6 -9 -10 0
11 3 1 0
-1 4 -2 0
-9 11 -8 0
-9 -1 10 0
8 6 -3 0
-4 3 2 0
7 -2 -4 0
-1 -3 8 0
10 -11 -6 0
-10 -7 -9 0
1 -3 -2 0
-1 10 -8 0
6 2 5 0
11 -4 1 0
10 -11 9 0
-10 5 1 0
-5 -7 11 0
-6 -11 10 0
-10 -2 -9 0
-9 5 10 0
4 5 -6 0
-1 3 -5 0
-11 9 -4 0
6 -5 -4 0
-10 5 2 0
9 -8 5 0
9 -7 -10 0
6 -5 -3 0
3 9 -2 0
-5 8 2 0
-5 -9 10 0
-2 4 -8 0
7 10 11 0
-6 -3 7 0
-9 2 -11 0
-8 -10 -1 0
-4 -11 -10 0
-8 2 1 0
-4 -9 -1 0
11 -10 -6 0
4 5 -3 0
-10 9 2 0
8 4 1 0
