c Random 3-SAT, n=12, m=50
p cnf 12 50
4 -12 7 0
-8 -7 -4 0
-1 4 10 0
-2 3 -9 0
-9 -11 -7 0
3 -8 9 0
2 4 10 0
6 4 11 0
-9 1 -7 0
1 -7 10 0
-4 9 -12 0
3 8 2 0
-7 -1 5 0
12 -3 -2 0
3 -11 2 0
7 -6 9 0
-4 11 7 0
-9 4 11 0
7 -4 -8 0
-7 -1 9 0
3 12 2 0
10 7 4 0
-11 1 12 0
10 -3 12 0
9 -11 1 0
-11 -12 8 0
-9 -3 12 0
-6 -4 -12 0
-11 -3 1 0
-3 -4 5 0
5 9 6 0
-8 11 -2 0
-4 5 10 0
-2 -9 7 0
9 2 7 0
-8 2 12 0
-1 5 3 0
-9 3 -6 0
3 1 9 0
-2 -4 10 0
-5 11 7 0
-1 -12 -8 0
7 12 -9 0
11 1 7 0
2 6 10 0
7 -8 -4 0
-9 -8 5 0
9 7 10 0
4 -2 -7 0
-1 11 -8 0
