c Random 3-SAT, n=10, m=50
p cnf 10 50
9 1 10 0
-4 -8 7 0
3 7 10 0
3 6 5 0
-8 -4 10 0
7 10 -8 0
3 -5 9 0
4 5 3 0
2 1 6 0
-3 10 2 0
7 4 -6 0
-1 -7 10 0
-4 -1 7 0
-9 3 -2 0
6 3 5 0
-2 -6 -10 0
4 -8 3 0
3 5 2 0
-7 -2 -8 0
-6 10 -4 0
-8 -5 2 0
-9 3 -7 0
-1 8 -4 0
-6 3 -5 0
1 -5 -6 0
-2 -10 5 0
10 -8 2 0
10 -1 4 0
-9 1 -8 0
5 3 -4 0
3 4 1 0
-6 5 3 0
6 10 4 0
5 4 -7 0
-4 -10 -9 0
7 -2 10 0
-4 9 10 0
-10 -6 5 0
-7 -6 2 0
7 6 8 0
8 -1 2 0
-5 7 3 0
5 6 3 0
10 4 -3 0
2 3 10 0
-1 -10 -5 0
-9 5 -10 0
-10 -9 -1 0
6 8 1 0
-1 -3 4 0
