p cnf 252 805
-1 -2 3 0
1 -3 0
2 -3 0
-4 -2 5 0
4 -5 0
2 -5 0
-1 -6 7 0
1 -7 0
6 -7 0
-5 -7 -8 0
5 7 -8 0
5 -7 8 0
-5 7 8 0
-5 -7 9 0
5 -9 0
7 -9 0
-10 -2 11 0
10 -11 0
2 -11 0
-4 -6 12 0
4 -12 0
6 -12 0
-11 -12 -13 0
11 12 -13 0
11 -12 13 0
-11 12 13 0
-13 -9 -14 0
13 9 -14 0
13 -9 14 0
-13 9 14 0
-13 -9 15 0
13 -15 0
9 -15 0
-11 -12 16 0
11 -16 0
12 -16 0
15 16 -17 0
-15 17 0
-16 17 0
-18 -2 19 0
18 -19 0
2 -19 0
-10 -6 20 0
10 -20 0
6 -20 0
-19 -20 -21 0
19 20 -21 0
19 -20 21 0
-19 20 21 0
-21 -17 -22 0
21 17 -22 0
21 -17 22 0
-21 17 22 0
-21 -17 23 0
21 -23 0
17 -23 0
-19 -20 24 0
19 -24 0
20 -24 0
23 24 -25 0
-23 25 0
-24 25 0
-26 -2 27 0
26 -27 0
2 -27 0
-18 -6 28 0
18 -28 0
6 -28 0
-27 -28 -29 0
27 28 -29 0
27 -28 29 0
-27 28 29 0
-29 -25 -30 0
29 25 -30 0
29 -25 30 0
-29 25 30 0
-29 -25 31 0
29 -31 0
25 -31 0
-27 -28 32 0
27 -32 0
28 -32 0
31 32 -33 0
-31 33 0
-32 33 0
-34 -2 35 0
34 -35 0
2 -35 0
-26 -6 36 0
26 -36 0
6 -36 0
-35 -36 -37 0
35 36 -37 0
35 -36 37 0
-35 36 37 0
-37 -33 -38 0
37 33 -38 0
37 -33 38 0
-37 33 38 0
-37 -33 39 0
37 -39 0
33 -39 0
-35 -36 40 0
35 -40 0
36 -40 0
39 40 -41 0
-39 41 0
-40 41 0
-42 -2 43 0
42 -43 0
2 -43 0
-34 -6 44 0
34 -44 0
6 -44 0
-43 -44 -45 0
43 44 -45 0
43 -44 45 0
-43 44 45 0
-45 -41 -46 0
45 41 -46 0
45 -41 46 0
-45 41 46 0
-45 -41 47 0
45 -47 0
41 -47 0
-43 -44 48 0
43 -48 0
44 -48 0
47 48 -49 0
-47 49 0
-48 49 0
-42 -6 50 0
42 -50 0
6 -50 0
-49 -50 -51 0
49 50 -51 0
49 -50 51 0
-49 50 51 0
-49 -50 52 0
49 -52 0
50 -52 0
-1 -53 54 0
1 -54 0
53 -54 0
-14 -54 -55 0
14 54 -55 0
14 -54 55 0
-14 54 55 0
-14 -54 56 0
14 -56 0
54 -56 0
-4 -53 57 0
4 -57 0
53 -57 0
-22 -57 -58 0
22 57 -58 0
22 -57 58 0
-22 57 58 0
-58 -56 -59 0
58 56 -59 0
58 -56 59 0
-58 56 59 0
-58 -56 60 0
58 -60 0
56 -60 0
-22 -57 61 0
22 -61 0
57 -61 0
60 61 -62 0
-60 62 0
-61 62 0
-10 -53 63 0
10 -63 0
53 -63 0
-30 -63 -64 0
30 63 -64 0
30 -63 64 0
-30 63 64 0
-64 -62 -65 0
64 62 -65 0
64 -62 65 0
-64 62 65 0
-64 -62 66 0
64 -66 0
62 -66 0
-30 -63 67 0
30 -67 0
63 -67 0
66 67 -68 0
-66 68 0
-67 68 0
-18 -53 69 0
18 -69 0
53 -69 0
-38 -69 -70 0
38 69 -70 0
38 -69 70 0
-38 69 70 0
-70 -68 -71 0
70 68 -71 0
70 -68 71 0
-70 68 71 0
-70 -68 72 0
70 -72 0
68 -72 0
-38 -69 73 0
38 -73 0
69 -73 0
72 73 -74 0
-72 74 0
-73 74 0
-26 -53 75 0
26 -75 0
53 -75 0
-46 -75 -76 0
46 75 -76 0
46 -75 76 0
-46 75 76 0
-76 -74 -77 0
76 74 -77 0
76 -74 77 0
-76 74 77 0
-76 -74 78 0
76 -78 0
74 -78 0
-46 -75 79 0
46 -79 0
75 -79 0
78 79 -80 0
-78 80 0
-79 80 0
-34 -53 81 0
34 -81 0
53 -81 0
-51 -81 -82 0
51 81 -82 0
51 -81 82 0
-51 81 82 0
-82 -80 -83 0
82 80 -83 0
82 -80 83 0
-82 80 83 0
-82 -80 84 0
82 -84 0
80 -84 0
-51 -81 85 0
51 -85 0
81 -85 0
84 85 -86 0
-84 86 0
-85 86 0
-42 -53 87 0
42 -87 0
53 -87 0
-52 -87 -88 0
52 87 -88 0
52 -87 88 0
-52 87 88 0
-88 -86 -89 0
88 86 -89 0
88 -86 89 0
-88 86 89 0
-88 -86 90 0
88 -90 0
86 -90 0
-52 -87 91 0
52 -91 0
87 -91 0
90 91 -92 0
-90 92 0
-91 92 0
-1 -93 94 0
1 -94 0
93 -94 0
-59 -94 -95 0
59 94 -95 0
59 -94 95 0
-59 94 95 0
-59 -94 96 0
59 -96 0
94 -96 0
-4 -93 97 0
4 -97 0
93 -97 0
-65 -97 -98 0
65 97 -98 0
65 -97 98 0
-65 97 98 0
-98 -96 -99 0
98 96 -99 0
98 -96 99 0
-98 96 99 0
-98 -96 100 0
98 -100 0
96 -100 0
-65 -97 101 0
65 -101 0
97 -101 0
100 101 -102 0
-100 102 0
-101 102 0
-10 -93 103 0
10 -103 0
93 -103 0
-71 -103 -104 0
71 103 -104 0
71 -103 104 0
-71 103 104 0
-104 -102 -105 0
104 102 -105 0
104 -102 105 0
-104 102 105 0
-104 -102 106 0
104 -106 0
102 -106 0
-71 -103 107 0
71 -107 0
103 -107 0
106 107 -108 0
-106 108 0
-107 108 0
-18 -93 109 0
18 -109 0
93 -109 0
-77 -109 -110 0
77 109 -110 0
77 -109 110 0
-77 109 110 0
-110 -108 -111 0
110 108 -111 0
110 -108 111 0
-110 108 111 0
-110 -108 112 0
110 -112 0
108 -112 0
-77 -109 113 0
77 -113 0
109 -113 0
112 113 -114 0
-112 114 0
-113 114 0
-26 -93 115 0
26 -115 0
93 -115 0
-83 -115 -116 0
83 115 -116 0
83 -115 116 0
-83 115 116 0
-116 -114 -117 0
116 114 -117 0
116 -114 117 0
-116 114 117 0
-116 -114 118 0
116 -118 0
114 -118 0
-83 -115 119 0
83 -119 0
115 -119 0
118 119 -120 0
-118 120 0
-119 120 0
-34 -93 121 0
34 -121 0
93 -121 0
-89 -121 -122 0
89 121 -122 0
89 -121 122 0
-89 121 122 0
-122 -120 -123 0
122 120 -123 0
122 -120 123 0
-122 120 123 0
-122 -120 124 0
122 -124 0
120 -124 0
-89 -121 125 0
89 -125 0
121 -125 0
124 125 -126 0
-124 126 0
-125 126 0
-42 -93 127 0
42 -127 0
93 -127 0
-92 -127 -128 0
92 127 -128 0
92 -127 128 0
-92 127 128 0
-128 -126 -129 0
128 126 -129 0
128 -126 129 0
-128 126 129 0
-128 -126 130 0
128 -130 0
126 -130 0
-92 -127 131 0
92 -131 0
127 -131 0
130 131 -132 0
-130 132 0
-131 132 0
-1 -133 134 0
1 -134 0
133 -134 0
-99 -134 -135 0
99 134 -135 0
99 -134 135 0
-99 134 135 0
-99 -134 136 0
99 -136 0
134 -136 0
-4 -133 137 0
4 -137 0
133 -137 0
-105 -137 -138 0
105 137 -138 0
105 -137 138 0
-105 137 138 0
-138 -136 -139 0
138 136 -139 0
138 -136 139 0
-138 136 139 0
-138 -136 140 0
138 -140 0
136 -140 0
-105 -137 141 0
105 -141 0
137 -141 0
140 141 -142 0
-140 142 0
-141 142 0
-10 -133 143 0
10 -143 0
133 -143 0
-111 -143 -144 0
111 143 -144 0
111 -143 144 0
-111 143 144 0
-144 -142 -145 0
144 142 -145 0
144 -142 145 0
-144 142 145 0
-144 -142 146 0
144 -146 0
142 -146 0
-111 -143 147 0
111 -147 0
143 -147 0
146 147 -148 0
-146 148 0
-147 148 0
-18 -133 149 0
18 -149 0
133 -149 0
-117 -149 -150 0
117 149 -150 0
117 -149 150 0
-117 149 150 0
-150 -148 -151 0
150 148 -151 0
150 -148 151 0
-150 148 151 0
-150 -148 152 0
150 -152 0
148 -152 0
-117 -149 153 0
117 -153 0
149 -153 0
152 153 -154 0
-152 154 0
-153 154 0
-26 -133 155 0
26 -155 0
133 -155 0
-123 -155 -156 0
123 155 -156 0
123 -155 156 0
-123 155 156 0
-156 -154 -157 0
156 154 -157 0
156 -154 157 0
-156 154 157 0
-156 -154 158 0
156 -158 0
154 -158 0
-123 -155 159 0
123 -159 0
155 -159 0
158 159 -160 0
-158 160 0
-159 160 0
-34 -133 161 0
34 -161 0
133 -161 0
-129 -161 -162 0
129 161 -162 0
129 -161 162 0
-129 161 162 0
-162 -160 -163 0
162 160 -163 0
162 -160 163 0
-162 160 163 0
-162 -160 164 0
162 -164 0
160 -164 0
-129 -161 165 0
129 -165 0
161 -165 0
164 165 -166 0
-164 166 0
-165 166 0
-42 -133 167 0
42 -167 0
133 -167 0
-132 -167 -168 0
132 167 -168 0
132 -167 168 0
-132 167 168 0
-168 -166 -169 0
168 166 -169 0
168 -166 169 0
-168 166 169 0
-168 -166 170 0
168 -170 0
166 -170 0
-132 -167 171 0
132 -171 0
167 -171 0
170 171 -172 0
-170 172 0
-171 172 0
-1 -173 174 0
1 -174 0
173 -174 0
-139 -174 -175 0
139 174 -175 0
139 -174 175 0
-139 174 175 0
-139 -174 176 0
139 -176 0
174 -176 0
-4 -173 177 0
4 -177 0
173 -177 0
-145 -177 -178 0
145 177 -178 0
145 -177 178 0
-145 177 178 0
-178 -176 -179 0
178 176 -179 0
178 -176 179 0
-178 176 179 0
-178 -176 180 0
178 -180 0
176 -180 0
-145 -177 181 0
145 -181 0
177 -181 0
180 181 -182 0
-180 182 0
-181 182 0
-10 -173 183 0
10 -183 0
173 -183 0
-151 -183 -184 0
151 183 -184 0
151 -183 184 0
-151 183 184 0
-184 -182 -185 0
184 182 -185 0
184 -182 185 0
-184 182 185 0
-184 -182 186 0
184 -186 0
182 -186 0
-151 -183 187 0
151 -187 0
183 -187 0
186 187 -188 0
-186 188 0
-187 188 0
-18 -173 189 0
18 -189 0
173 -189 0
-157 -189 -190 0
157 189 -190 0
157 -189 190 0
-157 189 190 0
-190 -188 -191 0
190 188 -191 0
190 -188 191 0
-190 188 191 0
-190 -188 192 0
190 -192 0
188 -192 0
-157 -189 193 0
157 -193 0
189 -193 0
192 193 -194 0
-192 194 0
-193 194 0
-26 -173 195 0
26 -195 0
173 -195 0
-163 -195 -196 0
163 195 -196 0
163 -195 196 0
-163 195 196 0
-196 -194 -197 0
196 194 -197 0
196 -194 197 0
-196 194 197 0
-196 -194 198 0
196 -198 0
194 -198 0
-163 -195 199 0
163 -199 0
195 -199 0
198 199 -200 0
-198 200 0
-199 200 0
-34 -173 201 0
34 -201 0
173 -201 0
-169 -201 -202 0
169 201 -202 0
169 -201 202 0
-169 201 202 0
-202 -200 -203 0
202 200 -203 0
202 -200 203 0
-202 200 203 0
-202 -200 204 0
202 -204 0
200 -204 0
-169 -201 205 0
169 -205 0
201 -205 0
204 205 -206 0
-204 206 0
-205 206 0
-42 -173 207 0
42 -207 0
173 -207 0
-172 -207 -208 0
172 207 -208 0
172 -207 208 0
-172 207 208 0
-208 -206 -209 0
208 206 -209 0
208 -206 209 0
-208 206 209 0
-208 -206 210 0
208 -210 0
206 -210 0
-172 -207 211 0
172 -211 0
207 -211 0
210 211 -212 0
-210 212 0
-211 212 0
-1 -213 214 0
1 -214 0
213 -214 0
-179 -214 -215 0
179 214 -215 0
179 -214 215 0
-179 214 215 0
-179 -214 216 0
179 -216 0
214 -216 0
-4 -213 217 0
4 -217 0
213 -217 0
-185 -217 -218 0
185 217 -218 0
185 -217 218 0
-185 217 218 0
-218 -216 -219 0
218 216 -219 0
218 -216 219 0
-218 216 219 0
-218 -216 220 0
218 -220 0
216 -220 0
-185 -217 221 0
185 -221 0
217 -221 0
220 221 -222 0
-220 222 0
-221 222 0
-10 -213 223 0
10 -223 0
213 -223 0
-191 -223 -224 0
191 223 -224 0
191 -223 224 0
-191 223 224 0
-224 -222 -225 0
224 222 -225 0
224 -222 225 0
-224 222 225 0
-224 -222 226 0
224 -226 0
222 -226 0
-191 -223 227 0
191 -227 0
223 -227 0
226 227 -228 0
-226 228 0
-227 228 0
-18 -213 229 0
18 -229 0
213 -229 0
-197 -229 -230 0
197 229 -230 0
197 -229 230 0
-197 229 230 0
-230 -228 -231 0
230 228 -231 0
230 -228 231 0
-230 228 231 0
-230 -228 232 0
230 -232 0
228 -232 0
-197 -229 233 0
197 -233 0
229 -233 0
232 233 -234 0
-232 234 0
-233 234 0
-26 -213 235 0
26 -235 0
213 -235 0
-203 -235 -236 0
203 235 -236 0
203 -235 236 0
-203 235 236 0
-236 -234 -237 0
236 234 -237 0
236 -234 237 0
-236 234 237 0
-236 -234 238 0
236 -238 0
234 -238 0
-203 -235 239 0
203 -239 0
235 -239 0
238 239 -240 0
-238 240 0
-239 240 0
-34 -213 241 0
34 -241 0
213 -241 0
-209 -241 -242 0
209 241 -242 0
209 -241 242 0
-209 241 242 0
-242 -240 -243 0
242 240 -243 0
242 -240 243 0
-242 240 243 0
-242 -240 244 0
242 -244 0
240 -244 0
-209 -241 245 0
209 -245 0
241 -245 0
244 245 -246 0
-244 246 0
-245 246 0
-42 -213 247 0
42 -247 0
213 -247 0
-212 -247 -248 0
212 247 -248 0
212 -247 248 0
-212 247 248 0
-248 -246 -249 0
248 246 -249 0
248 -246 249 0
-248 246 249 0
-248 -246 250 0
248 -250 0
246 -250 0
-212 -247 251 0
212 -251 0
247 -251 0
250 251 -252 0
-250 252 0
-251 252 0
3 0
-8 0
55 0
-95 0
135 0
-175 0
-215 0
219 0
-225 0
231 0
-237 0
-243 0
249 0
-252 0
