p cnf 72 212
-1 3 -2 0
1 -3 0
-3 2 0
-4 5 -2 0
-5 4 0
-5 2 0
-1 7 -6 0
-7 1 0
-7 6 0
-7 -5 -8 0
7 -8 5 0
-7 8 5 0
8 -5 7 0
-7 9 -5 0
-9 5 0
-9 7 0
-10 11 -2 0
-11 10 0
-11 2 0
-4 12 -6 0
4 -12 0
6 -12 0
-11 -13 -12 0
12 11 -13 0
13 11 -12 0
12 13 -11 0
-14 -9 -13 0
13 9 -14 0
13 14 -9 0
14 9 -13 0
15 -9 -13 0
13 -15 0
-15 9 0
16 -11 -12 0
-16 11 0
12 -16 0
16 15 -17 0
-15 17 0
17 -16 0
19 -18 -2 0
-19 18 0
-19 2 0
-10 20 -6 0
-20 10 0
6 -20 0
-19 -20 -21 0
19 20 -21 0
19 -20 21 0
-19 20 21 0
-22 -17 -21 0
17 -22 21 0
22 -17 21 0
22 17 -21 0
23 -17 -21 0
-23 21 0
17 -23 0
-19 -20 24 0
-24 19 0
-24 20 0
23 -25 24 0
25 -23 0
-24 25 0
-18 26 -6 0
-26 18 0
6 -26 0
-27 -25 -26 0
-27 26 25 0
-26 27 25 0
27 -25 26 0
28 -25 -26 0
-28 25 0
-28 26 0
-1 -29 30 0
1 -30 0
29 -30 0
-14 -30 -31 0
14 -31 30 0
14 -30 31 0
-14 31 30 0
-14 -30 32 0
-32 14 0
-32 30 0
-4 -29 33 0
4 -33 0
29 -33 0
-34 -22 -33 0
-34 22 33 0
22 34 -33 0
34 -22 33 0
-32 -34 -35 0
34 -35 32 0
-32 34 35 0
-34 35 32 0
-32 -34 36 0
34 -36 0
32 -36 0
-22 37 -33 0
22 -37 0
-37 33 0
-38 36 37 0
38 -36 0
38 -37 0
-10 -29 39 0
-39 10 0
29 -39 0
-27 -39 -40 0
27 39 -40 0
27 40 -39 0
-27 40 39 0
-40 -38 -41 0
-41 40 38 0
-38 41 40 0
-40 41 38 0
-40 42 -38 0
40 -42 0
38 -42 0
-27 43 -39 0
27 -43 0
-43 39 0
42 43 -44 0
44 -42 0
-43 44 0
45 -18 -29 0
18 -45 0
29 -45 0
-28 -46 -45 0
-46 28 45 0
28 46 -45 0
-28 45 46 0
-46 -44 -47 0
44 46 -47 0
47 -44 46 0
-46 47 44 0
-46 -44 48 0
-48 46 0
-48 44 0
-28 49 -45 0
-49 28 0
-49 45 0
49 48 -50 0
-48 50 0
-49 50 0
-1 52 -51 0
-52 1 0
-52 51 0
-52 -53 -35 0
-53 35 52 0
53 -52 35 0
53 -35 52 0
54 -52 -35 0
35 -54 0
-54 52 0
-4 -51 55 0
-55 4 0
-55 51 0
-55 -41 -56 0
41 -56 55 0
-55 56 41 0
56 -41 55 0
-56 -57 -54 0
54 56 -57 0
56 57 -54 0
54 -56 57 0
-56 58 -54 0
56 -58 0
54 -58 0
-55 -41 59 0
41 -59 0
55 -59 0
-60 58 59 0
60 -58 0
60 -59 0
-10 61 -51 0
10 -61 0
51 -61 0
-62 -47 -61 0
47 -62 61 0
47 62 -61 0
-47 62 61 0
-60 -62 -63 0
60 62 -63 0
-60 63 62 0
60 63 -62 0
-60 64 -62 0
-64 62 0
-64 60 0
65 -47 -61 0
-65 47 0
-65 61 0
64 -66 65 0
-64 66 0
-65 66 0
67 -51 -18 0
-67 18 0
-67 51 0
-67 -68 -50 0
67 -68 50 0
-67 50 68 0
67 68 -50 0
-68 -69 -66 0
68 -69 66 0
69 68 -66 0
69 -68 66 0
-68 70 -66 0
68 -70 0
-70 66 0
-67 71 -50 0
-71 50 0
67 -71 0
-72 70 71 0
72 -70 0
-71 72 0
