p cnf 120 365
-1 3 -2 0
1 -3 0
-3 2 0
-4 5 -2 0
-5 4 0
-5 2 0
-1 7 -6 0
-7 1 0
-7 6 0
-7 -5 -8 0
7 -8 5 0
-7 8 5 0
8 -5 7 0
-7 9 -5 0
-9 5 0
-9 7 0
-10 11 -2 0
-11 10 0
-11 2 0
-4 12 -6 0
4 -12 0
6 -12 0
-11 -13 -12 0
12 11 -13 0
13 11 -12 0
12 13 -11 0
-14 -9 -13 0
13 9 -14 0
13 14 -9 0
14 9 -13 0
15 -9 -13 0
13 -15 0
-15 9 0
16 -11 -12 0
-16 11 0
12 -16 0
16 15 -17 0
-15 17 0
17 -16 0
19 -18 -2 0
-19 18 0
-19 2 0
-10 20 -6 0
-20 10 0
6 -20 0
-19 -20 -21 0
19 20 -21 0
19 -20 21 0
-19 20 21 0
-22 -17 -21 0
17 -22 21 0
22 -17 21 0
22 17 -21 0
23 -17 -21 0
-23 21 0
17 -23 0
-19 -20 24 0
-24 19 0
-24 20 0
23 -25 24 0
25 -23 0
-24 25 0
27 -26 -2 0
-27 26 0
-27 2 0
28 -18 -6 0
-28 18 0
-28 6 0
-27 -28 -29 0
27 28 -29 0
27 29 -28 0
-27 29 28 0
-30 -25 -29 0
29 -30 25 0
29 -25 30 0
-29 25 30 0
-25 -29 31 0
29 -31 0
-31 25 0
-27 -28 32 0
27 -32 0
-32 28 0
-33 32 31 0
-31 33 0
-32 33 0
34 -26 -6 0
-34 26 0
-34 6 0
-34 -35 -33 0
34 -35 33 0
-34 33 35 0
34 35 -33 0
-34 36 -33 0
33 -36 0
34 -36 0
-1 38 -37 0
-38 1 0
-38 37 0
-38 -14 -39 0
14 38 -39 0
-38 14 39 0
-14 38 39 0
-38 -14 40 0
-40 14 0
-40 38 0
-4 41 -37 0
-41 4 0
-41 37 0
-41 -22 -42 0
22 41 -42 0
42 22 -41 0
42 41 -22 0
-40 -43 -42 0
42 -43 40 0
42 43 -40 0
43 40 -42 0
-40 44 -42 0
42 -44 0
40 -44 0
-41 45 -22 0
22 -45 0
41 -45 0
-46 45 44 0
46 -44 0
46 -45 0
-10 47 -37 0
-47 10 0
-47 37 0
-48 -30 -47 0
-48 47 30 0
-47 48 30 0
47 -30 48 0
-48 -49 -46 0
-49 46 48 0
49 -46 48 0
49 -48 46 0
-48 50 -46 0
48 -50 0
46 -50 0
51 -30 -47 0
-51 30 0
-51 47 0
-52 50 51 0
52 -50 0
-51 52 0
53 -37 -18 0
-53 18 0
-53 37 0
-53 -35 -54 0
53 35 -54 0
54 -53 35 0
53 54 -35 0
-52 -55 -54 0
54 -55 52 0
54 -52 55 0
55 52 -54 0
-52 56 -54 0
54 -56 0
-56 52 0
-53 -35 57 0
-57 35 0
53 -57 0
56 -58 57 0
-56 58 0
58 -57 0
-37 -26 59 0
26 -59 0
37 -59 0
-60 -59 -36 0
-60 36 59 0
60 36 -59 0
59 60 -36 0
-60 -58 -61 0
60 58 -61 0
60 -58 61 0
-60 58 61 0
-60 62 -58 0
60 -62 0
58 -62 0
63 -59 -36 0
36 -63 0
-63 59 0
-64 63 62 0
64 -62 0
64 -63 0
-65 -1 66 0
1 -66 0
-66 65 0
-67 -43 -66 0
-67 43 66 0
67 43 -66 0
67 -43 66 0
68 -43 -66 0
-68 43 0
-68 66 0
-4 -65 69 0
-69 4 0
-69 65 0
-49 -69 -70 0
69 49 -70 0
49 70 -69 0
69 -49 70 0
-71 -68 -70 0
-71 70 68 0
-68 70 71 0
68 71 -70 0
-68 72 -70 0
-72 70 0
-72 68 0
-49 73 -69 0
49 -73 0
69 -73 0
73 72 -74 0
-72 74 0
74 -73 0
-65 -10 75 0
10 -75 0
-75 65 0
-55 -76 -75 0
75 -76 55 0
76 55 -75 0
-55 75 76 0
-74 -76 -77 0
-77 74 76 0
-74 77 76 0
-76 77 74 0
-74 -76 78 0
-78 76 0
-78 74 0
-55 79 -75 0
-79 55 0
-79 75 0
-80 78 79 0
80 -78 0
80 -79 0
-65 -18 81 0
18 -81 0
-81 65 0
-82 -81 -61 0
-82 81 61 0
82 -81 61 0
82 81 -61 0
-80 -83 -82 0
80 -83 82 0
-80 82 83 0
80 -82 83 0
-80 -82 84 0
82 -84 0
80 -84 0
-81 85 -61 0
-85 61 0
-85 81 0
85 -86 84 0
86 -84 0
-85 86 0
87 -65 -26 0
-87 26 0
-87 65 0
-64 -87 -88 0
87 64 -88 0
64 88 -87 0
-64 87 88 0
-89 -86 -88 0
-89 86 88 0
89 -86 88 0
89 86 -88 0
90 -86 -88 0
88 -90 0
86 -90 0
-64 91 -87 0
64 -91 0
87 -91 0
-92 91 90 0
92 -90 0
-91 92 0
94 -1 -93 0
1 -94 0
-94 93 0
-71 -94 -95 0
94 71 -95 0
95 71 -94 0
-71 95 94 0
-71 -94 96 0
71 -96 0
94 -96 0
-4 -93 97 0
4 -97 0
-97 93 0
-77 -98 -97 0
77 -98 97 0
77 98 -97 0
98 -77 97 0
-99 -98 -96 0
-99 96 98 0
99 98 -96 0
96 -98 99 0
100 -98 -96 0
-100 98 0
96 -100 0
-77 101 -97 0
-101 77 0
-101 97 0
100 101 -102 0
102 -100 0
102 -101 0
-10 -93 103 0
-103 10 0
-103 93 0
-103 -83 -104 0
-104 103 83 0
-103 104 83 0
-83 104 103 0
-105 -102 -104 0
102 104 -105 0
104 -102 105 0
102 105 -104 0
106 -102 -104 0
-106 104 0
102 -106 0
-103 -83 107 0
-107 83 0
-107 103 0
-108 106 107 0
-106 108 0
-107 108 0
-93 -18 109 0
18 -109 0
-109 93 0
-89 -110 -109 0
89 -110 109 0
89 110 -109 0
-89 110 109 0
-108 -110 -111 0
-111 110 108 0
111 -108 110 0
111 -110 108 0
-108 -110 112 0
110 -112 0
-112 108 0
113 -89 -109 0
89 -113 0
-113 109 0
113 -114 112 0
-112 114 0
-113 114 0
-93 -26 115 0
-115 26 0
-115 93 0
-115 -92 -116 0
92 -116 115 0
-115 92 116 0
-92 116 115 0
-117 -114 -116 0
-117 116 114 0
-114 117 116 0
-116 117 114 0
-114 -116 118 0
116 -118 0
-118 114 0
119 -115 -92 0
92 -119 0
-119 115 0
119 -120 118 0
120 -118 0
-119 120 0
