p cnf 36 99
-1 3 -2 0
1 -3 0
-3 2 0
-4 5 -2 0
-5 4 0
-5 2 0
-1 7 -6 0
-7 1 0
-7 6 0
-7 -5 -8 0
7 -8 5 0
-7 8 5 0
8 -5 7 0
-7 9 -5 0
-9 5 0
-9 7 0
-10 11 -2 0
-11 10 0
-11 2 0
-4 12 -6 0
4 -12 0
6 -12 0
-11 -13 -12 0
12 11 -13 0
13 11 -12 0
12 13 -11 0
-14 -9 -13 0
13 9 -14 0
13 14 -9 0
14 9 -13 0
15 -9 -13 0
13 -15 0
-15 9 0
16 -11 -12 0
-16 11 0
12 -16 0
16 15 -17 0
-15 17 0
17 -16 0
-10 18 -6 0
-18 10 0
6 -18 0
-18 -17 -19 0
17 -19 18 0
17 19 -18 0
19 -17 18 0
-18 20 -17 0
17 -20 0
-20 18 0
22 -1 -21 0
-22 1 0
-22 21 0
-14 -22 -23 0
22 14 -23 0
23 14 -22 0
22 -14 23 0
-14 -22 24 0
-24 14 0
-24 22 0
-4 25 -21 0
-25 4 0
-25 21 0
-19 -25 -26 0
-26 19 25 0
19 -25 26 0
26 -19 25 0
-27 -24 -26 0
-27 26 24 0
27 -24 26 0
27 -26 24 0
-24 28 -26 0
-28 26 0
-28 24 0
29 -19 -25 0
19 -29 0
-29 25 0
29 28 -30 0
-28 30 0
-29 30 0
-10 31 -21 0
-31 10 0
-31 21 0
-32 -20 -31 0
-32 20 31 0
20 -31 32 0
-20 32 31 0
-32 -30 -33 0
-33 32 30 0
-30 33 32 0
-32 33 30 0
-32 34 -30 0
-34 32 0
-34 30 0
-20 -31 35 0
20 -35 0
-35 31 0
34 35 -36 0
-34 36 0
-35 36 0
