c Random 4-SAT, n=40, m=100
p cnf 40 100
-23 2 -1 -33 0
29 -15 4 25 0
-14 -8 -30 36 0
5 -38 1 39 0
-34 -39 -16 -33 0
-28 -29 13 12 0
2 -7 17 -19 0
9 -10 -36 15 0
-13 -29 -30 37 0
7 -3 -21 -13 0
7 29 -20 -16 0
-5 -40 -39 6 0
-38 36 -27 9 0
-28 37 17 31 0
6 -19 33 26 0
1 19 -23 -24 0
28 33 14 -22 0
-10 7 -5 -15 0
-21 23 -30 -33 0
-11 -27 -25 3 0
38 6 33 25 0
-15 -16 -6 28 0
40 -23 16 -34 0
-38 -4 -32 34 0
-14 -10 18 -38 0
16 11 -36 20 0
36 26 33 -30 0
40 36 34 4 0
-24 2 32 -16 0
39 31 -18 -3 0
19 -15 -18 -40 0
-14 9 -27 -39 0
-13 3 28 27 0
-15 -13 -38 -37 0
10 -1 -33 30 0
-37 25 36 39 0
12 4 -22 -6 0
-28 2 30 25 0
9 -12 -30 14 0
4 -19 18 -3 0
23 -5 -34 29 0
23 -12 -37 31 0
-4 -26 -28 17 0
5 -38 -16 -25 0
17 -26 9 16 0
7 26 -31 22 0
23 -16 -29 20 0
-13 -6 -21 12 0
21 -17 -7 -15 0
11 3 -35 -40 0
14 -37 39 5 0
29 -38 21 1 0
40 -24 -7 -12 0
10 -22 -21 7 0
2 28 36 -5 0
-2 -40 32 -39 0
-20 37 -30 8 0
-18 24 -38 37 0
-6 4 -13 5 0
-1 -39 -4 29 0
-5 -18 9 -32 0
40 -37 24 8 0
-2 -12 21 16 0
-31 7 -21 2 0
-22 5 -26 23 0
-23 -10 -3 -11 0
-8 -36 -31 -33 0
-15 36 -13 -40 0
5 19 -32 15 0
22 -11 5 -32 0
-13 -12 -9 2 0
14 -8 31 39 0
7 23 -31 -25 0
22 -40 -35 -30 0
-38 3 15 19 0
9 22 -20 -23 0
-14 32 5 -34 0
-36 -9 -38 -18 0
36 -20 40 -18 0
2 11 30 -24 0
40 35 28 9 0
-4 -5 -9 12 0
-30 -37 13 31 0
-11 7 2 -13 0
-1 -11 34 -12 0
7 2 9 35 0
-25 -14 -28 -7 0
32 36 -40 38 0
-3 38 32 18 0
37 -36 -14 -24 0
-8 -17 -12 -2 0
4 -34 37 -1 0
31 -14 -8 -22 0
-9 -14 -13 21 0
-40 -9 -16 -2 0
4 23 3 39 0
9 -29 -28 5 0
-5 37 -8 -11 0
40 -28 6 18 0
-25 -17 20 34 0
