c Difficile (critique): random 3-SAT sans structure, n=20, m=85, ratio=4.25
p cnf 20 85
-5 3 17 0
3 15 -16 0
1 -11 -18 0
2 16 -5 0
-5 2 11 0
-18 12 2 0
-4 -15 -17 0
-20 7 6 0
3 1 12 0
-1 -9 -19 0
-13 -8 20 0
13 10 7 0
-8 9 -12 0
-9 10 11 0
2 -6 19 0
1 -20 17 0
10 1 13 0
-18 -3 -2 0
-15 17 5 0
-4 -10 1 0
1 -18 5 0
11 7 17 0
10 9 3 0
-16 -11 -12 0
16 20 19 0
7 13 -18 0
9 -14 -16 0
-9 13 -7 0
-11 10 12 0
12 -13 7 0
20 -10 -14 0
9 -12 16 0
8 13 1 0
6 -11 9 0
-13 -19 8 0
-8 7 -2 0
2 5 18 0
-3 9 -12 0
-18 16 -9 0
5 16 19 0
1 -17 12 0
-17 -16 12 0
16 -18 6 0
-5 13 -9 0
12 14 -9 0
13 10 -6 0
8 -14 -15 0
1 18 -19 0
2 -19 -12 0
-10 8 -16 0
-16 -14 -3 0
-5 -7 17 0
-16 20 2 0
5 -17 -7 0
-5 18 -16 0
-6 8 -3 0
18 -19 -17 0
3 -8 -19 0
20 11 -15 0
-10 -8 12 0
-4 -3 -19 0
10 17 -20 0
-16 -11 -15 0
-19 10 -6 0
4 9 -7 0
15 20 17 0
18 -4 -19 0
-9 20 16 0
-4 8 -1 0
2 -5 -12 0
-13 -17 5 0
-15 -18 10 0
7 1 -18 0
-8 -10 12 0
8 -12 -11 0
20 -18 -10 0
-17 -9 -11 0
14 6 -12 0
19 1 14 0
-1 -13 14 0
20 -4 11 0
2 17 13 0
6 17 14 0
-6 5 -18 0
-8 14 17 0
