c Difficile (critique): random 3-SAT sans structure, n=15, m=64, ratio=4.27
p cnf 15 64
12 5 10 0
-13 2 8 0
9 2 -7 0
10 6 15 0
12 9 3 0
15 8 -12 0
-8 -1 -4 0
-4 13 -8 0
-10 1 7 0
15 -1 12 0
-2 -13 12 0
-14 12 4 0
-12 -4 9 0
14 7 -3 0
-7 14 -5 0
-15 -6 -10 0
12 2 14 0
2 10 -7 0
-4 14 6 0
-13 5 -14 0
-2 3 -11 0
14 -7 -3 0
-10 -6 4 0
6 -7 -13 0
-12 -14 -10 0
-6 10 -14 0
14 -2 7 0
-6 -7 4 0
15 -6 -13 0
-1 -10 9 0
-12 -15 10 0
-9 -14 -12 0
-12 10 -7 0
-5 -12 11 0
9 -2 -15 0
12 -7 -11 0
-15 14 -8 0
10 2 -11 0
11 14 -8 0
7 -2 10 0
1 6 15 0
15 -6 -13 0
11 7 1 0
7 -9 -6 0
6 -10 -4 0
13 -7 10 0
1 -13 -12 0
9 -1 -14 0
1 5 -4 0
11 8 1 0
-6 -4 1 0
12 1 13 0
9 3 -6 0
3 -7 6 0
-5 1 8 0
-7 -5 12 0
-14 7 -12 0
8 -1 -5 0
-6 14 10 0
7 -2 11 0
-5 -1 -13 0
-4 -14 10 0
-14 -6 -2 0
-7 8 -13 0
