c Difficile (critique): random 3-SAT sans structure, n=50, m=213, ratio=4.26
p cnf 50 213
10 29 30 0
27 -6 20 0
3 48 -43 0
-10 2 3 0
6 31 16 0
39 13 -48 0
-36 48 -8 0
10 -14 -12 0
-17 11 18 0
49 -28 -41 0
-50 18 -34 0
35 -17 -42 0
-49 -40 22 0
-8 21 -38 0
1 10 26 0
-6 -9 -25 0
25 -12 26 0
-49 23 -42 0
-3 34 -31 0
5 44 4 0
-28 -40 -2 0
-28 11 -33 0
-46 12 -13 0
-42 -41 -19 0
27 -6 -10 0
-18 28 -2 0
-40 33 -1 0
45 -21 35 0
-33 -36 -4 0
-5 29 -20 0
24 -32 -13 0
-8 10 -3 0
-48 -15 -4 0
-20 -2 -45 0
-23 -45 -48 0
50 44 41 0
-32 -38 -3 0
-24 -15 -23 0
-32 46 -31 0
4 -24 1 0
-40 50 47 0
-45 -46 13 0
19 -17 1 0
21 -36 -35 0
4 -2 49 0
11 -48 31 0
-35 4 -19 0
-22 28 -29 0
27 18 -35 0
-7 -49 -43 0
-3 45 23 0
28 -4 -30 0
11 42 4 0
4 -38 -27 0
43 -46 15 0
-41 -46 43 0
-7 37 -1 0
7 16 -35 0
28 -9 -5 0
40 -14 3 0
-45 25 -42 0
37 3 20 0
-45 -42 -31 0
24 20 40 0
13 -2 -44 0
20 -24 -35 0
-19 -4 50 0
-8 11 18 0
-33 47 11 0
-10 -32 6 0
37 -2 -21 0
8 -31 1 0
23 -8 19 0
39 7 -38 0
-41 50 -40 0
45 -44 -2 0
45 29 -3 0
15 45 38 0
47 -35 -50 0
-39 -11 -16 0
27 36 8 0
-49 -44 18 0
11 20 36 0
-48 -25 35 0
46 -6 26 0
36 -32 -37 0
8 44 50 0
-36 -8 -10 0
32 25 -11 0
24 8 -9 0
46 1 -35 0
-17 -32 -30 0
20 39 28 0
-40 3 -48 0
10 -9 -7 0
33 -5 1 0
47 -9 -39 0
-11 34 -8 0
18 -11 19 0
-41 31 -13 0
31 14 9 0
2 -45 37 0
-9 42 45 0
-6 2 -28 0
-13 37 -10 0
-12 6 29 0
21 -13 -27 0
-33 30 19 0
5 -30 49 0
10 -17 -5 0
35 -13 -47 0
-45 43 14 0
-6 24 -27 0
-43 -42 -4 0
10 -42 45 0
6 -39 -30 0
50 11 -27 0
19 -33 20 0
35 -16 -48 0
43 27 -42 0
45 -10 -14 0
-10 30 36 0
-5 -39 -14 0
47 -25 16 0
-13 28 -39 0
50 -38 30 0
-8 39 3 0
-36 33 26 0
-22 -43 34 0
-12 38 45 0
37 -44 -38 0
29 -35 -17 0
-48 33 8 0
-45 12 -25 0
-1 26 9 0
26 -1 -40 0
6 49 34 0
-46 39 -28 0
-28 -27 33 0
19 -49 6 0
17 -11 -41 0
5 -50 26 0
41 -50 -26 0
18 17 7 0
24 14 -20 0
-26 -13 24 0
-7 -47 -41 0
-25 3 10 0
25 -19 44 0
20 -22 46 0
13 -32 24 0
5 30 -41 0
1 -47 29 0
-26 -39 10 0
-26 -13 49 0
40 17 -48 0
33 43 -39 0
-41 8 -36 0
1 -50 40 0
16 -18 -29 0
-26 24 -4 0
35 -38 11 0
35 -17 49 0
47 -32 44 0
-8 42 -35 0
5 -30 38 0
-16 -19 -32 0
-50 47 -36 0
42 -43 20 0
44 -31 25 0
31 -1 15 0
32 35 4 0
5 15 -11 0
19 11 -32 0
-20 43 10 0
-11 -35 -46 0
44 -26 36 0
46 -9 -12 0
-26 30 -15 0
31 9 23 0
1 8 21 0
-46 -36 -41 0
-47 13 6 0
-34 20 -35 0
18 -44 22 0
-14 -44 32 0
23 -32 24 0
30 -8 -39 0
18 -32 5 0
-47 27 -17 0
-5 30 -42 0
9 -8 1 0
-29 -39 -31 0
25 17 -1 0
4 50 14 0
32 37 21 0
-4 -37 -49 0
-22 -4 49 0
-40 -12 -22 0
-41 -29 -4 0
28 38 26 0
8 -26 5 0
-12 48 22 0
-16 35 -15 0
-35 14 19 0
-45 -29 26 0
50 37 -22 0
-26 -6 19 0
-30 -25 -48 0
-46 6 -25 0
-8 -22 -31 0
48 -34 -7 0
1 34 25 0
