c Difficile (dense): random 3-SAT sans structure, n=30, m=240, ratio=8.00
p cnf 30 240
-30 28 -1 0
8 20 -6 0
-5 15 -30 0
-2 16 -24 0
26 8 27 0
12 -18 23 0
9 27 17 0
-16 -3 -24 0
16 26 -13 0
1 -7 13 0
-5 24 14 0
9 -24 -14 0
-22 28 -27 0
3 21 -19 0
19 12 -29 0
-28 29 6 0
-1 -10 27 0
27 16 -23 0
9 -16 28 0
-20 -21 -16 0
16 -13 -20 0
-28 -16 2 0
16 11 -10 0
1 -3 15 0
2 -23 9 0
-25 18 15 0
-21 28 -30 0
-22 17 30 0
14 -26 30 0
30 13 -18 0
22 -11 16 0
20 -1 -14 0
7 -3 29 0
-15 17 -19 0
4 23 -11 0
4 26 5 0
19 -29 -4 0
-25 -6 -21 0
-27 -13 7 0
-17 -18 10 0
-1 7 22 0
6 -18 4 0
2 7 -1 0
-26 -27 -15 0
-29 -25 -8 0
-16 -1 -6 0
16 -4 7 0
9 3 -25 0
20 4 17 0
-24 -17 22 0
-1 -28 -16 0
-19 -9 23 0
-5 -19 -29 0
-4 21 -11 0
-2 26 29 0
30 26 -10 0
-12 -9 -22 0
-27 -14 -15 0
-15 9 -25 0
-3 -2 -17 0
5 6 -3 0
-6 28 -30 0
-12 -18 -3 0
9 -7 -24 0
-25 5 -11 0
-13 5 -12 0
27 -3 23 0
6 -17 22 0
10 1 27 0
-28 -7 23 0
-27 -8 20 0
2 -15 7 0
-1 8 30 0
-6 15 -14 0
-4 -3 18 0
20 29 -16 0
-27 -6 -21 0
-10 -1 9 0
27 1 28 0
-18 19 -25 0
24 14 -3 0
27 18 -19 0
3 15 20 0
-17 -30 -9 0
24 -27 12 0
-21 8 5 0
25 22 -21 0
-2 28 8 0
19 27 9 0
-4 -22 -21 0
-5 -4 -6 0
-22 -27 9 0
23 -25 29 0
-9 -16 -17 0
17 -21 -8 0
23 -2 -10 0
-9 -27 13 0
2 5 22 0
29 27 -8 0
23 25 16 0
9 -28 15 0
-16 -15 30 0
-27 -23 -3 0
-14 -4 -22 0
13 28 26 0
16 7 -18 0
16 -28 -1 0
-16 21 13 0
23 11 -22 0
18 13 15 0
-25 -29 4 0
-7 -24 -1 0
-6 -3 1 0
3 19 6 0
26 25 -5 0
-2 -13 -22 0
8 25 -20 0
13 -8 -27 0
22 -1 -11 0
9 -19 -26 0
-5 -28 27 0
13 -29 6 0
7 -9 -23 0
3 -18 5 0
23 28 22 0
-10 13 -12 0
30 -4 8 0
-7 25 14 0
-12 -10 -3 0
-3 21 16 0
-12 9 -25 0
27 -30 -4 0
15 27 9 0
1 -29 -22 0
-4 -8 -28 0
7 -22 19 0
16 22 -11 0
26 2 5 0
-9 -7 -26 0
-11 25 10 0
6 -8 -26 0
12 -18 -19 0
12 -20 24 0
-26 4 21 0
-16 1 30 0
-2 23 4 0
2 -24 21 0
21 -4 24 0
-26 -9 -7 0
-2 -10 -14 0
11 4 23 0
-9 -3 -8 0
-7 28 -18 0
4 -18 -11 0
13 -29 16 0
23 -9 -1 0
-9 5 -11 0
-20 23 16 0
19 -11 3 0
23 26 -3 0
22 21 14 0
12 19 25 0
-11 -12 -3 0
7 -15 18 0
17 -11 15 0
-12 -25 5 0
-3 17 -27 0
-9 -1 -22 0
16 17 2 0
-1 -3 15 0
6 28 29 0
-11 29 7 0
14 -29 27 0
-22 4 -10 0
-14 29 -17 0
28 -10 -2 0
28 2 14 0
-4 5 20 0
-29 6 -3 0
26 11 -2 0
8 15 -5 0
11 -7 12 0
-30 20 9 0
6 22 -11 0
24 -15 -8 0
-15 -23 11 0
6 -17 29 0
-20 22 11 0
27 -15 17 0
2 -18 -9 0
-30 16 -28 0
-8 23 -7 0
-18 4 -29 0
-29 5 -12 0
-17 -13 -5 0
-1 -4 20 0
-3 26 -5 0
17 10 -16 0
5 -10 25 0
-12 -17 -7 0
-21 30 29 0
3 -6 -5 0
11 -24 12 0
28 16 -6 0
25 9 8 0
-19 -25 -13 0
29 -15 13 0
-29 11 18 0
-26 -10 20 0
7 -30 12 0
4 3 -6 0
-5 9 11 0
28 12 -25 0
-7 -24 28 0
15 -27 -23 0
-25 16 -23 0
-28 11 -21 0
16 -22 14 0
17 -10 -8 0
-3 26 27 0
22 12 2 0
2 21 27 0
14 -12 -3 0
9 20 3 0
15 -5 -16 0
25 6 -2 0
-19 28 -12 0
21 -30 28 0
12 23 -5 0
12 2 22 0
-2 -26 -27 0
8 18 3 0
7 -29 -25 0
12 17 20 0
-11 6 14 0
4 -22 27 0
21 -28 12 0
-12 -21 7 0
19 12 2 0
8 -2 -18 0
