c Difficile (sparse): random 3-SAT sans structure, n=100, m=200, ratio=2.00
p cnf 100 200
47 -78 98 0
-90 81 57 0
37 66 81 0
38 -40 23 0
-8 -96 -17 0
71 95 -81 0
18 -98 5 0
54 78 -21 0
-24 65 -53 0
76 -72 91 0
-4 23 -71 0
93 -3 43 0
-23 37 -31 0
76 96 53 0
-90 77 -76 0
73 -56 80 0
-34 21 92 0
-64 -66 -74 0
30 -99 -82 0
-18 57 -50 0
-97 23 -66 0
-35 48 97 0
100 88 19 0
-15 98 -45 0
39 -23 -41 0
-77 -36 -51 0
16 63 -87 0
23 31 38 0
-14 53 -54 0
39 -32 -36 0
12 79 83 0
-67 -3 57 0
-55 49 69 0
-15 8 -46 0
39 18 -35 0
-53 95 92 0
34 52 -82 0
22 -34 -38 0
62 37 50 0
90 -8 57 0
-78 -34 68 0
91 84 94 0
-69 -56 48 0
-39 -40 -49 0
-5 49 -17 0
51 38 -29 0
10 -97 -9 0
52 28 -44 0
-59 72 -78 0
-96 74 -33 0
-66 -32 19 0
33 55 -28 0
27 -81 89 0
48 -2 44 0
70 82 12 0
84 -15 31 0
40 9 -18 0
78 90 30 0
16 80 -35 0
57 -74 18 0
19 1 66 0
-5 -69 23 0
38 -70 75 0
86 -11 -43 0
-87 -73 -79 0
95 98 -9 0
89 -94 79 0
-12 -50 26 0
-64 12 -11 0
16 -55 64 0
62 -96 -68 0
14 -41 -21 0
-47 100 37 0
39 5 -12 0
99 50 11 0
-98 87 59 0
61 45 68 0
-51 -92 19 0
-19 -68 46 0
-31 -45 -100 0
-20 -54 45 0
-79 65 -5 0
-38 -36 -52 0
23 -41 3 0
45 48 35 0
-92 91 -45 0
77 64 -72 0
-84 37 -16 0
70 84 5 0
66 95 -64 0
39 96 51 0
78 68 -37 0
-15 74 -3 0
23 -88 99 0
58 -1 10 0
-24 62 15 0
91 -55 30 0
26 -13 39 0
72 -29 53 0
7 59 -58 0
-32 8 84 0
-86 79 -77 0
38 -59 79 0
31 58 2 0
89 -1 69 0
-90 -75 -12 0
-84 75 -88 0
60 -20 -29 0
62 -54 8 0
-74 -37 6 0
40 -75 70 0
-54 96 71 0
-28 -35 -85 0
48 92 -94 0
12 77 73 0
13 34 62 0
40 -67 -83 0
5 -87 49 0
27 100 -22 0
43 -66 11 0
8 -43 70 0
-5 -82 -15 0
90 -12 -45 0
-34 13 15 0
-3 61 99 0
56 82 -12 0
-59 -60 -9 0
71 -80 -29 0
-87 16 92 0
61 3 38 0
-12 -85 57 0
31 8 -35 0
-80 52 85 0
100 -29 13 0
-69 -43 -57 0
89 -3 74 0
-9 26 -10 0
-6 90 52 0
88 91 78 0
-73 -74 33 0
2 -72 -95 0
65 -27 -83 0
-84 -90 -50 0
78 -67 40 0
-87 24 -32 0
-5 -31 46 0
-51 -29 76 0
-41 -86 78 0
41 39 90 0
53 -73 -65 0
98 -51 50 0
54 71 82 0
86 -69 -91 0
65 14 -60 0
-10 82 77 0
-70 97 -66 0
5 14 -20 0
-82 -18 93 0
96 68 84 0
78 -18 -83 0
46 -36 32 0
99 -50 -86 0
-18 77 90 0
-14 24 -97 0
65 -85 92 0
3 -87 93 0
-76 -38 -69 0
90 -52 78 0
-99 97 76 0
-89 -58 31 0
-77 -40 -98 0
14 12 -55 0
-43 -93 -4 0
-97 -35 14 0
92 100 64 0
69 95 -50 0
17 -92 -64 0
-52 -48 85 0
-98 -97 13 0
-90 69 51 0
-86 -77 -27 0
-19 30 -67 0
55 47 69 0
1 -46 59 0
-2 60 -49 0
32 -23 -55 0
-11 26 -84 0
-83 -92 -81 0
-59 23 48 0
77 -42 9 0
15 -62 100 0
-24 -18 -67 0
-61 23 -74 0
-52 -31 -53 0
-72 32 -1 0
94 98 53 0
-87 -59 -94 0
-62 -40 72 0
86 64 -67 0
31 -51 43 0
