c Difficile (critique): random 3-SAT sans structure, n=100, m=426, ratio=4.26
p cnf 100 426
-80 -71 -40 0
9 -12 -25 0
97 32 -45 0
-25 -27 -40 0
-84 -15 -60 0
14 78 -85 0
28 80 96 0
35 -2 48 0
-64 -2 -100 0
-71 78 19 0
-62 -61 -44 0
-30 34 -23 0
-99 -80 -51 0
27 88 4 0
-87 -7 10 0
39 89 93 0
-96 -93 69 0
-30 -81 93 0
90 -20 -2 0
53 -12 81 0
14 93 -36 0
-66 96 2 0
64 -41 -45 0
60 -75 10 0
39 74 -5 0
30 -91 -4 0
-11 -60 -66 0
3 86 71 0
64 -29 -3 0
42 -9 43 0
-78 -2 -58 0
-42 49 79 0
4 -6 93 0
61 21 -32 0
39 18 58 0
24 71 27 0
-76 -44 97 0
-68 65 3 0
-13 -35 29 0
-73 46 -29 0
-37 -62 -96 0
-49 11 -72 0
-15 -100 -63 0
-49 6 96 0
-46 84 -42 0
-91 92 50 0
73 63 91 0
-55 -77 24 0
1 68 29 0
79 66 14 0
35 -14 -52 0
-1 31 5 0
-45 -31 -34 0
-65 30 -80 0
-91 -3 33 0
-70 -20 50 0
66 14 16 0
27 -4 -84 0
94 -18 -16 0
94 82 -95 0
-40 -27 8 0
-33 43 94 0
76 23 -93 0
88 72 21 0
32 -39 -91 0
-44 35 -49 0
-37 91 67 0
-2 44 86 0
87 -47 72 0
4 67 -46 0
-52 -71 41 0
-8 26 73 0
-47 95 62 0
45 49 43 0
-44 89 -1 0
63 61 55 0
-18 63 61 0
-63 -61 73 0
22 74 -67 0
-40 -66 74 0
-99 -85 18 0
-58 25 46 0
-87 76 58 0
55 -16 53 0
100 2 -5 0
1 84 73 0
67 16 75 0
5 -56 86 0
90 99 -19 0
-50 95 98 0
-41 -58 7 0
49 56 -72 0
-66 -61 100 0
52 -94 -47 0
39 -68 -24 0
-52 -54 -65 0
-26 -2 89 0
-1 -50 -94 0
7 97 75 0
-70 -17 95 0
51 79 -97 0
36 -51 27 0
76 -25 -11 0
72 57 74 0
91 50 60 0
-61 -81 28 0
-31 -67 70 0
52 -79 -97 0
72 89 50 0
-15 84 -74 0
13 65 -58 0
10 40 -25 0
16 93 -54 0
63 50 -4 0
-96 -23 -5 0
-19 -75 89 0
4 10 -25 0
-48 -35 -9 0
-37 4 -2 0
-51 -90 49 0
73 80 -94 0
-59 52 65 0
72 -85 95 0
23 39 -9 0
-82 31 -75 0
-58 -50 64 0
-99 -92 24 0
-29 76 -1 0
-73 19 -93 0
-94 -24 6 0
28 -58 -5 0
89 69 -74 0
-53 20 2 0
50 45 -3 0
36 -66 -28 0
-12 6 53 0
37 27 -34 0
-76 58 23 0
-71 -38 21 0
19 27 -22 0
-71 -97 -75 0
-76 64 -61 0
91 79 -17 0
58 96 49 0
-84 36 98 0
66 -98 -84 0
-62 -69 75 0
-58 85 -84 0
-55 -63 12 0
73 23 31 0
-11 97 -39 0
27 25 10 0
70 -75 -59 0
98 -86 43 0
-43 44 35 0
34 -66 94 0
-53 95 -84 0
-91 -3 6 0
-57 -49 -54 0
-77 86 72 0
-14 -77 -76 0
49 15 41 0
-53 -80 -98 0
-64 -72 -37 0
-81 54 99 0
35 -9 42 0
55 -21 79 0
38 -42 73 0
-100 38 -14 0
-62 -50 -90 0
-79 8 -43 0
-100 66 -23 0
75 -99 48 0
-30 51 -4 0
-80 -94 29 0
38 89 -27 0
-10 49 47 0
-71 -48 55 0
-56 -36 33 0
40 -3 -98 0
-92 31 -36 0
71 -63 91 0
-51 -91 -40 0
-57 88 72 0
-39 95 -71 0
-30 -25 -49 0
74 49 -84 0
-74 5 83 0
54 91 -45 0
18 1 -87 0
93 84 49 0
-53 -84 -13 0
22 -13 9 0
-68 71 87 0
25 -69 -94 0
-9 -21 -98 0
64 -15 -45 0
18 -16 37 0
-77 -51 -90 0
-35 74 38 0
49 -94 57 0
-92 14 27 0
6 50 -98 0
-45 -62 -94 0
45 91 82 0
54 67 27 0
-51 28 82 0
98 55 83 0
62 -64 -100 0
-24 64 -1 0
96 -66 31 0
-39 86 69 0
45 -28 -91 0
67 -22 -78 0
-39 42 98 0
-28 -7 -20 0
49 -100 -22 0
-84 -68 49 0
67 -71 46 0
40 63 -88 0
-35 19 64 0
-13 46 65 0
-59 -83 -24 0
100 96 -41 0
-37 -74 63 0
50 39 20 0
-97 -23 -54 0
99 -16 -39 0
-3 80 -56 0
35 21 -36 0
85 -51 -79 0
2 -18 -37 0
5 -53 -80 0
86 60 -44 0
-25 69 34 0
-9 22 86 0
-94 60 -100 0
19 75 11 0
70 -13 96 0
63 15 -13 0
76 68 39 0
81 -73 -2 0
81 -58 -12 0
73 -2 -33 0
46 -50 -61 0
35 -92 -96 0
-21 -49 -4 0
-21 -97 -88 0
16 73 28 0
-77 75 84 0
63 11 10 0
77 54 -65 0
20 9 -78 0
46 -57 62 0
41 95 73 0
-22 64 -62 0
87 -24 10 0
-23 -28 24 0
32 30 -16 0
47 8 -61 0
32 -96 7 0
83 -2 -77 0
-43 -77 -91 0
35 6 -81 0
-2 -86 -30 0
-28 -51 89 0
-100 -94 39 0
-22 -41 -87 0
75 -62 53 0
92 36 14 0
23 -85 21 0
-48 41 -3 0
16 -59 -18 0
53 42 -85 0
63 17 -92 0
-65 -19 -83 0
76 1 36 0
-78 29 -36 0
-12 94 3 0
69 93 24 0
76 -90 78 0
-54 30 15 0
74 35 -33 0
-16 42 36 0
-25 -50 92 0
-49 -70 11 0
38 3 -6 0
30 59 72 0
15 33 -93 0
-8 16 -47 0
32 64 -65 0
14 -54 22 0
15 89 -94 0
-24 -21 -43 0
-62 -37 -11 0
5 47 -85 0
-57 -44 22 0
65 -86 -11 0
91 100 -78 0
96 -73 100 0
97 75 3 0
-62 21 6 0
17 15 39 0
-63 -79 -55 0
-54 67 72 0
37 59 31 0
88 -30 96 0
39 -77 -28 0
63 -30 -95 0
-62 -46 89 0
99 91 3 0
72 33 3 0
41 -95 -42 0
88 -66 -13 0
-8 25 74 0
-57 30 -11 0
-26 -55 77 0
-19 79 87 0
-77 93 50 0
76 14 8 0
21 20 -58 0
-2 17 -7 0
-68 -82 -64 0
-62 -8 -17 0
-93 -95 9 0
59 -30 78 0
-27 7 35 0
-97 -42 81 0
46 -66 70 0
41 43 12 0
29 -75 -51 0
86 56 -60 0
-88 66 78 0
71 -64 56 0
4 -36 45 0
-26 -15 54 0
56 -76 68 0
7 82 -87 0
-45 64 72 0
43 -46 -61 0
66 -13 28 0
86 76 -57 0
-56 47 94 0
26 90 17 0
-89 42 46 0
-55 9 99 0
-21 76 32 0
38 -65 -56 0
29 78 -22 0
-32 58 -4 0
-35 -92 -42 0
-58 73 69 0
-83 -66 -50 0
-72 -21 -23 0
-24 23 -89 0
59 -71 85 0
-34 -56 62 0
51 -32 44 0
-78 45 -50 0
1 98 97 0
-52 22 10 0
-87 81 -74 0
84 -25 -10 0
-32 -52 -70 0
-55 70 58 0
-89 77 -86 0
-64 -49 -38 0
45 77 31 0
-66 -50 -16 0
-71 -74 10 0
-82 32 -64 0
-71 8 33 0
-6 48 33 0
-11 -39 -46 0
49 43 98 0
-31 27 -72 0
87 35 93 0
31 66 89 0
-100 26 -14 0
6 -26 70 0
-85 11 -18 0
-77 -86 88 0
13 53 7 0
15 27 -64 0
-89 17 -20 0
94 19 31 0
74 -24 9 0
72 86 5 0
-68 -88 84 0
-8 81 -56 0
54 -92 -93 0
44 -20 12 0
-89 46 -95 0
28 41 -74 0
-73 -60 28 0
63 -20 16 0
59 3 -93 0
76 -17 59 0
53 -41 -81 0
-94 -92 -56 0
74 -89 90 0
-20 -49 11 0
80 -23 -26 0
-20 10 -92 0
89 -66 -93 0
9 -65 1 0
82 70 -39 0
51 -44 -45 0
-75 41 100 0
-76 37 81 0
-18 -94 -7 0
46 38 25 0
46 94 87 0
44 -100 59 0
45 -52 44 0
78 -26 -44 0
-41 -9 -65 0
-68 -29 54 0
-88 19 -56 0
61 -50 80 0
-67 -76 75 0
-65 -3 47 0
-81 -72 -95 0
-26 60 95 0
82 -78 -40 0
-16 92 -63 0
