c Random 4-SAT, n=20, m=50
p cnf 20 50
-6 10 -9 12 0
-20 -2 3 -5 0
7 -1 -6 -8 0
5 -18 -17 20 0
-6 18 3 4 0
6 -15 1 -12 0
-12 -3 2 11 0
15 19 -3 -18 0
-20 10 -16 8 0
-6 14 9 17 0
5 15 -9 8 0
-4 12 -16 -5 0
5 -8 19 -2 0
6 -18 14 5 0
13 -6 -10 11 0
-3 5 -18 -15 0
4 17 14 13 0
-11 -16 -15 -6 0
14 -16 18 3 0
19 -5 -6 -7 0
-16 -2 8 9 0
8 -15 13 6 0
20 6 13 7 0
-10 7 -18 -17 0
-9 -11 20 14 0
3 2 -10 -14 0
-16 -14 7 11 0
4 -13 3 -6 0
16 2 -7 -5 0
18 -4 6 -19 0
-15 -19 8 11 0
16 -12 -4 20 0
5 17 -14 -18 0
-15 -14 10 7 0
15 5 19 -8 0
-15 -12 19 -18 0
19 -20 12 -4 0
10 -1 -2 7 0
-18 17 19 -4 0
17 -12 -19 10 0
-14 1 12 -13 0
-4 12 8 -16 0
2 -7 12 -8 0
4 17 -14 -2 0
-16 -7 -10 -14 0
6 7 13 -20 0
18 -12 6 20 0
9 -16 -19 4 0
1 -19 -3 6 0
8 -15 5 -9 0
