c Difficile (sparse): random 3-SAT sans structure, n=50, m=100, ratio=2.00
p cnf 50 100
39 3 44 0
27 -3 -34 0
32 44 -24 0
-40 -36 25 0
-3 -21 -9 0
38 17 20 0
-43 44 -4 0
-9 16 -10 0
-20 29 -10 0
38 17 30 0
-24 23 36 0
5 -30 28 0
32 -36 -47 0
-35 -1 -10 0
-24 23 22 0
-41 -45 -30 0
20 29 -9 0
7 -20 34 0
-19 -5 -45 0
43 -45 -23 0
35 24 27 0
36 -30 34 0
-46 -11 18 0
-29 28 34 0
19 39 -36 0
-17 -1 -12 0
49 -48 4 0
15 10 -37 0
1 28 -36 0
39 -27 20 0
-10 6 -9 0
-39 18 -7 0
17 -47 12 0
-5 -20 8 0
-16 23 40 0
43 20 -38 0
30 27 -43 0
-27 2 -23 0
47 31 15 0
1 29 -19 0
-25 5 -30 0
-15 14 11 0
-28 40 22 0
-38 50 -27 0
-36 -20 22 0
-6 -22 -34 0
-15 -25 31 0
-27 -13 38 0
-47 -40 -21 0
-48 4 -41 0
-35 10 37 0
-46 -36 -9 0
-28 13 4 0
42 20 -48 0
1 -19 -27 0
-38 -13 -16 0
-34 -33 -28 0
35 45 -23 0
-33 -27 -36 0
44 28 -3 0
-20 -36 4 0
-4 26 15 0
41 29 -45 0
-30 -13 -41 0
-43 49 -38 0
-11 -20 -46 0
19 -37 36 0
-41 -46 37 0
1 -13 -30 0
-42 25 -49 0
38 5 -40 0
-16 -35 23 0
-29 -13 50 0
-6 -1 -16 0
39 10 4 0
48 -1 -14 0
-22 -41 48 0
50 38 -10 0
-20 23 -2 0
-31 37 -13 0
9 12 47 0
22 -4 9 0
-27 -41 -22 0
42 22 43 0
47 -1 41 0
-45 48 -28 0
-13 -24 4 0
33 35 -49 0
9 -6 43 0
44 13 43 0
4 19 -43 0
-26 48 -6 0
-21 2 40 0
50 1 -41 0
9 -39 7 0
-29 -20 34 0
17 -20 -10 0
33 -15 -50 0
-26 -19 25 0
-8 -50 -38 0
