c Type 2: interval ordering (ordered), n=25, m_intervals=25, t=3
p cnf 25 88
-1 2 -7 0
1 -2 -7 0
1 2 -7 0
1 2 -7 0
-1 -2 7 0
1 -2 -7 0
-1 2 -7 0
-1 -2 7 0
-7 -4 -3 0
7 4 -3 0
-7 -4 -3 0
7 4 -3 0
-7 4 -3 0
7 4 -3 0
7 4 3 0
7 4 3 0
7 8 5 0
7 -8 5 0
7 -8 -5 0
-7 8 5 0
-7 -8 -5 0
7 -8 5 0
-7 8 5 0
7 -8 5 0
-7 8 5 0
7 8 -5 0
-7 -8 -5 0
7 -8 -5 0
8 9 -11 0
8 -9 11 0
8 -9 11 0
8 9 11 0
-11 12 18 0
11 -12 -18 0
11 12 -18 0
-11 -12 -18 0
16 -13 -22 0
16 13 -22 0
-16 -13 -22 0
16 13 -22 0
18 13 14 0
-18 -13 14 0
18 -13 14 0
-18 -13 14 0
-18 -16 14 0
-18 -16 14 0
18 -16 14 0
-18 -16 14 0
-18 -16 14 0
-18 16 14 0
18 16 14 0
-18 -16 14 0
-16 -22 14 0
-16 22 -14 0
-16 -22 14 0
-16 22 14 0
18 16 -22 0
-18 -16 -22 0
-18 -16 -22 0
18 16 -22 0
-18 -16 22 0
18 -16 22 0
-18 -16 -22 0
-18 16 -22 0
-18 16 25 0
-18 16 -25 0
18 16 -25 0
18 16 25 0
22 -25 17 0
-22 25 -17 0
-22 -25 17 0
22 25 -17 0
25 -24 -23 0
25 24 23 0
-25 -24 23 0
-25 24 23 0
-25 20 -23 0
-25 20 23 0
-25 -20 -23 0
25 20 -23 0
25 0
25 0
25 0
25 0
-25 0
25 0
-25 0
25 0
