c Type 2: interval ordering (permuted), n=200, m_intervals=200, t=3
p cnf 200 800
31 125 136 0
48 -126 -187 0
-14 -166 18 0
-193 167 -31 0
84 -131 12 0
84 24 59 0
8 -173 123 0
62 -138 189 0
-18 116 -135 0
84 25 -54 0
24 -30 -19 0
-24 25 -46 0
-191 -4 -77 0
177 -132 11 0
-84 131 12 0
60 70 160 0
49 48 -44 0
84 12 108 0
67 62 7 0
-139 166 18 0
-67 62 3 0
169 -27 -107 0
-165 -88 -66 0
81 -191 128 0
-61 73 84 0
95 -163 40 0
-60 119 -57 0
-132 -11 9 0
65 134 -177 0
-83 80 35 0
-48 162 -95 0
75 143 -174 0
-89 -110 196 0
86 -18 -20 0
46 -59 -140 0
86 -193 139 0
162 126 145 0
-193 -139 -18 0
62 -146 -138 0
104 -191 -90 0
104 -106 -191 0
-48 130 113 0
-24 -131 -59 0
8 -173 123 0
-48 130 113 0
-104 106 -191 0
150 -61 73 0
134 -177 132 0
-81 -191 -128 0
48 -130 113 0
193 139 18 0
126 104 77 0
175 -31 93 0
60 200 -70 0
123 -197 16 0
-139 37 112 0
177 132 -11 0
-48 126 187 0
62 146 -138 0
131 -140 -171 0
8 -173 -123 0
-27 -128 77 0
-185 200 -92 0
-14 -13 -193 0
-135 -60 109 0
-14 -175 -167 0
-131 140 -171 0
104 169 27 0
-166 -175 167 0
-139 -166 -18 0
-135 -50 111 0
14 -167 -159 0
-135 60 109 0
-123 -197 16 0
140 -117 -14 0
67 62 3 0
-24 21 -89 0
104 -191 -90 0
-24 21 89 0
-153 86 139 0
51 -129 115 0
-48 -130 113 0
-84 12 -108 0
-49 48 44 0
62 -146 138 0
48 -126 163 0
-134 177 -132 0
-139 -175 167 0
-60 -119 -23 0
-53 18 175 0
162 26 96 0
-89 -87 83 0
48 -75 -143 0
16 -1 -67 0
-60 70 -160 0
-131 -105 110 0
-53 31 20 0
-131 193 151 0
39 -102 143 0
-48 126 163 0
-24 -25 -46 0
-24 -131 59 0
-139 151 -72 0
48 -58 162 0
175 -31 -93 0
46 -59 -140 0
192 -139 -166 0
-139 -151 -167 0
60 -119 23 0
-15 -185 142 0
8 173 123 0
-126 81 -169 0
131 12 -140 0
48 -75 143 0
-60 -200 70 0
-146 -85 -168 0
-146 -85 168 0
195 -51 163 0
-67 62 -3 0
146 85 -168 0
-65 134 177 0
134 -177 -132 0
24 30 -19 0
-162 -195 -95 0
166 18 -175 0
48 56 195 0
104 128 147 0
-162 -195 64 0
-86 193 -139 0
-126 -104 -77 0
-48 44 -180 0
173 -123 -197 0
-30 -83 -153 0
134 177 132 0
60 70 -160 0
131 192 -139 0
-163 -106 -27 0
60 -70 92 0
-31 -135 -124 0
-27 128 -77 0
-139 112 -68 0
31 125 -136 0
177 -132 11 0
46 131 76 0
14 -31 112 0
160 10 -8 0
48 -106 -27 0
86 -18 -20 0
126 -88 -4 0
-146 -138 -189 0
191 4 -77 0
-30 -83 153 0
53 -151 -167 0
139 112 124 0
-104 -128 147 0
81 -169 -147 0
58 190 -104 0
-192 86 -53 0
-60 -119 57 0
-75 -143 -174 0
135 119 -15 0
-48 -102 -58 0
-62 -146 -138 0
-50 -45 -111 0
104 191 90 0
-48 -130 113 0
53 -31 -20 0
193 -167 31 0
162 -26 96 0
48 56 -195 0
135 -60 109 0
-150 61 73 0
-58 -179 -51 0
-184 -174 58 0
-53 -18 167 0
50 -45 15 0
48 -114 130 0
-185 -200 92 0
162 95 194 0
-162 81 -88 0
48 -169 88 0
18 22 60 0
89 110 -196 0
-132 -11 -9 0
-48 -169 -88 0
-48 184 32 0
-146 -85 168 0
134 -177 132 0
-120 76 108 0
14 167 159 0
-131 -192 -86 0
-86 -139 -151 0
18 -116 135 0
-104 169 -191 0
-45 60 -57 0
-139 -112 -68 0
-150 61 73 0
158 27 4 0
14 -53 139 0
-150 -61 73 0
126 -104 77 0
134 -177 132 0
58 179 -51 0
131 12 -140 0
-48 102 -174 0
-25 59 -105 0
-135 -119 -15 0
-132 -11 -9 0
65 134 177 0
126 104 77 0
88 -154 -91 0
58 -179 51 0
131 -12 140 0
14 -167 159 0
86 151 72 0
25 59 105 0
146 -85 -168 0
85 -168 -65 0
-95 163 -40 0
16 -1 -67 0
-48 -130 113 0
75 -143 174 0
-11 -9 97 0
195 51 163 0
-48 -104 -95 0
48 -106 -27 0
62 -138 -189 0
-25 -54 46 0
-146 85 168 0
-146 -71 -85 0
-8 -173 123 0
-97 -49 -48 0
-175 -31 93 0
65 -134 -177 0
50 45 -15 0
-8 173 -123 0
-185 200 -92 0
86 151 -72 0
15 -185 142 0
-48 184 -32 0
-162 169 -27 0
-48 121 -170 0
-134 177 -132 0
-97 -49 48 0
-18 116 135 0
123 197 16 0
-146 -85 -168 0
104 -128 -147 0
-84 24 59 0
-49 48 -44 0
84 -25 54 0
-14 -175 167 0
-150 61 -73 0
11 -9 -97 0
-139 112 -68 0
-134 177 -132 0
112 -29 -116 0
-135 -50 111 0
-112 -29 -116 0
-48 -180 -114 0
61 -73 84 0
131 -192 -86 0
67 -62 -3 0
14 -166 18 0
-116 135 148 0
-60 70 -92 0
-14 -167 -159 0
-48 -126 -163 0
140 -117 -14 0
88 -128 147 0
-139 151 -72 0
-131 192 139 0
-18 37 -45 0
89 110 196 0
-82 35 137 0
139 -151 -72 0
65 -134 -177 0
-131 -12 140 0
-131 -192 86 0
-81 191 128 0
-48 -195 81 0
84 -24 59 0
48 -180 114 0
-162 26 -96 0
173 123 197 0
8 173 -123 0
192 157 -86 0
18 -22 60 0
-150 -61 -73 0
-139 175 167 0
84 -12 -108 0
150 -61 -73 0
48 44 -180 0
48 -163 -158 0
-14 53 139 0
86 151 72 0
-158 27 4 0
-162 -26 -96 0
84 -12 -108 0
160 10 8 0
48 180 114 0
-173 -123 -197 0
97 -49 48 0
-139 112 -124 0
25 59 105 0
146 -85 168 0
-184 -75 -174 0
-84 24 59 0
-48 121 -170 0
-132 11 9 0
146 85 168 0
-195 165 -163 0
184 174 58 0
165 88 -66 0
-67 62 -3 0
48 102 58 0
84 -25 54 0
139 -167 -29 0
46 59 140 0
-53 -18 175 0
-24 30 19 0
8 -173 -123 0
-131 -193 -151 0
-116 -135 148 0
84 131 12 0
-48 102 -58 0
59 -80 -196 0
48 -114 -130 0
165 -88 66 0
8 -173 -123 0
131 -192 -139 0
-162 195 -64 0
48 -114 -130 0
48 -184 -32 0
48 114 130 0
-139 -151 -167 0
-112 -29 116 0
-150 -61 -73 0
-49 48 -44 0
53 18 -167 0
-81 169 147 0
-53 -31 -20 0
-86 -18 20 0
146 85 168 0
81 -169 147 0
-84 -25 -30 0
-48 121 170 0
-88 -154 91 0
-139 175 -167 0
14 31 -112 0
53 -151 -167 0
-146 -71 -85 0
-48 169 88 0
-104 -169 27 0
-50 45 111 0
14 -166 -18 0
-126 81 106 0
49 -48 -44 0
126 -165 -106 0
192 139 166 0
-30 -83 153 0
-126 -81 -169 0
67 62 -3 0
-197 -16 1 0
-61 -73 84 0
-97 49 48 0
-14 166 18 0
49 48 -44 0
84 25 -30 0
175 -136 -60 0
-84 -25 30 0
67 62 3 0
-195 -165 163 0
-81 -169 -147 0
104 -169 27 0
59 80 -196 0
-184 -174 -58 0
126 81 -106 0
139 -112 -124 0
-169 27 107 0
48 -180 114 0
-60 119 -23 0
-67 62 3 0
-162 169 -27 0
88 27 -147 0
31 125 136 0
175 31 93 0
-134 177 132 0
104 128 -147 0
-166 -175 -167 0
-134 -177 132 0
162 -81 88 0
18 22 60 0
-175 -136 60 0
-16 -1 -67 0
-67 -62 3 0
153 86 139 0
-139 151 167 0
162 -95 194 0
86 193 139 0
198 -195 -26 0
146 -85 -168 0
-175 -20 -112 0
-30 110 149 0
-48 114 -130 0
49 48 -44 0
163 106 27 0
48 163 158 0
-75 -143 174 0
-59 -80 -196 0
131 -192 86 0
-53 -151 -167 0
134 177 132 0
-14 -53 -139 0
-8 -173 123 0
-191 -4 77 0
-146 -71 85 0
-126 81 -169 0
-139 -112 124 0
160 -10 8 0
-67 62 3 0
-67 62 -3 0
-198 195 26 0
-14 193 53 0
45 60 -15 0
-27 128 -77 0
14 -31 -112 0
18 31 -20 0
-60 185 70 0
-86 -193 139 0
-166 18 175 0
30 110 149 0
-67 62 -7 0
-48 -180 114 0
-48 -130 -113 0
-162 195 -64 0
-11 -9 97 0
131 140 171 0
-120 76 108 0
25 59 105 0
-59 -80 -196 0
-89 110 196 0
160 -10 8 0
89 -87 -83 0
-48 180 114 0
-192 -157 86 0
-48 180 -114 0
62 146 138 0
58 190 104 0
146 85 -168 0
89 87 83 0
58 190 -104 0
48 195 81 0
-169 27 107 0
48 104 95 0
48 -56 -195 0
-116 135 148 0
48 180 -114 0
-24 -25 46 0
104 -106 191 0
-153 196 13 0
18 -31 -20 0
139 -37 -112 0
162 126 145 0
-89 87 -83 0
-197 -16 -1 0
45 60 15 0
139 -18 -112 0
184 174 -58 0
45 -60 57 0
-60 -185 70 0
139 -112 -68 0
-11 9 97 0
-112 -29 -116 0
153 86 139 0
-49 -48 -44 0
8 173 -123 0
-48 -130 113 0
-65 -134 -177 0
-175 20 -112 0
-193 -139 18 0
-131 -140 171 0
-24 -25 46 0
50 45 -15 0
89 -117 171 0
85 -168 -65 0
-184 -75 174 0
-48 -75 -143 0
-134 -177 -132 0
49 48 44 0
45 60 -57 0
48 -102 -174 0
-14 -193 -53 0
-197 -16 1 0
-131 -105 -110 0
-48 -162 -95 0
120 -76 -108 0
-46 -131 -76 0
24 -131 59 0
-146 138 -189 0
-8 -173 -123 0
14 -53 139 0
-146 85 168 0
-48 44 -180 0
-62 -138 189 0
153 -196 -13 0
-60 -119 -57 0
46 131 76 0
-135 -119 -15 0
-126 88 4 0
-160 -10 8 0
-60 -70 -92 0
162 -95 194 0
24 21 -89 0
-140 117 -14 0
18 116 135 0
193 167 31 0
-39 102 143 0
160 -10 -8 0
-30 110 149 0
104 169 191 0
48 -184 32 0
-18 -37 45 0
25 54 -46 0
-61 -73 84 0
-62 146 -138 0
-88 27 147 0
-15 -57 -127 0
-126 81 106 0
-166 -18 175 0
48 -114 130 0
60 -119 23 0
162 -81 5 0
14 31 112 0
48 -195 81 0
48 56 195 0
126 -165 106 0
-139 37 -112 0
-58 190 104 0
-126 -165 -106 0
-192 157 86 0
8 173 123 0
14 193 53 0
-48 130 -113 0
-48 114 -130 0
8 -173 123 0
24 131 -59 0
-48 -184 -32 0
-104 191 -90 0
48 180 114 0
162 -81 -88 0
-140 117 14 0
48 -163 -158 0
131 192 139 0
-139 -18 -112 0
50 45 -15 0
197 -16 1 0
-153 86 -139 0
-14 193 53 0
8 173 123 0
150 61 -73 0
15 -57 127 0
-139 18 -112 0
139 167 29 0
-48 -130 -113 0
160 10 8 0
-15 185 142 0
84 25 -54 0
-31 -135 -124 0
48 -180 114 0
-146 -138 189 0
-166 -175 -167 0
-21 105 -89 0
-166 -18 175 0
86 18 -20 0
-48 -184 -32 0
-146 -85 -168 0
-139 167 29 0
-162 -195 -64 0
-51 -129 -115 0
-173 123 197 0
-48 -163 158 0
82 35 137 0
192 -86 53 0
-27 128 77 0
48 -184 -32 0
-126 81 -169 0
162 81 -5 0
-48 -75 -143 0
39 -102 -143 0
-18 31 -20 0
146 85 -168 0
8 -173 123 0
165 -88 66 0
150 61 73 0
-46 59 -140 0
-53 -18 167 0
-83 80 -35 0
-146 -71 -85 0
-14 -13 193 0
104 169 -191 0
126 -165 -106 0
18 31 -20 0
-162 126 -145 0
62 146 138 0
48 -180 -114 0
-153 -196 -13 0
-184 -75 174 0
169 -27 -107 0
135 119 15 0
-53 18 -175 0
48 58 -56 0
198 195 26 0
-84 131 12 0
-146 85 168 0
193 167 -31 0
49 48 44 0
-192 139 -166 0
150 61 -73 0
163 106 27 0
-104 169 191 0
58 179 -51 0
-139 -151 -72 0
139 -18 -112 0
48 -180 -114 0
-198 -195 26 0
53 18 167 0
135 -60 -109 0
85 168 65 0
-81 191 128 0
-67 62 -3 0
-67 62 7 0
195 -51 -163 0
-153 196 13 0
-48 -104 -95 0
60 -70 92 0
192 86 -53 0
46 131 -76 0
48 106 27 0
-85 -168 65 0
-15 185 -142 0
-49 48 -44 0
48 58 -162 0
139 -166 18 0
88 128 -147 0
-60 119 57 0
-21 -105 -89 0
48 -106 -27 0
18 22 60 0
67 62 -3 0
131 105 -110 0
104 -106 191 0
-8 173 -123 0
-48 114 -130 0
48 58 162 0
-48 58 56 0
162 -81 5 0
146 85 168 0
-25 -54 46 0
45 -60 -15 0
139 37 -112 0
60 70 -160 0
116 135 -148 0
48 -58 -56 0
8 173 -123 0
139 167 -29 0
53 18 -175 0
139 151 167 0
67 -62 7 0
158 27 -4 0
-134 177 -132 0
-15 57 127 0
18 -37 45 0
60 185 -70 0
-175 136 60 0
134 177 -132 0
86 139 -151 0
-65 -134 177 0
-123 -197 -16 0
67 62 -3 0
39 -102 -143 0
175 -20 -112 0
-185 200 92 0
-14 -13 -193 0
-31 -135 124 0
-48 -126 -187 0
14 -175 167 0
-45 60 57 0
-48 -58 -162 0
48 -102 174 0
-48 102 174 0
14 175 -167 0
-24 -30 -19 0
162 -81 -88 0
-191 -4 -77 0
131 105 110 0
48 -162 95 0
-48 -44 -180 0
139 166 -18 0
-18 37 -45 0
-62 -146 -138 0
-162 195 95 0
86 -151 72 0
-14 -13 193 0
82 35 -137 0
88 -27 -147 0
-131 193 151 0
146 85 -168 0
-162 -169 27 0
-50 45 -111 0
48 -58 -56 0
195 -51 163 0
-48 -184 -32 0
-24 21 -89 0
-50 45 -111 0
192 86 -53 0
-8 173 123 0
-88 -154 91 0
-160 10 -8 0
-45 60 15 0
-175 136 60 0
177 -132 11 0
48 -130 -113 0
162 195 -95 0
104 169 27 0
-48 130 -113 0
192 -157 -86 0
-195 -165 163 0
-88 -154 91 0
-131 -193 -151 0
-48 -162 95 0
-25 -54 46 0
-135 50 111 0
21 105 -89 0
-51 129 -115 0
-67 -62 3 0
-31 -125 -136 0
16 -1 -67 0
8 173 -123 0
-53 31 -20 0
-146 138 189 0
-163 -106 -27 0
-62 138 189 0
-86 139 151 0
-21 105 -89 0
-139 -175 -167 0
162 -126 -145 0
95 -163 40 0
84 -25 -30 0
48 -121 -170 0
-60 200 -70 0
-51 -129 115 0
134 -177 -132 0
-95 163 -40 0
-48 126 -187 0
88 128 -147 0
89 117 -171 0
30 110 149 0
162 169 -27 0
86 -139 151 0
-60 185 70 0
-82 -35 -137 0
15 -57 127 0
126 -88 -4 0
-48 -169 -88 0
126 81 -106 0
-31 135 124 0
-166 175 -167 0
-150 61 -73 0
49 -48 44 0
48 126 163 0
-60 200 70 0
135 50 111 0
83 80 -35 0
-30 83 153 0
120 76 108 0
-67 62 -3 0
-89 117 -171 0
162 195 95 0
-193 139 18 0
88 -128 147 0
-146 85 168 0
-146 -85 -168 0
-48 104 -95 0
195 -165 163 0
88 -27 -147 0
162 -81 -5 0
-48 -102 -58 0
184 -75 -174 0
126 -88 -4 0
83 -80 -35 0
-65 -134 177 0
-134 -177 132 0
-158 -27 -4 0
-192 -139 166 0
-175 -20 -112 0
48 -195 81 0
-89 117 171 0
53 151 167 0
162 95 194 0
