c Type 2: interval ordering (permuted), n=100, m_intervals=100, t=3
p cnf 100 332
-38 -73 -63 0
-37 -32 -23 0
16 17 -97 0
47 -4 38 0
-11 87 6 0
96 72 -84 0
-68 -25 96 0
96 -52 15 0
96 16 1 0
-70 53 -63 0
38 -61 -45 0
18 -64 -100 0
62 -17 97 0
-26 -14 -92 0
90 50 33 0
42 26 14 0
53 7 78 0
-68 57 72 0
64 -100 95 0
-53 -63 20 0
-42 26 14 0
-68 9 -16 0
61 -82 73 0
-27 -71 -12 0
44 -1 69 0
7 -66 -40 0
27 -8 71 0
-47 -4 -38 0
47 -65 81 0
-24 -2 97 0
-11 87 -6 0
14 92 -11 0
-27 8 71 0
12 22 65 0
83 -34 35 0
-17 97 0
-42 26 -14 0
-47 4 38 0
-68 -9 -75 0
-38 31 -70 0
-27 46 -8 0
-26 -14 92 0
-39 44 -1 0
16 -52 15 0
63 60 -20 0
47 -4 38 0
16 -52 -15 0
14 -92 -11 0
96 -9 16 0
-16 17 97 0
27 -46 8 0
-83 -34 -35 0
-12 22 47 0
96 15 48 0
-96 16 -89 0
-74 73 -77 0
12 -22 -65 0
62 17 97 0
-61 82 45 0
-96 16 52 0
-11 87 -6 0
-74 73 77 0
-26 -14 92 0
27 -71 -12 0
-60 36 7 0
-53 63 20 0
38 -73 -63 0
27 -71 12 0
-22 -47 -55 0
68 84 9 0
61 -82 73 0
45 -13 -31 0
-29 27 -46 0
96 -15 -48 0
-17 -97 0
96 16 52 0
13 31 -53 0
-96 -9 -75 0
-18 -64 100 0
-74 -73 -77 0
-82 -45 73 0
83 10 34 0
-38 -31 70 0
38 74 45 0
68 -9 -16 0
60 36 7 0
-12 22 -47 0
38 -61 82 0
-61 -82 45 0
39 -44 1 0
-96 -52 -15 0
-47 -65 -81 0
-44 1 -69 0
38 -74 -45 0
-68 96 57 0
-47 -65 -81 0
-12 -22 -47 0
62 -17 97 0
68 96 -57 0
68 -25 -96 0
-50 -68 -25 0
29 -27 -46 0
-47 -4 -76 0
-68 57 72 0
24 2 97 0
83 -10 34 0
17 97 0
27 -71 12 0
17 -97 0
-96 15 -48 0
38 -61 -82 0
45 13 -31 0
-96 9 -75 0
-96 9 75 0
96 -16 52 0
29 27 46 0
-29 27 -46 0
11 -87 -6 0
53 -36 7 0
-50 -68 25 0
38 -74 -45 0
-68 25 96 0
11 87 -6 0
27 46 8 0
-29 27 46 0
-96 16 -89 0
68 57 -72 0
-53 -7 -78 0
-64 100 95 0
-27 -71 -12 0
70 -53 -63 0
38 -74 45 0
16 -41 48 0
11 -87 -6 0
-90 50 33 0
-53 -7 78 0
90 50 -33 0
-96 72 -84 0
68 -96 57 0
-96 -16 52 0
24 -2 97 0
11 87 -6 0
-22 -47 -55 0
24 2 -97 0
-16 17 97 0
-11 -87 -6 0
-90 -50 -33 0
-96 -16 -1 0
-96 -16 -1 0
42 -26 14 0
-68 25 96 0
-96 -72 -84 0
-37 32 23 0
47 -4 76 0
24 -2 97 0
-37 32 -23 0
-61 -82 -73 0
-63 60 -20 0
-82 -45 -73 0
-4 -38 -61 0
18 -64 100 0
60 -36 -7 0
-68 84 -9 0
42 -26 14 0
27 -46 -8 0
12 22 65 0
68 9 16 0
12 -22 65 0
16 17 -97 0
-38 -61 -45 0
16 -41 -48 0
27 71 -12 0
-13 -31 53 0
-4 -38 -61 0
14 92 -11 0
17 97 0
-16 -41 48 0
83 90 -98 0
-17 -97 0
24 2 -97 0
-60 -36 -7 0
68 9 16 0
42 -26 14 0
-96 16 52 0
-68 96 -9 0
68 -9 75 0
-47 -4 -38 0
-96 15 -48 0
-17 97 0
-96 16 -52 0
44 -1 -69 0
42 26 -14 0
74 -73 77 0
61 82 -45 0
68 -96 -57 0
12 22 -47 0
-17 -97 0
-96 16 -52 0
-70 -53 -63 0
7 -66 -40 0
-68 -9 -16 0
45 -13 31 0
-61 -82 45 0
17 97 0
-27 -8 -71 0
68 -9 -16 0
26 -14 -92 0
12 22 -47 0
-68 -96 57 0
-7 -66 40 0
-68 96 -57 0
47 -4 38 0
-47 4 76 0
-39 -44 1 0
44 1 69 0
38 -31 70 0
-45 -13 31 0
-64 -100 95 0
-29 27 46 0
-27 -71 12 0
27 8 -71 0
96 16 -52 0
11 -87 6 0
-47 4 38 0
7 -66 -40 0
-53 36 -7 0
-53 -63 20 0
-96 52 -15 0
47 4 -38 0
-82 -45 -73 0
38 73 63 0
16 69 62 0
27 -71 12 0
-47 -4 38 0
-14 92 -11 0
-53 -7 78 0
26 -14 92 0
13 -31 -53 0
83 -90 98 0
-12 22 47 0
68 -96 -57 0
11 87 -6 0
16 52 15 0
26 14 92 0
-47 4 -76 0
-96 9 -75 0
12 22 47 0
53 36 -7 0
70 53 63 0
82 45 -73 0
-68 -9 -16 0
16 -69 -62 0
96 52 -15 0
-38 31 70 0
29 27 46 0
-26 -14 -92 0
-68 -57 72 0
27 -71 12 0
27 -71 -12 0
22 -47 55 0
68 84 -9 0
-63 -60 -20 0
-4 38 61 0
4 38 61 0
-38 73 -63 0
96 9 -16 0
37 32 23 0
50 68 25 0
-47 -65 -81 0
-26 14 92 0
-68 -25 -96 0
83 10 -34 0
-83 90 98 0
-47 -4 38 0
53 36 -7 0
16 -69 -62 0
-68 -96 9 0
24 -2 97 0
96 -9 16 0
-29 27 46 0
-68 9 16 0
-96 -16 -89 0
12 -22 -47 0
-16 -69 62 0
-17 -97 0
-38 61 -45 0
-18 64 -100 0
17 -97 0
-16 52 15 0
83 34 -35 0
-13 -31 53 0
-68 96 -9 0
-27 -71 -12 0
22 47 -55 0
-27 -71 -12 0
-24 2 -97 0
-83 -90 -98 0
-53 63 -20 0
-96 9 16 0
11 87 -6 0
-27 -71 -12 0
-83 34 -35 0
-68 -96 -57 0
38 -61 45 0
61 -82 -73 0
68 25 -96 0
-27 71 -12 0
63 60 20 0
47 4 38 0
47 4 -38 0
-42 -26 -14 0
-27 -71 -12 0
68 -25 96 0
16 -41 48 0
-50 -68 -25 0
64 100 95 0
-27 -71 -12 0
96 72 -84 0
17 97 0
39 -44 1 0
-68 25 -96 0
-38 -61 -82 0
-96 16 1 0
83 10 -34 0
-96 -16 -89 0
-38 61 -82 0
68 -9 -75 0
-68 9 -75 0
-68 -96 -9 0
62 17 97 0
68 84 -9 0
11 87 6 0
