c Type 2: interval ordering (ordered), n=500, m_intervals=500, t=3
p cnf 500 2000
12 -14 11 0
-12 14 11 0
-12 -14 -11 0
12 -14 -11 0
12 -14 11 0
12 -14 -11 0
-12 14 11 0
12 14 11 0
-12 14 13 0
-12 -14 13 0
12 -14 13 0
-12 -14 -13 0
-12 -14 -13 0
-12 14 -13 0
12 -14 -13 0
12 14 -13 0
-12 14 -13 0
-12 -14 13 0
-12 14 -13 0
12 -14 -13 0
14 -15 -18 0
14 15 -18 0
-14 15 -18 0
-14 15 -18 0
18 -17 16 0
-18 17 -16 0
-18 17 16 0
18 -17 -16 0
-18 17 16 0
-18 -17 -16 0
18 17 -16 0
18 17 16 0
18 17 -20 0
-18 -17 20 0
18 -17 20 0
-18 -17 -20 0
18 -20 -19 0
-18 20 -19 0
-18 -20 -19 0
18 -20 19 0
21 22 23 0
-21 22 -23 0
21 -22 23 0
-21 22 -23 0
-21 -22 -23 0
21 -22 -23 0
21 -22 23 0
-21 22 -23 0
-21 22 -23 0
-21 22 -23 0
-21 -22 23 0
-21 22 -23 0
21 22 -23 0
-21 -22 -23 0
21 -22 23 0
-21 22 -23 0
-21 -22 23 0
-21 -22 23 0
21 22 23 0
21 -22 -23 0
-21 22 -23 0
21 -22 23 0
-21 -22 23 0
21 -22 -23 0
21 22 -23 0
21 -22 23 0
21 22 23 0
21 -22 23 0
22 23 27 0
22 -23 -27 0
-22 23 -27 0
22 23 -27 0
22 23 27 0
-22 23 -27 0
-22 23 27 0
22 23 -27 0
22 28 26 0
-22 -28 -26 0
22 -28 -26 0
-22 -28 26 0
-23 27 -28 0
-23 -27 -28 0
23 -27 -28 0
23 -27 28 0
-22 23 26 0
22 23 26 0
-22 -23 -26 0
-22 23 26 0
23 -28 26 0
23 28 -26 0
-23 -28 26 0
23 -28 26 0
-27 28 -26 0
27 -28 -26 0
-27 -28 -26 0
-27 28 26 0
-27 28 35 0
-27 -28 35 0
-27 28 35 0
27 28 -35 0
28 -35 -29 0
-28 35 29 0
-28 -35 -29 0
28 35 -29 0
-28 -35 -29 0
-28 -35 -29 0
-28 -35 -29 0
28 -35 29 0
-37 -38 -39 0
-37 -38 39 0
-37 38 -39 0
37 38 -39 0
37 -38 -39 0
37 -38 -39 0
-37 38 -39 0
-37 -38 39 0
-39 40 -41 0
-39 -40 41 0
39 -40 41 0
-39 -40 41 0
-39 -40 -41 0
-39 40 -41 0
-39 40 -41 0
-39 -40 41 0
-39 -40 41 0
39 -40 -41 0
39 40 -41 0
-39 -40 -41 0
-39 40 -41 0
39 -40 41 0
-39 40 -41 0
39 40 -41 0
39 -40 41 0
-39 -40 -41 0
39 -40 41 0
39 40 41 0
39 -40 -41 0
39 -40 -41 0
39 -40 41 0
-39 40 41 0
40 -41 -44 0
40 -41 -44 0
-40 41 -44 0
40 41 -44 0
41 44 42 0
-41 44 42 0
41 -44 -42 0
41 -44 42 0
-41 -44 -42 0
-41 44 42 0
41 44 -42 0
-41 44 42 0
-41 -44 -42 0
-41 -44 -42 0
41 -44 42 0
41 44 42 0
-41 44 -42 0
-41 -44 42 0
-41 -44 42 0
41 44 -42 0
44 42 43 0
44 -42 -43 0
44 -42 -43 0
-44 42 43 0
48 -46 47 0
-48 46 47 0
48 46 -47 0
-48 -46 -47 0
-48 46 47 0
48 -46 47 0
-48 46 47 0
48 46 -47 0
-48 -49 -50 0
48 -49 -50 0
48 49 -50 0
48 49 50 0
48 -49 -50 0
48 49 -50 0
-48 -49 -50 0
48 -49 -50 0
51 -52 -53 0
51 -52 53 0
-51 -52 53 0
-51 -52 53 0
55 54 -56 0
55 -54 56 0
-55 54 56 0
-55 54 -56 0
-55 -56 57 0
55 -56 57 0
55 -56 57 0
-55 -56 57 0
56 -57 -58 0
56 -57 -58 0
-56 57 58 0
56 -57 -58 0
56 -57 58 0
-56 57 58 0
-56 57 -58 0
-56 57 58 0
56 -57 58 0
-56 -57 -58 0
56 -57 58 0
-56 -57 -58 0
-56 57 -58 0
-56 -57 58 0
-56 -57 -58 0
-56 -57 -58 0
-56 -57 -58 0
56 -57 58 0
-56 57 -58 0
56 -57 58 0
-57 58 59 0
57 58 59 0
57 58 59 0
-57 58 -59 0
57 58 59 0
-57 -58 59 0
-57 -58 -59 0
-57 58 59 0
-57 58 -59 0
-57 58 59 0
-57 -58 59 0
-57 -58 59 0
-58 59 -64 0
58 59 64 0
58 59 -64 0
58 59 64 0
-59 -64 60 0
59 64 60 0
-59 -64 60 0
-59 -64 60 0
59 64 -60 0
-59 64 60 0
59 64 60 0
-59 -64 60 0
-59 64 -60 0
-59 -64 -60 0
-59 -64 60 0
59 -64 -60 0
59 64 -60 0
59 -64 -60 0
-59 -64 -60 0
-59 64 60 0
59 64 -60 0
-59 -64 -60 0
59 64 60 0
-59 -64 60 0
64 -60 -61 0
64 60 61 0
64 -60 61 0
-64 -60 -61 0
64 -60 -61 0
64 -60 61 0
-64 60 -61 0
64 -60 -61 0
-64 62 -61 0
64 -62 61 0
-64 -62 61 0
64 62 -61 0
65 66 69 0
-65 66 -69 0
65 -66 69 0
-65 -66 69 0
-65 66 -69 0
-65 66 69 0
65 -66 69 0
65 -66 69 0
-66 -69 -71 0
-66 69 71 0
-66 -69 -71 0
-66 69 71 0
66 69 -67 0
-66 -69 -67 0
66 69 -67 0
-66 69 -67 0
69 71 -67 0
69 -71 67 0
-69 71 67 0
69 -71 67 0
-71 83 72 0
-71 -83 -72 0
71 83 72 0
71 -83 -72 0
-74 -91 -73 0
74 -91 73 0
-74 -91 -73 0
-74 91 -73 0
-80 91 -73 0
-80 91 -73 0
80 91 -73 0
-80 -91 -73 0
75 -80 78 0
-75 -80 78 0
75 80 -78 0
-75 80 -78 0
80 74 78 0
-80 74 -78 0
80 -74 -78 0
80 -74 -78 0
-91 -83 79 0
-91 83 79 0
-91 83 -79 0
-91 83 79 0
74 83 76 0
-74 -83 -76 0
-74 83 76 0
-74 -83 76 0
-91 103 83 0
-91 -103 83 0
91 103 -83 0
-91 103 -83 0
91 -103 79 0
91 -103 79 0
91 -103 -79 0
91 103 79 0
79 82 -87 0
79 -82 87 0
79 82 -87 0
-79 -82 87 0
80 91 83 0
80 -91 -83 0
-80 -91 83 0
80 91 83 0
-80 -91 103 0
80 91 -103 0
80 -91 103 0
-80 91 -103 0
91 -83 79 0
91 83 -79 0
-91 83 79 0
-91 -83 -79 0
-91 83 -87 0
-91 -83 -87 0
91 -83 -87 0
91 -83 87 0
91 -87 -92 0
91 -87 92 0
-91 -87 -92 0
91 87 92 0
-91 103 -116 0
91 -103 -116 0
91 -103 -116 0
91 -103 116 0
87 -92 108 0
87 -92 108 0
-87 92 108 0
87 -92 108 0
-103 108 86 0
103 -108 -86 0
103 -108 -86 0
103 -108 86 0
92 -85 89 0
-92 85 -89 0
92 85 89 0
92 -85 -89 0
108 -88 -90 0
-108 88 90 0
108 -88 90 0
108 -88 -90 0
116 -86 -90 0
116 -86 90 0
-116 -86 90 0
-116 86 -90 0
92 -116 88 0
92 116 88 0
-92 -116 88 0
92 116 88 0
103 -92 -95 0
-103 92 95 0
-103 92 -95 0
-103 92 95 0
-103 -96 -95 0
103 -96 -95 0
103 96 -95 0
103 -96 95 0
103 108 -93 0
103 -108 -93 0
-103 108 93 0
-103 108 93 0
-116 -105 -93 0
-116 105 93 0
-116 -105 93 0
-116 -105 93 0
-103 -102 97 0
103 -102 -97 0
103 102 97 0
103 102 97 0
-116 98 105 0
-116 -98 -105 0
116 98 -105 0
116 -98 105 0
-103 -105 -97 0
103 -105 -97 0
103 105 -97 0
103 -105 -97 0
102 98 105 0
-102 -98 -105 0
-102 98 105 0
-102 -98 -105 0
-103 108 -102 0
-103 -108 102 0
103 108 102 0
-103 -108 102 0
108 116 -105 0
108 116 -105 0
108 -116 105 0
108 -116 -105 0
116 102 -105 0
-116 102 105 0
116 -102 -105 0
-116 102 105 0
-108 116 105 0
-108 116 -105 0
108 116 -105 0
-108 116 105 0
108 -102 105 0
-108 102 105 0
-108 -102 -105 0
108 102 105 0
-103 116 -105 0
-103 116 -105 0
103 -116 -105 0
103 116 -105 0
-108 -116 -105 0
-108 -116 105 0
108 116 -105 0
-108 -116 105 0
-108 116 101 0
-108 -116 101 0
108 116 -101 0
108 116 -101 0
116 -110 -106 0
116 -110 -106 0
-116 110 106 0
116 110 -106 0
-108 -105 -106 0
108 -105 -106 0
-108 -105 106 0
108 -105 -106 0
-108 -105 104 0
108 -105 -104 0
-108 105 -104 0
-108 105 104 0
108 102 105 0
108 102 -105 0
-108 102 105 0
-108 -102 -105 0
-108 -110 104 0
-108 -110 -104 0
-108 110 104 0
108 110 -104 0
-110 106 -114 0
110 106 114 0
110 -106 114 0
110 -106 114 0
-105 -106 -114 0
-105 -106 -114 0
-105 -106 114 0
105 -106 114 0
-105 110 -114 0
-105 110 -114 0
-105 -110 -114 0
-105 110 114 0
105 -107 -110 0
105 -107 -110 0
-105 -107 -110 0
-105 107 110 0
116 119 112 0
116 119 -112 0
-116 -119 -112 0
-116 119 112 0
-116 119 126 0
116 -119 126 0
-116 119 126 0
116 119 126 0
119 -111 -113 0
-119 -111 -113 0
119 111 -113 0
119 111 -113 0
-119 -115 117 0
-119 115 117 0
-119 -115 -117 0
119 -115 -117 0
114 119 -126 0
-114 119 -126 0
-114 119 126 0
-114 119 126 0
-116 114 115 0
116 -114 -115 0
-116 -114 -115 0
-116 -114 115 0
119 117 -120 0
119 117 120 0
-119 -117 -120 0
-119 -117 120 0
116 126 120 0
-116 -126 120 0
-116 -126 -120 0
-116 -126 120 0
119 117 139 0
119 -117 -139 0
119 -117 -139 0
119 117 139 0
119 124 121 0
119 -124 121 0
119 -124 -121 0
-119 -124 -121 0
139 -120 -121 0
-139 120 121 0
-139 120 -121 0
-139 120 -121 0
120 -125 121 0
120 125 121 0
-120 125 -121 0
120 125 121 0
126 124 -131 0
-126 124 131 0
126 -124 -131 0
-126 124 131 0
139 125 -131 0
-139 125 131 0
-139 125 131 0
-139 -125 131 0
-139 131 128 0
139 -131 128 0
-139 -131 128 0
-139 131 128 0
124 139 -125 0
124 -139 -125 0
124 -139 -125 0
124 -139 -125 0
-139 -131 -128 0
-139 131 -128 0
139 -131 128 0
139 131 128 0
139 -131 128 0
139 131 -128 0
-139 131 -128 0
139 -131 128 0
139 -138 142 0
-139 138 142 0
-139 138 142 0
139 138 142 0
-131 127 138 0
-131 127 138 0
131 -127 -138 0
131 -127 -138 0
139 138 -142 0
-139 -138 -142 0
-139 138 142 0
139 138 -142 0
-131 -138 -134 0
-131 -138 -134 0
-131 -138 -134 0
-131 -138 -134 0
139 138 144 0
-139 -138 -144 0
-139 138 144 0
139 138 144 0
-138 134 -136 0
-138 134 -136 0
-138 -134 -136 0
-138 134 136 0
138 142 153 0
138 -142 153 0
138 -142 -153 0
-138 -142 153 0
-144 -141 -153 0
-144 -141 153 0
144 141 153 0
-144 141 153 0
140 153 145 0
140 153 145 0
-140 -153 145 0
-140 -153 145 0
-144 153 145 0
-144 -153 145 0
-144 153 -145 0
144 153 145 0
-142 -145 -147 0
142 145 -147 0
142 145 147 0
142 -145 -147 0
145 -147 -143 0
145 147 143 0
-145 147 -143 0
-145 -147 143 0
-144 145 -143 0
144 145 143 0
-144 145 143 0
-144 145 -143 0
153 147 -157 0
-153 -147 157 0
-153 147 157 0
153 147 157 0
-153 -157 146 0
-153 -157 -146 0
153 157 146 0
-153 -157 -146 0
-153 -147 157 0
-153 147 157 0
153 -147 -157 0
153 147 157 0
-153 157 -150 0
153 -157 -150 0
-153 157 -150 0
153 157 150 0
-153 -150 148 0
153 -150 148 0
153 -150 -148 0
153 150 -148 0
153 -157 -150 0
153 157 -150 0
-153 157 150 0
153 157 -150 0
-153 157 154 0
153 -157 154 0
153 157 -154 0
-153 -157 154 0
157 -155 -156 0
157 155 156 0
-157 -155 -156 0
157 -155 -156 0
-157 158 156 0
-157 -158 -156 0
157 -158 -156 0
157 -158 -156 0
159 -160 -161 0
-159 160 -161 0
159 -160 161 0
-159 -160 161 0
160 161 -162 0
160 161 162 0
160 161 -162 0
160 161 162 0
-160 161 -162 0
160 161 162 0
-160 161 -162 0
160 161 -162 0
-162 -163 167 0
-162 -163 -167 0
162 -163 167 0
-162 163 -167 0
-163 167 164 0
163 -167 -164 0
163 -167 164 0
-163 -167 164 0
163 -167 -164 0
-163 -167 -164 0
163 -167 164 0
163 167 -164 0
163 -167 164 0
163 -167 -164 0
163 -167 164 0
-163 167 -164 0
-163 167 -164 0
163 -167 -164 0
-163 -167 -164 0
163 -167 164 0
-171 -170 169 0
-171 170 -169 0
171 170 169 0
171 -170 -169 0
-173 175 -174 0
173 -175 -174 0
-173 175 174 0
-173 -175 -174 0
175 174 176 0
175 174 -176 0
-175 174 -176 0
-175 -174 -176 0
175 176 177 0
175 -176 -177 0
175 176 177 0
175 -176 177 0
175 -176 177 0
175 -176 177 0
175 176 177 0
-175 -176 -177 0
179 -178 182 0
179 -178 -182 0
-179 178 182 0
-179 -178 -182 0
-182 180 181 0
-182 -180 -181 0
-182 180 181 0
182 -180 -181 0
182 -180 181 0
-182 180 181 0
182 180 -181 0
-182 180 181 0
182 181 183 0
182 -181 -183 0
-182 181 -183 0
182 181 183 0
182 -181 -183 0
182 -181 -183 0
182 -181 -183 0
-182 181 183 0
-183 -184 185 0
-183 -184 -185 0
183 184 -185 0
183 -184 185 0
-184 -185 187 0
-184 -185 -187 0
-184 185 -187 0
184 185 187 0
184 -185 -187 0
184 -185 -187 0
184 185 187 0
-184 185 187 0
184 -185 187 0
-184 -185 187 0
184 -185 187 0
-184 185 187 0
185 -187 -186 0
185 -187 -186 0
-185 -187 -186 0
185 187 -186 0
-185 -187 186 0
-185 -187 -186 0
185 187 186 0
-185 -187 186 0
187 -188 189 0
187 -188 -189 0
-187 -188 189 0
-187 -188 189 0
190 -191 195 0
190 191 -195 0
190 191 -195 0
-190 191 -195 0
-190 -191 -195 0
-190 -191 -195 0
-190 -191 195 0
-190 -191 195 0
-190 -191 -195 0
190 -191 -195 0
190 191 -195 0
-190 -191 -195 0
195 228 206 0
-195 -228 -206 0
-195 -228 -206 0
-195 228 206 0
195 228 206 0
-195 228 -206 0
195 228 206 0
195 228 -206 0
-195 -228 206 0
-195 -228 -206 0
-195 228 206 0
195 228 -206 0
195 -206 198 0
-195 -206 198 0
195 206 198 0
-195 206 198 0
-195 -228 -206 0
-195 -228 -206 0
-195 -228 -206 0
195 228 206 0
-195 -228 206 0
195 228 206 0
-195 228 -206 0
-195 -228 206 0
206 -197 213 0
-206 -197 -213 0
-206 197 -213 0
206 197 213 0
205 212 -202 0
-205 -212 -202 0
-205 212 202 0
205 -212 202 0
-206 202 -211 0
206 -202 -211 0
-206 -202 -211 0
206 202 211 0
228 -213 -212 0
228 213 -212 0
228 213 212 0
-228 -213 -212 0
-212 -211 -201 0
212 -211 201 0
-212 -211 -201 0
212 -211 -201 0
-228 211 -201 0
-228 211 201 0
-228 -211 -201 0
-228 -211 201 0
213 -211 207 0
213 -211 -207 0
213 -211 -207 0
213 -211 207 0
213 -212 -211 0
213 -212 -211 0
213 -212 -211 0
-213 212 211 0
-213 -212 208 0
-213 -212 208 0
-213 212 -208 0
213 -212 208 0
228 212 209 0
228 -212 209 0
228 -212 -209 0
-228 212 -209 0
-228 213 214 0
-228 213 214 0
228 -213 -214 0
228 -213 214 0
218 -224 -235 0
218 224 235 0
-218 -224 -235 0
-218 -224 235 0
-228 -224 221 0
228 224 -221 0
228 -224 221 0
-228 224 221 0
238 -245 -244 0
238 -245 -244 0
-238 -245 244 0
-238 -245 244 0
224 235 238 0
-224 -235 238 0
224 -235 238 0
-224 -235 238 0
-224 -226 244 0
-224 -226 244 0
-224 -226 -244 0
-224 -226 -244 0
228 226 -238 0
-228 226 238 0
228 -226 238 0
-228 226 -238 0
226 238 -230 0
226 -238 -230 0
226 -238 230 0
-226 238 230 0
-228 -245 230 0
228 -245 -230 0
-228 -245 -230 0
228 245 -230 0
228 244 -230 0
228 244 230 0
-228 244 -230 0
228 -244 230 0
228 245 -244 0
228 245 -244 0
-228 -245 -244 0
-228 245 244 0
235 245 -250 0
-235 245 250 0
235 245 -250 0
-235 245 250 0
235 -250 229 0
-235 250 -229 0
-235 250 229 0
235 -250 -229 0
-235 -244 240 0
235 244 -240 0
-235 244 240 0
235 -244 240 0
-244 234 -236 0
244 234 236 0
-244 -234 -236 0
-244 234 -236 0
244 -251 242 0
-244 251 242 0
244 -251 242 0
244 251 -242 0
251 258 -236 0
251 258 -236 0
251 258 236 0
251 258 -236 0
250 270 242 0
-250 270 242 0
250 -270 -242 0
-250 270 242 0
238 244 -251 0
238 -244 -251 0
238 244 251 0
238 244 -251 0
245 243 248 0
245 243 248 0
245 243 248 0
245 -243 248 0
248 -256 264 0
-248 -256 264 0
248 -256 264 0
248 256 -264 0
238 248 264 0
-238 -248 264 0
238 -248 -264 0
-238 248 -264 0
-244 -250 270 0
-244 250 -270 0
244 -250 -270 0
-244 -250 270 0
-251 270 287 0
251 -270 -287 0
251 -270 -287 0
-251 270 -287 0
-270 258 256 0
270 258 256 0
-270 258 -256 0
-270 -258 -256 0
-258 256 246 0
-258 -256 -246 0
-258 -256 -246 0
-258 -256 -246 0
-251 270 246 0
251 270 -246 0
-251 -270 246 0
251 -270 246 0
244 -255 -247 0
-244 -255 247 0
-244 -255 -247 0
-244 255 -247 0
-251 256 -247 0
251 -256 247 0
251 256 -247 0
251 256 -247 0
295 -256 -247 0
295 256 -247 0
295 -256 247 0
-295 -256 247 0
251 255 -289 0
251 -255 289 0
-251 -255 -289 0
251 -255 289 0
-246 -255 289 0
-246 -255 -289 0
246 -255 289 0
-246 255 -289 0
255 -266 -278 0
255 266 -278 0
-255 266 -278 0
255 -266 -278 0
-258 248 255 0
-258 248 255 0
-258 248 -255 0
258 248 255 0
-295 -252 -289 0
295 252 289 0
295 252 289 0
295 252 -289 0
-251 -255 289 0
-251 -255 289 0
-251 255 289 0
-251 -255 289 0
-251 -264 266 0
251 -264 -266 0
-251 -264 -266 0
-251 -264 266 0
270 -264 -289 0
-270 -264 -289 0
-270 264 289 0
-270 -264 289 0
270 -256 289 0
-270 -256 -289 0
-270 -256 -289 0
-270 256 289 0
270 255 289 0
270 255 289 0
270 -255 289 0
-270 -255 -289 0
-255 -266 -278 0
255 266 -278 0
-255 266 -278 0
-255 266 -278 0
264 -289 278 0
264 289 -278 0
-264 289 278 0
-264 -289 -278 0
270 -256 -255 0
270 256 -255 0
270 -256 -255 0
270 -256 -255 0
-256 -278 -254 0
256 278 -254 0
256 278 254 0
-256 278 254 0
270 258 -295 0
270 258 -295 0
270 -258 -295 0
-270 -258 -295 0
-264 289 259 0
-264 289 259 0
-264 289 -259 0
-264 -289 -259 0
-278 262 -261 0
278 -262 261 0
-278 262 261 0
278 -262 -261 0
266 272 -261 0
266 -272 -261 0
266 272 261 0
-266 -272 -261 0
266 -259 -263 0
266 259 263 0
266 -259 263 0
-266 259 263 0
-264 259 305 0
-264 -259 -305 0
-264 -259 -305 0
264 259 305 0
-295 -278 263 0
295 -278 263 0
-295 278 263 0
-295 -278 263 0
-270 287 -262 0
-270 -287 -262 0
-270 -287 -262 0
-270 287 -262 0
272 305 265 0
-272 305 -265 0
272 305 -265 0
-272 305 265 0
-287 272 -305 0
287 272 305 0
-287 -272 305 0
-287 272 305 0
-270 289 -283 0
-270 289 283 0
-270 289 283 0
-270 -289 -283 0
270 272 -283 0
-270 272 -283 0
270 272 -283 0
270 272 283 0
-385 276 271 0
-385 -276 271 0
-385 276 -271 0
-385 -276 271 0
-278 301 -288 0
-278 -301 -288 0
-278 -301 -288 0
278 301 288 0
-289 -280 -285 0
289 280 285 0
289 280 285 0
289 280 -285 0
-283 275 -284 0
-283 275 284 0
283 275 284 0
283 275 -284 0
-385 294 -334 0
-385 294 -334 0
385 -294 334 0
-385 294 -334 0
295 -280 334 0
295 -280 -334 0
295 280 334 0
-295 -280 334 0
287 288 -307 0
-287 288 307 0
-287 288 307 0
287 -288 307 0
-385 -301 -280 0
-385 301 -280 0
-385 301 -280 0
-385 -301 280 0
289 385 -280 0
289 385 -280 0
289 385 -280 0
-289 385 -280 0
-289 -283 284 0
289 -283 284 0
-289 283 284 0
289 283 284 0
309 307 284 0
-309 307 284 0
309 307 284 0
309 307 284 0
287 305 334 0
-287 -305 334 0
287 -305 -334 0
287 305 -334 0
301 -294 -285 0
-301 -294 285 0
301 -294 285 0
301 -294 285 0
289 309 294 0
289 -309 294 0
289 309 -294 0
-289 309 -294 0
385 -307 296 0
-385 307 296 0
385 -307 296 0
385 307 296 0
288 313 319 0
288 313 -319 0
-288 -313 -319 0
288 -313 -319 0
305 -334 -303 0
-305 -334 303 0
-305 334 -303 0
-305 334 -303 0
306 -313 -291 0
-306 313 -291 0
306 313 291 0
-306 313 -291 0
294 -303 -319 0
294 303 319 0
-294 -303 -319 0
-294 303 319 0
-347 -337 -330 0
-347 337 330 0
347 337 330 0
-347 337 330 0
-313 -337 -317 0
313 -337 -317 0
-313 -337 -317 0
313 337 -317 0
319 308 -318 0
319 308 318 0
319 308 -318 0
-319 -308 318 0
-310 330 339 0
310 -330 -339 0
310 -330 -339 0
310 -330 339 0
-334 -310 308 0
-334 310 308 0
334 310 308 0
-334 -310 308 0
347 -318 -346 0
347 318 346 0
-347 318 -346 0
347 318 346 0
-314 323 -326 0
-314 -323 -326 0
-314 323 -326 0
314 -323 -326 0
309 -347 -310 0
-309 347 310 0
-309 347 -310 0
309 347 310 0
-385 -344 -325 0
385 344 -325 0
385 -344 -325 0
385 344 -325 0
-309 -360 -325 0
309 -360 325 0
-309 -360 325 0
-309 360 -325 0
-306 -333 -336 0
-306 333 -336 0
-306 -333 -336 0
306 333 336 0
-307 323 360 0
307 -323 360 0
-307 323 -360 0
-307 323 360 0
-318 -314 336 0
318 314 -336 0
-318 -314 336 0
-318 314 -336 0
-318 -314 -312 0
318 314 -312 0
-318 314 -312 0
-318 -314 312 0
-313 323 326 0
-313 323 326 0
-313 323 326 0
313 323 326 0
311 320 -354 0
-311 320 -354 0
311 -320 -354 0
-311 320 -354 0
385 -313 343 0
385 313 343 0
-385 -313 343 0
385 -313 343 0
319 322 -327 0
-319 322 -327 0
319 -322 -327 0
319 -322 -327 0
371 -346 -354 0
-371 346 354 0
371 346 -354 0
-371 -346 -354 0
-337 -346 381 0
-337 -346 -381 0
337 346 -381 0
-337 346 381 0
344 346 -322 0
-344 346 -322 0
-344 346 -322 0
-344 -346 322 0
385 -354 321 0
-385 -354 -321 0
-385 354 321 0
385 354 -321 0
-319 318 -343 0
-319 -318 343 0
319 -318 343 0
319 -318 343 0
-385 -337 360 0
-385 337 360 0
-385 337 360 0
385 337 360 0
-385 371 -381 0
-385 371 381 0
-385 371 381 0
385 -371 -381 0
336 320 329 0
336 320 329 0
-336 -320 329 0
336 320 -329 0
-333 -336 -354 0
-333 -336 -354 0
333 -336 -354 0
-333 -336 -354 0
-333 354 329 0
333 354 329 0
-333 354 329 0
-333 -354 -329 0
334 330 -381 0
-334 -330 -381 0
334 -330 381 0
-334 330 -381 0
347 344 345 0
-347 344 -345 0
-347 344 -345 0
-347 344 -345 0
339 -346 -351 0
-339 -346 -351 0
-339 -346 -351 0
-339 -346 -351 0
-337 -344 -336 0
337 344 -336 0
337 344 -336 0
337 344 336 0
339 350 425 0
-339 350 425 0
339 350 425 0
-339 350 -425 0
-347 355 361 0
-347 -355 361 0
347 -355 -361 0
347 355 -361 0
-347 -346 -358 0
347 -346 358 0
347 -346 -358 0
-347 346 358 0
-347 -344 381 0
347 344 -381 0
347 -344 -381 0
347 344 -381 0
-371 425 -340 0
-371 425 340 0
371 -425 340 0
-371 -425 340 0
339 -350 -370 0
339 350 -370 0
-339 -350 370 0
-339 -350 -370 0
-367 -381 -349 0
367 -381 -349 0
-367 381 349 0
367 -381 -349 0
-346 -354 338 0
346 -354 -338 0
-346 354 -338 0
-346 -354 -338 0
344 -360 361 0
-344 360 -361 0
344 -360 361 0
344 -360 361 0
355 358 -342 0
-355 -358 342 0
-355 358 -342 0
-355 358 -342 0
347 345 349 0
347 -345 349 0
-347 345 -349 0
347 345 -349 0
343 -345 342 0
343 345 342 0
-343 -345 342 0
-343 345 342 0
-343 345 -342 0
343 345 -342 0
-343 -345 -342 0
343 -345 342 0
-369 -370 342 0
-369 -370 342 0
-369 -370 -342 0
369 370 -342 0
-385 -347 360 0
-385 -347 -360 0
385 -347 360 0
-385 -347 -360 0
350 -425 394 0
350 425 394 0
350 -425 394 0
-350 -425 394 0
-351 350 -365 0
-351 -350 -365 0
351 350 365 0
351 -350 -365 0
351 369 355 0
-351 369 -355 0
-351 -369 355 0
351 369 -355 0
369 -355 352 0
369 -355 -352 0
369 355 352 0
369 355 -352 0
-360 351 352 0
360 351 -352 0
360 -351 -352 0
-360 -351 352 0
354 425 -383 0
-354 425 -383 0
-354 -425 383 0
-354 425 383 0
-358 401 -368 0
358 401 368 0
358 401 368 0
-358 401 368 0
354 373 374 0
354 373 -374 0
-354 373 -374 0
354 -373 -374 0
-383 -352 -401 0
-383 352 401 0
-383 352 -401 0
-383 352 401 0
-367 -354 355 0
-367 -354 -355 0
-367 -354 -355 0
-367 -354 355 0
-355 -374 382 0
355 -374 -382 0
355 -374 382 0
355 -374 382 0
-361 -365 -382 0
-361 365 -382 0
-361 365 -382 0
-361 365 382 0
374 356 -382 0
374 -356 382 0
-374 356 382 0
374 356 -382 0
369 383 359 0
-369 383 -359 0
-369 383 359 0
369 -383 359 0
371 425 401 0
371 -425 -401 0
371 -425 -401 0
371 -425 -401 0
381 377 -405 0
381 377 -405 0
381 -377 405 0
-381 377 405 0
425 394 -428 0
425 394 428 0
-425 -394 -428 0
425 394 -428 0
382 399 -366 0
-382 -399 366 0
382 399 -366 0
382 399 -366 0
382 379 416 0
382 -379 -416 0
382 379 416 0
-382 -379 416 0
-371 369 -405 0
-371 -369 405 0
-371 -369 405 0
371 369 405 0
382 -386 -376 0
-382 -386 376 0
382 -386 -376 0
-382 -386 376 0
385 -387 416 0
-385 387 416 0
385 387 416 0
385 387 416 0
-387 -382 386 0
387 382 386 0
387 382 -386 0
387 382 -386 0
425 -391 388 0
-425 -391 388 0
425 391 -388 0
425 391 -388 0
385 383 401 0
-385 -383 -401 0
-385 -383 401 0
385 383 -401 0
-391 -379 399 0
391 -379 -399 0
391 379 -399 0
391 379 399 0
385 -381 -379 0
-385 381 379 0
385 381 379 0
385 -381 -379 0
416 -393 392 0
416 -393 392 0
-416 393 -392 0
-416 393 392 0
-425 -391 399 0
425 391 399 0
425 -391 -399 0
-425 -391 399 0
386 393 -412 0
-386 393 412 0
386 393 -412 0
-386 393 -412 0
-399 416 449 0
-399 -416 -449 0
399 -416 449 0
399 -416 449 0
-399 -415 -412 0
399 415 412 0
399 -415 -412 0
399 415 -412 0
-428 -422 -404 0
-428 -422 404 0
428 -422 -404 0
428 -422 404 0
-405 428 406 0
405 -428 -406 0
-405 428 406 0
-405 428 -406 0
-425 422 398 0
425 422 398 0
-425 422 -398 0
-425 422 398 0
449 422 -398 0
-449 422 398 0
449 -422 398 0
449 -422 398 0
-449 412 -403 0
-449 412 403 0
-449 412 -403 0
-449 -412 403 0
-428 -407 -406 0
428 407 -406 0
428 407 406 0
-428 407 -406 0
-399 428 -449 0
399 -428 449 0
-399 428 -449 0
399 -428 -449 0
416 -407 -406 0
-416 407 406 0
416 -407 -406 0
416 407 -406 0
425 -416 422 0
-425 416 422 0
425 416 -422 0
425 416 -422 0
-408 -405 402 0
408 405 -402 0
408 -405 402 0
408 405 402 0
416 -402 423 0
-416 -402 -423 0
-416 -402 423 0
416 -402 423 0
425 416 413 0
-425 416 -413 0
425 416 413 0
425 -416 -413 0
417 435 409 0
-417 435 409 0
417 435 409 0
417 -435 409 0
407 -415 -435 0
407 -415 -435 0
407 -415 435 0
407 -415 -435 0
416 415 411 0
416 -415 -411 0
-416 -415 -411 0
416 -415 -411 0
-411 414 -447 0
411 -414 -447 0
411 414 -447 0
411 414 447 0
-417 419 -418 0
-417 -419 418 0
-417 -419 -418 0
-417 -419 -418 0
417 -411 437 0
417 -411 -437 0
-417 -411 -437 0
417 -411 -437 0
449 413 418 0
449 413 418 0
-449 -413 418 0
449 -413 418 0
416 -415 -412 0
416 415 412 0
416 -415 412 0
-416 -415 412 0
-412 -418 -410 0
412 418 410 0
412 -418 410 0
-412 -418 -410 0
435 460 -437 0
-435 460 437 0
-435 -460 437 0
-435 460 -437 0
417 -423 -418 0
417 423 -418 0
-417 423 -418 0
-417 423 418 0
-416 415 417 0
-416 415 -417 0
416 -415 -417 0
416 415 417 0
449 -417 -437 0
449 417 -437 0
-449 -417 437 0
449 -417 -437 0
449 -413 419 0
-449 -413 -419 0
-449 413 419 0
-449 413 -419 0
415 423 -419 0
-415 -423 419 0
-415 -423 419 0
-415 -423 -419 0
-422 -460 437 0
422 -460 -437 0
422 -460 -437 0
-422 460 -437 0
-422 415 431 0
422 -415 -431 0
422 415 -431 0
422 415 -431 0
-428 417 437 0
428 417 437 0
-428 417 437 0
428 -417 437 0
416 -417 447 0
-416 417 -447 0
-416 -417 -447 0
416 417 -447 0
-419 460 421 0
-419 -460 -421 0
-419 460 421 0
-419 -460 -421 0
-416 418 -421 0
-416 418 421 0
416 -418 -421 0
416 418 421 0
425 428 -460 0
-425 428 460 0
-425 -428 -460 0
-425 -428 460 0
435 -447 431 0
-435 -447 -431 0
-435 447 -431 0
-435 447 -431 0
449 -422 423 0
449 422 -423 0
-449 422 423 0
449 422 -423 0
428 -449 431 0
-428 -449 -431 0
-428 449 431 0
428 449 -431 0
423 460 447 0
423 -460 447 0
423 460 447 0
423 -460 447 0
-425 428 435 0
425 428 435 0
425 -428 -435 0
425 -428 435 0
-428 -449 -437 0
-428 -449 -437 0
428 -449 -437 0
-428 449 437 0
-423 -447 -433 0
423 -447 -433 0
-423 447 433 0
-423 447 433 0
-449 -422 435 0
-449 -422 -435 0
-449 -422 -435 0
449 -422 435 0
-425 -435 -433 0
425 -435 -433 0
425 -435 -433 0
-425 435 -433 0
449 426 443 0
-449 426 -443 0
449 -426 -443 0
449 426 443 0
-447 433 -429 0
447 433 429 0
447 -433 429 0
-447 433 429 0
-449 433 -429 0
-449 433 -429 0
-449 433 429 0
-449 433 429 0
449 -443 448 0
449 443 448 0
449 443 -448 0
449 443 448 0
-449 -460 -436 0
-449 460 436 0
449 -460 -436 0
-449 460 436 0
-460 431 -433 0
-460 -431 -433 0
-460 -431 433 0
460 431 433 0
460 -448 -432 0
460 -448 432 0
460 448 -432 0
460 448 432 0
460 -437 448 0
460 -437 -448 0
460 -437 448 0
-460 -437 448 0
449 -443 434 0
449 443 434 0
449 443 -434 0
449 443 -434 0
443 446 -445 0
-443 446 -445 0
-443 446 -445 0
-443 446 445 0
-449 460 -447 0
-449 -460 -447 0
449 -460 -447 0
-449 -460 447 0
449 -447 446 0
449 447 446 0
-449 447 -446 0
449 -447 446 0
443 448 -446 0
443 -448 -446 0
443 448 446 0
443 448 446 0
447 436 484 0
447 436 -484 0
447 -436 484 0
-447 -436 484 0
460 443 440 0
-460 -443 -440 0
460 -443 -440 0
-460 443 440 0
460 -448 445 0
460 -448 445 0
-460 -448 445 0
-460 448 -445 0
-449 -443 -440 0
-449 -443 -440 0
-449 -443 -440 0
449 -443 -440 0
-449 -443 -448 0
449 443 -448 0
-449 443 448 0
-449 443 -448 0
447 -443 446 0
447 443 -446 0
-447 443 446 0
447 -443 -446 0
-460 -451 -452 0
460 451 -452 0
-460 -451 -452 0
-460 451 452 0
-447 -467 -442 0
-447 467 -442 0
-447 467 442 0
447 467 -442 0
449 484 464 0
-449 -484 464 0
449 -484 -464 0
449 484 464 0
460 -447 467 0
-460 -447 467 0
460 -447 467 0
-460 -447 -467 0
484 467 454 0
-484 -467 -454 0
484 -467 -454 0
484 -467 -454 0
484 -451 -452 0
-484 -451 -452 0
484 451 452 0
484 -451 -452 0
-449 -460 -451 0
449 -460 451 0
449 -460 -451 0
-449 460 451 0
451 -450 -453 0
451 450 -453 0
-451 450 453 0
451 450 -453 0
484 -454 453 0
-484 454 -453 0
484 -454 -453 0
484 -454 -453 0
-484 -467 -464 0
484 467 464 0
-484 467 464 0
484 -467 -464 0
-467 477 -478 0
467 -477 478 0
-467 -477 -478 0
467 -477 478 0
454 456 457 0
454 456 457 0
-454 456 457 0
454 456 -457 0
464 -478 465 0
464 478 -465 0
-464 -478 465 0
464 -478 -465 0
464 -477 465 0
464 -477 465 0
464 -477 -465 0
-464 477 465 0
478 462 486 0
478 -462 486 0
-478 -462 -486 0
478 -462 -486 0
-464 -459 475 0
-464 459 475 0
-464 -459 -475 0
464 -459 -475 0
460 -457 475 0
460 457 475 0
-460 457 -475 0
460 457 -475 0
-474 466 480 0
474 -466 -480 0
474 466 480 0
-474 466 480 0
-461 474 -471 0
461 474 471 0
-461 -474 471 0
461 -474 -471 0
461 -459 457 0
-461 -459 457 0
461 459 457 0
-461 -459 457 0
460 -486 -466 0
-460 -486 466 0
-460 -486 -466 0
460 -486 -466 0
-477 474 -486 0
477 474 -486 0
477 474 486 0
-477 474 -486 0
-464 465 471 0
-464 -465 471 0
-464 -465 471 0
-464 -465 471 0
484 477 -471 0
-484 -477 -471 0
-484 477 471 0
484 -477 -471 0
478 462 486 0
478 -462 486 0
-478 462 486 0
-478 462 -486 0
468 474 -480 0
468 474 480 0
468 474 -480 0
468 474 -480 0
-474 466 471 0
474 -466 471 0
474 466 -471 0
474 -466 -471 0
-477 475 -471 0
-477 475 -471 0
-477 475 471 0
-477 -475 471 0
-475 -473 -483 0
-475 473 483 0
475 -473 -483 0
-475 -473 -483 0
484 478 492 0
484 478 -492 0
-484 478 492 0
-484 478 -492 0
484 -468 -474 0
484 -468 -474 0
-484 468 474 0
484 468 474 0
-486 471 472 0
486 471 472 0
486 471 -472 0
486 -471 -472 0
475 -480 492 0
-475 480 492 0
475 480 -492 0
-475 -480 492 0
-478 -469 -492 0
-478 -469 492 0
-478 469 -492 0
-478 -469 -492 0
484 477 480 0
484 477 -480 0
484 -477 480 0
-484 477 -480 0
-478 -483 485 0
-478 483 485 0
-478 483 -485 0
-478 -483 485 0
474 -486 -480 0
-474 -486 480 0
-474 486 -480 0
474 -486 480 0
473 483 -490 0
-473 -483 490 0
473 483 490 0
473 -483 -490 0
475 -480 487 0
-475 -480 487 0
-475 -480 487 0
-475 480 487 0
-478 -486 487 0
-478 -486 -487 0
-478 -486 -487 0
-478 -486 -487 0
-486 492 -485 0
-486 492 485 0
-486 -492 -485 0
486 -492 485 0
487 497 490 0
-487 497 490 0
487 -497 490 0
-487 -497 490 0
-477 -478 492 0
477 -478 -492 0
-477 -478 492 0
-477 -478 -492 0
486 -485 -479 0
-486 -485 -479 0
-486 -485 -479 0
-486 485 -479 0
-480 -490 491 0
480 -490 491 0
480 -490 491 0
480 -490 491 0
483 -485 -490 0
483 485 490 0
-483 -485 490 0
-483 -485 -490 0
-484 -486 491 0
-484 486 491 0
-484 -486 -491 0
484 -486 -491 0
-484 -487 485 0
-484 -487 485 0
-484 -487 -485 0
484 487 -485 0
-492 -487 -490 0
492 487 490 0
-492 487 -490 0
492 487 490 0
-492 487 490 0
492 487 -490 0
492 487 -490 0
492 487 490 0
497 -491 489 0
-497 -491 489 0
497 -491 -489 0
-497 -491 489 0
-492 -490 496 0
492 -490 -496 0
-492 490 496 0
492 490 -496 0
492 -490 491 0
492 -490 491 0
-492 -490 -491 0
-492 -490 -491 0
-497 496 495 0
-497 -496 -495 0
-497 -496 -495 0
-497 496 -495 0
-497 -496 -495 0
-497 -496 495 0
-497 496 -495 0
-497 -496 -495 0
-497 496 495 0
497 -496 495 0
-497 496 -495 0
497 -496 -495 0
498 -499 500 0
498 499 500 0
498 499 -500 0
498 -499 -500 0
498 -499 -500 0
-498 499 500 0
-498 -499 500 0
-498 -499 500 0
-498 499 500 0
498 499 -500 0
498 499 -500 0
-498 499 -500 0
498 499 -500 0
498 499 -500 0
498 499 -500 0
498 -499 500 0
498 499 500 0
498 499 -500 0
498 -499 -500 0
-498 -499 500 0
-500 0
500 0
500 0
-500 0
 0
 0
 0
 0
 0
 0
 0
 0
 0
 0
 0
 0
 0
 0
 0
 0
 0
 0
 0
 0
 0
 0
 0
 0
 0
 0
 0
 0
 0
 0
 0
 0
 0
 0
 0
 0
 0
 0
 0
 0
 0
 0
 0
 0
 0
 0
 0
 0
 0
 0
 0
 0
 0
 0
 0
 0
 0
 0
 0
 0
 0
 0
 0
 0
 0
 0
 0
 0
 0
 0
 0
 0
 0
 0
 0
 0
 0
 0
 0
 0
 0
 0
 0
 0
