c Type 2: interval ordering (permuted), n=100, m_intervals=100, t=4
p cnf 100 400
-44 -97 53 20 0
-89 78 -73 -25 0
23 -41 64 7 0
90 -3 66 47 0
-74 -5 54 77 0
-34 -35 69 -91 0
23 -68 -41 -64 0
-6 72 -89 -78 0
-97 50 29 88 0
93 -44 -97 -53 0
-32 -76 -52 -8 0
-97 -50 -29 88 0
-89 -25 95 15 0
74 5 54 77 0
23 41 -64 7 0
-44 97 -53 -20 0
-23 41 -64 -74 0
8 93 44 -97 0
89 78 73 25 0
-89 -78 73 25 0
-58 -56 81 -30 0
34 -91 32 76 0
44 -86 -29 -87 0
34 -91 32 -76 0
98 -38 13 -23 0
-44 97 -53 -20 0
43 6 -72 -89 0
44 -23 61 21 0
16 -33 -39 -71 0
44 97 19 50 0
71 27 46 -96 0
-74 5 -54 77 0
6 72 89 -78 0
-23 68 21 55 0
-23 41 -55 -64 0
71 27 -46 -96 0
6 -72 -89 -78 0
-59 -63 13 -9 0
-44 -97 -53 20 0
23 68 41 64 0
-98 13 9 -23 0
-74 5 54 77 0
-34 -35 69 91 0
74 -5 -54 77 0
-44 87 59 31 0
-23 -41 -64 -7 0
-34 -35 -69 -84 0
-44 -97 53 -20 0
-71 27 -46 96 0
77 43 -6 17 0
89 78 -73 -25 0
-74 -5 -54 -77 0
44 23 -61 21 0
-44 -97 -53 -20 0
44 -97 50 83 0
44 -57 61 21 0
89 78 73 -25 0
-44 -98 99 63 0
34 91 -32 -76 0
-90 -3 -66 47 0
44 -98 1 61 0
56 -81 -30 82 0
-56 -81 30 82 0
-44 -97 -20 19 0
-56 -81 -30 82 0
23 -41 74 49 0
-44 87 59 31 0
44 38 -9 -1 0
-2 42 -26 14 0
-44 97 -53 20 0
-23 -68 -41 -64 0
34 -35 -91 32 0
-23 41 -64 -74 0
89 -78 73 -25 0
23 57 41 7 0
-43 -6 -72 89 0
44 98 -1 61 0
-56 81 82 12 0
44 -59 -98 -63 0
83 -11 29 87 0
34 91 32 76 0
-44 83 87 98 0
44 -83 87 98 0
-23 -41 -64 -7 0
44 97 20 19 0
57 -1 61 68 0
-34 35 -69 91 0
-44 97 20 19 0
15 -90 3 -66 0
43 -6 -72 89 0
97 -19 50 -83 0
-35 -69 91 32 0
83 -11 86 29 0
-89 -95 -15 90 0
-68 55 -64 7 0
23 -68 21 55 0
-89 -78 73 -25 0
44 -98 1 -61 0
-44 -23 61 -21 0
-34 -35 69 91 0
-98 13 -9 23 0
83 -11 86 -29 0
-89 25 95 -15 0
-59 98 63 13 0
-44 83 87 -98 0
8 -93 44 97 0
-23 68 41 7 0
23 -41 64 7 0
82 -12 2 34 0
44 97 -53 20 0
6 -72 -89 78 0
-71 27 -46 -96 0
-74 -5 -54 77 0
-34 -91 32 -76 0
-32 76 -52 8 0
97 19 -50 83 0
89 -78 73 -25 0
93 44 97 53 0
-77 -43 72 89 0
44 -97 -20 -19 0
-82 12 -2 34 0
-77 -43 72 -89 0
34 -91 32 76 0
77 43 -36 17 0
-89 -78 73 -25 0
-68 -55 -64 -7 0
-23 -41 64 -74 0
-89 -78 -73 25 0
-58 -56 81 -30 0
23 41 55 64 0
-56 -81 82 -12 0
-89 -78 -73 25 0
-6 -72 -89 78 0
98 13 -9 -23 0
-83 -11 29 -87 0
-90 -3 66 47 0
-71 27 -46 -96 0
83 11 29 87 0
-23 -41 55 7 0
-44 -38 -9 -1 0
44 -87 -59 31 0
89 25 -95 -15 0
34 91 32 -76 0
50 11 -87 79 0
-23 41 55 -64 0
-34 91 32 -76 0
16 33 39 -71 0
34 91 -32 76 0
89 -78 73 25 0
-35 -69 -91 32 0
2 -42 -26 -14 0
-15 -90 3 66 0
23 41 55 -7 0
44 -57 -61 21 0
44 -86 29 88 0
74 5 -54 -77 0
-97 50 -29 -88 0
23 -41 -64 -74 0
89 25 -95 15 0
44 97 -20 19 0
-16 33 39 -71 0
-2 -70 42 80 0
-77 -43 -6 17 0
89 -78 73 -25 0
-23 -41 -64 -7 0
-59 98 38 23 0
-77 43 -6 17 0
-82 -2 -34 -80 0
2 -70 42 80 0
44 -97 20 19 0
-23 41 55 -64 0
-23 -41 64 7 0
-23 41 74 49 0
97 19 -50 -83 0
-83 11 86 -29 0
-77 43 36 17 0
-23 68 -21 55 0
44 97 19 -50 0
44 -97 50 83 0
56 -81 -82 12 0
-15 -90 -3 -66 0
71 27 46 -96 0
98 38 13 23 0
-23 41 74 49 0
89 78 -73 -25 0
44 -98 99 -63 0
-44 -86 29 88 0
6 -72 89 -78 0
-34 -91 -32 -76 0
-89 25 95 -15 0
-77 43 -36 -17 0
-74 5 -54 -77 0
-23 41 -64 74 0
23 68 21 41 0
-68 55 64 7 0
-89 25 -95 -15 0
-44 -97 -53 -20 0
8 93 -44 -97 0
-89 78 -73 25 0
-74 -5 -54 -77 0
-23 -41 -64 -74 0
44 -97 -20 19 0
15 -90 -3 66 0
56 81 30 82 0
44 97 19 50 0
-23 41 -55 -7 0
82 -12 2 34 0
-59 -98 -38 -23 0
-8 93 -44 97 0
-83 11 -86 -29 0
97 19 50 -83 0
23 41 64 -7 0
-23 41 -64 7 0
23 41 -74 -49 0
57 -61 68 41 0
23 57 41 7 0
44 97 -20 19 0
23 -57 41 -7 0
-77 43 6 17 0
71 -27 46 -96 0
-34 35 69 -91 0
-68 41 -55 -64 0
44 97 20 -19 0
-23 -68 21 -41 0
-83 -11 -86 29 0
44 -97 20 19 0
-44 -97 53 20 0
71 27 -46 -96 0
-82 -2 34 80 0
44 -57 61 21 0
68 41 55 -64 0
-59 -98 38 -23 0
44 -83 87 -98 0
-43 -6 -72 89 0
-90 3 66 47 0
-8 93 44 97 0
44 -86 -29 88 0
-56 -81 30 82 0
50 -11 87 79 0
-35 -69 -91 -32 0
43 -6 72 89 0
-68 -41 -55 64 0
82 -2 -34 80 0
57 -61 68 -41 0
83 -11 86 -29 0
6 -72 -89 -78 0
98 -38 23 57 0
-23 41 -55 7 0
-34 -35 -69 84 0
-93 44 97 -53 0
59 98 63 -13 0
58 -56 -81 30 0
8 -93 -44 -97 0
-59 98 63 13 0
-77 -43 -36 17 0
8 -93 -44 -97 0
32 -76 -52 -8 0
44 97 -20 19 0
-44 97 -53 20 0
58 -56 -81 30 0
-71 27 -46 -96 0
-27 -46 96 10 0
34 -35 91 -32 0
6 -89 -78 -73 0
97 50 -29 -88 0
-57 -1 61 68 0
-89 25 95 -15 0
-98 38 13 23 0
59 -98 38 -23 0
83 11 86 29 0
44 -97 -53 -20 0
57 61 68 -41 0
44 -98 99 63 0
34 91 -32 -76 0
77 -43 -6 17 0
-44 -97 -53 -20 0
-44 97 50 83 0
-23 68 41 -7 0
44 -86 -29 87 0
-34 -35 -91 32 0
-6 -89 -78 73 0
57 -1 -61 -68 0
-23 41 64 -7 0
-27 -46 96 -10 0
-44 -97 -53 20 0
-44 97 -53 20 0
43 -6 -72 89 0
-32 -76 52 8 0
56 -81 30 -82 0
44 59 -98 -63 0
-93 -44 97 -53 0
-89 78 -73 25 0
23 -68 41 7 0
6 72 -89 78 0
-44 -38 9 1 0
74 5 54 -77 0
-77 -43 -6 17 0
2 70 -42 -80 0
-23 68 41 -7 0
44 -97 20 -19 0
74 5 54 -77 0
50 11 -87 79 0
71 27 -46 -96 0
59 98 -63 13 0
-77 43 -72 89 0
74 -5 -54 77 0
-98 13 -9 23 0
-35 -69 91 -32 0
89 78 73 -25 0
-83 -11 29 87 0
-59 -63 -13 9 0
74 5 54 -77 0
59 63 -13 -9 0
-89 -95 15 -90 0
-50 11 87 79 0
-6 72 -89 -78 0
-57 61 68 41 0
74 -5 -54 77 0
57 1 -61 68 0
34 -91 32 -76 0
-68 41 -55 -64 0
23 57 -41 7 0
-74 -5 54 77 0
89 -25 95 15 0
-44 -57 -61 21 0
32 -52 -8 93 0
-16 33 -39 71 0
-89 -95 15 90 0
32 -76 -52 -8 0
34 35 -69 91 0
44 -23 -61 21 0
23 -68 -41 -64 0
-56 -81 -82 12 0
-2 42 -26 -14 0
-23 -41 64 -74 0
56 -81 -30 -82 0
34 35 -69 -91 0
-82 12 -2 -34 0
89 78 73 25 0
23 68 -21 -41 0
-89 -95 15 -90 0
44 -86 -29 -87 0
-32 -76 -52 8 0
-44 59 98 63 0
44 -86 29 87 0
34 -91 -32 -76 0
98 38 -23 57 0
-23 -41 64 -7 0
98 38 -23 57 0
34 -91 32 -76 0
56 -81 -30 -82 0
-43 -6 72 -89 0
71 27 46 96 0
-59 63 -13 -9 0
44 98 99 -63 0
-44 59 -98 -63 0
-44 -38 9 1 0
-32 52 8 -93 0
-34 35 69 -84 0
2 -42 26 -14 0
6 72 89 78 0
23 41 64 -7 0
77 43 6 -17 0
-32 52 -8 -93 0
-2 70 42 80 0
8 93 44 -97 0
89 78 73 25 0
-34 -35 69 91 0
6 -89 78 73 0
32 -76 52 8 0
82 -2 -34 -80 0
23 -41 64 -74 0
-6 72 -89 78 0
-77 -43 -72 -89 0
44 -97 -19 -50 0
27 -46 96 -10 0
27 46 -96 10 0
-6 -72 89 -78 0
-23 -68 21 41 0
-44 -86 29 -88 0
-34 91 32 76 0
-32 -76 52 -8 0
-23 68 -21 -55 0
-68 -55 -64 7 0
-34 -35 91 32 0
32 -52 8 -93 0
83 11 -86 29 0
34 91 -32 76 0
98 -38 23 -57 0
34 35 69 -84 0
-6 -89 78 -73 0
44 87 -59 -31 0
-44 -97 53 20 0
-89 78 -73 -25 0
-77 43 -6 17 0
-98 38 13 23 0
71 -27 -46 96 0
44 97 50 83 0
44 98 1 -61 0
-43 -6 72 -89 0
