c Type 2: interval ordering (permuted), n=1000, m_intervals=1000, t=3
p cnf 1000 4000
811 825 -30 0
-204 193 -474 0
-40 880 923 0
659 -831 927 0
901 -888 -475 0
-50 -920 775 0
680 96 703 0
712 -333 -305 0
-299 307 -633 0
221 -26 -991 0
-539 -75 559 0
633 -968 -269 0
581 -325 229 0
338 405 795 0
-999 916 799 0
-244 262 528 0
706 -267 -322 0
-472 882 148 0
480 617 -981 0
806 -856 837 0
-975 614 711 0
-514 -946 985 0
276 789 -651 0
-659 927 618 0
762 -328 848 0
864 869 -641 0
-355 150 -403 0
151 -491 -43 0
-501 863 -579 0
294 262 469 0
-600 170 -748 0
-925 928 -635 0
501 538 240 0
-417 -788 -181 0
-429 -31 312 0
-344 523 -561 0
193 487 180 0
-209 637 675 0
948 -766 -978 0
780 977 -873 0
-653 -383 537 0
-701 801 596 0
790 -673 45 0
-967 -515 391 0
-401 460 -704 0
-948 -766 814 0
756 -382 -642 0
-680 -344 267 0
151 671 -918 0
-756 -382 642 0
617 496 981 0
18 262 -279 0
-576 -790 -508 0
-202 -321 394 0
802 -481 -462 0
-228 506 222 0
626 323 535 0
-653 383 537 0
270 44 736 0
780 -977 379 0
930 -887 195 0
308 999 -916 0
-581 -229 -765 0
-880 178 -83 0
-647 -272 182 0
-916 -754 119 0
-623 -556 797 0
673 426 -291 0
-654 -575 11 0
-50 -1 -920 0
771 904 -408 0
-401 -965 394 0
222 689 -823 0
72 538 914 0
254 380 448 0
-208 550 -205 0
178 -811 221 0
131 550 198 0
77 -40 -844 0
250 -96 888 0
-401 965 394 0
828 459 -533 0
890 -445 132 0
429 -171 -652 0
581 229 765 0
-771 -904 408 0
-996 338 -842 0
659 -831 927 0
-303 -489 -553 0
224 -494 -815 0
806 -997 856 0
-108 222 -689 0
-998 -299 -633 0
874 -631 70 0
419 98 -468 0
-911 740 306 0
176 -296 -419 0
-673 343 166 0
790 -799 864 0
-288 385 397 0
72 892 681 0
842 727 693 0
-429 -31 -652 0
511 848 -123 0
880 178 83 0
-270 44 857 0
-234 -706 250 0
-74 -279 373 0
903 -83 -558 0
-673 426 -291 0
-151 773 -819 0
471 699 -236 0
115 -244 18 0
681 -827 207 0
903 558 723 0
-806 856 -837 0
-653 -273 692 0
806 -856 837 0
-517 -50 -839 0
149 -956 -333 0
-762 848 -923 0
681 538 -911 0
-459 -111 -792 0
-50 920 -775 0
-965 680 -934 0
884 383 -537 0
-209 -637 675 0
-959 -347 600 0
817 -213 -644 0
-927 -472 148 0
-386 299 -633 0
354 -498 744 0
859 -694 225 0
222 -689 -823 0
701 801 596 0
-274 -396 -330 0
308 790 -799 0
127 553 549 0
-557 844 -140 0
-754 -119 276 0
429 -171 -652 0
209 -834 -870 0
612 -67 -909 0
41 -355 150 0
975 -614 -711 0
-429 -31 -171 0
923 861 -604 0
623 -556 797 0
189 185 264 0
90 792 145 0
417 788 181 0
-167 628 -613 0
-176 -182 -55 0
685 592 354 0
911 626 457 0
-765 -189 -669 0
-566 612 -411 0
-903 453 -199 0
498 -902 705 0
-585 -175 499 0
-911 626 535 0
-209 -623 -556 0
-151 773 -819 0
-303 -489 -553 0
590 421 -481 0
-176 -419 -466 0
802 481 -462 0
-41 -460 -287 0
151 -118 237 0
-344 -523 561 0
228 222 -541 0
-623 556 797 0
680 503 -337 0
-115 -818 -829 0
-681 -538 911 0
-936 721 -128 0
-276 896 -789 0
151 -773 819 0
-887 906 -881 0
680 394 164 0
242 -419 -98 0
689 -867 957 0
-649 -310 899 0
-884 -537 -490 0
397 400 677 0
-659 446 831 0
-841 163 352 0
-365 488 201 0
590 -802 -348 0
396 330 -108 0
189 590 802 0
552 863 -579 0
301 139 387 0
-811 -532 494 0
-339 -392 126 0
-209 675 623 0
-822 268 364 0
31 -1000 -785 0
-880 604 -178 0
-726 -468 -878 0
-759 176 296 0
-120 260 -565 0
-972 -10 -545 0
689 -19 -331 0
797 764 485 0
829 230 294 0
115 -244 -18 0
872 271 255 0
386 299 -633 0
242 307 633 0
673 -156 -119 0
-783 -436 91 0
-901 -888 475 0
784 -653 537 0
225 -925 928 0
-701 801 596 0
585 -175 521 0
-701 596 -440 0
654 575 -11 0
-31 822 785 0
554 -92 979 0
-759 -419 998 0
-903 -83 558 0
202 321 -234 0
-778 471 -952 0
462 -780 -769 0
856 31 -652 0
659 831 -927 0
-178 -811 -494 0
790 799 864 0
590 -348 -531 0
-856 -341 361 0
208 778 471 0
802 -481 462 0
-759 -55 -386 0
701 -801 404 0
351 -644 71 0
928 -60 686 0
874 -631 -70 0
250 96 703 0
624 -253 -725 0
-575 649 115 0
-988 -395 -800 0
-856 -822 -476 0
-811 -532 494 0
-72 827 357 0
-712 -149 336 0
846 -526 976 0
659 446 831 0
151 900 -84 0
-856 31 -312 0
120 260 565 0
653 273 692 0
158 234 -35 0
928 -60 -686 0
-178 532 -991 0
680 -901 503 0
-494 -61 -33 0
515 391 -505 0
-780 -745 -977 0
151 -739 918 0
-115 -49 422 0
924 -939 -712 0
-474 -339 -830 0
554 -91 -877 0
31 822 -962 0
228 222 541 0
501 911 53 0
419 -98 -468 0
-718 828 -352 0
193 -283 -339 0
176 -242 -98 0
429 -31 652 0
320 203 -855 0
365 -488 -201 0
564 303 401 0
-108 499 -541 0
-72 -434 207 0
673 343 -166 0
-811 494 815 0
856 -837 983 0
132 -149 -333 0
581 895 325 0
-790 -722 673 0
221 -26 -991 0
-151 -900 -84 0
-936 -721 -128 0
678 712 149 0
884 -653 -101 0
860 454 -678 0
279 -168 -373 0
-401 7 779 0
-294 -18 -813 0
-471 -198 -507 0
1000 822 929 0
680 -96 -703 0
681 911 740 0
-754 796 45 0
348 -462 478 0
333 -63 -315 0
90 209 360 0
-386 299 633 0
790 -673 -156 0
-274 -405 727 0
-680 -503 337 0
962 364 20 0
-503 -540 -267 0
41 -922 879 0
653 -47 770 0
-962 146 714 0
-778 -471 -198 0
-480 617 496 0
-576 947 -790 0
-209 -637 675 0
-480 617 -496 0
967 -515 391 0
-778 667 -910 0
-797 764 -485 0
718 -877 828 0
-271 39 -155 0
-158 -234 35 0
726 -208 269 0
127 965 3 0
-267 -523 955 0
494 61 -33 0
-119 -210 276 0
-657 -73 -617 0
-41 -355 -150 0
911 -457 300 0
790 -673 119 0
-706 267 -322 0
127 -965 -922 0
-925 -928 -635 0
498 -902 285 0
-404 625 807 0
-872 -271 -255 0
790 -864 -119 0
876 -47 368 0
841 94 792 0
659 -927 -461 0
40 -568 26 0
721 128 -227 0
863 72 200 0
193 283 -339 0
762 -848 -923 0
-846 -526 976 0
511 570 -328 0
-202 -680 -231 0
119 210 796 0
-503 -759 647 0
-856 837 429 0
-271 -39 155 0
303 489 -553 0
996 -842 795 0
-581 325 -229 0
-948 -766 226 0
-167 -132 -336 0
-156 862 840 0
-718 877 -828 0
151 900 -84 0
-480 617 981 0
225 925 -928 0
-339 -392 -126 0
-959 -347 -600 0
28 936 -721 0
759 -176 55 0
856 -31 -341 0
354 498 -744 0
-977 406 -665 0
-74 279 373 0
480 -617 -981 0
-701 -801 -596 0
-517 50 -839 0
-841 163 352 0
-592 354 -498 0
653 -47 -770 0
576 790 508 0
-401 460 704 0
-115 -899 49 0
-903 453 -199 0
336 624 441 0
-120 -260 -565 0
570 -762 -923 0
-301 604 122 0
-382 642 504 0
738 -883 924 0
263 -661 302 0
-202 41 460 0
-542 708 -838 0
-756 382 642 0
354 498 -744 0
271 -155 -898 0
-590 -802 348 0
-155 898 -756 0
119 291 796 0
550 -198 662 0
-202 41 -460 0
554 -91 -332 0
459 111 792 0
590 -348 -531 0
-429 31 652 0
320 -203 -855 0
834 -349 -36 0
673 156 119 0
338 -274 842 0
-790 673 -156 0
-119 210 116 0
-315 -900 -84 0
120 260 565 0
-542 -708 -838 0
-996 338 842 0
-346 329 -77 0
-228 506 -607 0
-876 47 368 0
-462 -359 745 0
108 689 326 0
-653 -383 537 0
-884 653 -101 0
209 637 675 0
263 -661 302 0
115 -244 104 0
-98 399 878 0
491 -129 -671 0
122 -811 83 0
-7 -965 41 0
-441 -253 -725 0
-959 347 -600 0
973 -715 -643 0
680 901 503 0
-460 -680 690 0
-893 -340 554 0
680 888 337 0
780 -977 -379 0
-132 -336 -624 0
-417 -788 -181 0
-968 235 854 0
-642 42 529 0
-115 -818 829 0
40 -570 861 0
759 -55 386 0
-515 -391 -505 0
780 769 745 0
-471 198 -507 0
-176 -419 386 0
-841 -163 -352 0
156 -862 -840 0
-35 254 -164 0
-31 822 -962 0
344 647 -272 0
-680 287 231 0
-454 678 -336 0
-404 625 -807 0
-498 -744 -297 0
-503 759 -647 0
774 365 500 0
72 434 892 0
401 680 -234 0
856 -31 -312 0
244 18 -262 0
193 514 946 0
151 -688 491 0
-828 -459 533 0
176 -98 633 0
-44 -204 193 0
930 887 195 0
-50 -920 775 0
-242 419 -98 0
123 604 178 0
-533 -145 -412 0
-590 421 -481 0
680 706 -344 0
355 -150 -234 0
-489 -536 321 0
-91 828 111 0
202 321 394 0
-570 762 -139 0
846 -526 -976 0
-681 827 -538 0
494 375 61 0
-914 217 911 0
864 673 754 0
590 -802 -348 0
-150 527 -231 0
167 939 149 0
-806 -856 -837 0
31 962 20 0
-689 -867 -957 0
163 418 691 0
-271 -658 39 0
159 -519 -416 0
-778 -67 -909 0
-511 570 328 0
1000 822 -929 0
590 802 -348 0
-762 -912 178 0
108 222 -689 0
429 -171 1000 0
-678 -712 149 0
-653 383 826 0
131 342 -205 0
-213 644 -519 0
-528 168 -738 0
884 -653 537 0
271 39 -155 0
-193 283 339 0
-176 296 419 0
382 642 504 0
738 883 373 0
462 780 -753 0
288 385 -397 0
581 325 -229 0
-90 -209 -360 0
348 -481 478 0
-242 419 -98 0
715 141 859 0
928 -635 60 0
724 -169 876 0
-132 678 -333 0
392 -126 639 0
176 -296 55 0
-354 -498 744 0
-417 788 -181 0
884 -490 -368 0
-72 538 -914 0
-856 -171 582 0
-274 -396 330 0
715 141 -859 0
592 354 498 0
151 -688 491 0
189 185 -264 0
175 -22 -607 0
838 972 -10 0
127 489 -555 0
-501 -911 53 0
535 -683 655 0
948 766 226 0
-528 74 883 0
-884 -520 653 0
-40 -568 26 0
-91 -828 -111 0
-163 -459 -792 0
-115 818 829 0
657 -617 -496 0
-514 -946 -985 0
-108 733 -175 0
-339 -392 -126 0
77 40 139 0
570 -762 -139 0
-279 -883 -373 0
-778 -566 62 0
653 47 770 0
-600 170 748 0
-701 -404 440 0
-592 354 -498 0
-511 -848 -123 0
-322 -647 732 0
-884 -520 -653 0
354 498 -744 0
962 714 -127 0
-501 911 -53 0
-46 -930 455 0
-274 -396 593 0
-515 -391 -505 0
-678 712 624 0
46 -930 433 0
-747 802 -348 0
-686 967 515 0
274 405 727 0
623 -556 797 0
817 -213 -644 0
72 892 -681 0
874 631 -70 0
-759 -176 -419 0
459 -111 792 0
156 343 840 0
494 61 -33 0
-209 660 -834 0
-706 -503 267 0
209 870 -637 0
462 769 -745 0
-189 590 238 0
-31 822 785 0
77 40 -139 0
46 -930 433 0
254 -380 -448 0
193 -283 -339 0
975 614 -711 0
790 864 119 0
715 -695 -141 0
405 842 -795 0
570 762 -923 0
-436 -431 -776 0
-874 -631 70 0
348 -462 478 0
-176 -242 98 0
-790 864 673 0
-988 395 -800 0
780 745 977 0
348 481 -478 0
822 -268 -364 0
765 189 669 0
642 -42 -529 0
-3 -234 934 0
790 -673 862 0
-397 -400 677 0
-132 -149 333 0
828 533 -145 0
-365 -488 201 0
284 958 -377 0
759 176 296 0
333 -441 -136 0
-712 -333 305 0
72 538 914 0
-471 -717 -473 0
-417 -993 -393 0
-344 -55 419 0
680 -344 -267 0
501 863 579 0
115 244 -18 0
-841 459 360 0
91 431 877 0
193 474 180 0
689 -331 -867 0
-542 -708 -838 0
208 778 -304 0
471 -198 -507 0
-354 498 744 0
-517 -50 839 0
178 -811 221 0
-806 -997 856 0
480 617 496 0
-811 -494 815 0
-828 459 145 0
822 785 -749 0
301 139 387 0
-654 575 516 0
176 -296 55 0
-146 7 -731 0
-327 -915 32 0
806 856 -837 0
-41 460 287 0
-778 -566 -62 0
77 40 -139 0
901 -645 134 0
-167 860 -313 0
-401 287 35 0
-927 472 882 0
193 487 -830 0
-271 155 -898 0
-988 -800 239 0
341 -808 962 0
33 -2 767 0
-127 401 7 0
-31 822 -20 0
154 743 663 0
-774 -365 -500 0
-471 699 236 0
581 -229 765 0
948 832 -766 0
884 -47 320 0
841 -94 792 0
-462 -780 -769 0
701 -801 -596 0
-903 453 -199 0
-175 499 -464 0
988 -395 800 0
331 957 -92 0
-33 -2 -767 0
988 -395 800 0
-462 359 -745 0
480 -617 -621 0
474 339 830 0
-761 -698 975 0
-626 323 535 0
539 -75 -559 0
-856 -822 476 0
-462 359 745 0
401 -7 779 0
90 -834 -742 0
-893 340 -554 0
-18 646 -279 0
-662 -612 125 0
-774 365 500 0
790 -722 673 0
-706 -250 -96 0
348 -481 478 0
925 928 635 0
718 -877 -828 0
122 811 83 0
-519 -430 -806 0
503 -540 -267 0
972 10 545 0
-887 906 881 0
267 -955 -759 0
519 -806 -588 0
-401 -7 666 0
373 -167 -420 0
274 -396 330 0
-383 -537 826 0
-401 7 666 0
867 -957 -121 0
811 26 532 0
-538 -217 -761 0
-566 -62 -632 0
-279 168 -738 0
163 418 691 0
-31 -822 -476 0
-948 832 766 0
921 973 -715 0
965 922 -287 0
339 392 54 0
-856 8 929 0
108 222 -187 0
928 60 686 0
585 175 -521 0
-35 254 164 0
-649 -310 -899 0
-790 864 673 0
-701 -801 596 0
642 -465 120 0
417 993 393 0
167 889 905 0
271 39 -155 0
-485 -948 -832 0
841 828 -691 0
127 -489 7 0
-647 272 182 0
-127 -489 731 0
127 965 3 0
-151 491 43 0
-72 434 -768 0
566 62 -632 0
-653 -383 537 0
-501 -538 217 0
-354 -498 -744 0
998 299 -633 0
-462 -780 753 0
884 -47 -407 0
846 -526 -976 0
-653 452 480 0
396 330 108 0
242 -98 -307 0
344 -759 182 0
-822 341 -962 0
-889 -132 -6 0
333 441 350 0
-653 -383 537 0
893 340 -554 0
930 -887 195 0
119 -210 45 0
965 321 922 0
-417 -788 181 0
222 -689 -331 0
-471 -729 682 0
-288 385 -397 0
-856 -171 582 0
880 -103 83 0
765 -189 -669 0
-224 -494 815 0
928 60 686 0
-816 662 -632 0
856 822 476 0
741 774 365 0
800 984 -851 0
-41 -922 879 0
-419 -410 98 0
-31 -962 -319 0
-889 132 6 0
-715 -695 141 0
-46 930 433 0
19 867 963 0
-911 626 535 0
-441 -253 725 0
557 -844 -140 0
-321 -527 934 0
74 -986 -420 0
435 -654 -575 0
-927 79 438 0
-581 -895 325 0
221 26 991 0
761 -24 548 0
348 462 478 0
-828 -533 -145 0
396 330 108 0
-701 -596 -440 0
-550 -198 -662 0
528 168 738 0
-41 -355 150 0
-242 419 -399 0
-397 400 677 0
-74 279 373 0
-624 -136 -931 0
222 340 121 0
856 -837 -429 0
380 -250 -901 0
872 271 255 0
813 -646 -469 0
566 62 632 0
-419 -968 907 0
659 -446 -831 0
-204 -193 487 0
91 828 -111 0
-155 -898 -756 0
-880 -103 -83 0
-163 -418 691 0
511 358 -40 0
-41 -922 879 0
436 -431 776 0
856 -268 341 0
925 -928 635 0
-7 629 202 0
-120 260 565 0
-930 887 195 0
856 -822 -476 0
-244 469 74 0
77 40 844 0
-279 -883 373 0
-94 418 792 0
441 315 151 0
-988 800 -239 0
128 -381 46 0
338 -274 -842 0
-925 -928 635 0
-127 401 -7 0
-331 957 -92 0
-178 -532 -991 0
874 -631 70 0
-686 967 515 0
-491 -129 671 0
-856 -837 -429 0
-653 -383 -537 0
-344 -523 -561 0
-401 -234 -704 0
-7 -965 41 0
276 -789 651 0
538 53 626 0
554 92 979 0
-274 -396 330 0
3 -234 934 0
354 498 744 0
-575 649 -115 0
680 706 503 0
581 -895 325 0
-965 680 -934 0
-715 -737 -141 0
998 299 -633 0
320 -452 -353 0
267 -561 955 0
-884 47 -407 0
498 902 -705 0
-862 -679 -343 0
-276 789 651 0
498 902 424 0
72 892 681 0
-924 678 -712 0
-31 -822 -962 0
-872 271 -255 0
-115 -818 -138 0
-491 -129 671 0
-828 -459 533 0
965 -922 -287 0
642 -42 -529 0
348 481 -462 0
802 421 384 0
566 -62 -125 0
457 587 -941 0
685 592 -354 0
339 392 -54 0
-301 -880 912 0
-923 -861 604 0
-128 381 -46 0
-125 996 -338 0
-756 -382 642 0
-298 187 -689 0
-841 -828 111 0
365 -488 -201 0
347 600 174 0
-814 -226 584 0
811 825 30 0
-930 887 -195 0
-681 538 911 0
-61 33 173 0
98 -726 968 0
-988 -800 -239 0
-761 -24 -548 0
-498 902 -285 0
-108 733 -619 0
792 -660 -246 0
600 170 748 0
-77 40 885 0
123 -604 178 0
-999 -916 799 0
167 889 -905 0
40 570 861 0
263 661 302 0
457 587 -941 0
193 -487 830 0
-40 -568 26 0
790 -673 862 0
-132 -6 336 0
762 912 -178 0
659 -831 927 0
654 575 964 0
706 250 -96 0
-154 -743 663 0
151 -773 -819 0
-680 -287 231 0
454 678 336 0
-61 33 2 0
-276 896 -789 0
-802 481 -192 0
-202 680 -231 0
-120 -260 -565 0
193 514 946 0
733 506 938 0
-271 155 -898 0
-834 -349 -36 0
-120 -260 -565 0
592 -354 498 0
685 592 354 0
673 -679 251 0
-77 -511 -40 0
762 -568 -903 0
-333 -971 12 0
925 -928 -635 0
-764 485 948 0
234 -706 250 0
151 -773 819 0
-274 -396 593 0
680 -706 -344 0
151 118 650 0
-780 769 745 0
-125 -638 338 0
31 -822 -962 0
-170 -748 552 0
244 -262 -528 0
-701 801 404 0
706 -759 372 0
856 837 -429 0
-396 -330 -108 0
-167 939 -149 0
-271 -255 -477 0
-301 -139 -387 0
-977 406 -665 0
417 -788 181 0
542 708 838 0
-783 908 436 0
31 -822 476 0
778 131 236 0
948 832 766 0
-149 956 -333 0
189 -669 -185 0
-209 660 -349 0
-276 896 789 0
790 -869 -426 0
119 210 -45 0
-401 -680 -234 0
-884 -47 -353 0
817 -213 71 0
-499 805 298 0
-354 498 744 0
778 -667 910 0
167 628 613 0
-494 -815 375 0
-401 234 105 0
-928 -635 -60 0
-965 -530 202 0
459 111 -418 0
590 -802 -348 0
-417 -993 393 0
-417 -993 393 0
-271 -155 -898 0
-471 -729 682 0
213 644 458 0
417 -788 181 0
538 217 696 0
74 168 738 0
715 141 859 0
-250 96 703 0
-921 -973 -715 0
642 465 -120 0
-501 -740 696 0
-193 487 -339 0
271 155 -898 0
-189 590 238 0
223 28 936 0
-276 -772 684 0
-163 -90 -209 0
18 -262 279 0
7 202 -536 0
-396 330 -108 0
404 625 807 0
-351 644 -71 0
-874 -631 -70 0
108 585 -222 0
689 -19 -331 0
-18 597 528 0
-178 224 -815 0
-189 590 -747 0
288 -385 -397 0
822 -785 749 0
542 708 -838 0
457 587 -941 0
575 -649 115 0
765 -189 -669 0
889 6 712 0
-880 103 83 0
-503 540 267 0
-681 -538 -217 0
921 973 -715 0
315 -900 -84 0
-780 977 379 0
267 523 -955 0
856 8 -929 0
-31 785 -341 0
-302 576 -563 0
968 -235 854 0
-480 981 50 0
-726 208 -269 0
-780 -745 -977 0
333 -971 624 0
575 649 -115 0
759 176 419 0
617 -496 -981 0
115 -818 829 0
-288 385 -397 0
-701 801 -596 0
800 984 -851 0
-120 -260 565 0
-208 550 -198 0
-921 -973 -715 0
-680 -901 503 0
762 -139 716 0
-271 -155 -898 0
115 -818 829 0
120 -260 565 0
202 -321 -234 0
884 47 -407 0
-864 -754 398 0
-754 -119 -276 0
689 19 -331 0
-653 -452 -480 0
-822 341 962 0
-108 -733 -175 0
-459 111 -418 0
-404 -440 -539 0
-511 -358 -40 0
-10 -545 346 0
-813 -646 -469 0
-806 -856 -837 0
-365 -488 -201 0
276 896 789 0
-948 -832 -766 0
-329 -77 -511 0
-876 -47 368 0
718 163 -459 0
-40 844 -570 0
-299 307 633 0
-6 -248 939 0
-771 -135 -435 0
302 -576 563 0
139 -880 -453 0
127 553 549 0
-911 300 616 0
-151 773 819 0
-396 -108 580 0
-701 -596 440 0
-718 828 352 0
984 851 846 0
800 -786 984 0
-294 262 -469 0
581 895 -325 0
903 -558 723 0
-46 930 -455 0
176 -419 466 0
-678 -712 -136 0
-50 1 920 0
-474 180 -95 0
404 -440 539 0
-169 490 -770 0
-498 -902 -705 0
-869 -673 210 0
-928 635 -60 0
927 -79 438 0
127 401 731 0
501 863 -579 0
-474 -514 283 0
-151 -84 -773 0
108 585 938 0
-189 590 -802 0
-208 -778 -471 0
250 901 703 0
633 968 -269 0
-454 678 712 0
417 -788 -181 0
-977 -406 -665 0
-396 -108 580 0
-115 899 422 0
706 901 -96 0
-566 62 632 0
-332 -793 -841 0
-701 801 596 0
-718 -163 459 0
-151 773 819 0
494 -61 33 0
-841 -94 792 0
73 203 480 0
-354 498 -744 0
-653 -273 692 0
74 -986 420 0
542 708 -838 0
-884 383 -537 0
531 -700 -439 0
726 208 -269 0
515 -391 505 0
301 139 -290 0
208 -778 -304 0
-762 -604 -687 0
72 -434 768 0
832 -766 978 0
-778 295 816 0
-673 343 166 0
171 822 476 0
-716 -447 -912 0
930 887 -195 0
-396 -108 733 0
189 669 -185 0
-454 -678 -956 0
244 18 -262 0
115 818 -829 0
911 -761 -535 0
471 -699 236 0
832 766 978 0
-90 834 742 0
-55 386 998 0
-279 -924 -889 0
-880 103 -83 0
-291 -862 796 0
-678 -712 136 0
-222 298 960 0
776 -793 -877 0
519 -806 -588 0
-127 401 7 0
-761 457 941 0
-517 -50 -839 0
-927 -79 438 0
-47 657 73 0
-856 822 476 0
-678 712 624 0
-639 -959 347 0
759 176 -55 0
554 -908 -436 0
832 -766 -978 0
806 856 837 0
928 60 -686 0
222 689 331 0
-242 -419 -399 0
-175 -228 -22 0
-244 469 -74 0
-911 -300 -616 0
-515 -327 -915 0
927 79 -438 0
-471 -717 -550 0
308 -790 -799 0
-167 132 336 0
-800 -984 -851 0
780 -977 873 0
274 -842 727 0
-396 -330 -108 0
-701 -801 -404 0
-761 -683 750 0
689 19 -331 0
459 -111 -792 0
790 -722 864 0
-967 515 391 0
659 -831 927 0
-72 538 -914 0
115 818 -829 0
-72 -434 -207 0
276 402 651 0
151 773 -819 0
-435 -654 -575 0
681 -911 740 0
780 769 -745 0
-270 44 -857 0
-40 880 -923 0
-590 980 -747 0
209 -660 -834 0
901 645 134 0
-972 -10 -545 0
139 -880 -453 0
-906 608 -921 0
515 -391 505 0
771 135 -435 0
-115 818 -230 0
-846 526 -976 0
802 481 -462 0
228 -22 -607 0
-178 811 494 0
948 766 -978 0
234 509 -448 0
-333 -441 -136 0
-977 406 665 0
213 -644 519 0
581 229 -765 0
-501 -538 543 0
959 347 -600 0
-802 -421 384 0
90 -209 360 0
-31 -1000 -785 0
-783 -436 91 0
-115 -818 829 0
-498 744 -297 0
650 -491 -43 0
-301 880 912 0
-662 612 -125 0
-91 -431 -877 0
-193 -514 946 0
-515 -391 -505 0
-780 -977 873 0
-498 -902 -705 0
-633 968 269 0
911 -740 306 0
279 -373 860 0
829 230 294 0
-108 -499 541 0
-701 -801 -404 0
-77 804 -456 0
209 -623 -556 0
-270 -44 857 0
208 778 471 0
204 193 -474 0
-279 -883 -373 0
-965 -527 -35 0
-800 786 -984 0
55 -419 299 0
554 -91 332 0
-685 -592 354 0
214 162 768 0
542 -708 838 0
-911 761 -535 0
-244 -262 -528 0
689 -331 867 0
163 -459 792 0
-108 -733 -619 0
-355 150 -403 0
485 948 832 0
244 875 -719 0
680 706 703 0
-209 834 442 0
-784 -653 -537 0
-724 -770 409 0
576 -947 -790 0
-339 392 -54 0
-724 169 -876 0
-568 103 -558 0
659 927 461 0
-762 -848 -923 0
222 340 121 0
657 73 -617 0
127 -489 -731 0
706 96 -703 0
294 18 813 0
-790 -673 -119 0
472 882 -148 0
-462 -780 769 0
-778 -295 -816 0
-515 -391 -505 0
-158 234 -448 0
-276 -896 789 0
347 -600 -174 0
-762 568 -123 0
-244 104 18 0
889 -132 -6 0
903 -83 558 0
863 827 -357 0
778 -471 198 0
-701 801 596 0
-202 680 -231 0
208 550 205 0
-340 -718 713 0
689 19 331 0
564 -303 401 0
-887 906 881 0
-715 -695 141 0
417 -993 -393 0
-811 -26 532 0
-31 -785 749 0
856 -31 652 0
718 163 -459 0
-234 509 448 0
738 883 -924 0
420 313 -890 0
-680 -394 -164 0
715 -141 859 0
-279 -883 373 0
242 419 -399 0
-234 -706 -250 0
-948 832 -766 0
151 84 773 0
131 550 -198 0
-494 61 33 0
441 253 -725 0
481 -531 439 0
-208 198 674 0
564 127 -401 0
924 -889 -336 0
-701 801 596 0
-874 631 -70 0
-50 -926 324 0
856 837 -429 0
-228 222 541 0
889 132 -6 0
-489 3 -202 0
576 947 -790 0
31 -1000 -785 0
321 -527 -934 0
-115 244 18 0
-270 -44 -857 0
-538 217 696 0
841 459 360 0
-120 -260 -565 0
570 903 -558 0
654 575 964 0
77 -511 -40 0
33 -2 767 0
-267 955 -322 0
-228 506 -222 0
127 965 -3 0
-271 255 -477 0
-706 -503 267 0
908 -431 718 0
-511 570 328 0
401 -489 202 0
575 -649 115 0
678 -956 -333 0
-494 61 -33 0
657 -73 203 0
-519 -430 806 0
-542 708 838 0
178 69 26 0
421 462 583 0
-756 382 642 0
442 -275 -734 0
132 149 -333 0
-764 -485 -948 0
501 863 -162 0
454 -678 -712 0
-874 -631 70 0
501 -538 240 0
-115 829 138 0
-501 863 -162 0
151 -118 650 0
-19 867 963 0
132 712 -956 0
-208 -198 -674 0
222 -298 960 0
151 819 -237 0
617 496 -981 0
817 213 -644 0
-887 -906 881 0
-701 801 596 0
-780 977 379 0
542 -708 -838 0
-828 459 -533 0
-864 641 -156 0
401 -965 -394 0
778 67 -909 0
-279 -986 -860 0
-193 -487 -339 0
-726 -284 778 0
-498 902 705 0
-626 -323 535 0
-554 91 -877 0
-10 545 346 0
-396 -108 580 0
-678 712 -136 0
-47 -657 -73 0
-498 -744 297 0
-804 172 -139 0
-167 132 454 0
948 832 766 0
-31 822 962 0
127 489 -555 0
279 373 -860 0
222 298 -960 0
-244 -469 74 0
-977 -406 -665 0
327 915 32 0
856 837 -429 0
-880 178 -83 0
-222 298 960 0
863 -892 -9 0
867 -957 -554 0
50 -1 -920 0
-771 -135 -435 0
-50 920 775 0
401 489 202 0
7 965 41 0
35 -254 -164 0
653 -490 452 0
-401 680 -509 0
-817 213 -71 0
401 -7 666 0
222 340 121 0
498 902 -705 0
-927 79 -438 0
911 626 -457 0
301 762 -387 0
557 -844 -140 0
28 -936 721 0
501 -538 -217 0
988 395 800 0
-151 671 -918 0
-462 -359 745 0
-856 341 361 0
224 494 815 0
40 -880 -923 0
-120 260 -565 0
864 -754 398 0
-802 421 -384 0
911 -457 535 0
-193 -514 946 0
303 -489 553 0
-301 762 -387 0
-193 487 339 0
706 -759 372 0
-115 829 -138 0
-535 683 655 0
396 -108 -733 0
653 47 -770 0
-263 -661 302 0
-581 -229 765 0
-531 700 -439 0
-189 -590 -238 0
176 -296 -55 0
-167 132 -336 0
-462 -192 531 0
-90 834 742 0
462 769 745 0
-193 487 -830 0
-204 193 487 0
61 33 -173 0
802 -481 192 0
930 -887 195 0
-217 -696 306 0
7 -202 536 0
119 210 116 0
715 -737 141 0
-592 -354 -498 0
217 -53 626 0
-498 -744 -297 0
-115 -818 -829 0
-780 -745 -977 0
209 -870 637 0
178 532 991 0
-511 358 40 0
783 -436 91 0
-7 -629 -202 0
-680 901 -344 0
-91 431 877 0
996 842 -795 0
581 895 325 0
-462 -780 -753 0
271 -39 -155 0
-72 892 -681 0
228 -506 222 0
-355 -35 105 0
590 802 348 0
-965 321 922 0
396 733 -619 0
270 -44 857 0
977 -406 -665 0
-132 -712 -956 0
780 -745 977 0
-365 -488 -201 0
115 829 -138 0
-860 -454 678 0
-175 -22 607 0
301 -604 122 0
-884 653 383 0
-846 526 976 0
-365 -488 201 0
-884 653 -383 0
-127 7 202 0
-204 193 487 0
884 -653 -383 0
-649 310 899 0
-517 50 -839 0
209 660 -349 0
214 162 -768 0
856 476 785 0
-859 694 -225 0
806 997 -856 0
-267 322 -647 0
-55 -419 -299 0
-906 608 -921 0
1000 -822 -929 0
-50 -920 -775 0
151 -773 -819 0
-673 156 -119 0
481 -531 -439 0
-689 -19 -331 0
115 899 -49 0
862 679 343 0
-965 321 -922 0
120 -260 565 0
-623 556 797 0
481 -531 -439 0
146 7 -731 0
680 367 645 0
-517 -50 -839 0
151 -773 -819 0
-74 -986 420 0
-642 465 -120 0
40 -762 328 0
501 434 -538 0
396 -330 -108 0
-948 832 766 0
176 182 -55 0
-151 -773 -819 0
-209 -834 442 0
771 904 -408 0
460 -680 690 0
738 -883 -373 0
678 956 333 0
-33 2 767 0
155 898 -756 0
965 321 922 0
-132 712 956 0
-108 -607 499 0
-841 163 -352 0
-401 -489 202 0
115 829 138 0
778 -67 909 0
884 47 -320 0
-263 -661 302 0
864 673 754 0
213 458 -159 0
151 671 -918 0
-948 -832 766 0
515 391 505 0
108 -733 -619 0
-301 -762 123 0
-790 -722 673 0
-762 -139 716 0
178 -69 26 0
354 -498 744 0
-132 678 333 0
-550 198 -304 0
-276 789 -772 0
715 695 -737 0
-178 811 -494 0
911 -761 -535 0
-267 561 955 0
542 -708 838 0
72 -827 -357 0
-132 -6 -336 0
-612 67 -909 0
-234 706 250 0
-167 132 -454 0
-759 176 -55 0
7 -3 202 0
-308 -790 -799 0
-967 -515 391 0
-33 2 -767 0
6 -248 -939 0
156 343 840 0
-680 -367 -645 0
774 -365 -500 0
-948 -584 988 0
344 -759 -182 0
564 303 401 0
-765 189 669 0
288 385 -397 0
-884 -537 490 0
590 980 747 0
554 -91 -877 0
585 175 499 0
456 328 172 0
-906 -608 -921 0
-294 -244 -719 0
557 844 140 0
-869 -673 210 0
-176 -419 -386 0
-474 -514 -283 0
-115 -818 -829 0
-653 -383 -826 0
-864 641 156 0
-288 385 -397 0
575 -649 115 0
-761 457 -941 0
-271 -477 -658 0
-928 -60 686 0
159 -519 -416 0
-270 44 -857 0
55 419 299 0
-927 -472 148 0
40 -762 328 0
-151 -773 819 0
-754 796 45 0
-156 -862 -840 0
515 -391 -505 0
-397 -990 400 0
344 -523 -561 0
355 -35 -105 0
800 984 -851 0
-921 -973 -715 0
-977 -659 -446 0
927 -472 148 0
178 -224 815 0
-417 -788 -181 0
-189 -669 -185 0
570 762 -923 0
800 786 984 0
911 740 306 0
841 -94 792 0
-685 -592 354 0
864 -673 -754 0
339 392 -54 0
-120 260 565 0
-421 462 -583 0
724 320 409 0
-217 696 -306 0
33 2 -767 0
822 341 -962 0
108 -585 -222 0
127 922 -680 0
344 55 -419 0
40 568 -26 0
930 887 -195 0
276 -789 -772 0
581 895 -325 0
564 -127 401 0
419 299 -633 0
-771 135 435 0
442 275 -734 0
-765 189 -669 0
208 550 198 0
-115 -818 -230 0
228 506 222 0
-225 925 -928 0
856 -268 341 0
-925 928 635 0
-155 898 756 0
-151 -671 918 0
40 762 -328 0
108 -607 -222 0
-887 -906 -881 0
856 -8 -929 0
-712 336 -333 0
948 -988 395 0
-859 694 225 0
921 -973 715 0
-276 -896 -789 0
511 358 40 0
-396 108 580 0
864 641 156 0
209 -675 623 0
515 -391 505 0
-718 828 -352 0
-903 912 -825 0
-864 641 -156 0
485 948 832 0
284 958 377 0
404 440 -539 0
657 73 -203 0
-884 653 537 0
-790 -722 -673 0
996 -338 842 0
-31 822 476 0
44 -204 -193 0
115 -818 -230 0
-673 -679 -251 0
-127 922 -680 0
-911 -626 -457 0
125 638 -338 0
-44 -204 193 0
-948 832 766 0
108 -689 326 0
863 -892 -9 0
-7 321 879 0
119 -291 796 0
271 255 477 0
-790 673 -80 0
108 326 823 0
921 -973 715 0
-653 490 452 0
-803 -624 -441 0
271 39 -155 0
856 31 341 0
856 -31 -341 0
911 -457 323 0
-765 189 669 0
880 604 178 0
154 743 663 0
-462 192 -439 0
267 -322 -647 0
-72 -434 768 0
50 -920 775 0
33 -2 767 0
279 924 -860 0
224 -494 -815 0
-276 896 789 0
-528 168 -738 0
806 -856 837 0
515 391 505 0
762 328 -848 0
31 -785 -749 0
-856 822 476 0
762 -568 -123 0
-333 441 -136 0
-765 189 -669 0
-276 862 -840 0
321 527 -934 0
-581 -895 -325 0
-480 617 981 0
333 971 -624 0
-276 -772 684 0
-862 -679 343 0
-276 -896 789 0
31 -962 20 0
-681 -827 538 0
72 -434 207 0
-209 -834 -870 0
61 33 81 0
817 213 644 0
-271 658 39 0
-706 901 -96 0
-209 -870 637 0
-623 556 -797 0
581 -895 -325 0
681 827 207 0
-925 -928 -635 0
344 759 182 0
721 128 -227 0
-806 997 856 0
515 -391 -505 0
151 -773 -819 0
514 -946 -985 0
480 -617 621 0
-355 -150 403 0
270 44 857 0
-817 -213 -71 0
-856 822 476 0
902 285 -874 0
120 -260 565 0
454 -678 712 0
26 -991 224 0
176 419 -466 0
-151 773 819 0
738 -883 -924 0
678 712 149 0
778 -471 952 0
-276 -789 651 0
515 327 -915 0
590 -802 -348 0
-996 -338 -842 0
365 -488 201 0
341 808 -962 0
74 279 -373 0
550 198 -304 0
-31 822 20 0
-738 -883 373 0
959 347 600 0
-712 333 305 0
-564 -127 -401 0
-680 96 703 0
-856 837 983 0
189 669 -668 0
-115 899 49 0
-271 -255 477 0
291 862 796 0
890 445 -132 0
903 -558 -723 0
554 -783 908 0
-724 770 -409 0
-7 202 536 0
-333 -63 -315 0
-397 -990 -400 0
-761 698 -975 0
-856 -837 983 0
797 -764 485 0
127 -489 -7 0
-624 253 725 0
-127 -553 -549 0
968 342 -389 0
189 -185 264 0
-270 -44 857 0
-498 902 -705 0
975 614 -711 0
-33 -2 767 0
681 538 -217 0
-287 -158 -150 0
811 26 532 0
208 778 269 0
-115 -818 -829 0
224 494 815 0
901 -994 -475 0
276 896 789 0
802 -481 -462 0
158 234 448 0
115 818 -829 0
91 -828 -111 0
680 888 344 0
-108 326 823 0
519 430 806 0
-480 -981 -50 0
-271 -39 155 0
-552 863 -579 0
217 696 -306 0
-967 -515 -391 0
31 -1000 785 0
-585 -175 499 0
127 -7 202 0
-193 -487 -339 0
-154 743 -663 0
115 -818 829 0
-50 -920 775 0
3 202 680 0
738 -883 924 0
623 556 -797 0
792 660 246 0
-202 321 234 0
-369 131 236 0
267 -955 -759 0
176 -98 -633 0
821 -701 801 0
-568 103 -558 0
108 585 -619 0
94 -418 -792 0
-921 -973 -715 0
680 -706 -503 0
-295 717 316 0
-903 453 199 0
-517 -50 839 0
-382 -642 42 0
-592 -354 498 0
429 -31 171 0
419 -968 -907 0
856 31 -652 0
-903 -83 558 0
948 988 395 0
209 -834 -870 0
-151 -773 819 0
-790 -426 13 0
98 726 -968 0
-790 869 -426 0
115 818 829 0
528 -74 883 0
-592 -354 498 0
320 203 855 0
61 33 -2 0
120 -260 565 0
18 -262 279 0
-928 60 -686 0
193 -514 -946 0
270 -44 -736 0
-977 406 665 0
-61 33 81 0
680 503 337 0
-217 53 -626 0
301 -880 912 0
127 489 -731 0
-358 -456 -844 0
903 -716 -122 0
903 -716 122 0
-517 -50 839 0
-515 -327 915 0
471 -566 -612 0
-948 988 -395 0
965 -530 202 0
31 822 20 0
-170 748 868 0
340 -718 233 0
72 -827 357 0
-515 -391 505 0
689 -331 867 0
800 786 984 0
-108 -499 -541 0
-365 -488 201 0
-333 971 -12 0
396 108 733 0
-462 -192 -439 0
115 -244 -104 0
761 457 535 0
501 538 543 0
-841 -828 111 0
927 -472 148 0
-570 903 -558 0
-336 -624 -441 0
-454 678 956 0
419 410 98 0
-570 -762 -139 0
-911 -300 616 0
759 419 998 0
780 -769 -977 0
3 202 -680 0
-921 973 715 0
790 -869 -426 0
-712 336 -333 0
-778 566 62 0
-762 848 -923 0
208 -958 907 0
-119 210 796 0
274 -396 330 0
-778 67 -909 0
-151 819 237 0
-279 168 738 0
-242 -299 -633 0
244 18 74 0
806 -856 -837 0
-33 2 767 0
-320 452 353 0
-41 -460 287 0
685 -592 -354 0
127 7 202 0
271 -155 -898 0
401 -202 -287 0
-279 924 -860 0
-576 -916 799 0
761 -457 535 0
-673 343 166 0
271 39 155 0
962 -364 20 0
772 684 -89 0
302 -576 -563 0
-189 590 238 0
-716 -447 -912 0
41 287 231 0
7 321 879 0
-40 880 923 0
-581 895 325 0
-223 28 936 0
383 -537 826 0
884 383 -537 0
832 -766 978 0
301 762 -123 0
-351 644 71 0
-860 454 678 0
-884 -490 368 0
-131 342 -205 0
-267 -955 322 0
-122 811 -83 0
-811 -494 -815 0
-108 585 619 0
-355 150 234 0
-498 -902 -705 0
401 -287 35 0
924 -889 336 0
-50 926 -324 0
-678 -712 149 0
-863 -892 -9 0
50 -926 324 0
771 -904 -408 0
-790 -673 119 0
198 -304 197 0
401 -489 -202 0
724 169 -876 0
-396 -330 -108 0
-50 920 -775 0
270 44 -736 0
-401 -234 -105 0
790 673 -862 0
209 870 637 0
151 773 819 0
454 678 -956 0
-706 759 -372 0
115 -818 829 0
7 3 -202 0
244 -104 18 0
-806 -856 837 0
50 920 775 0
590 -348 -531 0
-193 474 180 0
202 -321 394 0
294 262 -469 0
542 -708 -838 0
-441 315 151 0
-209 623 -556 0
271 155 898 0
-624 253 -725 0
-301 762 -387 0
204 193 474 0
-31 -962 20 0
127 -401 731 0
515 -391 505 0
213 -644 -519 0
965 -666 202 0
761 -698 -975 0
988 800 239 0
-127 -401 7 0
435 -654 -575 0
576 -916 799 0
-863 -72 200 0
-119 -210 45 0
-972 10 545 0
-948 -832 -766 0
701 801 -404 0
-712 333 305 0
171 -822 476 0
-396 -108 -733 0
242 98 307 0
320 -452 -353 0
-841 -145 -412 0
267 561 955 0
-678 956 -333 0
680 287 231 0
-267 523 955 0
234 -509 448 0
348 481 462 0
657 617 -496 0
167 889 905 0
-759 -55 -386 0
-863 892 9 0
74 -168 738 0
-654 575 -11 0
-276 -896 789 0
209 -637 675 0
355 35 -105 0
-633 -968 -269 0
-585 175 -499 0
806 997 856 0
-321 -527 -934 0
31 822 20 0
542 -708 -838 0
841 -145 -412 0
-806 856 -837 0
-115 818 230 0
-538 911 -696 0
-542 708 -838 0
914 217 -911 0
-494 -815 375 0
98 726 -968 0
-7 -629 -202 0
633 968 269 0
-856 -822 -476 0
291 -862 796 0
115 244 104 0
419 -968 -757 0
-701 -801 596 0
-209 -660 349 0
806 -856 -837 0
-149 956 333 0
706 250 -901 0
-151 773 -819 0
-276 896 789 0
846 526 -976 0
151 773 819 0
-780 769 977 0
538 -217 -761 0
115 -818 -829 0
-480 617 -981 0
-869 -156 426 0
-167 -860 -313 0
-948 -584 -988 0
382 -642 -504 0
-41 460 -287 0
-498 -902 -705 0
-19 867 963 0
-163 -90 209 0
889 6 712 0
-639 -959 -347 0
-115 -818 230 0
592 -354 498 0
401 -202 287 0
-841 459 -360 0
977 406 665 0
-189 -669 -185 0
972 10 545 0
-927 -79 438 0
499 -805 298 0
276 -789 -651 0
908 -431 718 0
175 228 22 0
-776 -793 877 0
-633 968 269 0
329 77 511 0
654 -575 -11 0
-472 -882 148 0
-784 884 383 0
214 162 768 0
-228 -506 -607 0
108 733 175 0
-209 -870 -637 0
18 597 -528 0
-401 -460 704 0
501 -538 217 0
999 -916 -799 0
295 717 -316 0
-806 -856 837 0
-228 506 -607 0
503 -759 647 0
-131 550 198 0
-271 -39 155 0
916 -754 -119 0
923 -861 -604 0
178 494 -815 0
-790 673 45 0
151 491 43 0
701 801 -596 0
108 733 175 0
-242 299 633 0
-401 -7 -666 0
650 491 43 0
459 -111 418 0
-862 679 343 0
340 718 -233 0
354 -498 744 0
-131 -342 -205 0
-176 182 55 0
-972 -10 545 0
-566 -612 411 0
474 -339 -830 0
678 -712 -149 0
-948 584 988 0
-626 -323 535 0
-288 -385 -397 0
721 -128 227 0
213 458 159 0
936 -721 -128 0
242 307 633 0
965 -530 202 0
-127 401 -731 0
-680 344 267 0
279 168 373 0
554 91 -877 0
287 158 -150 0
171 -822 -476 0
965 527 -35 0
701 -801 596 0
874 -631 -70 0
-657 -73 203 0
189 590 -802 0
514 946 -985 0
-515 -391 -505 0
-829 230 -294 0
-780 769 745 0
-959 347 600 0
3 234 934 0
223 28 936 0
-454 678 336 0
673 343 -166 0
-515 391 -505 0
28 936 -721 0
-662 -612 125 0
706 -503 -267 0
209 637 -675 0
-90 209 -360 0
-115 -818 -230 0
846 -526 -976 0
-279 -924 -889 0
-959 347 -600 0
333 -971 -624 0
-716 447 912 0
-806 -856 837 0
115 -818 -829 0
903 -912 -825 0
860 -454 678 0
209 -660 -349 0
401 -287 -35 0
127 -965 -3 0
-644 519 -280 0
401 680 509 0
303 489 -553 0
-965 287 158 0
-55 386 998 0
-369 -131 236 0
901 888 475 0
-338 -405 795 0
570 903 -558 0
-401 -234 -105 0
-680 -367 645 0
-515 391 -505 0
804 -172 139 0
991 494 -218 0
-856 837 -429 0
-678 -712 149 0
-856 -837 -429 0
-813 646 469 0
-108 -298 326 0
-115 -818 -829 0
-471 -729 -682 0
581 -325 229 0
515 -391 -505 0
474 -514 283 0
822 268 -364 0
-271 -39 155 0
701 -801 404 0
-115 -646 -528 0
806 -856 -837 0
-778 -667 -910 0
-790 -426 13 0
417 788 181 0
242 98 307 0
-828 -533 145 0
680 901 -344 0
-208 -198 674 0
790 673 -862 0
462 -192 -439 0
515 -391 505 0
762 139 -716 0
-494 375 -61 0
-762 -912 178 0
-790 673 -80 0
901 -994 -475 0
-531 -933 -359 0
209 623 -556 0
-838 972 10 0
-535 683 -655 0
341 -808 962 0
-154 743 -663 0
-872 -271 255 0
-119 210 276 0
-590 348 531 0
-189 -185 264 0
-701 801 596 0
-302 -576 563 0
-178 69 26 0
-31 -962 -319 0
-31 -962 319 0
-338 -274 842 0
234 -509 448 0
224 494 -815 0
108 326 823 0
244 18 74 0
-901 888 475 0
167 -860 313 0
517 -50 -839 0
906 608 -921 0
244 18 74 0
242 419 399 0
-554 -783 908 0
108 -585 938 0
701 -801 596 0
31 822 -785 0
-302 -576 563 0
-178 -494 -815 0
-552 -863 579 0
517 -50 839 0
-712 -336 -333 0
-167 -132 454 0
40 570 -861 0
-108 -326 823 0
771 -904 -408 0
115 818 -829 0
392 126 639 0
-962 714 127 0
-499 805 -298 0
386 -299 633 0
-581 895 -325 0
-550 198 -662 0
841 -828 -691 0
-271 155 898 0
298 187 -689 0
-680 367 645 0
884 -653 -101 0
-392 126 -639 0
-274 396 330 0
-872 -271 -255 0
501 740 696 0
90 -792 145 0
678 -712 136 0
884 653 537 0
-346 329 -77 0
-108 222 187 0
-397 990 -400 0
175 499 464 0
-921 973 -715 0
61 -33 2 0
884 -47 320 0
-575 -649 115 0
-846 526 976 0
680 -888 -337 0
-279 -924 889 0
-125 -996 338 0
856 31 -312 0
654 575 11 0
-576 790 -508 0
-754 796 -45 0
19 -867 963 0
-936 721 -128 0
-681 -827 538 0
-828 -459 -145 0
108 -733 -175 0
623 556 -797 0
927 79 -438 0
-576 947 -790 0
-911 -457 300 0
678 712 149 0
-373 167 420 0
-108 -689 -326 0
-659 927 -461 0
-279 -168 373 0
429 171 -1000 0
554 783 -908 0
-948 -988 -395 0
-494 61 33 0
-872 271 -255 0
822 -785 -749 0
31 -822 476 0
250 -901 -703 0
-50 -1 -920 0
756 -382 642 0
41 287 231 0
340 718 233 0
-436 -431 776 0
874 631 -70 0
-115 -244 18 0
-151 118 -237 0
948 988 395 0
-72 434 892 0
-681 217 696 0
-680 -287 -231 0
-856 8 929 0
-347 600 -174 0
715 141 859 0
-301 -762 -123 0
-469 -279 883 0
294 244 -719 0
435 -654 575 0
-40 762 328 0
139 880 -453 0
-176 -98 -633 0
242 -419 -399 0
-73 203 -480 0
396 733 619 0
575 649 115 0
-856 171 -582 0
-154 -743 -663 0
46 -930 -433 0
270 44 857 0
706 96 703 0
762 568 123 0
-209 -675 623 0
419 968 -757 0
489 3 202 0
-474 -339 -830 0
-783 908 -436 0
515 391 505 0
-274 -405 727 0
77 -804 456 0
72 -827 357 0
396 -585 -733 0
-115 899 49 0
149 956 -333 0
-754 119 276 0
-115 818 829 0
-673 -343 -166 0
-570 762 -139 0
554 -783 908 0
489 536 -321 0
-271 -39 155 0
-778 -471 -952 0
856 837 983 0
680 888 344 0
-911 457 323 0
-339 392 -54 0
761 24 -548 0
-208 958 -907 0
441 315 -151 0
-554 91 332 0
-756 382 642 0
-948 766 978 0
429 31 -171 0
474 -180 -95 0
-115 -899 -49 0
828 459 145 0
-948 766 -814 0
-977 406 665 0
771 135 -435 0
-538 217 761 0
333 12 -136 0
-333 -971 -12 0
874 631 70 0
-322 647 -732 0
725 -315 -350 0
-911 -457 -535 0
721 128 -227 0
-889 6 -712 0
701 801 596 0
948 988 395 0
-271 658 39 0
-624 -136 -931 0
-115 818 829 0
761 457 -941 0
-276 -896 789 0
-228 22 607 0
301 139 290 0
429 -31 -171 0
-128 -381 46 0
927 79 -438 0
-125 638 -338 0
-498 902 705 0
61 33 173 0
-396 585 733 0
-498 902 -285 0
472 -882 148 0
965 922 -287 0
127 922 -680 0
-480 617 496 0
-501 740 -696 0
-999 -916 799 0
-726 -208 -269 0
981 517 -50 0
-132 -149 -333 0
-170 -748 552 0
-872 271 255 0
471 566 -612 0
-706 -759 -372 0
-209 834 442 0
-498 -902 -705 0
806 856 -837 0
208 -778 -269 0
-783 -332 -966 0
-267 955 759 0
-741 -774 365 0
-244 -104 18 0
146 -7 -731 0
759 419 998 0
-846 -526 -976 0
-772 -684 89 0
320 -203 855 0
-977 873 -406 0
494 -375 -61 0
271 255 -477 0
276 402 -651 0
120 -260 565 0
-948 -766 226 0
213 458 -159 0
204 193 487 0
681 538 -217 0
511 -923 903 0
111 418 691 0
-419 299 -633 0
-242 -299 633 0
-108 585 938 0
189 -185 -264 0
494 375 61 0
-864 -869 -641 0
-274 -396 -330 0
-50 926 -324 0
167 -939 149 0
-863 827 357 0
-454 -678 336 0
-647 -272 -182 0
340 -718 -713 0
-344 -647 -272 0
-170 -748 -868 0
333 -971 624 0
-706 -250 -96 0
673 426 291 0
-756 -382 642 0
294 -244 719 0
-783 -436 91 0
480 617 -981 0
887 906 881 0
-903 -558 723 0
-701 -404 -440 0
7 -321 -879 0
-498 902 285 0
-33 -2 -767 0
132 -149 333 0
-856 31 341 0
359 -745 -932 0
-178 811 -221 0
380 -250 -901 0
-115 899 -422 0
267 -955 759 0
653 -383 -826 0
554 -908 436 0
-279 -986 860 0
-98 -399 -878 0
-421 -462 -583 0
581 895 -325 0
-279 -168 -738 0
-908 -431 -718 0
-592 354 -498 0
783 -332 966 0
653 490 452 0
365 -488 -201 0
-494 -375 -61 0
271 255 -477 0
-288 -385 397 0
-167 132 -336 0
-471 -717 -550 0
-872 -271 255 0
-890 445 -132 0
-701 801 -596 0
928 -60 -686 0
-401 234 704 0
911 -626 -535 0
550 198 -304 0
-170 748 -552 0
-50 920 775 0
-936 721 128 0
267 561 -955 0
119 -210 -116 0
485 -948 832 0
-159 519 -416 0
-566 -612 -411 0
685 592 354 0
365 -488 -201 0
-977 659 446 0
-680 706 703 0
-396 330 108 0
-151 -739 918 0
-800 -786 -984 0
-501 -863 -162 0
-576 -916 -799 0
724 -320 -409 0
-806 856 837 0
31 -785 -341 0
-108 -222 -689 0
193 487 -180 0
519 806 588 0
802 481 -192 0
339 -392 54 0
-333 63 315 0
930 887 195 0
-396 330 108 0
972 10 545 0
-401 -680 -234 0
-108 -585 222 0
-270 -44 -736 0
633 -968 -269 0
-554 908 436 0
-242 419 -98 0
-984 -851 -846 0
-146 7 731 0
783 -908 -436 0
678 712 -624 0
515 391 505 0
167 628 -613 0
-996 -842 -795 0
-271 155 -898 0
108 -733 -619 0
429 31 312 0
650 491 -43 0
396 585 -733 0
884 47 353 0
680 706 -703 0
-928 -60 686 0
120 260 -565 0
-327 -915 32 0
-208 -778 269 0
396 585 -733 0
77 -40 -844 0
780 -745 -977 0
715 -737 -141 0
-965 -527 -35 0
276 -862 -840 0
-271 -255 -477 0
-471 729 -682 0
928 635 -60 0
-876 47 -368 0
-359 745 -932 0
442 275 -734 0
-98 399 -878 0
988 800 -239 0
50 -920 -775 0
344 -759 182 0
-784 -884 -383 0
-647 -272 182 0
178 -224 -815 0
419 -410 98 0
-790 -864 119 0
132 712 -956 0
-47 657 73 0
151 -688 -491 0
-336 624 -441 0
-7 965 -41 0
790 -673 45 0
-332 -793 841 0
657 73 617 0
301 -604 -122 0
-494 61 33 0
-639 -959 -347 0
701 -404 440 0
991 494 218 0
902 -285 874 0
-800 -786 -984 0
-419 968 -757 0
515 391 -505 0
-988 -800 -239 0
-348 481 462 0
401 -965 -394 0
-158 -234 -448 0
-542 708 -838 0
228 -222 541 0
365 488 201 0
-127 401 731 0
208 778 -304 0
-762 -604 687 0
271 -155 -898 0
151 -819 237 0
-542 708 -838 0
108 607 499 0
442 275 -734 0
-115 -818 -138 0
715 -141 -859 0
-417 993 393 0
-811 825 -30 0
884 653 -101 0
202 41 -460 0
-724 320 409 0
867 957 -554 0
-294 244 719 0
-784 -884 -383 0
358 -456 844 0
-869 673 -210 0
-503 -759 647 0
480 617 -496 0
-41 -287 -231 0
884 -47 407 0
-834 349 36 0
332 793 841 0
-111 418 -691 0
202 -680 -231 0
108 222 -689 0
759 -419 998 0
747 -802 348 0
-139 -880 -453 0
-867 -957 -554 0
542 708 838 0
-151 -773 -819 0
115 244 18 0
-501 -538 -543 0
-816 662 -632 0
217 -53 -626 0
333 441 -136 0
-778 471 198 0
-338 -405 795 0
380 -250 -901 0
-354 -498 -744 0
-977 -659 446 0
806 856 837 0
-972 10 -545 0
-680 901 344 0
869 156 426 0
-501 863 -579 0
151 -84 773 0
7 -629 -202 0
-471 -717 -473 0
-869 673 210 0
176 -419 -386 0
146 127 -731 0
-924 -144 -986 0
-41 922 879 0
771 904 408 0
-880 604 178 0
72 434 -892 0
-802 -481 462 0
680 -706 -344 0
91 -431 -877 0
-528 -74 -883 0
724 -770 409 0
901 645 134 0
-590 421 -481 0
127 -553 -549 0
803 -624 441 0
471 -717 -550 0
581 895 325 0
131 550 198 0
988 800 -239 0
-872 271 255 0
270 44 857 0
-519 -806 -588 0
-856 -837 429 0
127 965 -922 0
-984 -851 846 0
494 61 33 0
-806 997 -856 0
-673 -679 -251 0
119 -210 -276 0
-681 217 696 0
-991 -494 -218 0
127 -965 922 0
813 646 469 0
-31 785 -341 0
654 -575 -11 0
-501 -434 538 0
-435 -654 -575 0
-396 -733 619 0
-115 818 230 0
-927 79 -438 0
-339 -392 -126 0
581 -229 765 0
-333 441 -350 0
-916 -754 119 0
581 895 -325 0
276 772 684 0
154 743 663 0
566 62 125 0
867 -957 -554 0
863 72 200 0
-175 228 -22 0
119 291 796 0
-778 295 -816 0
-344 55 419 0
202 321 -394 0
-680 -344 -267 0
-680 901 -344 0
151 -84 -773 0
538 217 -696 0
163 -418 691 0
924 -144 -986 0
276 -772 684 0
-10 545 -346 0
294 -18 -813 0
-911 -761 -535 0
-209 870 -637 0
538 -53 626 0
213 -458 159 0
-276 -789 651 0
-276 -402 651 0
927 -472 882 0
-653 383 -826 0
-276 -862 -840 0
-715 -141 -859 0
128 -381 46 0
528 -74 883 0
-762 -604 687 0
167 -889 905 0
-150 527 231 0
-973 715 643 0
250 -96 -703 0
-274 -396 330 0
120 260 565 0
686 -967 -515 0
132 336 624 0
159 -519 -416 0
-365 488 -201 0
-936 -721 -128 0
977 406 665 0
61 -33 -81 0
-115 -818 -829 0
-790 864 -673 0
701 -801 404 0
-469 -279 -883 0
806 -856 -837 0
822 -785 749 0
701 -801 -596 0
110 622 748 0
115 -818 -829 0
-685 592 354 0
-890 445 132 0
-301 -880 -912 0
681 -217 696 0
-680 888 337 0
-244 18 -262 0
396 -733 619 0
-163 90 -209 0
50 -920 775 0
-802 481 -462 0
-771 135 -435 0
733 506 938 0
-554 -92 -979 0
-948 -766 814 0
-308 999 -916 0
-531 933 -359 0
-435 -654 575 0
581 -229 -765 0
-308 -999 916 0
-511 -848 -123 0
193 474 -180 0
-747 802 348 0
924 939 -712 0
-856 -31 312 0
715 -695 737 0
841 -145 -412 0
-726 -284 778 0
-333 -441 350 0
654 -575 516 0
790 864 -673 0
-701 -596 -440 0
701 -801 596 0
-301 762 -387 0
-515 -391 -505 0
271 -255 -477 0
-436 431 -776 0
936 721 128 0
-274 -396 330 0
911 -457 300 0
471 -717 -550 0
800 786 -984 0
50 920 -775 0
-55 386 998 0
-178 224 815 0
814 -226 584 0
120 260 -565 0
498 902 -424 0
-429 -171 -1000 0
-405 -842 -795 0
-170 748 -552 0
-726 -284 778 0
657 -73 -617 0
-348 481 462 0
-178 224 815 0
-276 -772 -684 0
271 -155 -898 0
-718 163 -459 0
-511 570 -328 0
-163 90 209 0
-271 39 -155 0
-176 -242 -98 0
880 178 -83 0
654 575 11 0
-471 566 612 0
633 968 -269 0
988 800 239 0
-322 647 -732 0
347 600 174 0
-856 837 429 0
-214 162 768 0
-930 887 -195 0
726 284 -778 0
7 3 -202 0
-132 -149 -333 0
-962 364 20 0
-531 700 439 0
-802 481 -462 0
189 -669 668 0
175 -499 464 0
-209 -675 623 0
-274 396 593 0
-792 660 -246 0
-842 -727 -693 0
-33 2 767 0
948 766 978 0
-911 457 535 0
515 391 -505 0
7 202 -536 0
-680 888 -344 0
263 -661 -302 0
35 254 164 0
542 708 -838 0
-759 55 -386 0
115 818 829 0
358 456 -844 0
-790 -426 -13 0
930 887 -195 0
-797 764 485 0
3 -202 680 0
250 -901 -703 0
-515 -391 -505 0
-965 666 -202 0
274 396 330 0
178 -69 -26 0
303 489 553 0
-127 -489 -7 0
-115 -818 -829 0
420 -313 890 0
-61 -33 81 0
612 -67 909 0
359 745 -932 0
-817 213 -71 0
-988 -800 239 0
967 -515 -391 0
279 986 860 0
-274 842 -727 0
115 818 829 0
542 708 838 0
271 -155 -898 0
-623 -556 -797 0
108 585 -619 0
718 -828 -352 0
762 -912 178 0
244 875 719 0
-279 168 738 0
-733 506 938 0
-222 -340 121 0
761 -698 975 0
146 127 -731 0
-733 -506 -938 0
-454 -678 -712 0
151 -773 -819 0
175 -499 -464 0
-189 -185 264 0
701 -801 -596 0
874 -631 70 0
209 637 675 0
-176 -182 -55 0
-762 -568 903 0
-838 -972 -10 0
-132 -6 -336 0
-373 -167 420 0
397 -990 400 0
884 490 368 0
-151 739 -918 0
176 242 98 0
480 617 -496 0
333 -12 -136 0
-189 590 802 0
-712 -149 -336 0
-501 434 538 0
396 330 -108 0
-754 119 276 0
420 313 -890 0
33 -2 -767 0
761 -24 -548 0
-772 684 -89 0
-276 789 -651 0
-115 -899 422 0
419 299 633 0
-590 421 481 0
867 957 -121 0
592 354 -498 0
419 -98 468 0
784 -653 537 0
-965 -527 -35 0
-401 158 234 0
-115 -829 -138 0
501 434 -538 0
-806 -997 856 0
167 860 313 0
-254 380 -448 0
-242 419 399 0
-294 262 -469 0
169 -490 770 0
31 785 749 0
-271 39 155 0
115 -49 -422 0
-706 -250 -901 0
189 185 -264 0
657 -617 496 0
-501 538 543 0
811 -532 -494 0
511 -923 903 0
901 -994 -475 0
-209 660 -834 0
-301 -762 123 0
132 -678 333 0
-156 -343 -840 0
-927 -79 438 0
901 940 -96 0
948 766 226 0
-120 -260 -565 0
-575 649 -115 0
680 -394 164 0
-108 -733 175 0
706 96 703 0
-533 145 -412 0
-462 780 769 0
419 968 -907 0
948 -766 -226 0
-397 -400 -677 0
-874 -631 70 0
-250 96 -888 0
681 911 -740 0
401 -7 779 0
542 -708 838 0
-725 315 -350 0
903 -912 -825 0
959 347 600 0
-151 -773 819 0
908 431 718 0
-279 924 -860 0
-303 -489 553 0
462 -769 745 0
806 856 837 0
644 -519 280 0
-911 -626 457 0
-911 457 535 0
-814 226 -584 0
41 -355 -150 0
-333 -12 136 0
726 468 878 0
-927 -472 -882 0
-721 128 227 0
761 -457 -535 0
-125 638 -338 0
-856 -822 476 0
811 532 -494 0
-998 -299 633 0
948 -584 -988 0
-903 -716 122 0
778 -295 -816 0
884 520 -653 0
-841 -828 -691 0
308 -999 -916 0
401 202 -287 0
-759 -176 -55 0
33 2 -767 0
462 -192 -531 0
-659 927 -461 0
176 -296 419 0
-962 364 -20 0
581 895 -325 0
340 -718 -233 0
-706 901 96 0
178 532 -991 0
-806 997 856 0
-654 575 11 0
680 -706 -344 0
-780 745 -977 0
-564 -303 401 0
-706 267 -322 0
198 304 -197 0
-680 394 -164 0
77 -40 -885 0
884 -520 653 0
-244 -875 -719 0
-686 -967 -515 0
429 -171 -652 0
-77 511 40 0
576 916 799 0
-673 679 251 0
864 754 -398 0
498 -902 -424 0
-123 -604 178 0
462 -780 753 0
471 717 473 0
3 -202 -680 0
-417 -993 393 0
689 19 331 0
741 774 -365 0
-471 198 507 0
977 -873 -406 0
-276 772 684 0
401 158 -234 0
-712 -149 336 0
-429 31 312 0
590 747 -802 0
-590 980 -747 0
623 -556 -797 0
996 -338 842 0
968 -342 -389 0
276 -896 -789 0
208 550 -198 0
-678 712 -624 0
156 -343 -840 0
965 287 -158 0
108 -298 -326 0
859 694 -225 0
-988 -800 239 0
889 -6 712 0
457 -587 941 0
721 128 -227 0
276 -896 -789 0
681 827 207 0
-930 887 195 0
120 260 -565 0
-329 -77 511 0
-623 556 797 0
151 -773 819 0
-590 -747 802 0
612 -67 -909 0
-344 647 272 0
209 -637 -675 0
267 -523 -955 0
50 920 -775 0
339 -392 -54 0
901 940 -96 0
653 -383 537 0
108 607 -222 0
-288 -385 -397 0
685 -592 -354 0
108 689 326 0
189 -669 -668 0
-499 -805 -298 0
-178 -494 815 0
-657 617 496 0
-590 -421 481 0
-193 487 -830 0
274 -396 330 0
-552 -863 579 0
359 -745 -932 0
108 607 -499 0
-673 -426 -291 0
-681 -911 740 0
701 801 596 0
759 -176 -419 0
724 -770 -409 0
581 229 -765 0
-841 828 -111 0
-18 597 528 0
948 -832 -766 0
967 -515 391 0
-576 790 -508 0
6 248 -939 0
471 -717 473 0
874 631 70 0
901 -645 -134 0
924 939 -712 0
-301 604 122 0
-209 -834 -870 0
228 -506 -607 0
-568 103 -558 0
-189 -185 264 0
-276 -896 -789 0
644 519 -280 0
10 545 346 0
804 172 139 0
783 -332 966 0
780 745 977 0
759 176 -296 0
-193 -514 946 0
542 -708 838 0
271 -155 898 0
250 -96 888 0
-977 -406 -665 0
771 -135 -435 0
-481 -531 439 0
771 -904 -408 0
110 622 -748 0
-244 -262 528 0
-401 -158 234 0
-151 -819 -237 0
-26 991 224 0
874 631 -70 0
-778 471 -952 0
928 60 686 0
-209 660 834 0
115 -646 -528 0
-333 441 -350 0
-1000 -822 -929 0
686 967 -515 0
-111 418 -691 0
-542 -708 838 0
244 -18 74 0
590 747 802 0
-110 -622 -748 0
-299 -307 -633 0
996 338 842 0
-590 -348 -531 0
-921 -973 -715 0
494 61 -33 0
-902 -285 -874 0
380 250 -901 0
-761 457 -941 0
-531 933 359 0
382 642 42 0
429 -31 652 0
-115 49 422 0
-759 176 296 0
-542 -708 -838 0
176 -98 633 0
901 994 475 0
-158 -234 35 0
115 244 -18 0
77 40 885 0
-659 -831 -927 0
761 683 750 0
654 575 -964 0
-948 -832 766 0
-94 -418 -792 0
127 922 -680 0
-706 250 -901 0
916 -754 -119 0
654 575 516 0
-600 170 -748 0
-718 877 828 0
-762 -568 123 0
110 622 -748 0
-123 604 -178 0
204 193 474 0
784 -884 383 0
-778 131 236 0
-115 -646 -528 0
-864 869 -641 0
383 -537 826 0
-846 -526 -976 0
50 920 -775 0
-178 811 219 0
-581 895 -325 0
-295 -717 316 0
-685 592 -354 0
780 745 -977 0
-977 -659 -446 0
331 -957 92 0
-222 689 823 0
-590 980 -747 0
859 -694 225 0
-841 -828 -111 0
-761 457 535 0
480 -617 496 0
554 -91 332 0
654 -575 -11 0
-244 104 -18 0
-344 55 419 0
41 -287 231 0
175 -228 22 0
-903 -716 -122 0
842 727 -693 0
-150 -527 231 0
-167 132 454 0
642 -465 -120 0
301 139 290 0
-721 128 -227 0
-515 -391 -505 0
339 -392 54 0
-724 320 -409 0
208 550 205 0
575 -649 115 0
-456 328 -172 0
-822 -268 -364 0
-802 348 886 0
-274 396 -593 0
828 533 145 0
-302 576 563 0
340 -718 -713 0
-515 391 -505 0
968 -235 854 0
678 956 333 0
-498 -902 -705 0
-417 -788 -181 0
354 -498 -744 0
681 -217 696 0
965 287 158 0
-706 503 -267 0
-462 192 531 0
715 -737 141 0
-193 487 -180 0
930 -887 -195 0
-962 -146 -714 0
-814 226 -584 0
-208 550 -205 0
-119 -291 -796 0
642 -42 -529 0
462 -192 439 0
-988 800 239 0
-298 -187 689 0
884 -47 -353 0
474 514 -283 0
115 -49 -422 0
108 298 326 0
-893 340 554 0
874 631 70 0
50 920 775 0
198 304 197 0
-119 210 45 0
-570 762 -923 0
-539 -75 559 0
-701 -404 440 0
-592 -354 -498 0
515 327 915 0
-242 419 399 0
802 -421 384 0
-287 158 -150 0
77 -804 456 0
491 -129 671 0
72 -434 768 0
-821 -701 -801 0
800 786 984 0
338 -405 795 0
401 287 35 0
288 -385 -397 0
-419 -98 -468 0
977 -873 406 0
-538 -911 -696 0
880 604 -178 0
-624 136 931 0
401 -202 287 0
401 460 -704 0
-715 -695 141 0
686 -967 515 0
-977 873 406 0
98 -726 -968 0
-33 -2 767 0
90 792 145 0
-965 -922 287 0
77 40 844 0
-771 -135 -435 0
-884 490 368 0
-680 706 503 0
222 -689 -331 0
132 149 333 0
501 740 696 0
401 -158 234 0
856 -837 429 0
-156 862 840 0
-501 538 217 0
-965 530 202 0
-208 -778 -471 0
-209 -675 623 0
498 -902 705 0
271 -255 477 0
-146 127 -731 0
-122 -811 83 0
-208 958 -907 0
-542 708 838 0
800 786 984 0
856 171 582 0
254 380 -448 0
930 887 -195 0
-271 -255 -477 0
-771 -904 -408 0
-790 864 119 0
842 727 693 0
686 967 -515 0
-358 456 844 0
18 -646 -279 0
270 -44 -857 0
566 62 125 0
738 -883 -373 0
494 -61 33 0
-263 -661 -302 0
856 -341 -361 0
-517 50 839 0
115 899 -49 0
-213 -644 458 0
701 801 -596 0
-653 -452 480 0
-176 419 386 0
115 244 18 0
-228 22 607 0
115 -829 -138 0
856 -268 -341 0
303 489 -553 0
-800 786 984 0
-924 -939 -712 0
-498 -902 424 0
294 -18 813 0
-108 -222 -187 0
-396 -330 -108 0
501 911 -53 0
762 -139 -716 0
-222 -689 331 0
429 -31 312 0
-151 -739 -918 0
841 -145 -412 0
-689 -331 867 0
-790 426 13 0
-271 155 -898 0
-396 -330 108 0
271 -255 -477 0
111 418 691 0
659 -927 -618 0
-163 -459 -792 0
-968 -342 389 0
-178 -811 219 0
-263 661 -302 0
804 -172 139 0
783 332 966 0
-790 -673 119 0
348 -462 478 0
575 649 -115 0
-764 -485 -948 0
-108 499 -541 0
790 722 864 0
417 -788 181 0
40 570 -861 0
-151 -491 -43 0
959 -347 600 0
-570 903 -558 0
-209 660 -834 0
-822 341 -962 0
623 -556 -797 0
-127 -489 -555 0
-419 -299 633 0
-244 -875 -719 0
-680 888 -344 0
480 -617 621 0
-298 -187 -689 0
-175 22 607 0
-151 -773 -819 0
981 517 50 0
-802 -348 886 0
-132 -6 336 0
-250 96 703 0
489 536 -321 0
-242 307 633 0
-948 -766 -226 0
-332 -793 -841 0
680 -706 -503 0
-531 -700 -439 0
806 856 -837 0
308 790 799 0
725 -315 -350 0
-369 -131 -236 0
-869 156 -426 0
-772 684 -89 0
-382 -642 -42 0
803 -624 -441 0
542 708 838 0
-274 842 727 0
302 -576 563 0
-250 -96 -888 0
-988 395 -800 0
-77 -40 885 0
209 -637 -675 0
-884 653 537 0
354 498 744 0
209 -870 637 0
-653 452 -480 0
-213 644 458 0
681 538 911 0
-680 901 503 0
-884 383 -537 0
-469 279 883 0
680 706 -703 0
-948 -988 395 0
554 -92 979 0
-271 39 -155 0
-685 592 354 0
778 566 -62 0
176 296 419 0
-859 694 225 0
-968 -342 389 0
-984 851 -846 0
401 -680 509 0
501 538 240 0
-996 -842 -795 0
-405 -842 -795 0
-962 -146 714 0
927 472 -882 0
778 131 236 0
659 831 -927 0
948 -766 226 0
-221 26 -991 0
-762 -568 -903 0
-132 336 -624 0
538 -217 761 0
-301 139 290 0
276 896 -789 0
-841 828 -691 0
-208 -778 -269 0
802 -481 462 0
31 -822 -962 0
73 203 480 0
369 131 236 0
653 490 452 0
-623 -556 -797 0
320 -452 353 0
856 822 476 0
517 -50 839 0
167 628 -613 0
108 733 -175 0
-302 -576 -563 0
-585 175 -521 0
-279 373 -860 0
-115 -646 528 0
-678 -712 -149 0
-271 255 -477 0
170 748 -868 0
856 -822 -476 0
-776 -793 -877 0
-973 715 -643 0
-417 993 -393 0
-515 -391 -505 0
44 -204 -193 0
-28 936 -721 0
884 -537 -490 0
40 844 570 0
295 717 -316 0
-927 79 438 0
-494 -815 -375 0
-276 402 651 0
429 -171 -1000 0
762 328 -848 0
811 -26 532 0
171 -822 -476 0
494 61 33 0
-725 -315 350 0
151 -118 -237 0
193 474 180 0
-550 198 304 0
-291 862 796 0
-856 -476 785 0
-802 -481 192 0
151 -118 237 0
901 940 96 0
-435 -654 -575 0
-193 -514 946 0
-494 375 -61 0
617 496 -981 0
193 -487 180 0
-115 818 -829 0
-802 481 462 0
-657 73 203 0
-581 895 325 0
-924 -678 712 0
623 556 797 0
996 -338 842 0
821 -701 801 0
542 -708 838 0
-816 -662 -632 0
333 -63 -315 0
754 796 45 0
474 180 -95 0
654 575 516 0
-948 832 -766 0
928 -60 -686 0
-592 -354 498 0
-948 766 -226 0
-948 -832 -766 0
-55 -386 998 0
322 -647 -732 0
-653 273 -692 0
-659 -446 831 0
-581 895 -325 0
61 -33 173 0
-274 -405 727 0
271 -477 658 0
72 -434 892 0
-474 -180 95 0
-590 421 -481 0
-213 644 -458 0
872 -271 255 0
209 675 -623 0
834 349 36 0
800 786 -984 0
590 -421 -481 0
208 550 -198 0
-26 991 -224 0
-806 856 -837 0
-396 -330 108 0
-726 468 -878 0
761 -698 975 0
-701 -801 -596 0
-930 887 195 0
-654 -575 964 0
494 375 -61 0
-98 399 -878 0
74 168 738 0
802 348 -886 0
538 -911 696 0
841 -459 360 0
222 689 -823 0
460 -680 -690 0
18 597 -528 0
828 -459 -145 0
55 -419 -299 0
-623 556 -797 0
-864 -754 -398 0
-715 695 737 0
914 217 911 0
-346 -329 77 0
-498 902 705 0
-856 837 -429 0
267 955 -322 0
-267 322 -647 0
-623 556 797 0
-790 -673 -80 0
590 -348 -531 0
-977 406 -665 0
-869 -156 426 0
-276 772 -684 0
-178 -811 -219 0
115 -818 138 0
74 -986 -420 0
-581 -895 -325 0
127 965 -922 0
689 867 957 0
761 -698 -975 0
-494 815 375 0
-115 818 829 0
119 -210 796 0
189 669 -668 0
948 -832 -766 0
867 957 121 0
-856 -822 -476 0
276 -862 840 0
590 -421 481 0
-119 -210 116 0
-327 -915 32 0
-928 60 -686 0
-747 802 348 0
-31 -822 -962 0
31 -785 341 0
178 224 815 0
-169 -490 -770 0
533 -145 412 0
-790 -673 80 0
-209 -834 442 0
-480 981 -50 0
701 801 404 0
659 -927 -618 0
498 -902 -705 0
-404 -440 -539 0
189 -590 747 0
127 489 555 0
-217 696 306 0
-31 -962 -319 0
859 -694 225 0
401 680 -234 0
115 -244 -104 0
680 -96 -703 0
590 -747 -802 0
764 -485 948 0
26 -991 224 0
-973 -715 -643 0
581 895 325 0
867 957 121 0
-276 -789 -772 0
284 -958 -377 0
108 -733 -175 0
-299 -307 -633 0
780 745 -977 0
-988 395 800 0
-208 -778 304 0
-315 900 -84 0
-115 -899 422 0
-726 468 878 0
-382 642 -42 0
31 962 20 0
480 -981 50 0
802 481 462 0
-863 -72 -200 0
494 61 -33 0
-115 -818 -829 0
-542 708 -838 0
146 127 -731 0
460 680 -690 0
741 774 -365 0
-501 -863 -162 0
-108 -585 -938 0
494 -375 61 0
-902 -285 874 0
454 -678 -956 0
271 -39 -155 0
802 -481 -462 0
120 260 565 0
959 347 600 0
209 -660 834 0
-790 -722 864 0
-924 144 -986 0
948 832 766 0
-417 -788 -181 0
515 391 505 0
-962 714 127 0
790 -673 156 0
178 -224 815 0
780 -745 -977 0
-176 -419 -466 0
178 811 -219 0
-864 -673 -754 0
404 -625 -807 0
-108 -607 -222 0
-120 260 565 0
-242 299 633 0
924 678 -712 0
-856 -268 341 0
-948 766 -814 0
811 494 -815 0
72 434 207 0
662 -612 -125 0
209 660 -834 0
-480 -617 621 0
859 694 -225 0
-456 -328 172 0
977 406 -665 0
271 -39 155 0
-417 -788 181 0
659 -927 618 0
800 -786 984 0
-274 842 -727 0
-115 -818 -230 0
706 -267 -322 0
-7 321 879 0
-354 -498 -744 0
-511 923 903 0
471 -699 -236 0
331 957 -92 0
790 673 -156 0
-689 -867 957 0
575 -649 115 0
680 -888 337 0
-519 -430 -806 0
340 -718 -713 0
-456 328 -172 0
-108 -298 326 0
-948 832 766 0
-108 607 -499 0
-108 -585 -222 0
-654 575 11 0
-338 -274 842 0
351 644 71 0
761 -698 975 0
-178 811 494 0
267 -322 -647 0
489 -3 -202 0
-279 373 860 0
341 808 -962 0
178 811 221 0
279 -168 373 0
-329 77 511 0
-417 -788 -181 0
-644 -519 -280 0
-762 -568 -903 0
209 -870 -637 0
-333 971 -12 0
965 666 -202 0
224 -494 815 0
209 637 -675 0
480 -617 -496 0
-911 -626 535 0
-471 566 612 0
209 -637 675 0
-151 773 819 0
924 144 986 0
-863 827 -357 0
-274 396 330 0
-639 959 347 0
-948 -832 766 0
40 -844 570 0
-3 -234 -934 0
-401 -680 -509 0
401 -234 704 0
271 -155 -898 0
-653 383 -537 0
-228 22 607 0
977 406 -665 0
-175 22 607 0
721 128 227 0
209 -660 -834 0
158 -234 35 0
778 131 -236 0
-163 459 -792 0
887 -906 -881 0
-178 -494 815 0
501 -538 -240 0
-680 503 -337 0
-115 -829 138 0
-965 -680 -934 0
355 150 -234 0
396 -330 108 0
279 924 -889 0
-712 -336 -333 0
923 861 -604 0
401 -234 105 0
533 -145 412 0
-225 925 928 0
276 789 651 0
-276 789 -772 0
209 675 623 0
494 -61 33 0
872 -271 -255 0
-31 822 -962 0
-284 -958 377 0
-271 477 -658 0
-480 -617 -981 0
686 -967 515 0
244 18 262 0
209 -637 675 0
-538 217 -696 0
846 -526 976 0
-119 210 -276 0
-542 -708 -838 0
967 -515 -391 0
-701 801 -596 0
-701 801 -596 0
-783 908 -436 0
73 -203 480 0
-884 537 -490 0
217 -53 -626 0
-806 856 837 0
-874 631 70 0
803 624 441 0
-911 -740 -306 0
-921 973 -715 0
-924 889 336 0
-108 222 187 0
-115 818 138 0
-125 996 -338 0
-90 792 -145 0
-151 900 -84 0
115 818 829 0
6 -248 -939 0
-503 -540 -267 0
-778 -667 910 0
790 -799 -864 0
127 489 731 0
-568 103 -558 0
-901 -940 -96 0
715 -695 737 0
-965 -287 -158 0
346 329 77 0
-542 -708 838 0
778 -471 -198 0
515 391 505 0
-108 -607 222 0
654 575 -11 0
762 -604 -687 0
-531 933 -359 0
761 -683 750 0
-429 171 652 0
996 338 -842 0
528 168 -738 0
-649 -310 899 0
-46 930 455 0
250 -901 703 0
420 -313 890 0
-864 -869 -641 0
355 -150 403 0
914 -217 -911 0
33 -2 767 0
-790 799 -864 0
-441 253 -725 0
-132 149 333 0
176 -296 -55 0
498 -902 -705 0
-802 -348 886 0
624 253 -725 0
-271 -477 -658 0
365 -488 -201 0
988 -395 -800 0
125 996 338 0
539 75 559 0
-706 96 -703 0
419 -968 757 0
-884 -653 383 0
673 156 -119 0
-650 491 43 0
131 342 -205 0
-566 -62 -125 0
-874 -631 -70 0
271 -658 -39 0
-965 -680 934 0
-784 -653 537 0
762 328 848 0
-927 -79 -438 0
-77 -511 40 0
-792 -660 246 0
-132 -336 624 0
18 -646 -279 0
-170 -748 868 0
348 -481 -478 0
154 -743 -663 0
780 -745 -977 0
-790 -722 -864 0
40 844 570 0
-208 -198 674 0
242 419 -399 0
419 968 -907 0
-856 -341 -361 0
-911 457 -300 0
-538 53 -626 0
887 906 881 0
701 -801 596 0
538 53 626 0
150 527 231 0
712 -149 -336 0
-77 -804 456 0
-189 590 -747 0
-701 801 596 0
336 624 -441 0
959 -347 -600 0
981 517 -50 0
-689 19 -331 0
-90 -834 -742 0
-401 7 779 0
-759 176 -419 0
462 -192 531 0
981 517 50 0
936 721 128 0
-538 -911 696 0
-18 262 279 0
-77 -40 -139 0
-959 -347 -600 0
-224 -494 -815 0
301 139 -387 0
-396 -330 108 0
991 494 218 0
884 47 -353 0
-108 -585 -619 0
-223 -28 -936 0
-761 683 -750 0
392 -126 -639 0
685 -592 354 0
-494 -61 -33 0
-948 832 766 0
585 -175 -521 0
-566 612 411 0
-333 -12 136 0
127 7 -202 0
267 -955 -322 0
365 488 -201 0
511 -848 -123 0
-462 -769 -745 0
-344 647 272 0
-706 250 901 0
47 657 73 0
-724 -169 876 0
-61 -33 -2 0
419 410 98 0
-624 -136 931 0
863 -827 -357 0
-930 -887 -195 0
-515 -391 -505 0
-315 900 -84 0
564 127 401 0
821 -701 -801 0
-31 785 -749 0
903 -912 825 0
-441 -315 151 0
94 -418 792 0
18 -646 -279 0
-681 -827 -538 0
242 -98 307 0
151 -118 -650 0
-515 -391 -505 0
-74 -168 -738 0
-535 683 655 0
-780 -977 873 0
-198 304 197 0
776 -793 877 0
761 698 975 0
-279 924 -860 0
-590 -348 531 0
382 -642 -504 0
-977 -406 665 0
-673 -343 166 0
948 -988 -395 0
-550 198 662 0
790 673 45 0
242 -307 633 0
-405 842 -795 0
276 772 684 0
701 801 596 0
-208 -958 907 0
-115 829 138 0
-924 -889 -336 0
-193 514 -946 0
-911 -457 323 0
401 234 704 0
-780 769 -977 0
421 -462 -583 0
355 -150 -234 0
115 -899 49 0
-590 802 -348 0
189 590 -747 0
-132 -678 333 0
209 -675 -623 0
-681 -827 207 0
856 476 -785 0
924 678 712 0
816 -662 632 0
780 -769 977 0
287 158 150 0
-158 234 -448 0
-977 406 -665 0
-167 939 -149 0
-911 -457 -323 0
288 385 -397 0
856 31 -652 0
874 -631 -70 0
417 788 181 0
838 -972 -10 0
-480 617 981 0
115 818 829 0
-169 -490 770 0
-373 167 -420 0
-244 469 -74 0
659 -831 927 0
33 2 -767 0
-715 141 859 0
202 -41 -460 0
-590 348 -531 0
383 -537 -826 0
-489 -536 -321 0
-178 -224 -815 0
-790 869 426 0
459 -111 418 0
811 825 30 0
962 -714 -127 0
-968 235 -854 0
-654 575 11 0
701 801 -596 0
213 -644 -519 0
-554 -908 -436 0
-965 -666 202 0
-120 -260 565 0
-701 801 596 0
115 -818 829 0
151 118 -650 0
-202 -321 -234 0
-829 -230 294 0
884 -47 -320 0
-856 476 -785 0
-581 -895 325 0
-716 447 -912 0
-469 279 -883 0
-115 899 49 0
-7 -3 202 0
-948 -832 -766 0
-31 822 -785 0
119 -210 796 0
270 -44 857 0
-988 800 239 0
-365 -488 201 0
-806 856 -837 0
279 986 860 0
-435 654 -575 0
673 -343 -166 0
962 146 -714 0
-681 -538 217 0
-511 -923 -903 0
127 -489 7 0
-494 -61 -33 0
-489 -3 -202 0
706 -901 96 0
-151 -688 -491 0
-355 35 -105 0
-706 250 -96 0
701 -801 596 0
-874 -631 70 0
-911 300 -616 0
-46 -930 -455 0
