c Type 2: interval ordering (ordered), n=100, m_intervals=100, t=3
p cnf 100 400
2 -1 3 0
2 1 3 0
2 -1 -3 0
2 1 3 0
-2 -1 -3 0
-2 1 -3 0
-2 1 -3 0
2 1 3 0
2 1 3 0
-2 -1 3 0
2 -1 -3 0
-2 -1 -3 0
2 1 3 0
-2 1 3 0
2 1 -3 0
-2 -1 3 0
-4 13 -12 0
-4 13 -12 0
4 13 12 0
4 13 -12 0
4 -13 -12 0
4 13 12 0
4 13 -12 0
-4 13 12 0
-4 -13 12 0
4 -13 -12 0
4 13 12 0
4 -13 -12 0
-4 -13 -12 0
4 -13 12 0
-4 -13 -12 0
4 -13 12 0
-4 13 12 0
-4 -13 -12 0
-4 13 12 0
-4 13 -12 0
-4 -13 -12 0
4 13 -12 0
4 -13 -12 0
4 -13 12 0
-4 -13 12 0
4 -13 -12 0
4 13 -12 0
-4 13 12 0
13 8 -6 0
13 8 -6 0
13 -8 -6 0
-13 -8 6 0
-8 -7 11 0
8 7 11 0
-8 -7 -11 0
-8 7 -11 0
-13 -8 -6 0
13 -8 -6 0
13 -8 6 0
13 8 6 0
12 -8 -7 0
12 -8 -7 0
12 8 -7 0
12 8 7 0
8 7 11 0
-8 -7 11 0
-8 7 -11 0
-8 7 11 0
-13 -12 -14 0
13 12 -14 0
-13 12 -14 0
13 12 14 0
14 -15 -16 0
14 15 16 0
14 15 16 0
-14 -15 -16 0
14 -15 -16 0
-14 -15 16 0
14 15 16 0
14 15 16 0
16 -17 18 0
16 17 18 0
-16 -17 -18 0
16 -17 18 0
17 -18 19 0
-17 18 -19 0
17 -18 19 0
17 -18 19 0
-19 -22 -20 0
19 -22 20 0
19 -22 -20 0
19 -22 -20 0
-19 -22 -20 0
19 22 20 0
-19 22 20 0
-19 22 20 0
-19 -22 20 0
19 22 20 0
19 22 20 0
-19 22 20 0
19 -22 -20 0
-19 -22 -20 0
19 22 20 0
-19 22 -20 0
-24 -23 25 0
-24 -23 25 0
-24 -23 25 0
24 -23 25 0
-24 -23 25 0
-24 -23 -25 0
-24 -23 -25 0
-24 23 -25 0
29 27 -28 0
-29 -27 -28 0
29 27 -28 0
-29 27 28 0
-29 27 28 0
29 -27 -28 0
29 -27 28 0
-29 27 28 0
-29 27 -28 0
-29 -27 28 0
-29 -27 28 0
29 27 28 0
-29 -28 30 0
29 28 30 0
29 28 -30 0
29 28 30 0
-29 30 33 0
29 30 -33 0
29 -30 -33 0
-29 30 33 0
-30 33 -31 0
-30 -33 31 0
-30 33 31 0
-30 33 -31 0
-30 -33 31 0
30 33 -31 0
30 -33 -31 0
-30 33 -31 0
-33 -34 -36 0
33 -34 -36 0
33 34 -36 0
33 -34 -36 0
-36 -37 -38 0
36 -37 38 0
36 37 38 0
-36 37 38 0
36 37 38 0
-36 37 38 0
36 -37 -38 0
36 -37 38 0
37 -38 44 0
-37 -38 -44 0
-37 38 -44 0
-37 -38 -44 0
44 -42 -41 0
44 -42 41 0
44 -42 -41 0
44 42 41 0
44 -42 41 0
-44 42 -41 0
-44 42 41 0
44 42 -41 0
44 42 41 0
-44 42 -41 0
-44 -42 41 0
-44 -42 -41 0
-44 42 -41 0
44 42 -41 0
-44 42 41 0
44 42 41 0
-44 42 -43 0
44 -42 43 0
-44 -42 43 0
44 -42 43 0
45 -47 -48 0
45 47 48 0
45 47 48 0
45 47 48 0
-47 -48 46 0
-47 48 -46 0
47 48 46 0
47 -48 -46 0
-47 48 46 0
47 48 -46 0
47 -48 -46 0
47 -48 -46 0
-50 49 -51 0
-50 -49 -51 0
50 49 -51 0
50 49 51 0
50 49 -51 0
-50 -49 -51 0
-50 -49 -51 0
-50 49 -51 0
50 51 -52 0
50 51 -52 0
-50 51 -52 0
-50 -51 -52 0
-50 -51 57 0
50 51 57 0
50 -51 57 0
-50 51 -57 0
51 -52 57 0
51 52 57 0
51 -52 57 0
51 -52 -57 0
52 -57 54 0
52 -57 -54 0
52 57 54 0
52 57 54 0
52 -54 53 0
52 -54 -53 0
52 -54 53 0
-52 54 -53 0
57 54 -63 0
-57 54 63 0
-57 54 -63 0
57 54 63 0
-57 54 -63 0
-57 -54 -63 0
57 54 63 0
-57 -54 63 0
54 63 -75 0
-54 -63 -75 0
-54 -63 -75 0
54 63 75 0
-57 54 -63 0
57 -54 -63 0
57 -54 -63 0
57 54 63 0
-73 58 78 0
73 58 -78 0
-73 -58 -78 0
73 -58 78 0
-63 61 -56 0
-63 -61 56 0
-63 -61 56 0
-63 -61 -56 0
63 61 60 0
63 -61 -60 0
63 61 -60 0
-63 61 60 0
63 -61 -60 0
-63 61 -60 0
-63 61 -60 0
-63 -61 -60 0
-63 61 -67 0
-63 -61 -67 0
63 -61 67 0
63 61 -67 0
61 -90 -76 0
61 90 76 0
-61 90 76 0
61 90 76 0
75 90 77 0
75 90 77 0
-75 -90 -77 0
-75 -90 77 0
73 -78 -77 0
-73 -78 -77 0
-73 78 77 0
73 78 77 0
76 71 -79 0
-76 71 -79 0
76 71 79 0
-76 -71 -79 0
-75 -76 72 0
75 76 72 0
75 76 72 0
-75 -76 -72 0
-67 -90 64 0
-67 -90 64 0
67 -90 -64 0
67 90 -64 0
73 90 66 0
-73 90 -66 0
73 -90 66 0
73 90 -66 0
90 -71 87 0
-90 71 87 0
-90 -71 87 0
90 -71 -87 0
-78 72 -70 0
78 -72 -70 0
78 -72 70 0
-78 72 -70 0
71 -89 92 0
71 -89 -92 0
-71 89 92 0
-71 89 92 0
-73 71 -82 0
73 -71 82 0
73 -71 -82 0
-73 -71 82 0
-78 89 82 0
-78 89 82 0
-78 -89 82 0
-78 -89 82 0
73 79 -92 0
73 79 -92 0
73 79 92 0
-73 79 -92 0
75 89 92 0
-75 89 -92 0
-75 89 -92 0
-75 -89 -92 0
-92 96 -83 0
-92 96 83 0
92 96 -83 0
92 96 -83 0
79 80 96 0
-79 80 96 0
-79 80 96 0
-79 -80 96 0
78 -79 -87 0
-78 -79 -87 0
-78 -79 -87 0
78 -79 -87 0
90 -82 80 0
90 82 80 0
-90 82 80 0
90 -82 -80 0
-79 87 96 0
-79 -87 -96 0
-79 87 -96 0
79 -87 96 0
-90 -87 -82 0
-90 87 82 0
90 -87 -82 0
90 -87 -82 0
90 92 96 0
-90 92 96 0
90 92 96 0
-90 -92 -96 0
89 -96 83 0
-89 96 83 0
-89 96 -83 0
89 -96 -83 0
97 84 95 0
-97 -84 95 0
-97 84 -95 0
-97 84 -95 0
-89 -84 99 0
89 -84 -99 0
89 -84 99 0
-89 84 -99 0
90 87 -92 0
-90 87 92 0
90 -87 92 0
90 -87 -92 0
96 86 -95 0
96 -86 95 0
96 86 -95 0
-96 86 -95 0
97 -95 -100 0
-97 -95 100 0
97 -95 -100 0
-97 -95 -100 0
-87 86 99 0
87 -86 99 0
-87 -86 -99 0
-87 86 -99 0
-90 87 95 0
-90 87 -95 0
-90 -87 -95 0
-90 87 -95 0
95 99 91 0
95 99 91 0
95 -99 -91 0
95 -99 -91 0
-87 95 94 0
-87 -95 94 0
-87 95 94 0
-87 95 -94 0
-90 -92 98 0
-90 -92 98 0
-90 -92 98 0
90 -92 98 0
92 91 -93 0
92 -91 -93 0
92 91 93 0
-92 91 -93 0
-92 96 -98 0
-92 -96 -98 0
92 96 -98 0
92 96 -98 0
-92 -91 94 0
92 91 94 0
92 91 -94 0
-92 -91 -94 0
96 100 98 0
-96 -100 98 0
-96 100 98 0
-96 100 -98 0
97 -96 -93 0
97 96 93 0
97 96 -93 0
-97 -96 93 0
-95 99 -100 0
-95 -99 100 0
95 99 100 0
-95 -99 100 0
