c Type 2: interval ordering (ordered), n=100, m_intervals=100, t=4
p cnf 100 400
-1 2 -3 -4 0
-1 2 -3 4 0
-1 2 3 4 0
1 2 3 4 0
2 -3 -4 -7 0
-2 3 -4 7 0
-2 -3 4 7 0
2 -3 4 -7 0
3 4 7 5 0
-3 -4 7 5 0
-3 4 7 -5 0
3 -4 7 -5 0
3 -4 7 5 0
3 -4 -7 5 0
-3 -4 7 5 0
3 4 7 5 0
3 4 7 5 0
3 -4 7 -5 0
3 4 7 5 0
-3 -4 7 5 0
7 5 -6 9 0
7 5 -6 9 0
7 5 6 9 0
-7 -5 -6 9 0
7 6 -9 -8 0
-7 -6 9 -8 0
-7 6 9 8 0
-7 -6 -9 -8 0
-7 6 9 8 0
-7 -6 9 -8 0
7 -6 -9 8 0
-7 -6 9 8 0
-9 -8 -10 -11 0
-9 8 10 11 0
-9 -8 -10 11 0
-9 8 -10 11 0
9 -8 10 11 0
9 -8 10 -11 0
-9 -8 10 -11 0
-9 -8 -10 11 0
-10 11 12 -13 0
10 11 12 13 0
10 11 12 13 0
-10 -11 12 13 0
-10 11 -12 -13 0
10 11 12 13 0
10 11 -12 13 0
-10 -11 -12 13 0
-10 -11 12 13 0
10 11 12 13 0
-10 11 -12 13 0
-10 -11 -12 13 0
11 12 13 -15 0
-11 -12 13 -15 0
-11 -12 -13 15 0
-11 -12 13 -15 0
-11 12 13 -15 0
11 -12 -13 15 0
11 12 13 15 0
11 12 13 15 0
11 -12 -13 15 0
11 -12 13 15 0
11 12 -13 -15 0
-11 -12 -13 15 0
-15 -14 -17 18 0
-15 14 17 18 0
-15 -14 -17 -18 0
-15 14 17 18 0
15 -14 17 18 0
-15 14 17 18 0
15 -14 -17 18 0
-15 -14 -17 -18 0
15 -17 18 16 0
15 17 18 -16 0
15 17 18 16 0
15 -17 -18 16 0
26 22 24 -23 0
-26 22 -24 23 0
26 -22 -24 -23 0
26 22 24 -23 0
26 27 -28 -36 0
-26 -27 -28 36 0
-26 -27 -28 -36 0
26 27 28 -36 0
28 -36 -38 29 0
28 -36 38 29 0
28 -36 -38 29 0
-28 36 38 29 0
36 38 29 51 0
-36 -38 29 51 0
-36 -38 -29 51 0
36 38 29 -51 0
-36 -38 -29 -51 0
36 -38 29 -51 0
36 38 -29 51 0
-36 38 -29 -51 0
-36 -38 29 -51 0
-36 38 -29 51 0
36 -38 29 51 0
-36 38 29 51 0
36 38 -29 -51 0
36 -38 -29 -51 0
-36 38 29 -51 0
-36 38 29 -51 0
-36 38 -29 -51 0
-36 -38 -29 -51 0
36 38 29 -51 0
36 38 29 -51 0
-38 -29 -51 30 0
-38 -29 -51 30 0
-38 -29 51 -30 0
38 29 51 30 0
-36 29 51 30 0
36 29 51 30 0
-36 -29 -51 30 0
36 -29 -51 30 0
-38 -29 -51 30 0
-38 29 51 30 0
-38 -29 51 -30 0
38 -29 51 -30 0
-36 38 51 -32 0
-36 38 -51 32 0
36 -38 -51 32 0
-36 38 51 -32 0
-36 38 -51 -37 0
-36 38 51 37 0
36 38 51 37 0
-36 -38 -51 -37 0
36 -51 -32 -37 0
36 51 32 -37 0
36 -51 -32 37 0
36 51 32 37 0
38 -51 -37 -33 0
-38 51 37 -33 0
-38 -51 -37 33 0
38 -51 37 -33 0
36 51 -33 -48 0
-36 51 -33 48 0
36 51 -33 -48 0
36 -51 -33 -48 0
-38 -51 -48 -50 0
38 -51 48 50 0
-38 -51 -48 50 0
38 -51 -48 -50 0
-38 -51 -50 49 0
-38 -51 -50 -49 0
38 51 50 -49 0
38 51 50 -49 0
38 -48 50 53 0
38 48 -50 -53 0
-38 48 -50 -53 0
-38 48 50 -53 0
-38 37 39 -44 0
-38 -37 -39 44 0
-38 37 -39 44 0
-38 -37 39 44 0
51 50 49 39 0
51 50 -49 -39 0
51 50 -49 39 0
-51 -50 -49 39 0
51 -50 -49 -40 0
-51 50 -49 40 0
51 50 49 40 0
-51 -50 -49 40 0
-49 53 -39 40 0
-49 -53 39 -40 0
49 -53 -39 -40 0
49 -53 -39 40 0
51 -48 50 53 0
-51 48 -50 53 0
51 48 50 53 0
51 48 -50 -53 0
51 48 -50 49 0
51 48 -50 49 0
51 48 50 49 0
-51 48 50 -49 0
49 53 56 42 0
-49 53 56 -42 0
-49 -53 -56 -42 0
49 53 -56 42 0
-49 -53 -39 44 0
-49 53 -39 44 0
-49 -53 39 44 0
49 -53 39 44 0
48 50 -53 -45 0
-48 -50 53 -45 0
48 -50 53 45 0
-48 -50 53 45 0
51 -49 -56 47 0
-51 49 56 -47 0
51 49 -56 47 0
51 -49 -56 -47 0
-51 56 -76 47 0
-51 -56 -76 -47 0
51 56 -76 47 0
-51 -56 76 47 0
-51 -48 -49 -55 0
51 -48 49 -55 0
-51 48 49 55 0
-51 -48 -49 55 0
51 -76 -46 -47 0
51 76 46 -47 0
-51 76 46 47 0
51 -76 46 -47 0
-48 50 53 56 0
48 -50 53 56 0
-48 50 -53 -56 0
48 -50 -53 -56 0
-50 56 76 72 0
50 -56 -76 -72 0
50 56 -76 72 0
50 56 76 72 0
-51 -50 -72 -54 0
51 50 -72 54 0
51 -50 -72 54 0
51 -50 72 -54 0
-56 72 -54 62 0
-56 72 54 62 0
-56 -72 54 -62 0
-56 72 54 62 0
-51 56 76 -54 0
51 56 -76 -54 0
51 -56 76 54 0
-51 56 -76 54 0
53 56 -76 -54 0
53 -56 -76 54 0
-53 56 76 -54 0
53 -56 76 54 0
-51 -53 76 -55 0
-51 -53 76 -55 0
-51 53 76 55 0
-51 53 76 55 0
-76 55 72 -62 0
-76 -55 -72 -62 0
76 55 72 -62 0
76 55 -72 62 0
76 55 72 -54 0
76 -55 72 54 0
76 -55 -72 54 0
-76 -55 -72 -54 0
-72 -57 68 60 0
-72 57 -68 60 0
72 57 -68 -60 0
-72 57 -68 60 0
-72 57 62 68 0
72 -57 62 -68 0
72 -57 -62 68 0
-72 57 62 68 0
-68 -63 -80 64 0
68 -63 80 -64 0
68 63 80 64 0
-68 63 -80 -64 0
76 -72 -68 64 0
76 72 -68 64 0
76 -72 -68 64 0
76 -72 68 -64 0
-76 -72 62 68 0
-76 72 62 -68 0
-76 -72 62 68 0
-76 -72 -62 -68 0
-76 -72 -80 73 0
76 72 -80 -73 0
76 72 -80 73 0
-76 72 -80 73 0
76 68 63 -64 0
76 -68 63 64 0
-76 68 -63 64 0
-76 68 -63 64 0
76 -63 -64 70 0
-76 -63 64 -70 0
76 63 -64 70 0
-76 -63 -64 70 0
72 68 73 -71 0
-72 -68 73 71 0
-72 -68 73 71 0
72 -68 -73 71 0
-72 -68 -70 66 0
-72 -68 70 -66 0
-72 68 -70 66 0
-72 68 70 -66 0
-72 -68 -70 71 0
-72 -68 70 -71 0
72 -68 -70 71 0
-72 68 -70 -71 0
72 68 70 79 0
72 68 -70 -79 0
-72 -68 -70 -79 0
-72 68 70 -79 0
-76 -80 -73 71 0
76 80 -73 -71 0
-76 -80 -73 71 0
76 80 73 71 0
70 -73 -71 -82 0
-70 73 -71 82 0
-70 73 -71 -82 0
-70 73 71 -82 0
72 80 73 82 0
72 80 73 82 0
-72 -80 73 82 0
72 -80 73 82 0
70 -73 71 -69 0
70 73 -71 69 0
-70 -73 71 69 0
-70 73 71 69 0
76 -80 -70 -74 0
76 -80 -70 -74 0
-76 -80 70 -74 0
76 -80 -70 74 0
79 -69 82 74 0
-79 69 -82 74 0
-79 69 82 74 0
-79 69 -82 74 0
-80 -73 -71 -75 0
80 73 -71 75 0
80 73 71 -75 0
80 73 -71 75 0
76 -72 70 -71 0
-76 72 -70 -71 0
-76 -72 70 -71 0
-76 -72 70 -71 0
80 79 74 -75 0
-80 79 74 -75 0
-80 79 74 -75 0
-80 -79 74 -75 0
-76 82 -74 75 0
76 82 74 -75 0
76 82 74 75 0
76 -82 -74 -75 0
-76 -82 -74 -75 0
76 -82 74 -75 0
76 82 74 -75 0
76 -82 -74 75 0
79 -82 78 -77 0
79 82 -78 -77 0
-79 -82 78 77 0
-79 -82 -78 77 0
80 -82 -78 -77 0
80 -82 -78 -77 0
-80 82 78 -77 0
-80 -82 -78 -77 0
80 -79 -78 77 0
-80 79 78 -77 0
80 -79 -78 -77 0
-80 -79 78 -77 0
-80 -79 -82 81 0
80 79 82 -81 0
-80 79 -82 81 0
80 79 82 -81 0
-80 82 81 83 0
-80 82 -81 -83 0
-80 -82 -81 -83 0
80 82 -81 -83 0
-80 -82 81 -83 0
-80 82 81 -83 0
80 82 81 -83 0
-80 -82 81 -83 0
82 81 83 84 0
-82 -81 83 -84 0
82 -81 -83 -84 0
-82 -81 83 -84 0
87 89 -94 88 0
87 -89 -94 88 0
-87 89 -94 -88 0
87 -89 -94 88 0
87 -89 94 -88 0
-87 89 94 88 0
-87 89 94 -88 0
87 89 -94 -88 0
87 89 -94 -88 0
87 -89 94 -88 0
-87 -89 -94 88 0
87 -89 94 88 0
87 -89 94 88 0
-87 89 94 88 0
87 89 -94 -88 0
87 89 -94 88 0
94 -92 -96 -95 0
94 92 -96 -95 0
94 -92 96 95 0
94 92 -96 95 0
94 91 92 -96 0
94 -91 -92 96 0
94 91 92 96 0
94 91 92 -96 0
-94 -96 95 -98 0
94 -96 -95 98 0
94 -96 95 -98 0
-94 -96 -95 -98 0
94 96 95 -98 0
94 96 95 -98 0
94 96 -95 98 0
94 96 95 -98 0
-98 97 99 -100 0
98 -97 99 100 0
98 97 99 -100 0
-98 97 -99 -100 0
98 -99 -100 0
-98 99 100 0
98 -99 -100 0
-98 99 -100 0
