c Type 2: n=2000, t=3
p cnf 2000 8000
63 -1406 -1373 0
1395 -895 1652 0
1865 -1734 1461 0
739 -1286 -356 0
1551 -1830 -76 0
877 -1459 -1314 0
924 345 1423 0
1577 -459 -305 0
237 1016 1747 0
-863 -1864 1962 0
559 -1288 -461 0
-773 1632 -524 0
-547 -1983 -1287 0
-336 970 -173 0
-1945 630 1098 0
187 23 -687 0
1610 455 185 0
-1291 1511 1403 0
1466 -1119 -613 0
-969 -1886 500 0
1216 -548 -949 0
910 802 731 0
-155 305 1519 0
-1777 1532 1605 0
-1923 1653 561 0
-833 648 -1178 0
1080 -677 1852 0
1423 -1714 -759 0
-418 1085 -949 0
-842 -546 88 0
747 985 -209 0
987 960 101 0
1005 -654 1113 0
422 267 -1145 0
-1665 322 -1564 0
295 1934 403 0
458 852 -383 0
135 1108 -72 0
230 -1902 -429 0
95 1305 -435 0
-724 1670 699 0
-286 638 -1604 0
-1566 1715 -924 0
-136 1792 109 0
-1582 1451 582 0
204 -919 412 0
-562 -139 899 0
-1797 1983 -773 0
-1864 936 521 0
-273 -1327 -1806 0
290 -497 -736 0
1829 436 -1323 0
1006 1449 -1004 0
-1895 -409 668 0
-1962 1933 -723 0
-198 1789 1007 0
-1574 1087 955 0
-34 681 -920 0
423 1293 -235 0
1394 1606 1936 0
-83 418 -1436 0
198 1789 1007 0
1480 825 -1963 0
1892 1406 -1851 0
199 -1192 946 0
-1699 561 -1321 0
1348 564 140 0
1962 -1933 -723 0
289 -128 1386 0
-497 -1153 994 0
330 -1521 13 0
-1183 -1831 -1186 0
1238 1817 -1253 0
-1199 349 -1900 0
761 526 -1352 0
-1986 1102 -461 0
-1797 418 -329 0
-905 -322 885 0
-1030 1302 -282 0
1577 -1815 780 0
-1250 -1798 -1195 0
273 1327 -1806 0
-1000 1537 -761 0
901 -1169 276 0
-1543 -1698 -702 0
442 1858 1979 0
1339 -69 134 0
-916 1929 622 0
913 -1100 -1741 0
-1892 1406 1851 0
1238 1586 1194 0
1244 362 -155 0
1781 -520 1051 0
-646 1798 1163 0
-1863 1186 -1215 0
267 -1501 808 0
264 -979 -47 0
-192 833 -1853 0
-187 348 1266 0
1400 1919 231 0
924 1426 -596 0
-1251 -109 26 0
-486 420 948 0
-186 -505 351 0
-347 -970 -1900 0
1962 1933 -723 0
1781 -544 -1466 0
937 -269 -881 0
575 1644 994 0
-187 -23 687 0
-476 -1671 -598 0
-398 783 -1721 0
-1383 1709 -1610 0
806 -970 -1210 0
-652 456 264 0
76 -1963 -142 0
1206 1637 1018 0
255 1116 698 0
-268 141 -62 0
511 181 913 0
1936 658 -1209 0
398 759 -861 0
-881 1603 1059 0
1333 689 791 0
-1113 -1706 737 0
-618 956 -1602 0
-1691 1001 1041 0
-1206 -925 -1529 0
-925 -726 -1578 0
-1788 -1209 -1789 0
-1695 -1183 -1739 0
550 1406 251 0
469 -229 367 0
-1291 1724 -881 0
1372 53 -1025 0
-1610 455 185 0
546 -196 -781 0
-1080 -1741 749 0
324 1245 359 0
-1695 172 578 0
273 -1757 -145 0
451 -764 -769 0
-187 -1263 -1900 0
289 1866 -646 0
969 1947 451 0
867 -1184 226 0
1543 -1013 -787 0
-1285 -353 -1258 0
1423 376 223 0
-1169 841 287 0
598 -1975 678 0
488 1552 -88 0
-608 -1531 -1397 0
614 572 -758 0
1083 378 712 0
1137 -1467 -320 0
264 -330 1592 0
264 781 1996 0
1044 -1023 584 0
-1795 -107 1990 0
597 578 -1075 0
-469 -1442 -978 0
-79 1137 -540 0
66 -1833 1036 0
324 -1245 359 0
-1318 -1833 572 0
325 1438 93 0
1649 -572 1348 0
-717 1952 1234 0
-1137 81 -937 0
305 -513 -886 0
1805 -1010 1810 0
-1959 -780 -98 0
877 -546 1044 0
176 -473 -952 0
1184 -254 750 0
901 -1658 715 0
1594 -187 -1951 0
436 560 -1708 0
519 -928 847 0
-241 -472 -43 0
1566 -1715 924 0
1917 196 -533 0
356 -1353 -150 0
877 -1656 1949 0
1244 1815 990 0
-1209 714 1576 0
1489 -1351 1564 0
755 -179 -1248 0
-1594 -709 -665 0
1825 -3 -393 0
747 985 -209 0
-521 -789 -374 0
-1189 831 -1941 0
1909 533 -1023 0
-1815 1788 963 0
1034 759 -274 0
1423 376 223 0
913 -621 -1074 0
-1206 -1023 1797 0
-1285 1405 520 0
1455 322 1542 0
-488 -1647 1443 0
-37 -913 -1392 0
-1083 -49 -96 0
573 251 -874 0
1981 1601 1064 0
-335 -1649 1218 0
-204 1598 -806 0
-1211 -474 1882 0
415 -332 1095 0
1197 -752 1881 0
-893 478 495 0
-1279 913 361 0
266 801 -704 0
-994 103 -1148 0
1626 -1403 -1913 0
-877 -1220 -1657 0
1206 649 -949 0
-739 -197 -971 0
-1723 -370 999 0
580 745 1760 0
-1963 1751 230 0
755 1880 -1662 0
1015 -937 296 0
-1184 254 -750 0
-941 1399 1513 0
443 -1206 -681 0
1375 -398 -327 0
-442 -1858 -1979 0
1806 -1621 124 0
425 -1000 -1537 0
-677 519 1141 0
-1406 -1129 1614 0
1291 1238 89 0
-76 -1963 -142 0
-1352 575 290 0
1220 1323 112 0
-1902 -180 -310 0
1080 -360 -888 0
-737 1296 879 0
-997 39 -1275 0
-339 921 1244 0
1626 -717 1001 0
546 -790 439 0
1423 398 -303 0
1959 658 -135 0
82 -1282 1380 0
-108 1398 1609 0
-913 1183 -499 0
-105 -1839 1524 0
722 1848 1884 0
1429 723 604 0
227 1269 1292 0
-781 -580 1436 0
714 -1728 -898 0
-79 903 1018 0
1775 -962 -405 0
486 -420 948 0
952 -1398 -1407 0
1781 -520 -1051 0
1552 1923 -201 0
71 1399 1306 0
-1891 178 1906 0
-407 874 1018 0
761 526 -1352 0
-420 544 -414 0
-1550 1715 153 0
629 -1963 429 0
-99 -1720 -1152 0
438 594 -690 0
571 -159 -1846 0
48 -643 531 0
-546 -1206 -240 0
-952 -1025 -801 0
-289 1994 1657 0
-874 -958 1014 0
136 -330 -1044 0
625 -458 885 0
-461 1583 -205 0
1291 1192 -1405 0
1244 -1566 153 0
589 -1026 -394 0
1310 1447 1639 0
1423 -1108 1697 0
74 954 911 0
1923 -1849 1026 0
-638 -806 1612 0
1798 1542 1880 0
904 -770 -631 0
-737 414 -648 0
-867 -1648 677 0
-347 1263 -970 0
-365 274 -37 0
573 251 -874 0
1833 572 -1513 0
-580 1241 1055 0
1532 -1368 -1398 0
-347 -824 1338 0
870 790 -374 0
1244 -780 -1788 0
653 -1794 -1877 0
1801 1523 1725 0
603 1988 1467 0
-572 1910 1140 0
-425 1000 -1537 0
-1619 1336 20 0
1891 -178 -1906 0
34 -1829 903 0
-1643 -1378 802 0
-608 1397 -1226 0
-486 1474 1769 0
-1394 1606 -1936 0
1472 1919 -339 0
1951 1266 -1438 0
573 -240 -1373 0
1906 1303 -1888 0
1353 -955 1771 0
-713 63 -584 0
-476 1582 -1248 0
-1153 736 543 0
1026 -1185 728 0
-1339 -535 1403 0
-1244 1788 1548 0
-1466 1347 -1445 0
1423 274 32 0
-1216 13 -422 0
-519 1669 1199 0
-155 305 963 0
-1891 -252 557 0
280 -381 -1336 0
-1149 -65 -396 0
-1249 -180 -1807 0
877 1446 -1097 0
1788 -893 953 0
-415 332 1095 0
-1224 -618 818 0
-1798 1542 -1880 0
1357 -1149 -65 0
-1931 -268 -141 0
-1960 -78 1415 0
-436 -634 -507 0
-523 625 1001 0
1047 1006 -614 0
640 -1323 -1185 0
-1900 1127 928 0
84 294 -335 0
-806 349 312 0
-442 -1858 -1979 0
275 316 -936 0
-1242 -1926 1986 0
-1610 455 -185 0
1300 -1775 -962 0
450 82 1282 0
396 756 1142 0
1406 -747 -108 0
1420 -1400 685 0
227 -1269 -1292 0
901 333 -1222 0
1594 -187 -1951 0
-316 1429 1688 0
-842 -1909 330 0
135 -1209 -478 0
-969 979 -797 0
-391 -443 -374 0
136 -573 -1023 0
79 1137 -540 0
472 -638 349 0
264 1792 -1996 0
204 -677 -1669 0
-237 1747 1525 0
-1947 -289 -981 0
-1383 1709 1610 0
404 820 -1581 0
673 560 -1562 0
1733 -1601 1305 0
-1302 1230 322 0
-1052 -1949 -464 0
1326 1577 1414 0
-1795 -107 1990 0
-1621 -1864 -1786 0
1108 1745 1697 0
1610 455 -1630 0
-1080 1580 -71 0
-1149 -65 -944 0
-1891 1577 -410 0
-1775 -1395 -895 0
407 1446 -1315 0
661 -968 -632 0
612 -345 -153 0
-345 -24 376 0
1398 -1192 1759 0
135 1190 712 0
-877 584 -1762 0
1626 717 -1001 0
1543 -1013 -787 0
-573 -1284 73 0
1156 -1518 111 0
-76 -629 -1448 0
-1372 -1460 -725 0
859 -49 -135 0
-614 -1649 1757 0
-1149 396 756 0
-1871 153 -355 0
1611 356 -728 0
1871 -153 355 0
-935 -1390 -1119 0
-1594 -1580 -404 0
575 -290 -994 0
1601 1305 1423 0
628 520 -1684 0
1206 1076 1317 0
-1047 1006 614 0
-336 -987 1491 0
-1869 1643 1041 0
1438 66 1434 0
-1858 1979 -1038 0
-969 221 -34 0
-489 558 -652 0
1551 -624 869 0
-732 22 -481 0
-1220 -1436 -267 0
392 -1594 1376 0
1220 -1323 -112 0
-1153 -64 -736 0
1892 1406 -1851 0
-550 -1406 -251 0
-781 -13 -1189 0
-1649 1910 1354 0
-1206 422 -394 0
-1979 1038 -1551 0
1080 760 928 0
108 1295 1015 0
-1543 -787 1698 0
1329 -1302 625 0
1979 1038 -1551 0
-1788 1423 -398 0
1016 275 -498 0
443 -589 1702 0
1994 -441 -1861 0
-1394 1054 1882 0
546 713 -1676 0
1985 -1366 444 0
-1891 280 1619 0
-74 -712 -1789 0
-559 -1288 461 0
-1038 1756 624 0
329 -661 -1086 0
-1239 -1252 268 0
248 -1679 1805 0
1442 -1552 397 0
1806 -259 877 0
1206 1637 1018 0
1699 -561 -1321 0
-1981 1601 -1064 0
1080 1580 71 0
-1242 1891 1986 0
1923 138 189 0
-192 -833 -1853 0
877 925 -982 0
-559 -602 -502 0
1788 -135 -139 0
264 -407 1135 0
1080 1278 349 0
614 733 -592 0
-1038 1756 869 0
-1582 1451 -582 0
-422 73 501 0
1865 721 936 0
-1002 -1655 -809 0
1945 1832 465 0
1621 275 -721 0
1149 -65 -396 0
-82 1282 1380 0
625 -1296 29 0
1353 955 1771 0
-1583 -1785 1591 0
1923 -1797 845 0
-1781 830 -1834 0
-305 1254 -106 0
-1923 -1310 -270 0
-952 1632 -1113 0
-901 299 1542 0
286 -242 1604 0
-1909 533 1023 0
-1695 -172 -578 0
1936 -72 -1228 0
-1994 1339 -1291 0
404 -157 453 0
-1338 93 1036 0
-1276 721 1298 0
1342 1195 1024 0
-521 -789 374 0
422 -267 1145 0
-1209 -198 759 0
-1137 909 -1145 0
1282 1380 -1763 0
904 275 -489 0
-556 1074 306 0
-1080 304 1098 0
519 -1266 1047 0
-1787 34 -652 0
69 -1674 606 0
-614 1318 733 0
34 -720 590 0
1945 630 -1098 0
-339 1326 -1381 0
330 -22 -682 0
656 -648 -964 0
1620 -374 -13 0
1815 -1959 -1820 0
1572 -1279 578 0
-881 -1603 1059 0
-1016 842 -721 0
-921 990 -1063 0
-1224 -1934 -1602 0
1380 -1763 1825 0
1071 1291 1015 0
-1220 1436 -267 0
-755 -1880 1662 0
-969 1095 1217 0
329 1005 69 0
-49 1924 1432 0
1328 991 -496 0
1959 -135 222 0
-157 760 -84 0
-877 380 -1366 0
199 420 -1609 0
-1005 1587 -1455 0
646 -1398 737 0
-1442 -741 1143 0
602 1336 -1400 0
-713 1797 -589 0
-1626 1302 1746 0
-1282 1380 -1763 0
1580 -1968 1993 0
-1891 381 1619 0
199 -1307 988 0
-900 269 1478 0
-1153 -736 -543 0
-49 -1924 -1432 0
-1864 -723 1057 0
-924 -345 1423 0
575 -1153 811 0
1269 -423 1224 0
476 -143 1230 0
-380 739 849 0
1239 1252 -268 0
1985 -773 -1532 0
-1929 -149 -1425 0
-662 -1338 -1318 0
1762 105 -285 0
1689 1247 -154 0
1076 -739 -1315 0
-1735 1759 1258 0
-1372 1985 -53 0
-423 323 -317 0
1514 710 -354 0
1149 65 -396 0
1460 1192 1724 0
725 134 42 0
-71 101 -265 0
-864 -458 1351 0
-1423 1108 -1697 0
-442 1858 -1979 0
-1189 1982 -1705 0
1895 357 668 0
-1380 -1763 1825 0
101 923 1641 0
1574 1087 955 0
-1300 -1395 -895 0
-1891 1103 -205 0
-422 -73 501 0
-1864 456 316 0
-1923 1044 -73 0
732 -1941 340 0
1164 1590 -1535 0
-1866 364 -1409 0
-1016 1095 -1899 0
-1637 1471 -743 0
-275 1865 1864 0
-867 1648 677 0
-608 -1531 -1397 0
794 -130 -1721 0
1372 1460 -773 0
621 -361 1862 0
960 751 -1058 0
1833 -500 -221 0
307 432 -709 0
-1784 349 169 0
455 -1533 1654 0
-717 868 1320 0
1777 1532 -1605 0
575 -1644 994 0
390 786 -1140 0
-1100 1648 1202 0
340 1014 -1450 0
-1302 1230 -322 0
348 -1266 -173 0
1833 572 -1513 0
-614 -273 -93 0
-1010 -1810 -1752 0
-1951 426 997 0
1244 1519 1820 0
-1013 -787 -1698 0
1679 1805 1010 0
-794 553 -1183 0
-867 1184 226 0
1340 -374 -711 0
-1209 -398 551 0
1875 891 247 0
1963 -230 1902 0
-559 -1891 -1288 0
423 -1224 -1813 0
1994 -240 542 0
-614 -572 758 0
759 794 1773 0
-178 324 -314 0
-1504 -990 98 0
1524 1193 -1988 0
-71 -1348 -1327 0
-1336 1472 1906 0
-1116 295 -1224 0
-1649 1910 -1354 0
1189 1996 -329 0
85 -1849 206 0
-1457 1771 1113 0
1626 -143 625 0
365 274 -37 0
-1108 24 -1431 0
-1805 -1010 -1810 0
289 548 -1498 0
755 -179 -1248 0
1328 -353 523 0
1423 913 1187 0
-400 -1653 1792 0
-1165 -797 595 0
-347 -336 -1266 0
-457 981 1523 0
-340 1386 -603 0
-1583 1072 -1156 0
-1440 844 1113 0
1394 -1054 1882 0
1829 -443 -26 0
281 275 -234 0
-1795 -477 1512 0
415 498 527 0
1302 -1613 1975 0
-1891 -252 -1619 0
422 1626 -1024 0
1963 -1751 230 0
1244 -513 -1820 0
-833 143 964 0
1572 -130 1075 0
-204 -1464 1560 0
1080 -662 928 0
696 106 -1506 0
546 -176 -900 0
-438 -594 -690 0
1916 -198 -1714 0
-1044 -640 610 0
1291 -134 850 0
545 -1759 -1582 0
255 239 -1444 0
1238 -1586 1194 0
1244 780 -1788 0
1909 -533 1023 0
-548 481 1980 0
1199 -1050 -1754 0
773 -900 -244 0
1005 725 802 0
1016 275 -498 0
1891 1288 998 0
-289 745 110 0
1215 919 208 0
-269 -905 -1388 0
994 669 -1522 0
305 -98 -406 0
903 251 831 0
-1574 -1339 -8 0
-377 1620 -689 0
-831 -1208 -1705 0
-1005 -654 -1113 0
-1279 -254 -1989 0
-905 -322 885 0
1302 -1546 -628 0
-1328 -833 92 0
-146 -1377 368 0
-1185 -430 -1246 0
-1759 -1665 91 0
-1474 -646 1735 0
-349 -169 1337 0
-51 654 1622 0
1936 1211 1062 0
573 196 -416 0
101 -265 -1099 0
-1665 1302 -1390 0
510 29 -1944 0
546 -1220 -542 0
-192 881 901 0
904 1525 1786 0
-717 -1302 628 0
-1156 1518 -111 0
-1238 628 -1613 0
1691 1001 -1041 0
-1438 -1318 -1700 0
626 259 177 0
-407 -1081 -1620 0
-732 -1339 -1422 0
1352 -575 290 0
-1934 403 -1743 0
68 -889 1651 0
-273 960 -564 0
1047 1889 1028 0
924 -135 -1484 0
1923 -1849 1026 0
913 -972 -249 0
-1278 722 -820 0
1806 -34 917 0
155 -1959 1601 0
1055 1372 1342 0
-1298 -831 1436 0
1405 868 257 0
85 1849 206 0
-443 -589 1702 0
-997 -1338 -1196 0
904 -1829 1333 0
-1810 -1752 -450 0
-1963 230 370 0
-1000 1537 761 0
-51 -654 1622 0
135 -437 1924 0
1588 -1527 -476 0
-913 -972 -249 0
556 -1074 -306 0
-1244 -780 1788 0
324 193 1303 0
-1643 1378 802 0
-1695 -1183 -1739 0
1900 -1127 928 0
-1062 -435 -658 0
-1442 -237 1734 0
-1985 -1193 1185 0
-1429 -446 -797 0
268 62 -424 0
-1891 1072 -1854 0
-1938 1137 -831 0
-487 -1629 -307 0
-1238 -1405 -414 0
1153 736 -543 0
-732 1339 1422 0
-621 204 858 0
13 1467 -1625 0
-143 -245 1663 0
-280 381 1919 0
-264 -1917 -711 0
1671 1152 1991 0
72 478 712 0
1005 725 -802 0
1300 -1775 1652 0
-1529 -1706 236 0
488 1333 1251 0
1372 -1632 -69 0
335 -1649 -1218 0
-72 478 712 0
1724 -802 1041 0
130 -1773 597 0
877 -1656 -1949 0
1244 1788 1548 0
713 1052 1154 0
74 1835 1932 0
1723 -370 2000 0
273 -431 -631 0
1342 1529 -896 0
1532 -1368 -1398 0
365 -274 37 0
136 -1792 -109 0
486 110 -838 0
-1798 937 -1603 0
924 -24 376 0
-108 1836 -1299 0
1963 -230 -370 0
751 822 -1132 0
-1342 -1033 952 0
-267 1501 808 0
-639 -1731 -1349 0
176 -1869 547 0
-1621 275 -721 0
37 -605 1576 0
-717 868 -1320 0
-188 305 990 0
-1000 -1537 761 0
1891 1919 339 0
178 324 -314 0
-74 -1180 -137 0
729 -925 1114 0
-1572 -37 1138 0
-634 -1823 7 0
-1866 206 -703 0
-488 1333 -1251 0
526 1352 575 0
1394 98 -1519 0
1752 450 82 0
155 -1937 -139 0
696 106 1506 0
-559 -252 557 0
1957 -1886 367 0
-1664 -890 -564 0
-546 176 900 0
521 -789 -374 0
751 822 -1132 0
1108 -24 -1431 0
-183 1457 -1168 0
-349 -169 -1337 0
-238 1403 1110 0
-461 1583 -205 0
-781 -1076 -26 0
-1037 1354 -1957 0
-1018 -420 -1759 0
1572 1279 578 0
713 1797 -589 0
-1010 -1810 -1752 0
-1682 -1132 457 0
1080 360 -888 0
-779 -576 1975 0
-1380 -1763 -1825 0
-523 625 1001 0
-1891 557 1619 0
-1858 1979 -1038 0
610 -1574 -807 0
-575 -1644 433 0
-1467 430 -352 0
136 1123 -1112 0
1080 519 -1199 0
-280 -1072 1262 0
-877 -584 -1762 0
-1394 -406 1550 0
548 1446 -1055 0
-546 -1762 603 0
1799 -1891 1288 0
400 -1909 -1207 0
-997 1399 751 0
-791 109 965 0
1523 1115 1182 0
-1381 1815 1063 0
-1566 1738 1715 0
-982 1073 -1246 0
-1012 -712 -1375 0
-305 1559 410 0
-1891 1103 205 0
-186 -505 -351 0
290 -736 995 0
-1762 -441 -206 0
-1302 1230 -322 0
-135 -712 217 0
-921 -990 -1063 0
-438 594 -690 0
1165 -797 -595 0
476 1671 598 0
614 1649 -1874 0
1137 1386 1005 0
717 1952 1234 0
-69 -1674 -606 0
-894 -1044 -1314 0
-1551 -1756 1417 0
565 400 1725 0
1074 749 -528 0
-268 141 62 0
241 249 -1629 0
340 1578 -838 0
-1505 542 1372 0
1406 176 -168 0
614 -335 273 0
-1775 -1395 895 0
1711 -1116 295 0
51 718 -964 0
-1718 1390 -322 0
1858 -1979 1038 0
-608 1531 -1397 0
573 -1044 -1839 0
-1550 -1566 1146 0
-1513 -1806 1309 0
539 -1827 705 0
-1285 -353 -1258 0
1285 -1238 -68 0
455 1922 -1654 0
-894 1206 1797 0
34 863 558 0
556 -621 1074 0
-736 -385 -926 0
442 -1858 1979 0
1429 723 -604 0
1906 324 -1326 0
-891 -861 1572 0
339 -1326 1381 0
-1935 801 1230 0
1372 1073 -1735 0
1665 1169 1746 0
252 -178 1854 0
1357 1149 65 0
-1442 -30 -1132 0
801 -901 115 0
-646 1798 1163 0
-519 -888 -1002 0
1206 -1637 1018 0
-856 1789 327 0
-732 1339 -1422 0
-614 -733 592 0
489 -558 -652 0
-280 1420 -1336 0
-1000 1537 761 0
-1900 1127 928 0
-621 -1741 -1464 0
71 987 1438 0
1521 781 -815 0
-1394 -406 -1550 0
198 365 -623 0
640 1323 -1185 0
-1423 -365 1773 0
1580 -1968 -1993 0
-1614 569 1447 0
1015 910 657 0
1425 -558 -622 0
871 -273 1649 0
573 251 105 0
-1406 1076 215 0
-606 434 -1299 0
-1083 1190 -139 0
1224 -235 744 0
1601 -1305 1423 0
1935 625 115 0
-1634 1436 340 0
198 641 -247 0
-926 50 -65 0
-519 928 847 0
-1114 -70 646 0
1429 713 550 0
-1906 1244 -1381 0
-74 -954 911 0
-573 -251 874 0
-1830 -1599 76 0
-153 -1601 1415 0
-1239 -1252 -268 0
654 353 -737 0
1366 560 -320 0
-1935 -1030 1651 0
79 -374 -739 0
-1781 1022 -483 0
95 -1305 435 0
442 -1858 1979 0
364 -53 -1246 0
1784 -349 -169 0
1244 1788 1548 0
-871 273 -1649 0
1169 -29 -1445 0
24 1916 -839 0
519 1266 1337 0
1959 684 -596 0
1394 -406 1211 0
-420 544 -414 0
519 -928 847 0
-237 -1621 -1016 0
-1805 -1010 1810 0
404 157 -453 0
-1787 -549 -622 0
1572 1921 -621 0
451 -764 769 0
-135 712 217 0
1455 -322 -1542 0
1794 1877 500 0
-1798 -1195 -1405 0
1945 1210 -309 0
519 -404 662 0
-1936 -658 -1209 0
-1858 -1979 -1038 0
-457 981 -1523 0
544 -1603 -1597 0
1891 381 1619 0
826 -174 632 0
-184 -1261 1864 0
237 1621 1016 0
1467 -430 -352 0
-1829 -436 -1323 0
329 -1949 1762 0
1348 1513 -1442 0
871 273 1649 0
-1366 1460 -1755 0
1752 450 82 0
316 -981 979 0
1902 -947 -463 0
-877 681 -584 0
1339 -430 -1328 0
1206 -545 1562 0
-1289 1181 1726 0
969 -1545 819 0
874 -1342 1005 0
-398 641 -911 0
1229 554 650 0
1442 -741 -1143 0
-565 -400 -1725 0
149 -863 46 0
-1279 1186 -1594 0
-1442 916 332 0
-1164 1590 -1535 0
-1747 498 264 0
-729 -441 826 0
-13 -1949 1071 0
654 -269 -1603 0
737 1489 868 0
1858 -1979 1038 0
1013 -787 -1252 0
-268 -803 -599 0
-268 -803 599 0
392 1741 989 0
-1318 -1833 -572 0
-573 -240 -1373 0
-443 781 -745 0
1891 -386 602 0
621 -204 858 0
-1797 -1018 -1724 0
621 -1901 -204 0
1116 -1293 1813 0
-1238 1405 -414 0
-71 -325 -273 0
407 874 -1018 0
-1798 -1195 -1405 0
1735 81 -717 0
628 -1451 805 0
806 349 -312 0
269 905 1388 0
124 1515 -1688 0
-1819 418 1446 0
1902 1807 470 0
-737 -1405 -1893 0
901 299 -1542 0
1149 396 -756 0
1244 780 -1788 0
-1000 1537 761 0
-480 -217 -1932 0
-877 -1829 -291 0
-497 -1153 994 0
-1994 -640 -807 0
-744 -956 1602 0
1711 -114 344 0
-1403 -1466 706 0
1882 49 -1697 0
-1000 -1537 761 0
486 -1474 -1769 0
-1493 591 1136 0
1665 -1302 -1390 0
548 -411 1301 0
-561 766 447 0
1759 1665 -91 0
178 -324 314 0
-422 1071 -1562 0
-1318 297 549 0
-1080 908 -563 0
1941 -642 1562 0
29 -1152 1880 0
-1574 -1339 -8 0
155 1414 -98 0
-1440 -1798 -1087 0
-477 -1242 1003 0
-136 1923 -1206 0
345 -1180 -641 0
1981 1601 1064 0
-1472 -1919 -339 0
1759 -648 1857 0
1621 -819 936 0
192 296 1410 0
-1236 725 482 0
289 -790 894 0
639 1283 -255 0
-1225 1643 1546 0
1303 -155 -402 0
-575 1644 433 0
-455 -182 421 0
-1279 -254 -1989 0
-1891 -35 -359 0
-1000 1537 761 0
-95 -1305 -435 0
1610 203 -1540 0
-1423 861 1646 0
1395 895 1652 0
-1169 29 -1445 0
-1891 -381 -1619 0
-1985 -1706 1022 0
-487 1629 -307 0
365 861 -1572 0
420 -544 414 0
952 -1398 -1407 0
-1016 842 -721 0
-903 965 438 0
269 1390 -598 0
-1225 -1022 -535 0
725 -134 42 0
1291 -1511 1403 0
1457 1771 1113 0
-1641 -1493 -1309 0
-307 -432 -709 0
-1080 1278 -349 0
-241 -638 -432 0
-1762 -105 -285 0
1346 -1285 1407 0
329 486 1765 0
-1394 -406 1211 0
960 -469 -1354 0
1044 -640 -610 0
-289 807 1286 0
-1329 -864 -1035 0
-1594 1580 404 0
1723 -1249 -448 0
-1018 -167 -1238 0
-1116 767 -423 0
1986 -1102 461 0
521 -1726 -251 0
-910 1613 -1821 0
227 -255 -16 0
877 -546 -1044 0
-1712 -643 -1687 0
1580 1968 -1993 0
1137 -176 1681 0
472 -1580 -1812 0
894 1206 1797 0
1815 659 78 0
-1671 -996 -383 0
548 -1044 411 0
-1324 391 -1135 0
-616 728 -1567 0
593 1502 -375 0
987 294 -1833 0
-1100 -1186 249 0
71 -1833 -814 0
1681 -250 -1068 0
737 1302 -868 0
438 -1386 945 0
-717 1403 -483 0
1572 -130 -1075 0
1963 -1751 -230 0
-227 -1269 1292 0
-1076 739 1315 0
-910 1613 1821 0
-1244 780 -98 0
-1218 -1806 431 0
1566 1715 924 0
-1383 -1709 1610 0
1480 825 1963 0
-913 1100 1741 0
-1423 861 -32 0
422 -874 206 0
-614 -1318 733 0
-400 -418 128 0
-833 -143 -964 0
82 1282 -1380 0
1902 -448 -1589 0
-204 1598 806 0
-1005 -1587 -1455 0
-1326 1394 -1959 0
136 1792 109 0
1759 897 -1485 0
-1206 1076 1317 0
990 406 612 0
-893 -478 -495 0
-1272 -1355 1276 0
1695 -1183 750 0
1829 982 -1323 0
548 -391 -790 0
1209 398 551 0
877 584 1762 0
-738 1173 -1607 0
-1947 184 558 0
1767 347 1008 0
1137 -1467 320 0
267 -1501 808 0
1806 -1682 -822 0
-1601 1305 -1423 0
-1941 -460 1656 0
-546 713 1676 0
645 608 -655 0
114 -1049 -1224 0
347 662 -1889 0
-1923 138 189 0
-575 -290 -994 0
861 181 417 0
1994 1339 -1291 0
-1619 1919 685 0
1798 833 -1893 0
1621 819 -936 0
656 -648 964 0
1006 1449 1004 0
-969 1095 -1217 0
1611 -356 728 0
-1333 -689 -791 0
-397 -330 -1996 0
1759 544 -1225 0
-1399 -1275 -229 0
513 -98 -612 0
1339 430 1328 0
1865 -721 936 0
773 523 -491 0
545 -910 1378 0
-150 537 -1168 0
-1116 1293 -1813 0
-1224 1496 1300 0
969 -1545 -819 0
1806 1682 822 0
-1242 -1891 -461 0
-539 1827 705 0
1380 1763 -1825 0
-448 -463 2000 0
-597 578 -1075 0
-614 572 758 0
-921 -1244 -1394 0
169 -630 465 0
-1808 -157 -1008 0
-76 -1963 -142 0
-1759 1665 -91 0
34 1747 -506 0
732 -1339 1422 0
-37 867 1418 0
787 -268 -141 0
-1891 -1986 1785 0
673 -560 1562 0
759 794 -1773 0
1137 -1626 -266 0
831 -1208 1705 0
556 -1131 -1074 0
859 49 -135 0
982 -1073 1246 0
1695 -1392 226 0
-573 -196 -416 0
603 1250 1030 0
-476 -1582 -1248 0
-1916 1789 -327 0
-241 472 43 0
436 1366 219 0
169 -630 465 0
-1529 1706 -236 0
1892 637 -1772 0
-71 -1833 101 0
559 1891 -1288 0
1577 -1815 -780 0
-510 -1674 -333 0
268 -62 -424 0
1817 1451 383 0
575 1644 -994 0
1289 13 -965 0
1423 49 -135 0
548 1492 882 0
-904 1552 -1289 0
-1199 -1951 1581 0
-1805 1010 -1810 0
1865 721 936 0
-544 -1603 1597 0
1460 1192 1724 0
-34 863 -558 0
1302 -1490 1587 0
-1075 1387 1921 0
-1238 1403 755 0
-1206 -1406 845 0
561 766 447 0
365 -137 -303 0
-1161 -69 -1761 0
1551 -629 1963 0
-157 1678 997 0
-1449 66 1348 0
268 113 639 0
1328 -833 -92 0
-1815 1959 -1820 0
910 -802 905 0
-1994 -240 542 0
-1529 661 -1073 0
1116 1293 1813 0
1080 -662 928 0
891 -861 551 0
-919 -154 1199 0
1244 -513 -1820 0
1817 -1451 -383 0
-1272 -1355 -1276 0
794 -1091 -1039 0
990 -406 -612 0
519 1669 -1199 0
-58 1354 12 0
-913 -621 1074 0
1329 1302 -625 0
1805 -1010 -1810 0
-1935 -1030 -1651 0
-1583 -1103 205 0
-761 526 1352 0
826 -174 632 0
280 -381 1906 0
-513 612 100 0
-1242 -1926 -1986 0
-1340 -374 711 0
335 -1649 -1700 0
-544 -245 -1585 0
1318 -904 265 0
-1951 -1006 1046 0
612 -345 -153 0
422 -1137 1941 0
1372 53 1025 0
1923 436 1366 0
-1285 1834 779 0
-831 -1018 1342 0
-1704 673 -1866 0
-1798 1893 1691 0
904 -1425 -234 0
-1917 196 -533 0
1013 787 1698 0
-76 -1448 142 0
894 -880 -1710 0
1665 -238 -434 0
-1224 331 409 0
-1902 -1807 -470 0
1788 -1209 1789 0
-544 -1603 -1597 0
412 1263 1098 0
1671 -996 -383 0
-1723 -370 -999 0
1539 -1489 -91 0
-49 135 834 0
-1542 -1842 -1451 0
1932 861 1572 0
-458 852 383 0
-1781 1030 99 0
-329 1005 -69 0
-1007 1932 -1875 0
780 -1211 -686 0
-545 -1823 -1236 0
236 1555 -1542 0
1005 1665 -1526 0
-732 22 481 0
-268 -141 -62 0
654 192 -91 0
-1626 250 -420 0
806 -453 366 0
-1075 -1387 -1921 0
486 110 -838 0
58 -1350 -1309 0
248 -1679 -1805 0
407 -1446 -1315 0
1005 -948 -881 0
268 62 803 0
-29 1152 1880 0
-248 -1679 -1805 0
877 -264 -291 0
1328 654 353 0
-619 -13 -25 0
877 380 -1366 0
-1137 1467 -320 0
-941 1399 -1513 0
-110 1145 1086 0
-95 -707 -1415 0
-1805 -1010 1810 0
379 -431 -1957 0
-1805 -1010 -1810 0
737 1489 -868 0
681 920 1436 0
-476 -1403 1546 0
1934 -331 -1895 0
-519 -412 1945 0
-1339 544 1769 0
339 1177 772 0
1891 1336 -1400 0
-1298 831 1436 0
-149 -863 46 0
-1442 521 -1135 0
1572 1279 -1976 0
-415 332 1095 0
-714 1130 -1646 0
-240 1076 -1433 0
1285 -1073 737 0
-1206 -1185 616 0
-438 -1866 -1524 0
-290 -1570 1153 0
1932 1034 782 0
-987 1678 -904 0
1678 614 1399 0
-1005 -1529 728 0
-1137 889 737 0
-1643 -1403 -1770 0
-135 1209 478 0
1168 1781 -889 0
990 -406 612 0
1318 -121 -1649 0
-1326 -1577 -1414 0
913 -621 1074 0
-176 909 -1737 0
-1071 -1025 1489 0
436 -1366 219 0
1797 729 -593 0
-1444 -1934 1416 0
-1449 -1833 1616 0
1015 937 -296 0
1083 -96 258 0
1789 641 -137 0
1149 396 -756 0
-580 -1501 1681 0
-340 1014 -1450 0
1400 1472 -1906 0
-1288 212 1986 0
1300 1775 -1652 0
-442 -1858 1979 0
-761 -526 1352 0
-547 -1983 -1287 0
-1244 1566 -924 0
-1649 1910 1354 0
645 -17 1531 0
1323 -1286 -766 0
801 -476 414 0
-1941 -298 1176 0
-904 275 489 0
-1328 833 92 0
398 578 1863 0
636 -182 1922 0
-1711 1173 1027 0
894 416 -1373 0
-1723 -48 1807 0
598 1975 678 0
-145 1275 1947 0
-1634 1446 -1498 0
-1785 1103 -1536 0
-618 -956 -1602 0
423 1293 -235 0
1781 -1022 483 0
-497 -1153 -994 0
339 1303 1254 0
-578 1074 1950 0
-1338 93 1036 0
82 1282 1380 0
-1399 -58 786 0
-519 187 1951 0
178 324 -314 0
-1721 1831 1131 0
598 1975 -678 0
-476 1403 1546 0
-641 303 -865 0
713 -1052 1154 0
-451 764 769 0
187 -348 -1266 0
34 863 558 0
-924 -345 478 0
993 40 1295 0
781 580 -1436 0
877 -380 1366 0
237 -1747 1525 0
1442 -30 1132 0
1695 -32 -1721 0
1795 -643 -531 0
580 -603 -1129 0
1152 -805 -582 0
-1119 -613 -383 0
1209 1075 1387 0
-1807 470 643 0
-1781 -520 -1051 0
969 979 -797 0
-348 1266 173 0
-1368 1015 1201 0
1891 1577 410 0
1810 -1752 -450 0
425 -1000 1537 0
1815 1959 963 0
-656 657 -1967 0
-472 1580 1812 0
546 196 -781 0
184 -332 264 0
13 -1938 -176 0
-1366 560 -320 0
1566 1738 1715 0
37 32 730 0
-1423 -435 1907 0
1724 802 1041 0
155 -780 886 0
-391 -713 -1909 0
1010 -1810 1752 0
240 1076 1433 0
-71 -1318 -431 0
960 469 1354 0
51 654 -1622 0
1941 298 1176 0
-870 790 374 0
135 1190 -712 0
-365 -1875 -303 0
-1279 913 -361 0
901 1169 -276 0
-316 -1429 1688 0
192 -269 1603 0
347 970 1900 0
-1994 1339 -1291 0
-1108 1190 96 0
-842 546 88 0
-781 13 -1189 0
457 -981 1523 0
-969 1801 400 0
-477 -107 -1242 0
1474 -656 504 0
273 431 -631 0
833 -648 -1178 0
-1985 51 -1765 0
1871 -146 924 0
634 1823 7 0
13 -73 1094 0
1338 -1700 1348 0
1291 1238 -89 0
1423 -1875 -1572 0
1442 521 -1135 0
-893 478 495 0
-1239 -1252 268 0
965 438 -1220 0
-546 -909 -1286 0
-937 -1539 -1587 0
-1225 1022 -535 0
-1189 1996 -329 0
550 -1406 -251 0
-1823 -642 560 0
-1291 -900 -952 0
-1080 -412 -404 0
924 -684 378 0
13 -1849 -807 0
1619 -1919 -685 0
-1799 1891 -1288 0
76 629 -1963 0
-559 252 557 0
-1414 -1815 -1550 0
761 -526 1352 0
-1931 1239 1252 0
-1015 1238 -29 0
548 -411 -1301 0
76 -1963 142 0
-1423 -130 1061 0
1806 -1621 124 0
1574 -1339 8 0
364 53 -1246 0
1052 -26 501 0
400 527 -1164 0
1224 818 1496 0
-1197 1930 1090 0
926 -50 -65 0
-565 1801 1647 0
-646 -1798 -1163 0
-521 -1917 790 0
1000 -1537 761 0
-1275 1877 -1621 0
398 -1695 597 0
-1383 -185 -645 0
1665 -1769 -1893 0
-1823 642 -560 0
-751 822 1132 0
-442 1858 -1979 0
-1044 1938 -525 0
1276 1962 -1260 0
176 -1501 1250 0
-725 364 -6 0
-407 619 -637 0
1945 1210 -309 0
-1959 513 -1820 0
1643 -1939 245 0
725 -1258 -1539 0
-51 523 656 0
-1574 -1467 -1129 0
-738 1116 -1412 0
-628 1451 805 0
780 -1936 -474 0
-169 -1263 1900 0
-616 -728 -1567 0
-905 322 -885 0
-1161 -1267 -269 0
469 857 -769 0
1891 386 602 0
-269 -905 -1388 0
1891 -990 1134 0
-472 286 -1233 0
1643 -1169 -322 0
-32 898 -1039 0
-204 -1464 1560 0
1552 1923 201 0
1626 -1693 -1162 0
856 -1789 327 0
1649 1306 -666 0
546 -1797 1446 0
1891 -1986 -1785 0
903 965 -438 0
904 -1276 -979 0
545 1952 -1029 0
717 -89 -1586 0
-1594 1580 404 0
1594 709 -665 0
-1825 3 -393 0
1613 1880 -852 0
-1407 656 1609 0
-1132 565 456 0
1607 1961 1269 0
-1962 -1933 -723 0
275 407 -136 0
539 1827 705 0
781 580 1436 0
1442 1216 -83 0
-1902 448 -1589 0
432 -154 519 0
-1018 -1323 -775 0
-1137 909 -1145 0
430 -991 -1398 0
-1665 -717 -817 0
-1695 1183 -1739 0
-1168 1781 889 0
904 -1276 1523 0
1372 1539 1582 0
-1423 -365 1773 0
-1350 237 -140 0
-255 1116 -698 0
1959 658 135 0
-1795 -1512 559 0
98 406 -612 0
-1052 -418 -1301 0
-1634 -1446 -1498 0
-573 -196 416 0
-329 -661 -1086 0
-573 1284 73 0
1368 1024 -1632 0
-618 956 1602 0
-362 -311 305 0
894 -416 -1373 0
-483 -1347 -458 0
1238 -628 -1613 0
1318 -1833 572 0
-1926 559 1799 0
1272 -1355 -1276 0
511 -1265 -1130 0
-1712 643 -1687 0
1665 1299 -885 0
1906 -324 -1326 0
1621 -407 -1620 0
1423 -861 -1646 0
-1368 -1015 1201 0
-1754 -169 336 0
-575 1153 995 0
1318 -121 1649 0
400 -713 -439 0
-1220 1897 183 0
71 -325 -273 0
-1504 1815 -696 0
-1116 1293 -1813 0
400 -1909 1207 0
-339 -1177 772 0
-1206 747 -1625 0
-1052 1284 411 0
-593 1502 -375 0
-1801 1523 -1725 0
349 -347 1098 0
1801 1276 -1324 0
-1936 49 -1484 0
-398 623 -371 0
-69 -89 127 0
-1266 -173 871 0
305 1254 106 0
1323 1286 -766 0
-248 -1679 1805 0
1220 -1366 -394 0
1671 -1152 -1991 0
229 259 565 0
-1976 -1183 -1831 0
51 1617 1765 0
-398 1875 -511 0
1574 1467 -1129 0
-1342 -110 1568 0
-472 286 -665 0
-877 -1220 -1657 0
1643 -1403 1770 0
-2 1932 137 0
-380 726 -1114 0
-436 560 1708 0
1224 1813 239 0
324 359 -1878 0
511 181 -913 0
-1000 -1537 761 0
-1080 1741 749 0
1328 353 523 0
573 -1044 1839 0
-340 -1471 -298 0
-1168 1781 -889 0
305 -98 -406 0
1137 -1626 -266 0
-1080 908 -563 0
-1613 -1880 852 0
987 325 -960 0
1074 -749 528 0
-1399 -58 -786 0
71 294 -1318 0
-1372 -703 1150 0
13 1220 -1185 0
-867 204 -208 0
155 -311 -1997 0
-1137 545 -1129 0
-1216 -619 1521 0
1891 9 305 0
1423 -1108 -1697 0
-1934 403 1743 0
-1080 -1376 -360 0
572 1910 1140 0
1005 -654 1113 0
1934 -331 -1895 0
760 -1006 1449 0
-347 1263 970 0
1414 98 -1550 0
1137 -413 -1474 0
-1893 -1671 1485 0
-13 -1018 -1983 0
-1634 1446 -1498 0
-1119 -1082 -715 0
-71 -1399 -1306 0
1016 -30 -1742 0
-717 89 1586 0
347 -169 294 0
-928 823 1449 0
-1300 -1395 534 0
-511 -181 -867 0
-1891 -1336 1400 0
-1215 919 -208 0
-472 -242 -1270 0
-1275 1204 916 0
275 1865 -1864 0
-392 -1741 989 0
1466 755 1542 0
1244 1566 -924 0
1224 -618 -331 0
1550 1566 -1146 0
-653 -1794 -1877 0
-289 1985 356 0
-336 970 -173 0
-636 -182 1922 0
1145 991 -554 0
450 -82 -1282 0
1542 1842 -1451 0
1829 -83 -1112 0
580 1167 1843 0
729 681 -464 0
280 381 1906 0
1075 -1387 -1921 0
1833 -101 653 0
578 1074 -1950 0
66 1833 -1036 0
-1244 -1815 990 0
1788 893 1430 0
-79 903 1018 0
322 -162 -1586 0
-924 -1924 -1835 0
-1931 268 -141 0
519 1266 1337 0
157 760 -84 0
1206 1185 616 0
-1336 1472 -1906 0
1723 429 -1908 0
-713 136 -1181 0
13 1938 -176 0
1372 -1985 -53 0
-1318 1877 1787 0
-1775 1096 664 0
1731 738 -255 0
183 -1781 1192 0
969 -979 797 0
-1423 -274 32 0
1704 673 -1866 0
-1005 -948 -881 0
-425 1000 1537 0
-1959 -1601 387 0
-513 -1146 707 0
-1979 -1038 -1551 0
199 -1307 -988 0
1539 1603 -740 0
-924 684 -378 0
-1275 1204 916 0
521 -1726 251 0
-135 1108 -1219 0
-336 -722 23 0
904 1957 1845 0
905 -1410 1152 0
580 745 1760 0
-1380 1763 1825 0
-1302 1546 628 0
70 1346 -1724 0
641 303 -865 0
-1945 -1832 465 0
-1466 1347 -1445 0
1090 752 -1881 0
-1383 1709 1610 0
198 -1714 1158 0
548 -1492 -882 0
-1864 -456 316 0
1215 472 -1856 0
-1529 199 192 0
-187 1263 1900 0
-645 -17 1531 0
-267 -263 -773 0
-861 -181 -417 0
-916 1929 -622 0
63 -533 -123 0
1348 -1513 1442 0
1583 1785 -1591 0
-546 1797 1446 0
-608 1531 1397 0
-1643 -1403 -1770 0
-398 1695 -597 0
-1439 -1592 -1677 0
-1244 -362 155 0
-1869 -773 -1793 0
1795 -1670 1356 0
-997 -572 -1306 0
-1806 -1350 229 0
561 766 -447 0
1236 -725 -482 0
-1406 747 108 0
1352 -575 290 0
-1010 1810 -1752 0
677 -395 -1598 0
176 1501 -1250 0
-1116 295 1538 0
-1372 -236 935 0
1380 -1763 1825 0
-1543 1013 787 0
640 634 110 0
773 900 244 0
1425 -558 622 0
-1665 -81 -937 0
1206 -1446 1985 0
-1823 642 560 0
1914 1996 732 0
1119 1991 1905 0
347 572 -1348 0
-455 -1533 -1654 0
392 1594 1376 0
1542 -1842 -1451 0
-575 1644 433 0
-1226 425 1659 0
-787 268 141 0
685 -324 -399 0
1678 -614 -1399 0
150 -537 1168 0
-565 -264 -1801 0
-677 -1717 208 0
-1060 -32 913 0
-1906 1244 1381 0
1986 1102 461 0
-1209 -714 1576 0
1935 1025 648 0
-1981 -1601 -1064 0
-176 -909 -1737 0
775 -430 -1353 0
904 770 -631 0
1350 237 140 0
-1037 1354 1957 0
1225 -1258 -1466 0
1858 -1979 1038 0
1285 1030 1157 0
-1815 513 1411 0
-877 -925 982 0
-1795 1670 1356 0
-500 884 -34 0
-924 355 -671 0
1224 -1934 331 0
-1798 -99 89 0
1577 459 -305 0
1891 1785 -1561 0
-1807 -1712 -1675 0
589 1026 -394 0
-1637 -965 567 0
-1442 -1947 -184 0
-1752 450 -82 0
-442 -1858 -1979 0
736 385 926 0
1015 1238 -29 0
-780 -95 -707 0
347 -169 -294 0
1372 -214 -952 0
1080 -519 1199 0
556 972 1074 0
-275 -316 936 0
268 -141 62 0
37 32 -730 0
-904 1425 -234 0
1372 703 1150 0
-486 110 -838 0
-252 -178 1854 0
135 1108 -72 0
-305 1559 410 0
-339 402 1254 0
677 -519 -1141 0
547 1983 1287 0
500 884 -34 0
-1678 -997 -273 0
-473 369 1168 0
608 1531 1397 0
-910 802 -731 0
-1442 400 548 0
1342 1368 -968 0
-1010 1810 -1752 0
842 -1909 330 0
-1947 721 1955 0
-339 -1177 -772 0
513 98 -612 0
-1010 1810 1752 0
-987 273 572 0
1759 89 -1944 0
-1522 -385 50 0
-1288 461 1583 0
1080 360 -888 0
-1010 1810 1752 0
1300 1775 -1652 0
-941 1399 1513 0
-737 1405 -1893 0
1161 -1195 -199 0
1189 -1996 329 0
486 -364 -1422 0
1891 -1577 -410 0
-1161 -1267 -269 0
-1318 121 -1649 0
-71 -1318 -431 0
769 -549 -275 0
739 1286 356 0
-1637 -1471 743 0
580 603 1129 0
1348 1493 431 0
95 153 -859 0
1244 -1577 -1596 0
1902 -947 -463 0
-1621 -407 -1620 0
-1807 1179 1712 0
-1137 640 -939 0
545 -1759 1582 0
-616 728 -1567 0
-74 954 911 0
-34 -1747 -506 0
1075 -1387 -1921 0
-1936 -1209 -96 0
618 1088 1096 0
-1197 1090 -1732 0
340 -1578 838 0
1383 203 -455 0
621 -1901 204 0
-1114 -70 646 0
-593 1568 -1176 0
1244 1548 -1606 0
-654 -353 -737 0
-1406 -13 -838 0
1197 -752 1881 0
1583 1072 1156 0
-1164 -1590 1535 0
1249 370 999 0
-713 -1471 -1094 0
-345 893 -217 0
1372 1539 1582 0
1665 717 817 0
-286 242 1604 0
-1406 1129 1614 0
773 900 244 0
-472 638 349 0
422 1626 1024 0
1780 397 1052 0
-95 707 -1415 0
227 255 -16 0
1108 -24 -1431 0
-806 349 309 0
-1423 861 -1060 0
-430 -991 -1398 0
1444 1416 -956 0
-1947 -291 870 0
1594 -709 -665 0
1242 559 1591 0
639 1349 -227 0
-436 -634 -507 0
987 294 1833 0
-1352 -575 -290 0
-867 -1184 1739 0
400 -713 -439 0
-157 66 -733 0
-904 -498 1272 0
455 -645 1922 0
612 345 153 0
739 1286 356 0
1945 630 -1098 0
782 587 -913 0
831 1018 -1342 0
-1395 -895 -1652 0
-476 1403 1546 0
-924 953 -1209 0
575 -995 994 0
-1871 153 -355 0
157 66 733 0
-744 -956 -1602 0
-438 -1386 945 0
1935 -92 -1939 0
544 -245 -1585 0
1366 -991 -1015 0
1941 939 982 0
-527 -1298 1135 0
1016 275 498 0
614 1649 1874 0
-1539 -1952 628 0
71 997 1318 0
-1149 -396 -756 0
-608 1531 -1397 0
1184 -254 750 0
-802 606 -434 0
1076 -739 745 0
756 -271 248 0
-1704 -673 -1866 0
738 1283 -16 0
-1619 1156 1472 0
1169 1828 383 0
1206 1076 -1317 0
-1249 180 1807 0
145 1275 591 0
347 941 -1306 0
1044 -1023 584 0
-1244 1566 -153 0
295 -1934 -403 0
-677 563 -806 0
-76 1448 -142 0
1326 1394 1959 0
1594 1629 -938 0
269 905 1388 0
-430 -991 1398 0
-640 -486 473 0
-442 -1858 1979 0
-1372 -1935 1059 0
1731 -1711 -727 0
-1833 -1399 -1608 0
-618 1416 -956 0
654 192 -91 0
1849 -1502 -880 0
-1891 557 -1619 0
-1288 -461 -1583 0
1372 1460 725 0
273 -431 631 0
952 -1025 -801 0
1137 -1295 1765 0
-1423 759 -130 0
921 1244 1394 0
-1784 349 -970 0
-71 -325 -273 0
-1420 -1400 685 0
-1858 1979 -1038 0
-1423 -861 1646 0
639 1731 1711 0
-365 861 -1572 0
-519 928 847 0
578 -553 -1138 0
-1372 -1873 -1639 0
1474 646 -1735 0
-1300 1395 -534 0
1249 370 -999 0
1665 -81 937 0
1346 -1285 -1407 0
-442 1858 -1979 0
1795 -477 1512 0
513 -612 1970 0
-513 -612 100 0
488 -934 -1052 0
-1797 -1018 -1724 0
924 953 1209 0
-95 -707 1415 0
1833 -572 1513 0
-1551 -629 1963 0
1206 1406 -845 0
-1634 -389 -1866 0
423 -1224 -403 0
1052 -486 -1839 0
1994 909 -108 0
-289 1216 789 0
1682 -1132 -457 0
-237 415 -184 0
-155 -1414 -98 0
-241 307 -1940 0
-1100 -1479 1594 0
-1206 747 -1625 0
-1329 -1302 -625 0
1318 1306 -101 0
347 -1968 1453 0
-1524 1193 -1988 0
-269 1390 -598 0
1062 435 658 0
-1514 -710 -354 0
-1681 -250 -1068 0
157 -760 -84 0
1238 1403 964 0
1080 -412 404 0
53 1724 889 0
1621 1829 1081 0
-1798 -1555 -986 0
330 1521 -13 0
-1610 455 185 0
712 1007 -911 0
105 1578 1809 0
-268 -141 62 0
-1137 -1295 1765 0
1394 406 -1211 0
1932 137 1660 0
1643 510 571 0
-49 135 -834 0
-400 -418 128 0
-169 630 -465 0
-436 -118 1790 0
-108 -1295 1015 0
-95 1305 435 0
255 -239 1444 0
870 1923 -1996 0
1372 -236 935 0
-1149 65 -396 0
-1788 480 -1432 0
1603 1489 -1836 0
1632 -199 -428 0
289 -790 894 0
-1808 -157 -1008 0
-1137 -889 737 0
640 -1529 -191 0
-37 605 1576 0
316 -981 -979 0
204 1598 -806 0
1891 -990 -1134 0
-1185 -430 -1246 0
-1990 1926 -1953 0
-155 -311 1997 0
-602 -1336 -1400 0
548 -422 1941 0
-199 -1238 1546 0
1947 -291 870 0
-1238 852 1172 0
423 1224 403 0
-1189 -1982 1705 0
-1535 -397 1304 0
-1959 100 1999 0
1959 -660 -1111 0
-13 1949 1071 0
1994 -640 807 0
614 -1649 -1757 0
-1206 1023 -1797 0
1242 -1926 1986 0
1678 -614 1399 0
-544 -817 897 0
737 -1489 -868 0
913 1100 -1741 0
-1621 1682 -1523 0
1914 1996 -732 0
523 -1030 657 0
268 -141 62 0
-1678 -997 -273 0
264 -1801 1276 0
1715 1970 -321 0
1785 178 602 0
-432 -154 -519 0
1352 -575 -290 0
760 1974 -1758 0
-1137 925 176 0
1339 -244 717 0
753 913 1130 0
-1906 -1303 -1888 0
-1619 -1919 685 0
347 -854 -1984 0
-1242 559 1591 0
51 -718 -964 0
-904 -549 275 0
773 -523 491 0
-1206 -1185 616 0
741 407 -1154 0
-1797 -729 593 0
-1815 -659 78 0
420 1025 -1302 0
1947 -456 -400 0
781 1137 -580 0
-994 -103 -1148 0
1831 1186 1950 0
1080 1278 349 0
1869 773 -1793 0
-1279 -1741 -914 0
-307 432 709 0
717 1836 -449 0
-1815 -513 -1411 0
442 1858 1979 0
527 -1298 1135 0
1529 -473 1798 0
-877 -1446 -1097 0
-544 606 1466 0
-797 713 1620 0
-1798 1015 11 0
-58 1354 12 0
289 -400 -1647 0
1936 1211 -1062 0
-267 263 -773 0
-1610 -455 -1630 0
-418 726 -1005 0
1372 523 -582 0
-264 1917 711 0
-894 -1446 593 0
-1712 -643 477 0
-1080 -404 -348 0
-1607 -1961 1269 0
1090 752 1881 0
1010 1810 1752 0
-1244 -1548 1606 0
1552 -870 1676 0
-1339 430 -1328 0
-899 -2 -891 0
1292 1049 239 0
1610 455 1630 0
-1795 1512 -559 0
1938 1137 -831 0
-1951 -426 997 0
442 -1858 1979 0
-987 273 -572 0
-1678 -121 1341 0
-192 296 1410 0
894 1446 -593 0
82 -1282 1380 0
-1572 -417 -1265 0
-969 1886 500 0
1807 -470 -643 0
1137 1467 -320 0
450 -82 1282 0
9 -406 1788 0
1643 1378 -802 0
1533 419 -608 0
1300 -1775 1652 0
-1513 1806 -1309 0
305 98 406 0
-901 1658 -715 0
-681 920 -1436 0
-339 -1177 772 0
738 1173 1607 0
-412 1263 1098 0
-1137 81 937 0
738 1173 -1607 0
-436 -634 -507 0
-618 -1088 1096 0
1935 -92 -1939 0
1423 -1714 -759 0
-1830 -1480 -1599 0
1291 1724 -881 0
1052 -26 -501 0
899 2 891 0
1238 628 1613 0
108 1579 1771 0
1523 -1115 -1182 0
-1935 -801 -1230 0
1731 -255 -16 0
1902 36 -27 0
71 -1833 101 0
1440 -1798 -1087 0
-407 -1620 -136 0
13 1938 176 0
-1523 -1115 1182 0
781 -1076 -26 0
-1539 -483 1842 0
289 -1985 356 0
-1108 -1745 -1697 0
1632 -199 -428 0
790 1879 1772 0
1610 -455 -185 0
-910 -276 -383 0
-1785 178 -602 0
-1533 1654 608 0
556 -1074 306 0
1394 -98 -1519 0
-149 -863 -46 0
-1263 465 -1948 0
1298 -870 1500 0
-1251 -109 -26 0
-1018 -420 -1759 0
-1005 937 -1624 0
-1769 581 607 0
-289 1985 -356 0
-145 -1275 1947 0
565 264 -1801 0
1489 1351 -1564 0
856 1789 -327 0
-791 1938 589 0
1137 640 939 0
-98 -1820 -1606 0
1529 1706 -236 0
-1224 1934 1602 0
-539 -1827 705 0
572 -969 -1664 0
349 -347 1098 0
184 -332 -264 0
562 -139 -899 0
1864 -723 1057 0
392 1862 -1648 0
-469 -857 769 0
-400 -713 439 0
901 1836 1838 0
-1016 30 -1742 0
677 -1065 1050 0
-1303 155 -402 0
498 1095 723 0
-973 -328 777 0
13 1018 -1983 0
-544 606 -1466 0
-1152 1880 -1351 0
-335 1649 -1218 0
-3 -1277 -393 0
-1324 391 -1135 0
-1619 -1156 -1472 0
-1711 114 -344 0
-1833 -101 653 0
-894 -541 340 0
-762 -1074 -1510 0
1209 1075 1387 0
1372 -523 582 0
-1798 1555 986 0
548 -391 790 0
-1215 919 -208 0
-455 182 421 0
199 -1192 -946 0
-1242 -559 -1591 0
-725 -1162 1761 0
755 -179 -1248 0
-1550 1211 -100 0
-1865 -1734 -1461 0
32 -898 1039 0
-559 461 1591 0
-1055 1372 -1342 0
268 141 -62 0
1979 -1038 1551 0
1352 575 -290 0
-548 -1446 -1055 0
34 -1052 1342 0
-1169 -841 287 0
69 89 127 0
-34 -1829 903 0
625 1296 29 0
1923 -903 -1436 0
-1399 -1275 -229 0
-1318 121 -1649 0
-1186 -810 -487 0
654 -192 91 0
1551 629 -825 0
-85 1849 206 0
-1224 -1813 239 0
153 -1601 1415 0
1206 -747 -1625 0
729 -681 -464 0
-1781 -937 1329 0
1012 712 -1375 0
1762 441 -206 0
1985 51 1765 0
-1405 -868 257 0
365 1875 303 0
673 560 -1562 0
322 -162 -1586 0
1797 -418 -329 0
737 -1302 -868 0
-1594 -347 1453 0
-1302 -1490 1587 0
155 -305 963 0
244 656 1834 0
1891 1336 -1400 0
443 -1206 -681 0
1523 -1216 604 0
1957 1886 367 0
921 1244 -1394 0
-904 1276 -1523 0
1621 -1164 1892 0
1614 569 -1447 0
-952 1632 1113 0
1543 -1013 -1698 0
-824 614 -1911 0
488 -934 1052 0
-919 -154 1199 0
-51 -718 -964 0
-1767 -1951 453 0
-1209 1039 1863 0
1747 -498 -264 0
1026 -1185 728 0
1649 1306 666 0
-654 -1025 -1674 0
-510 29 -1944 0
-1926 1799 -1288 0
-1400 1472 1906 0
1242 1891 -461 0
486 1529 1236 0
1372 1460 725 0
666 904 -1608 0
-1073 -1422 1609 0
-1533 -419 -608 0
1263 312 -1722 0
255 1813 1444 0
-1026 -1185 728 0
1936 1209 -96 0
1681 250 -1068 0
1291 -1724 -881 0
-1833 451 -1470 0
-1137 1085 589 0
546 1175 -1289 0
-1679 1805 1010 0
-1062 -435 -658 0
997 -101 -1327 0
340 1014 -1450 0
-1833 -1399 1608 0
-1238 1403 -755 0
-1947 -721 -1955 0
-425 -1000 -1537 0
1005 -948 -881 0
1594 -1215 1122 0
-603 1250 1030 0
-775 430 -1353 0
-325 -1205 -997 0
-602 1336 1400 0
-1574 -1339 8 0
1959 -1871 1305 0
-476 1671 598 0
-842 870 1081 0
-71 325 -1006 0
1798 -192 -97 0
-391 83 1592 0
661 968 -632 0
1368 1015 1201 0
-1429 723 -604 0
-1279 -1186 -1594 0
286 242 1604 0
-1711 -239 -235 0
1226 -425 1659 0
-155 9 990 0
-1529 -199 192 0
-1406 1372 -45 0
450 -82 1282 0
1862 -677 1233 0
1275 1204 -916 0
-674 1027 -767 0
925 726 -1578 0
-1935 353 -1466 0
-1339 535 1403 0
-787 -1698 1931 0
1951 1006 1046 0
339 402 1254 0
546 -1044 -430 0
1168 -1113 1622 0
391 -83 -1592 0
1044 -251 1626 0
-400 1653 1792 0
-1893 1671 -1485 0
398 -274 -130 0
1895 409 668 0
1209 -714 1576 0
997 -572 -1306 0
1177 921 1596 0
-725 364 6 0
1626 737 -1622 0
960 751 -1058 0
-987 325 960 0
82 1282 1380 0
34 -1747 -506 0
1038 -1756 -624 0
488 1535 136 0
-1272 1355 1276 0
-1815 -1959 963 0
-1406 1372 -45 0
-526 -1352 -575 0
1383 -203 455 0
-1438 1318 1700 0
1941 642 -1562 0
-713 -136 -1181 0
1302 -1546 -628 0
-51 -523 -656 0
1806 -877 -1845 0
-864 -628 -905 0
-1706 -544 -830 0
-573 1044 1839 0
-1787 -549 -622 0
-347 -824 1338 0
289 1866 -646 0
-255 -1813 -1444 0
-1926 -1799 1288 0
-646 1398 737 0
-565 400 -1725 0
545 -910 1378 0
-37 -867 -1418 0
-1906 1244 1381 0
737 -414 -648 0
881 -1603 -1059 0
-877 -1656 1949 0
-1080 -1580 1945 0
802 -606 -434 0
-230 -1902 429 0
729 -925 1114 0
-381 -1420 1906 0
-1318 -297 549 0
324 193 1303 0
1923 1985 1705 0
1781 -520 1051 0
-1788 -1981 -1415 0
204 919 -709 0
-1038 1650 1417 0
347 -1318 -388 0
-145 -1275 -1947 0
-1423 861 1060 0
662 -928 133 0
422 267 -1145 0
1090 -752 -1881 0
-1183 -1831 -1186 0
1318 1306 101 0
1916 -495 -954 0
-1372 -69 -353 0
-407 -1620 136 0
1678 -969 -1806 0
438 1866 1524 0
-1678 -121 388 0
1014 1005 1869 0
-473 -369 -1168 0
-139 1430 -1745 0
-1298 -713 -1955 0
-455 -1922 1654 0
-1887 -809 395 0
-82 -1282 1380 0
1902 -180 -310 0
79 -903 1018 0
476 1582 -1248 0
645 -17 1531 0
-791 1938 589 0
88 -1117 -689 0
-744 956 -1602 0
1665 1302 -1390 0
-455 1922 1654 0
-1406 -13 -838 0
-1634 -1436 -340 0
381 -1619 1400 0
629 1751 1723 0
1301 681 -1055 0
71 -294 1678 0
-603 1988 -1467 0
1643 1403 -1770 0
1186 810 -487 0
1300 -1775 -1652 0
13 -1220 1185 0
-891 -861 -551 0
1924 -478 376 0
-1383 455 -645 0
1298 -713 1955 0
-316 -1429 -1688 0
225 1149 -65 0
-400 -418 -128 0
1016 1115 -407 0
-1892 637 1772 0
249 1454 -360 0
1010 1810 1752 0
567 1941 -1433 0
273 1794 -857 0
381 1420 -1906 0
-877 1220 -1657 0
1775 962 -408 0
-1429 723 -604 0
925 -1145 -1310 0
-204 677 1669 0
1959 -780 -98 0
1206 925 1529 0
-546 -1220 -542 0
-34 1044 1203 0
-1119 -1991 1905 0
-1711 -1173 -1027 0
105 -1578 1809 0
227 -1173 -1607 0
1366 -560 320 0
1805 1010 1810 0
-1156 -1518 111 0
71 -1757 390 0
1626 -1693 -1162 0
-1721 1100 -1080 0
48 310 -36 0
-1810 1752 -450 0
1923 894 -1611 0
1785 557 1619 0
1100 1080 1594 0
580 482 1972 0
-339 1303 1254 0
-761 -526 -1352 0
199 -1771 1 0
-1149 -65 944 0
-924 1924 1835 0
-188 -1414 1254 0
1746 -885 449 0
-472 -242 -1270 0
-1610 -455 185 0
1691 -1001 1041 0
1665 1299 885 0
-1698 -1931 1239 0
-98 1820 1606 0
-1017 1629 1079 0
1798 -1398 266 0
-1747 -498 264 0
-1976 -1576 -578 0
472 -286 1233 0
-713 136 1181 0
192 -269 1603 0
237 -1016 1747 0
-1399 857 -297 0
-677 -638 -1669 0
1474 646 1735 0
987 273 572 0
-488 -1535 -136 0
1829 894 -1189 0
1935 -353 -1893 0
-1238 -1405 -414 0
-340 -1386 603 0
-556 1131 1074 0
1712 643 -477 0
-1626 -1935 -889 0
-1016 -275 498 0
1224 818 1496 0
-98 -406 612 0
1678 121 -1341 0
-833 536 1329 0
-1372 683 -1838 0
255 -295 -1224 0
32 605 -1863 0
-639 -1349 -227 0
1278 722 -820 0
1116 -295 -1224 0
1795 -1670 -1356 0
1131 1100 621 0
-1985 773 -1532 0
578 -553 -1138 0
-826 174 632 0
-488 -934 1052 0
997 -1338 1196 0
781 13 -1189 0
-546 1206 240 0
1785 557 1619 0
-1224 -1934 331 0
1348 -452 379 0
-388 1685 1341 0
-74 -1180 137 0
1678 121 388 0
-186 -505 -351 0
-290 994 669 0
-806 -157 -1266 0
511 -181 913 0
1238 1403 755 0
-1137 176 -1681 0
-1621 1829 1081 0
-1383 -1630 1334 0
-1025 648 1718 0
666 904 1608 0
-71 294 1678 0
-773 -1474 68 0
-1829 83 -1112 0
546 1175 1289 0
-625 1296 -29 0
-621 361 1862 0
-1830 1480 1599 0
-726 1208 931 0
-1406 -747 1988 0
1016 1095 1899 0
-1206 1446 -1985 0
72 -478 -712 0
-1825 -3 -393 0
221 -34 1425 0
1285 -1073 -737 0
1626 -510 -1347 0
48 -310 -36 0
227 -1173 -1607 0
-1326 1577 1414 0
773 1474 -68 0
1366 -991 -1015 0
899 861 -274 0
-1938 1137 831 0
-1533 1654 608 0
-1842 885 1441 0
-1044 1023 584 0
966 -1395 895 0
-1566 1738 -1715 0
-71 997 -1318 0
-1406 874 206 0
1423 -1875 -1572 0
-1902 448 -1589 0
-1119 1082 -715 0
1626 -717 1001 0
-856 -954 21 0
1665 238 434 0
110 1145 -1086 0
-580 1501 1681 0
-98 -1820 -1606 0
565 1429 -527 0
-1423 -365 1773 0
-1080 908 563 0
-1447 413 1912 0
-1449 66 1348 0
575 1153 -811 0
-656 648 964 0
1216 1634 874 0
388 1685 1341 0
-1459 -1206 -1792 0
-1243 1689 -207 0
-1238 -1817 -1253 0
1047 -1889 1028 0
-1923 1849 1026 0
1164 -1590 1535 0
1588 -1527 476 0
488 1333 1251 0
340 -1578 -838 0
-545 1823 1236 0
-1626 717 1001 0
1985 -773 1532 0
-425 1000 -1537 0
268 -976 141 0
-1529 -199 -192 0
1985 394 473 0
1891 35 359 0
-548 -481 1980 0
-1582 -1451 -582 0
-1342 1033 952 0
-1979 -1038 1551 0
842 870 -1081 0
-621 -204 -858 0
1866 -206 -703 0
451 -764 -769 0
-349 336 1889 0
-1342 1368 -968 0
-760 1974 -1758 0
-329 -661 1086 0
1798 192 97 0
952 1632 -1113 0
135 -1108 1219 0
-407 -619 -637 0
1637 1471 -743 0
280 381 -1919 0
488 1647 1443 0
-347 -1318 388 0
48 -310 36 0
1959 684 -596 0
-1951 1266 -1438 0
1300 1775 -1652 0
-1784 -349 169 0
1442 -870 -374 0
562 139 899 0
797 -713 1620 0
-1114 70 646 0
1789 641 137 0
-1891 1103 205 0
-546 -51 1113 0
336 987 1491 0
1626 -1735 284 0
-1242 -1926 1986 0
987 -294 1833 0
-1263 312 -1722 0
-221 34 1425 0
-1403 1671 1172 0
-1849 1502 880 0
-1016 842 -721 0
1209 -398 -226 0
-1375 -1789 -2 0
1815 659 78 0
-521 789 374 0
-1206 1406 -845 0
-1406 176 168 0
1723 429 -1908 0
1523 -1115 -1182 0
881 -1603 1059 0
-1338 1700 -1348 0
856 -1789 -327 0
425 1000 1537 0
230 -1902 -1908 0
-1423 274 32 0
-1979 1038 1551 0
1665 -1169 1746 0
340 1014 1450 0
-1733 1601 -1305 0
-1588 -1527 -476 0
612 -1981 508 0
717 1302 -628 0
1300 -1395 -895 0
537 1087 955 0
264 -88 1404 0
-1161 -1195 199 0
1279 1186 -1594 0
833 648 -1178 0
-1439 -548 -1298 0
-1735 535 -607 0
-281 1865 -1864 0
145 1354 -34 0
924 684 -378 0
9 406 -1788 0
336 970 -173 0
-1423 -1209 -371 0
-1603 1489 1836 0
-398 -623 -371 0
677 -1717 -208 0
969 -1545 -819 0
-608 -1531 1397 0
-1806 877 652 0
-1000 -1537 -761 0
-901 299 -1542 0
-1798 1542 1880 0
192 -881 -901 0
-347 997 -733 0
1444 1934 1416 0
-1013 -787 1931 0
-1038 -1756 624 0
1626 1735 -284 0
-1704 673 -1866 0
1637 965 567 0
-1372 236 935 0
-364 -53 1246 0
-1100 -1479 -1594 0
-329 -486 1765 0
1383 185 645 0
-717 1952 -1234 0
-255 -1813 -1444 0
-656 245 935 0
-877 264 291 0
345 893 217 0
-227 -295 1293 0
1406 874 -206 0
-1439 391 790 0
398 783 1721 0
-110 -1145 1086 0
-1806 -877 652 0
-1406 -1014 909 0
-397 330 -1996 0
1466 1119 -613 0
1342 -1368 968 0
-1406 1372 -45 0
-407 -619 637 0
-1947 1115 1164 0
436 -560 -1708 0
-1923 766 -454 0
1806 877 652 0
-1926 -559 1799 0
1572 37 -1138 0
-1522 -225 65 0
-289 -1081 1175 0
-1380 1763 -1825 0
1798 1398 -266 0
1678 -1874 -969 0
901 -299 1542 0
1216 548 -949 0
-230 1902 1908 0
-1923 1653 -561 0
1339 -430 1328 0
1073 1422 -1609 0
-404 -820 1581 0
365 -137 303 0
1985 394 -473 0
-436 -634 -507 0
1423 -861 32 0
-69 625 -901 0
-1539 483 -1842 0
-1797 -1398 -1793 0
1721 1100 -1080 0
1949 -394 -356 0
1626 143 625 0
-1209 1916 954 0
-725 -1162 1761 0
-329 486 1765 0
418 1085 -949 0
726 -1208 -931 0
924 355 671 0
-864 -628 905 0
1285 53 -632 0
-268 -141 62 0
1830 1599 -76 0
-178 -1336 -1638 0
34 -521 25 0
74 -712 -1789 0
-924 345 1423 0
-1963 -230 -1902 0
49 1924 -1432 0
-1551 624 869 0
901 -1582 1913 0
1798 192 97 0
1439 391 -790 0
-1076 -739 -745 0
1224 1934 -1602 0
-1474 -656 504 0
-488 -1552 88 0
-891 -861 1572 0
713 -1052 1154 0
-349 465 -1047 0
1529 1706 -236 0
1137 -889 737 0
-713 1437 533 0
305 1559 410 0
176 -1501 1250 0
-1568 33 844 0
1706 -544 -830 0
1209 1039 -1863 0
438 594 690 0
153 -1601 1415 0
546 176 -900 0
-1895 409 -668 0
398 759 -861 0
-347 970 1900 0
1442 -741 -1143 0
-71 -960 -653 0
-155 -1414 98 0
-178 324 -314 0
-290 994 669 0
856 954 -21 0
-1797 -1018 1724 0
-1994 -441 1861 0
51 1617 1765 0
1132 565 -456 0
-381 1619 1400 0
1985 51 -1765 0
13 -1849 -807 0
-1052 1949 -464 0
-867 -1376 -1243 0
-1012 -712 1375 0
392 -1862 -1648 0
-1522 103 385 0
-1891 -1400 1177 0
417 1091 1584 0
-349 465 1047 0
1947 1115 -1164 0
-3 1277 -393 0
-1537 761 -526 0
-422 1626 1024 0
1406 1912 1532 0
-1891 -381 -1619 0
775 1735 -496 0
-1090 1881 1686 0
-1310 -1447 1639 0
-677 -395 1598 0
1875 891 -247 0
1829 -83 1112 0
1352 575 -290 0
628 -1451 805 0
477 -107 -1242 0
666 -904 1608 0
-1715 1970 -321 0
-1192 -1526 -571 0
-1795 -643 -531 0
-1891 1919 339 0
755 1880 -1662 0
-1785 -178 -602 0
802 -606 434 0
-1862 -677 -1233 0
1007 1932 1875 0
-511 -181 867 0
-34 877 -533 0
1116 -1292 -1224 0
-1626 1302 -1746 0
-347 -336 -1266 0
-345 24 -376 0
1137 413 1474 0
-68 -889 -1651 0
1372 236 935 0
1806 1350 -229 0
-1251 894 -1521 0
34 -521 -25 0
-1626 143 625 0
-618 -1775 1088 0
-1959 -1601 387 0
-559 -252 -557 0
-74 -712 -1789 0
-717 89 1586 0
392 1741 989 0
1444 1416 956 0
1034 759 274 0
653 -1794 1877 0
-365 641 -891 0
1893 901 1838 0
-130 1773 597 0
-192 1296 99 0
-1932 861 1572 0
629 230 -1902 0
157 -66 733 0
486 -1474 1769 0
476 143 1230 0
438 745 -743 0
1699 -561 -1321 0
483 -1347 458 0
-761 -526 1352 0
-398 641 -911 0
1752 450 -82 0
-965 -438 -1220 0
-1285 -1405 -520 0
1542 1362 1194 0
1711 1116 -295 0
1289 13 -965 0
-589 1026 394 0
-480 217 1932 0
1275 -1204 -916 0
-268 803 599 0
-1153 -64 736 0
1116 1292 1224 0
1224 -235 -744 0
-1784 -348 1266 0
473 -369 1168 0
1733 -1601 1305 0
71 1833 101 0
264 -979 47 0
-685 -324 399 0
1788 -480 -1432 0
51 1030 -717 0
965 438 -1220 0
-1938 1137 1982 0
-330 1792 -1824 0
-1303 -155 402 0
575 -497 -1153 0
-1429 -713 -550 0
244 656 1834 0
-1831 -1186 1950 0
-1100 1186 249 0
1326 921 772 0
997 572 -1306 0
-1406 1129 1614 0
-1621 -407 -1620 0
-199 1307 -988 0
-1244 -1566 153 0
-1071 -725 554 0
639 1731 1349 0
-572 379 1140 0
1941 -460 -1656 0
-1533 1654 608 0
-1882 49 1697 0
546 -1044 430 0
545 1952 -1029 0
559 1288 461 0
-1489 -1351 -1564 0
502 1854 974 0
248 1679 -1805 0
-204 -919 412 0
-1348 452 -379 0
-1318 -1833 -1036 0
1244 -1788 -1548 0
-1976 1576 578 0
469 857 -769 0
-84 294 335 0
1551 1599 -76 0
-737 -414 -648 0
-108 1398 1609 0
-37 -867 1418 0
-901 333 -1222 0
1643 -1939 245 0
1449 -1833 1616 0
-1225 -1022 -535 0
1381 1815 1063 0
935 1390 1119 0
-1869 -1285 192 0
-1176 -1529 1626 0
1394 513 -406 0
-1439 391 -790 0
-1787 34 -652 0
286 -242 -1604 0
-1269 423 -1224 0
-71 -325 -1006 0
-713 729 -1839 0
-347 -1968 1453 0
-1935 948 881 0
1405 868 257 0
-625 -458 -885 0
-725 955 -491 0
562 1108 596 0
-614 -733 -592 0
-289 -807 1286 0
1931 268 -141 0
-1619 -1336 20 0
-539 -1827 705 0
-790 1879 -1772 0
1724 802 -1041 0
1807 1712 -1675 0
640 486 -473 0
-904 -1552 -1289 0
1405 868 -257 0
-34 1052 -1342 0
-1403 1466 706 0
-1423 -130 -1061 0
621 1741 -1464 0
-510 1674 -333 0
-1244 1577 -1596 0
-145 1275 1947 0
1613 -1913 1172 0
324 -427 1878 0
-1665 -414 607 0
-422 -329 -580 0
29 1152 1880 0
1285 1030 1157 0
-1145 991 554 0
-571 159 1846 0
76 629 -1448 0
-1676 -1459 1500 0
614 -733 592 0
-511 181 867 0
654 -1378 -648 0
-921 990 -1063 0
-634 -1823 -7 0
-289 -790 -894 0
1891 1919 -339 0
1882 -49 1697 0
565 -1429 527 0
-1023 1018 1433 0
-519 1266 1337 0
-1798 -1015 -11 0
-924 -345 -859 0
1052 -1949 464 0
1298 870 -1500 0
639 1349 1711 0
-924 -345 -859 0
-1329 864 -1035 0
1348 -1493 -431 0
1065 -242 908 0
1959 780 98 0
-1807 1712 -1675 0
264 330 -1592 0
894 -416 1373 0
-1224 618 -331 0
1572 -1921 621 0
-1010 -1810 -1752 0
-738 255 674 0
-1798 192 -97 0
781 1137 -580 0
1113 -1706 -737 0
-737 -1302 868 0
1610 203 -455 0
1632 -199 428 0
1788 -135 -139 0
1695 -553 306 0
1906 -1244 1381 0
1746 885 -449 0
-328 1594 -1648 0
79 -374 -739 0
1934 -1895 -228 0
-885 996 -852 0
-1406 -747 1988 0
1712 -643 -477 0
511 -274 1728 0
-1291 948 11 0
806 453 -366 0
-1366 -560 320 0
-794 130 -1721 0
713 -1437 533 0
1777 1532 1605 0
544 510 -868 0
-244 92 -535 0
1383 1610 185 0
-264 88 -1404 0
1594 1215 1122 0
-178 1336 -1638 0
725 1162 -1761 0
-1137 -1626 266 0
-418 726 1005 0
572 379 -1140 0
79 -374 -739 0
255 -1116 -698 0
-325 -1327 -1757 0
-661 430 45 0
-340 1471 -298 0
275 -1865 1864 0
1959 -153 435 0
-185 1630 -636 0
877 -1459 -1314 0
-1994 -240 542 0
-330 1521 13 0
53 889 -1059 0
-324 -193 -1303 0
-397 -330 -1996 0
1310 -1447 -1639 0
-556 -621 -1074 0
1071 1163 555 0
-1220 -1323 -112 0
-1891 -252 1619 0
365 -1875 -303 0
580 1167 -1843 0
24 -1916 839 0
544 510 -868 0
1080 -1580 -71 0
192 1296 -99 0
-1601 1305 -1423 0
-1480 825 1963 0
-910 -1613 1821 0
-732 1941 340 0
1177 -921 1596 0
-510 -1230 -1746 0
894 1206 -1797 0
-725 -773 -844 0
-364 53 -1246 0
347 854 -1984 0
1080 -1580 -1945 0
-275 407 -136 0
-1805 -1010 1810 0
802 104 1880 0
1649 572 -1348 0
1137 -413 1474 0
-1406 -703 183 0
-70 -1346 1724 0
1798 -1398 -266 0
-1945 1210 309 0
362 -311 305 0
130 1773 -597 0
-244 -656 1834 0
-418 -726 1005 0
-510 29 -1944 0
-1858 -1979 1038 0
1372 1460 -773 0
-340 501 176 0
178 -324 -314 0
-899 -2 -891 0
402 -1504 -106 0
1643 1378 -802 0
-345 -135 -74 0
82 -1282 -1380 0
264 -1792 -1996 0
-1891 1288 998 0
-184 -1261 -1864 0
212 1536 -1072 0
1000 -1537 -761 0
-1423 913 -1187 0
1932 1034 782 0
-1543 1013 -787 0
472 1580 -1812 0
618 -1496 -1300 0
1634 1460 1988 0
1621 -397 -1126 0
1795 1514 1670 0
1249 1902 947 0
1342 1195 -1024 0
-713 1437 533 0
997 -39 1275 0
801 -901 -115 0
-575 -995 994 0
289 128 1386 0
513 612 -1970 0
-910 1613 1821 0
1071 -1163 -555 0
1206 -545 -1562 0
1621 -819 -936 0
-176 1869 547 0
1514 -710 354 0
1825 1277 -393 0
-1244 1815 990 0
1168 -1113 -1622 0
-1423 -398 -303 0
486 364 -1422 0
-264 -813 443 0
-1380 -1763 -1825 0
-1959 -513 -1820 0
476 1403 -1546 0
904 -1425 -234 0
-661 -430 -45 0
-380 726 -1114 0
-1005 1665 -1526 0
-415 -1261 484 0
-661 -968 -632 0
1775 1395 -1652 0
1152 1880 -1351 0
442 1858 -1979 0
-1108 -24 1431 0
407 -1620 136 0
-546 790 439 0
-9 780 1519 0
1664 -890 -564 0
773 -1474 68 0
-1449 -1833 -1616 0
-1220 -1366 394 0
1291 -244 143 0
877 -1220 -1657 0
-1238 852 1172 0
935 -1390 -1119 0
95 707 -1415 0
-1176 -1529 -1626 0
-1250 1798 1195 0
903 -251 -831 0
1695 556 -1510 0
1706 -544 830 0
1788 135 -139 0
1439 -330 -73 0
-1626 1403 -1913 0
1423 -435 -1907 0
289 1866 646 0
-1442 1552 397 0
-924 893 658 0
1108 1190 96 0
904 1276 979 0
356 -1353 -150 0
9 -406 -1788 0
1957 -1886 -367 0
-741 -1081 -1892 0
1216 -619 -1521 0
-1116 295 1538 0
-756 -271 -248 0
267 -1971 1593 0
1276 -1962 -1260 0
-101 -265 -1099 0
1893 -901 -1838 0
198 1789 1007 0
1798 1542 1880 0
-486 -110 -838 0
498 -1095 723 0
1025 1834 581 0
-1917 -196 -533 0
-1279 1186 1594 0
925 -138 -537 0
-1071 -725 554 0
-1108 1190 96 0
-1551 1756 1417 0
548 391 790 0
1119 613 383 0
1209 198 -759 0
573 -251 -105 0
-1985 1366 444 0
-477 -107 1242 0
-139 1430 -1745 0
398 -1875 -511 0
-1931 1239 -1252 0
1619 -1919 685 0
924 -135 -1484 0
-71 -987 1438 0
1810 1752 -450 0
-1871 -146 -924 0
1423 -130 1061 0
-1741 -249 677 0
-527 -548 1552 0
-1723 370 2000 0
-178 -381 1420 0
-544 245 1585 0
-1438 335 572 0
-325 -1205 997 0
928 401 273 0
145 1354 34 0
-1817 1451 383 0
-738 -1283 16 0
-268 -113 639 0
-1711 -114 -344 0
1444 1934 1416 0
1864 -456 316 0
1539 -576 -885 0
1442 -237 1734 0
-969 1947 451 0
-833 333 -458 0
339 1303 1254 0
1934 -1895 228 0
422 329 580 0
-13 1849 -807 0
618 956 1602 0
1891 557 1619 0
1891 -1906 -402 0
436 1760 -754 0
661 430 45 0
-249 -1454 -360 0
1936 -49 -1484 0
402 1504 106 0
-732 -1941 -340 0
-738 -255 -674 0
1932 -137 -1660 0
422 -329 -580 0
-1442 916 332 0
-1000 -1537 -761 0
-781 1076 -26 0
-1892 -637 -1772 0
-1994 -580 -1446 0
-578 -1074 -1950 0
994 -669 -1522 0
1044 -1938 525 0
1206 -925 -1366 0
1423 -49 135 0
-1206 -422 -394 0
-34 -1044 -1203 0
-365 861 1572 0
-1621 -275 721 0
-1594 -1629 -938 0
-1282 1380 1763 0
1383 1709 1610 0
-9 780 1519 0
559 602 -502 0
264 -1917 -711 0
1938 1137 -1982 0
1935 -801 1230 0
-755 179 1248 0
-1858 -1979 -1038 0
-71 -997 -1318 0
1797 729 -593 0
63 1406 1373 0
994 -669 -1522 0
-573 240 -1373 0
280 -1072 -1262 0
145 -916 46 0
-1399 -58 -786 0
1923 -436 1366 0
-621 -1901 -204 0
-281 1865 1864 0
-254 1950 306 0
-1621 275 721 0
-1406 1912 1532 0
-450 -82 -1282 0
1759 89 -1944 0
1420 -1472 685 0
794 553 1183 0
-254 -1950 306 0
-656 -657 -1967 0
1380 1763 -1825 0
-580 1241 -1055 0
9 -406 1788 0
-1220 -1897 -183 0
1916 -1789 2 0
1833 572 -1513 0
-1399 -857 -297 0
-510 1674 -333 0
1759 937 -779 0
-1211 474 1882 0
1429 -446 -797 0
-136 1923 1206 0
-539 1827 705 0
1080 -662 -928 0
1251 894 1521 0
-913 -1183 -499 0
571 -159 1846 0
1747 498 264 0
-324 -359 -1878 0
1916 -1789 2 0
916 1865 548 0
-178 381 1420 0
-108 -1836 1299 0
-1621 -1682 1523 0
-280 -381 1919 0
519 -1266 -1047 0
1741 1454 -307 0
82 1282 1380 0
-1529 -661 -1073 0
-960 -1493 -822 0
329 -1005 -69 0
-969 1095 1217 0
548 -1492 882 0
84 294 -335 0
-74 1835 1932 0
1025 -648 1718 0
-646 1398 -737 0
-1941 -460 1656 0
-1423 782 -1728 0
13 -73 -1094 0
1216 -619 1521 0
894 -640 697 0
1189 831 -1941 0
589 -1026 -394 0
1444 -1934 618 0
-537 1087 955 0
-289 -807 -1286 0
1244 780 -98 0
-1522 385 -50 0
-717 -1836 449 0
1712 643 -1687 0
-400 713 -439 0
1533 -419 -608 0
13 73 1094 0
-13 1467 -1625 0
241 -249 -1629 0
-1013 787 -1698 0
-1292 -1049 -239 0
1542 -1362 -1194 0
-1116 -295 1224 0
994 -103 -1148 0
1634 -1574 -807 0
1767 -1951 453 0
1013 787 1698 0
1220 1436 267 0
1250 1798 -1195 0
1302 1546 628 0
1633 -99 -755 0
787 1698 -1239 0
183 -1457 1168 0
-88 1117 689 0
-833 536 -1329 0
-575 -995 994 0
1731 738 255 0
1610 455 -185 0
1338 -93 1513 0
204 -1598 806 0
-1177 921 1596 0
486 1893 1482 0
-1715 -1970 -321 0
1979 1038 -1551 0
-108 -1398 1609 0
-928 -401 -273 0
-1724 -244 -1893 0
831 1203 -341 0
1047 -1006 614 0
-1695 -556 1510 0
-1923 -1849 1026 0
187 1047 278 0
1080 -760 -928 0
608 1531 1397 0
1438 1318 1700 0
-1399 -857 297 0
-1695 556 -1510 0
290 1570 -1153 0
1423 1875 1572 0
1799 1891 -1288 0
-1080 1669 404 0
192 1296 -99 0
1249 370 -999 0
-729 -441 826 0
1372 1873 1639 0
-729 925 -1114 0
1169 1671 -678 0
1665 -414 -607 0
-1797 -729 -593 0
-556 621 -1074 0
-349 336 -1889 0
-63 533 123 0
1893 1671 -1485 0
-392 1862 1648 0
-240 1076 -1433 0
-1626 535 1603 0
-899 861 -274 0
-842 400 1535 0
-135 -1209 1121 0
-1282 1380 -1763 0
-345 -24 -376 0
-1835 -1932 1034 0
-1209 -398 226 0
1959 100 1999 0
-1065 242 908 0
-1513 1806 -1309 0
-476 143 -1230 0
-1994 -909 -108 0
-76 -629 1963 0
619 109 697 0
-1423 1209 -371 0
714 1728 -898 0
-347 970 -1900 0
-1216 13 -422 0
1887 809 395 0
-330 1792 -1824 0
521 1917 790 0
-381 1420 -1906 0
-1893 901 1838 0
380 -739 849 0
1947 -184 558 0
1621 -1470 877 0
398 759 -861 0
-654 -353 737 0
831 -1762 1342 0
910 802 -905 0
1383 1709 -1610 0
1000 1537 761 0
204 1124 -202 0
773 -523 491 0
960 -469 -1354 0
1238 1836 -885 0
629 1751 -1723 0
559 -252 -557 0
-69 1674 -606 0
347 -1318 -39 0
-1711 1173 -1027 0
842 870 1081 0
-347 -941 1306 0
1225 -1258 1466 0
993 -40 -1295 0
1372 1073 1735 0
-899 -861 130 0
1678 -969 -1806 0
726 1342 1839 0
-1583 1785 1591 0
1891 1400 1177 0
1076 -739 745 0
1423 398 303 0
-1634 389 -1866 0
-1959 -1871 -1305 0
-275 -400 1676 0
-349 336 1889 0
-23 -1678 -1338 0
289 807 -1286 0
-787 -1698 -1931 0
1218 1806 431 0
-1339 -544 1769 0
-1574 -1087 955 0
-183 -1781 -1192 0
725 -134 42 0
1442 1552 397 0
-769 -549 -275 0
1083 96 258 0
1169 841 287 0
-1115 1552 -79 0
-1030 1302 282 0
-539 1827 705 0
-1302 1613 -1975 0
-1865 1734 1461 0
-74 1180 137 0
-1261 -498 -676 0
-1326 -921 772 0
-1594 1629 -938 0
-864 628 905 0
398 783 -1721 0
442 1858 -1979 0
-450 -82 -1282 0
154 1065 187 0
1825 1277 393 0
1080 -1580 1945 0
-653 1794 1877 0
877 -264 291 0
-545 -910 1378 0
1514 -710 354 0
199 1771 -1 0
345 -1180 -641 0
-1291 -1511 -1403 0
1052 -418 1301 0
-267 263 -773 0
1869 1643 1041 0
-407 -1446 -1315 0
-248 1679 -1805 0
-418 -726 1005 0
1767 347 -1008 0
-726 1342 1839 0
1398 -524 737 0
438 -1386 -945 0
-1474 -646 1735 0
1752 450 82 0
348 1266 173 0
-924 -1426 596 0
-398 623 371 0
-1678 -121 388 0
-1018 364 -948 0
63 -1406 -1373 0
-1026 1185 -728 0
-904 -498 1272 0
-1083 -96 -258 0
-1893 -901 -1838 0
969 1886 -500 0
-526 -1352 575 0
-656 -657 1967 0
891 -861 551 0
-32 597 -1130 0
-1119 -1082 -715 0
-480 -217 1932 0
-136 -330 -1044 0
-874 -958 1014 0
-289 1994 1657 0
-1551 1487 -1756 0
904 770 631 0
-488 1552 -88 0
-1643 -510 -571 0
-1711 239 235 0
-839 495 -1180 0
-1788 480 -1432 0
-1784 -349 175 0
-238 1403 1110 0
-867 -1184 1739 0
-1348 -1493 -431 0
-1594 1215 472 0
-443 -781 745 0
458 852 383 0
135 1108 72 0
1543 -1013 -787 0
356 -1145 51 0
-1380 -1763 1825 0
-155 780 886 0
-155 1815 -1566 0
-969 221 -863 0
1923 -1797 845 0
-546 -1206 240 0
-519 23 -824 0
-347 -336 -1266 0
-546 713 1676 0
-762 1074 1510 0
1224 -235 744 0
-761 526 -1352 0
-1000 -1537 761 0
572 -1910 1140 0
-188 -305 990 0
1383 -1630 1334 0
241 -638 -432 0
-1891 -1906 402 0
-325 -1205 -997 0
204 -563 -757 0
-356 -1145 -51 0
-336 -722 23 0
34 -877 -533 0
1372 683 1838 0
1994 -580 -1446 0
1251 109 -26 0
1935 -625 115 0
-345 -1423 -712 0
1018 364 -948 0
-1833 -101 -653 0
-1784 -349 -169 0
-1285 -1030 1157 0
-1216 -548 949 0
-145 1275 -591 0
-1342 1617 1068 0
-1044 123 845 0
1711 1173 1027 0
-398 -1875 511 0
1794 -1877 500 0
1423 -1209 -371 0
1781 937 1329 0
559 -461 1591 0
1891 -1288 -998 0
-987 -1678 904 0
143 245 1663 0
-1206 -1023 1797 0
402 1504 -106 0
1318 904 265 0
324 359 -1878 0
307 432 -709 0
1423 861 -1060 0
-1731 -255 16 0
-1137 1386 1005 0
1583 -1072 -1156 0
-289 -1634 -1578 0
1775 962 -405 0
-1815 1788 -963 0
-329 -1949 1762 0
-267 -1501 -808 0
1000 1537 761 0
-1689 1247 154 0
-969 979 797 0
-289 1289 1406 0
756 271 248 0
-787 -1698 -1239 0
-1209 -1190 378 0
-1298 -831 -1436 0
1649 -1306 -666 0
-969 1947 -451 0
1206 -1185 616 0
-1788 -1209 -1789 0
-268 113 -639 0
-1535 397 1304 0
-187 -1047 278 0
-877 -1829 291 0
1947 -1355 -289 0
329 1005 69 0
-71 1833 -814 0
-546 -53 1073 0
-488 -936 -579 0
-289 -745 -110 0
-1784 349 -175 0
-1015 1073 97 0
-779 -576 1975 0
779 -576 1975 0
415 498 -527 0
13 -1637 -418 0
1346 1285 -1407 0
-1291 -244 143 0
155 -924 -1062 0
1724 802 -1041 0
-739 197 -971 0
-1829 573 -637 0
1833 -1399 1608 0
1815 513 1411 0
-1071 725 -554 0
-1641 1493 1309 0
736 1148 926 0
-1386 545 -1071 0
-1712 -643 1687 0
328 1594 -1648 0
178 600 314 0
-1959 660 1111 0
-910 1564 -700 0
-1665 1169 -1746 0
-928 -823 1449 0
1731 -738 255 0
597 1265 -1863 0
-336 -970 -173 0
1785 -280 -1156 0
1926 -1799 -1288 0
782 587 913 0
-1116 1173 114 0
1985 1869 -364 0
1833 451 -1470 0
-275 87 149 0
-221 34 1425 0
1626 1935 889 0
894 1044 1314 0
-1798 1893 -1691 0
1439 330 73 0
-1923 1044 73 0
-268 62 -424 0
773 -1632 524 0
-1339 -544 1769 0
548 1829 1052 0
-176 -909 1737 0
1678 969 -1806 0
-192 1329 571 0
-640 1529 -191 0
1010 -1810 1752 0
-1225 -1643 -1546 0
-924 345 -1423 0
-1805 1010 -1810 0
-450 82 -1282 0
-1423 -913 1187 0
135 -437 1924 0
1285 1030 -1157 0
1936 -49 -1484 0
1216 -13 -422 0
407 -1081 -1620 0
1864 1095 1439 0
782 -587 -913 0
-519 -1449 -121 0
-1403 -1466 -706 0
526 -1352 -575 0
-925 726 1578 0
2 -1932 -137 0
-794 1091 -1039 0
1466 1119 613 0
51 -523 -656 0
-901 -628 -885 0
-71 294 1678 0
-1224 -1496 -1300 0
-1449 1833 -1616 0
1806 -1350 229 0
-519 -187 -1951 0
48 1179 1925 0
9 -1788 -612 0
769 -549 275 0
-1833 500 221 0
713 729 1839 0
-1000 1537 761 0
-1735 -81 717 0
-1798 833 1893 0
-1574 -1087 955 0
511 181 -913 0
1209 714 1576 0
1858 -1979 1038 0
1423 -1108 -1697 0
-1406 -1076 -215 0
273 960 -564 0
-761 526 -1352 0
155 -1937 139 0
-176 1869 547 0
513 -612 -100 0
1080 412 -404 0
1934 618 -956 0
-779 -576 1975 0
751 822 -1132 0
580 482 1972 0
-53 -889 -1059 0
-1038 1650 -1417 0
1383 1709 -1610 0
-497 -1153 811 0
1137 545 -1129 0
-1238 -1403 964 0
1698 1931 -1239 0
-1236 -725 -482 0
268 62 -803 0
-802 -606 -434 0
155 9 -990 0
-13 1467 1625 0
-1891 -280 1619 0
-1206 -1406 845 0
1074 749 -528 0
640 -634 110 0
1244 -1815 -990 0
-1439 -330 -73 0
-414 -245 988 0
-478 -712 839 0
1383 636 1533 0
1047 1889 1028 0
-1932 -861 1572 0
1735 -535 607 0
1300 1395 -534 0
1830 -1480 1599 0
1017 1629 1079 0
-396 -756 -1142 0
1406 -703 183 0
1994 -1879 -739 0
135 1108 72 0
1539 -576 885 0
1266 173 -871 0
-418 -1085 949 0
-1383 1709 -1610 0
-345 -135 74 0
1542 -1842 -1451 0
-469 -1442 978 0
406 -1871 -686 0
391 -83 -1592 0
-614 1318 733 0
155 -780 886 0
-1959 -100 -1999 0
-1945 -1832 465 0
-654 1378 648 0
1634 1574 -807 0
-636 -182 -1922 0
-1310 -1532 -6 0
1132 -565 -456 0
486 364 1422 0
-1348 -1513 1442 0
1621 -1016 -1345 0
-1243 1689 207 0
-1080 -677 1852 0
1788 1423 -398 0
329 486 1765 0
1568 -33 -844 0
-1005 948 -881 0
-1891 -381 -324 0
-192 -833 -1853 0
1052 -1284 411 0
1006 1449 1004 0
290 994 669 0
1634 1460 1988 0
-135 -1108 1219 0
-781 1137 580 0
-1795 477 -1512 0
-741 -1081 1892 0
-34 -1044 -1203 0
874 -958 -1014 0
-1869 1285 -192 0
1610 -203 -1540 0
-924 -893 -658 0
1976 -1576 -578 0
1442 237 1734 0
-1626 1693 1162 0
-48 -643 -531 0
1785 1103 1536 0
1149 -65 -396 0
1206 925 1366 0
1328 991 496 0
-556 -1131 1074 0
1769 581 -607 0
169 1263 -1900 0
-519 -404 -662 0
-1423 49 135 0
-1594 1629 938 0
928 -823 -1449 0
-626 -259 -177 0
-1137 108 708 0
-178 381 -1420 0
-904 -1552 -1289 0
1829 573 -637 0
-1224 -818 1496 0
-1100 1648 -1202 0
1018 -1323 775 0
1572 1279 -1976 0
756 -271 -248 0
802 104 1880 0
-1243 1655 563 0
-264 -407 1135 0
240 -1076 -1433 0
414 245 988 0
362 -311 305 0
-1038 -1756 -624 0
-1994 1879 -739 0
-486 420 -948 0
472 -242 1563 0
-1746 885 -449 0
-1711 -114 344 0
-488 -936 -579 0
565 -264 -1801 0
-1935 -948 -881 0
622 -457 -506 0
280 1420 1336 0
894 1446 593 0
396 756 1142 0
407 -1620 136 0
-904 -549 -275 0
-198 365 -623 0
-1863 -1186 -1215 0
398 -137 119 0
-1892 1406 1851 0
1438 -66 -1434 0
-969 1947 -451 0
345 1745 712 0
1566 -1738 1715 0
-472 -286 1233 0
539 -1827 -705 0
49 135 834 0
1224 -331 -409 0
-806 -453 366 0
867 1376 1243 0
-1891 -252 -1619 0
290 -736 -995 0
-1806 1682 822 0
1215 360 -1717 0
-1275 1877 -1621 0
1539 1952 628 0
-904 1425 234 0
-831 1203 -341 0
1407 656 1609 0
1947 456 -400 0
1137 108 -708 0
-1206 649 949 0
-241 -249 -1629 0
-1199 -1951 -1581 0
1030 -1302 -282 0
-187 1047 -278 0
1788 -1209 -1789 0
-1215 360 -1717 0
34 877 -533 0
-204 -919 -709 0
1891 -1785 1561 0
-1137 925 176 0
-1113 -1706 -737 0
1806 -229 1534 0
365 641 891 0
-1626 -1693 1162 0
1869 -1346 -889 0
1805 -1010 1810 0
-113 -639 -1213 0
-340 1471 -298 0
717 -1351 -1172 0
1348 -564 -140 0
423 -1224 403 0
1357 -1149 -65 0
1551 1830 -76 0
-1037 -1354 -1957 0
1372 703 1150 0
556 972 1074 0
1215 919 -208 0
-826 -1501 68 0
-199 -420 -1609 0
-295 1934 403 0
-510 1674 -333 0
-1603 -1671 -1299 0
997 39 -1275 0
192 -1329 571 0
-1769 581 607 0
1216 934 -374 0
-415 -498 527 0
-1931 1239 1252 0
-1372 1873 1639 0
1864 -936 -521 0
-1403 -1671 1172 0
1152 -805 -582 0
-575 995 994 0
1806 -877 1845 0
1801 -1276 1324 0
1858 1979 1038 0
275 87 -149 0
1613 -1913 1172 0
-1798 1893 1691 0
-1712 643 -531 0
-1449 -66 -1348 0
324 -1245 -359 0
-1795 107 -1990 0
-696 -106 -1506 0
575 -1644 -433 0
469 229 -367 0
-448 -463 2000 0
1100 1186 249 0
-1798 -99 -89 0
-606 -434 1299 0
-773 1422 -544 0
1613 1880 852 0
677 -1717 -208 0
-1626 1302 1746 0
-1080 -404 348 0
1414 -98 1550 0
155 305 1519 0
-472 -1580 1812 0
1442 -400 548 0
-345 -135 74 0
-32 898 1039 0
227 -1173 1607 0
1775 -962 408 0
-488 -934 1052 0
-362 -311 305 0
1137 -1085 -589 0
85 1849 206 0
736 -385 -926 0
901 -628 885 0
-248 -1679 1805 0
654 1378 648 0
266 -801 704 0
-1466 -1119 613 0
418 1085 949 0
-1137 -108 708 0
519 -1669 -1199 0
997 1348 1757 0
546 713 1676 0
-82 1282 -1380 0
-264 1792 -1996 0
268 -803 -599 0
-113 639 1213 0
472 -242 -1563 0
1399 -58 786 0
400 -527 -1164 0
-1891 386 602 0
-1429 446 797 0
-1715 -1970 -321 0
-628 520 -1684 0
-1318 1877 1787 0
-264 330 -1592 0
-1806 -259 -877 0
904 1525 -1786 0
867 1184 -1739 0
1423 398 -303 0
-1929 -149 1425 0
442 -1858 -1979 0
1985 1366 444 0
1493 591 -1136 0
877 681 584 0
-546 -1044 -430 0
-1568 33 844 0
618 1775 821 0
1923 1985 1705 0
1076 -739 745 0
990 -513 -1211 0
608 -1531 1397 0
826 174 632 0
13 1949 -1071 0
-1083 -96 -258 0
145 -916 -46 0
1735 81 -717 0
738 1173 -1607 0
268 113 639 0
-842 400 1535 0
-1291 -1192 -1405 0
-1348 1513 -1442 0
-324 -359 -1878 0
478 -712 -839 0
-227 -1269 -1292 0
-877 -546 1044 0
1916 1789 -2 0
-136 330 1044 0
1298 713 -1955 0
-737 1296 -879 0
1947 -1115 1164 0
423 323 317 0
-1285 -1073 -737 0
545 -1823 1236 0
1131 -1100 621 0
1643 -1378 802 0
725 773 844 0
280 -381 -1919 0
-1318 -1833 1036 0
-1269 -423 1224 0
-521 -1917 -790 0
-1842 -885 -1441 0
519 1266 1047 0
-1951 1266 71 0
-1543 -1013 787 0
-645 17 1531 0
1864 -1095 -1439 0
105 -1578 1809 0
-527 1298 -1135 0
-1336 1472 1906 0
237 -415 -184 0
-924 1426 596 0
-1439 -548 -1298 0
-997 -1348 1757 0
-1633 99 -755 0
1858 -1979 -1038 0
37 605 -1576 0
1829 982 -1323 0
1990 -1926 1953 0
289 -1985 -356 0
1829 745 -1869 0
1013 787 1698 0
-124 1515 1688 0
-1934 1895 228 0
1731 738 674 0
513 -1146 -707 0
1806 229 1534 0
-1289 1181 1726 0
1380 -1763 1825 0
511 -551 -597 0
1994 580 1446 0
-1116 1173 114 0
-143 -245 1663 0
1326 1394 -1959 0
521 1923 63 0
-969 469 -1493 0
-801 -476 414 0
264 -88 -1404 0
-1689 1247 154 0
-71 -1757 390 0
-833 333 458 0
-268 -62 803 0
-1994 640 807 0
-425 1000 1537 0
1815 1788 963 0
-1244 362 155 0
1242 -1512 1670 0
-1114 -70 646 0
1080 -404 348 0
732 26 617 0
-997 1399 751 0
894 880 1710 0
155 -1959 -1601 0
-1310 -1532 -6 0
187 -1263 1900 0
773 1632 -524 0
192 881 901 0
-913 -204 -1648 0
-806 157 -1266 0
82 -1282 -1380 0
1572 1279 -578 0
-1787 -34 652 0
928 -401 273 0
-1108 1745 -1697 0
398 -783 1721 0
-1934 -618 -956 0
-618 -1416 956 0
652 456 -264 0
1225 -1258 -1466 0
-450 82 1282 0
674 1027 767 0
255 -239 -1444 0
-1324 391 -1135 0
1018 -1368 -51 0
1784 348 1266 0
280 381 1472 0
49 135 834 0
290 736 -995 0
-396 -756 -1142 0
877 -1829 -291 0
-188 -305 990 0
-1002 -1655 -809 0
-1224 -331 -409 0
638 806 -1612 0
1594 432 1124 0
1249 -180 -1807 0
-1543 1013 1698 0
1963 -230 -1902 0
-628 520 -1684 0
-1535 -397 1304 0
-1875 891 247 0
-488 -936 579 0
1797 -1983 -773 0
723 -391 79 0
-178 600 314 0
1543 -1013 -787 0
-135 1209 478 0
-244 92 535 0
1137 81 -937 0
339 402 -1254 0
-1777 1532 1605 0
-1199 1050 -1754 0
1261 498 -676 0
1934 403 1743 0
717 1351 1172 0
1759 648 1857 0
-1689 -1247 154 0
1278 -722 820 0
-455 645 -1922 0
-1449 -66 -1348 0
900 -269 1478 0
176 473 -952 0
1781 -544 -1466 0
1326 1577 1414 0
1016 1115 407 0
1594 -432 -1124 0
1789 -641 -137 0
-871 273 1649 0
-905 -1410 -1152 0
-98 -406 -612 0
23 -1678 1338 0
1787 -549 -622 0
546 909 -1286 0
-1664 -890 564 0
245 -1585 -29 0
-488 1552 88 0
713 1797 -589 0
1080 -662 -928 0
618 -1416 956 0
1108 1745 -1697 0
877 -1656 -1949 0
-124 -1515 -1688 0
76 -629 -1963 0
198 1714 -1158 0
-1819 -418 1446 0
-1318 -1833 1036 0
1634 -1460 1988 0
-145 1354 34 0
1276 1962 1260 0
545 1952 1029 0
1543 -1698 -702 0
1291 -134 850 0
-1100 1479 -1594 0
1959 684 -596 0
969 1947 -857 0
559 1891 1288 0
548 -422 1941 0
51 -718 964 0
-425 -1000 -1537 0
1938 1137 -1982 0
191 -1398 -889 0
13 -1637 418 0
885 -996 852 0
1815 -1959 -963 0
-993 -40 -1295 0
1923 766 -454 0
-1423 913 -1187 0
-1440 -53 -1407 0
1137 -909 -1145 0
-1423 -759 130 0
-545 -1614 -1353 0
-1310 1532 -6 0
-1224 -1496 -1300 0
1206 1637 1018 0
1577 -459 -305 0
-861 -181 -417 0
1380 -1763 1825 0
1083 -1190 139 0
-305 98 406 0
1018 -364 948 0
1665 -238 434 0
486 1893 -1482 0
-1137 545 -1129 0
49 1924 -1432 0
-612 -100 -1999 0
1300 1775 1652 0
-1442 916 -332 0
-1137 -925 -176 0
204 -563 757 0
580 -1241 -1055 0
154 1065 187 0
-1238 -628 -1613 0
-628 -520 -1684 0
1906 -188 -1596 0
58 1354 -12 0
264 813 -443 0
477 1242 1003 0
-329 -1949 -1762 0
-328 -1594 1648 0
438 1866 1524 0
1420 1400 685 0
-1060 -32 -913 0
1169 -1828 -383 0
-286 638 -1604 0
1959 1882 49 0
1891 -381 324 0
1935 -353 1893 0
-987 960 101 0
264 813 -443 0
1366 -1460 -1755 0
-1366 -991 1015 0
1539 1489 91 0
-1695 -1183 -750 0
-155 -311 1997 0
-548 -1446 1055 0
1381 1815 -1063 0
610 -1574 -807 0
1963 -230 370 0
-1288 -1583 205 0
-280 1245 314 0
-461 -1583 -205 0
404 157 453 0
-415 1261 -484 0
1723 429 -1908 0
-1959 1871 -1305 0
1551 1487 -1756 0
-737 -1405 -1893 0
264 979 47 0
-1935 -353 1893 0
1298 831 -1436 0
-511 274 -1728 0
806 349 -309 0
-901 333 -1222 0
867 1648 677 0
-523 1939 -1307 0
1000 1537 761 0
-729 -441 826 0
-48 1179 -1925 0
-1216 1634 874 0
1869 -1285 -192 0
1278 -722 -820 0
722 1848 -1884 0
790 1879 -1772 0
1137 1085 -589 0
-1010 -1810 1752 0
-1830 -1599 76 0
-1621 1864 1786 0
1594 -432 1124 0
93 1348 -1399 0
-1902 -947 -463 0
-842 -546 88 0
1735 -1759 1258 0
1665 -322 1564 0
-289 -1289 1406 0
826 1501 68 0
-457 981 -1523 0
-1244 1566 924 0
-422 1137 -1941 0
-726 1208 931 0
-1785 -1103 -1536 0
612 100 1999 0
-1723 -48 1807 0
1626 737 -1622 0
1626 -510 1347 0
-113 -639 -1213 0
-1372 -1834 -1169 0
1947 721 1955 0
-374 -1792 1406 0
924 -24 376 0
575 1522 -103 0
1781 544 1466 0
1015 910 657 0
-1276 -721 1298 0
-662 928 -133 0
186 505 351 0
-1279 -1741 914 0
-281 -1865 -1864 0
-227 -255 16 0
-1864 -936 -521 0
-580 -1501 1681 0
-1447 413 1912 0
-626 259 177 0
184 -332 -264 0
1947 184 -558 0
-1864 723 1057 0
-71 960 653 0
1936 658 -1209 0
-916 1865 548 0
-1594 -187 1951 0
1976 1183 -1831 0
415 -332 1095 0
-289 -1216 -789 0
-969 -863 652 0
575 -1522 103 0
-13 -1220 -1185 0
-1543 -1013 787 0
191 -1398 -889 0
-544 510 868 0
1372 69 -353 0
-1712 -643 -531 0
1979 1038 -1551 0
-82 1282 -1380 0
1224 -818 1496 0
-238 1403 -1110 0
-316 981 -979 0
-806 349 -309 0
-289 682 -739 0
905 1410 -1152 0
-1329 864 -1035 0
1526 -1302 -1378 0
23 -1678 1338 0
-1934 -618 -956 0
1863 1183 1075 0
662 928 133 0
-1871 146 924 0
925 -1145 -1310 0
-1100 1080 -1594 0
477 1242 1003 0
-1169 -1828 383 0
347 -572 -1348 0
-455 -185 -645 0
1762 -105 285 0
-545 1759 -1582 0
1829 619 -73 0
-717 868 -1320 0
1318 -297 549 0
330 -22 -682 0
966 -1395 -895 0
-1806 -390 -1200 0
-1244 -1548 -1606 0
1288 -1583 205 0
280 -381 1336 0
-186 -505 351 0
264 -1917 711 0
-423 -323 -317 0
1819 -418 -1446 0
1080 908 -563 0
1169 -1671 678 0
-169 1263 -1900 0
-629 1751 -1723 0
-71 1318 -431 0
-1282 -1380 1763 0
-397 330 -1996 0
1006 -997 1318 0
-894 -541 -340 0
904 -498 -1272 0
904 -1276 979 0
1006 997 -1318 0
-423 -239 -1444 0
781 1137 580 0
1279 254 1989 0
1380 1763 1825 0
1731 1711 -727 0
1731 -1711 -727 0
1276 -1962 -1260 0
-641 -303 865 0
1137 1295 1765 0
1537 -761 526 0
-1780 -397 1052 0
1372 523 -582 0
322 162 1586 0
-924 -345 478 0
1298 -713 -1955 0
-1572 -417 1265 0
-638 806 1612 0
-227 295 -1293 0
-856 217 -641 0
488 -936 -579 0
-839 495 -1180 0
-1551 -1599 76 0
559 1288 -461 0
1169 -1828 -383 0
-136 -573 1023 0
-1135 -789 573 0
-1906 324 -1326 0
-1695 -1184 -490 0
-1594 -1215 -1122 0
1242 1512 1670 0
436 1366 219 0
130 -1773 -597 0
-455 645 1922 0
-9 780 -1519 0
1711 1116 -295 0
37 913 1392 0
1224 618 818 0
618 -1775 1088 0
-289 -548 -1498 0
-1522 103 385 0
-398 -623 -371 0
74 1835 1932 0
982 -1073 -1246 0
252 -178 1156 0
1858 -1979 -1038 0
-1065 -242 908 0
-997 1338 -1196 0
-1285 -1834 779 0
-1891 1072 1854 0
-1862 -677 -1233 0
1891 -1288 -1591 0
-1000 1537 761 0
-204 563 -757 0
1176 -1529 1626 0
212 -1536 -1072 0
-400 380 -26 0
-867 1464 -810 0
1285 -1238 -68 0
400 380 -26 0
-188 -1414 -1254 0
1759 89 -1944 0
-212 -1536 1072 0
-1900 -1127 928 0
183 -1781 -1192 0
-1145 -991 554 0
347 1968 -1453 0
1985 -1706 1022 0
842 400 1535 0
696 -106 -1506 0
-1002 -1655 809 0
-1080 -1741 -749 0
400 -1909 -1207 0
-1626 1735 -284 0
-1339 -535 -1403 0
1023 729 920 0
1350 237 140 0
-725 -1258 1539 0
443 1206 681 0
1643 510 -571 0
714 -1130 1646 0
-365 1875 303 0
-1619 -1156 -1472 0
-400 380 -26 0
-1632 -1609 -1157 0
1400 -1919 -231 0
-510 1230 1746 0
1238 1836 -885 0
-349 169 1008 0
-1073 1422 -1609 0
-398 641 911 0
1014 -1005 1869 0
1641 -1493 1309 0
-614 -273 -93 0
-1529 473 -1798 0
-548 481 -1980 0
1080 519 1199 0
-1324 391 1135 0
1594 1580 404 0
198 -641 -247 0
639 1349 1711 0
-1797 1398 -1793 0
273 1757 -145 0
336 -987 -1491 0
1572 -417 1265 0
-877 1829 291 0
-1945 1210 -309 0
1394 -98 1519 0
722 1848 1884 0
-1806 34 917 0
1423 -782 1728 0
-13 1467 -1625 0
-1018 -167 -1238 0
-1798 -1015 11 0
477 107 1242 0
-1007 1932 1875 0
-244 92 -535 0
-1242 1891 461 0
-1621 1016 1345 0
1414 1815 1550 0
267 -1971 1593 0
559 1891 1288 0
1543 787 1698 0
1723 -429 -1908 0
1338 93 1513 0
-400 -1653 1792 0
924 953 1209 0
136 1923 1206 0
-833 143 964 0
1936 -72 -1228 0
-1080 1669 404 0
-521 1917 -790 0
1289 -13 -965 0
677 1065 -1050 0
-1372 -69 -353 0
1620 374 -13 0
958 545 1823 0
422 -267 -1145 0
573 196 -416 0
108 1836 1299 0
-645 608 1531 0
-1244 1577 1596 0
1291 -1724 881 0
-264 979 -47 0
241 -472 43 0
1199 -349 -1900 0
1539 1489 91 0
-1189 -1982 1705 0
806 349 -312 0
-548 1044 411 0
-573 -251 -105 0
-1044 -123 -845 0
-305 -513 -886 0
1339 69 -134 0
1406 -747 -108 0
316 -981 979 0
1798 -99 89 0
-1731 255 -16 0
-713 1052 1154 0
-833 536 1329 0
513 -612 100 0
374 -1792 1406 0
1185 -430 -1246 0
340 1386 603 0
-619 13 -25 0
780 1211 -686 0
-13 -1018 1983 0
-1935 -625 -115 0
571 -159 -1846 0
618 1088 -1096 0
677 1065 1050 0
-519 -412 -1945 0
526 -1352 -575 0
-347 -662 1889 0
1016 -30 -1742 0
877 -264 -291 0
510 29 1944 0
472 242 1563 0
-398 -1695 597 0
-1348 452 -379 0
-1052 -418 -1301 0
-379 -431 1957 0
71 -987 -1438 0
-400 527 1164 0
-1951 1266 -71 0
677 -519 -1141 0
-640 816 444 0
1504 -1815 -696 0
1386 545 -1071 0
51 1617 1765 0
1632 1609 1157 0
1474 656 -504 0
-335 1649 1700 0
442 -1858 1979 0
-392 -1202 -15 0
-1938 -1137 831 0
1197 -1090 -1732 0
-1795 1512 -559 0
1137 -1085 589 0
-1829 982 -1323 0
-183 1457 -1168 0
-760 1006 -1449 0
1018 1368 51 0
-519 -187 -1951 0
-1423 274 32 0
1005 1587 -1455 0
192 -1329 571 0
264 -88 1404 0
523 1030 -657 0
1891 -381 -324 0
539 -1827 -705 0
1858 1979 -1038 0
101 -923 -1641 0
-1603 -1489 -1836 0
-229 -259 565 0
-198 1714 1158 0
1342 1529 -896 0
1784 -349 -970 0
573 1284 73 0
-185 1630 -636 0
1023 729 920 0
-1979 1038 -1551 0
-511 -1265 -1130 0
-443 -1892 -380 0
-1985 1869 364 0
-1785 -280 1156 0
-1338 1700 -1348 0
-1829 -1143 -443 0
973 -328 -777 0
1080 1669 -404 0
-425 1000 -1537 0
329 -1949 1762 0
-1251 109 -26 0
1665 81 -937 0
1620 374 -13 0
1005 -937 1624 0
422 1071 -1562 0
-472 -242 -1563 0
-685 -324 -399 0
1798 1195 1405 0
-448 -463 -2000 0
-1074 1741 1464 0
1891 990 -1134 0
-1687 -107 -1242 0
1375 -398 327 0
1947 1355 -289 0
-1724 -520 -1021 0
48 -1179 1925 0
-1665 -81 -937 0
-1206 -545 1562 0
-997 -101 1327 0
-565 -1801 -1647 0
280 1420 -1336 0
-1000 1537 -761 0
-407 874 1018 0
-677 -563 -806 0
-1352 -575 -290 0
-136 1123 1112 0
-1842 -885 1441 0
640 -634 110 0
-1829 894 1189 0
1282 -1380 1763 0
1594 1215 1122 0
546 -1762 -603 0
1282 1380 1763 0
-1244 -1519 1820 0
-1533 1654 -608 0
-1300 1395 -534 0
-199 -420 1609 0
-1858 1979 -1038 0
417 -1091 1584 0
-1423 -861 1646 0
275 -1647 1333 0
-191 -1398 -889 0
-1149 -396 756 0
1526 1302 -1378 0
-289 -1994 1657 0
-1916 -1789 -327 0
-1695 32 1721 0
-1866 -364 1409 0
1394 1054 1882 0
-1891 1103 205 0
1261 -498 -676 0
-1858 1979 1038 0
-400 418 -128 0
618 -1775 821 0
1197 -752 1881 0
608 -1531 1397 0
1342 -110 1568 0
198 -641 247 0
1209 -198 -759 0
1243 1689 -207 0
280 381 1472 0
-188 -1254 106 0
1829 -745 -1869 0
645 -1533 421 0
-455 -1922 -1654 0
685 324 399 0
-1858 -1979 1038 0
1858 1979 -1038 0
476 1671 598 0
-797 713 -1620 0
-1784 -349 970 0
-1438 335 572 0
1339 -1724 -1546 0
1923 -1310 -270 0
-1721 -1831 1131 0
867 -1464 -810 0
264 1801 -1276 0
-1394 -406 1550 0
1583 1785 1591 0
-654 269 1603 0
436 560 1708 0
-290 994 669 0
780 -95 707 0
1825 -3 -393 0
-1835 -1932 1034 0
-443 589 1702 0
1055 -1372 -1342 0
1626 -535 -1603 0
-1372 1632 69 0
1735 -81 717 0
833 143 -964 0
1238 1836 -885 0
-573 -1284 73 0
561 -766 -447 0
791 -109 -965 0
-901 -1582 1913 0
1787 549 -622 0
184 -1261 1864 0
1960 -78 1415 0
347 1968 -1453 0
-1858 -1979 1038 0
-1619 1336 20 0
345 -135 -74 0
1521 -781 815 0
155 -305 -1519 0
-960 751 1058 0
626 -259 -177 0
-608 1397 1226 0
-863 -1864 -1962 0
-1929 -149 1425 0
-289 -1216 789 0
-1372 1935 1633 0
-450 82 -1282 0
1735 535 607 0
-1399 -1275 -229 0
275 -407 -136 0
-1275 -1877 -1621 0
-729 -589 993 0
442 1858 1979 0
-612 -100 1999 0
324 427 -1878 0
1906 -1303 -1888 0
-1687 -107 1242 0
118 -1971 1321 0
1985 1193 1185 0
-1551 1599 76 0
-1829 573 -637 0
66 1833 1036 0
-1829 894 1189 0
904 770 -631 0
-1438 -66 1434 0
1137 -1366 968 0
-347 348 -1600 0
-381 1420 -1906 0
539 1827 -705 0
1951 -426 -997 0
546 -713 -1521 0
-861 181 -417 0
-645 1533 -421 0
1784 348 -1266 0
556 -972 -1074 0
-289 1994 -1657 0
99 -1720 -1152 0
-1752 450 -82 0
1643 -1378 -802 0
639 -1283 -255 0
248 1679 -1805 0
-1979 1038 1551 0
913 1183 499 0
-1444 -1934 -618 0
70 -1346 -1724 0
-794 130 1721 0
289 -790 -894 0
-1626 250 -420 0
-1923 903 -1436 0
-1216 -619 -1521 0
-71 1833 -101 0
546 1220 542 0
-1199 -349 -1900 0
-95 153 -859 0
924 135 1484 0
-1368 -1024 1632 0
-1523 1216 -604 0
-831 -1762 1342 0
-1060 32 -913 0
-1775 1395 895 0
-71 1833 -814 0
969 -221 -34 0
-1161 -1195 -199 0
-1906 -188 1596 0
556 621 -1074 0
1698 -1931 -1239 0
-1251 894 -1521 0
-1909 533 1023 0
-1285 1073 737 0
-1414 -1815 1550 0
1671 996 -383 0
1298 870 1500 0
-391 -713 -1909 0
268 -976 141 0
-1759 -544 1225 0
1339 1724 1546 0
1875 891 -247 0
1825 1277 393 0
877 -681 584 0
-1318 -1306 101 0
73 486 -610 0
562 -139 899 0
289 682 739 0
1829 -83 1112 0
-773 -1474 -68 0
901 1169 276 0
-443 -781 -745 0
-1083 378 -712 0
1380 -1763 -1825 0
1010 -1810 1752 0
-1169 -29 -1445 0
1044 -1023 -584 0
-1080 -412 404 0
1551 624 869 0
1442 1947 184 0
726 1342 -1839 0
37 32 730 0
639 1283 -255 0
575 1522 103 0
639 1349 -227 0
-1052 26 501 0
-1895 357 -668 0
-523 -1030 657 0
824 614 -1911 0
-1947 1355 289 0
-436 1760 754 0
831 -1208 1705 0
580 1241 1055 0
-1080 -1580 71 0
-248 -1679 -1805 0
924 1924 -1835 0
1945 -630 -1098 0
-654 -192 91 0
93 1348 1399 0
1523 1216 -604 0
537 1087 955 0
-1229 554 650 0
-1923 -894 -1611 0
-741 407 1154 0
-614 335 -273 0
-559 -602 -502 0
442 1858 1979 0
-559 -461 -1591 0
1947 -291 870 0
-289 682 739 0
-347 -1318 39 0
-1348 564 -140 0
146 -1377 368 0
1607 -1961 -1269 0
-1775 962 408 0
-407 1446 1315 0
198 1714 1158 0
1806 -1682 -822 0
-1695 -1183 1739 0
-625 -1296 29 0
230 -1902 429 0
136 -573 1023 0
-802 -104 1880 0
-1741 -249 -677 0
275 -316 936 0
1795 1670 1356 0
-1183 -1100 -750 0
-527 1298 -1135 0
-1807 1179 1712 0
-567 -1941 -1433 0
365 -861 1572 0
-1994 441 1861 0
546 -713 -1521 0
-556 1074 -306 0
1442 1552 -397 0
622 457 -506 0
-1788 893 1430 0
1647 -1044 -1370 0
-1071 1025 1489 0
1375 -1789 -2 0
-1817 1451 -383 0
-245 1585 29 0
252 -178 -1854 0
443 1206 -681 0
-901 1836 -1838 0
-608 1531 -1397 0
1238 1817 1253 0
1406 -176 -168 0
-1788 -1981 1415 0
-1788 1981 1415 0
1626 -1302 1746 0
1934 1895 -228 0
1238 1403 964 0
1015 -1073 -97 0
1438 1318 -1700 0
-640 1323 -1185 0
1781 830 1834 0
-1788 -893 -953 0
990 -513 -1211 0
-1621 -1164 -1892 0
187 -1263 -1900 0
-1018 -364 948 0
1869 1346 -889 0
1583 1103 205 0
82 1282 -1380 0
732 -26 617 0
-290 -497 -736 0
-392 1594 1376 0
-1302 1490 -1587 0
-618 1088 1096 0
1372 53 1025 0
1806 259 -877 0
477 1242 1003 0
-1015 -937 296 0
1923 -1985 -1705 0
1594 347 1453 0
-1381 1815 1063 0
1947 -264 -1523 0
-737 -656 -115 0
155 -9 -990 0
-252 -178 -1156 0
1420 1472 -685 0
1383 455 645 0
237 -1016 1747 0
738 -1116 1412 0
-1220 -1436 267 0
-1926 559 1799 0
-1801 -1276 -1324 0
-1835 1932 1034 0
-1216 934 -374 0
-910 276 -383 0
1566 1715 -924 0
521 1923 -63 0
654 269 1603 0
-1372 -1460 773 0
1947 1115 -1164 0
-1342 1617 -1068 0
325 -969 -1910 0
157 -1678 997 0
1423 -435 -1907 0
-1439 -548 -1298 0
-1788 -480 1432 0
-1455 322 -1542 0
204 1124 202 0
1634 -1436 -340 0
398 -1875 -511 0
1466 1347 -1445 0
-1442 -521 1135 0
-1372 -1935 1059 0
1000 1537 -761 0
-1891 1785 1561 0
-289 682 739 0
-1914 -1996 -732 0
-1291 948 -11 0
325 -1205 -997 0
1543 1013 1698 0
-1863 1183 -1075 0
-1013 -787 1931 0
527 -548 1552 0
1924 478 -376 0
-249 1454 360 0
-365 137 -303 0
1161 -1267 269 0
-180 48 -1107 0
-1957 -1886 367 0
-290 -497 736 0
1100 -1080 -1594 0
-1891 1577 410 0
-1698 1931 -1239 0
-969 1886 -500 0
1406 -176 168 0
-324 -1245 -359 0
1006 997 1318 0
-472 -242 -1270 0
-400 380 26 0
-1285 -353 -1258 0
1206 -1023 -1797 0
794 -553 1183 0
-787 268 -141 0
-204 -1124 202 0
1724 -520 -1021 0
-1610 -203 -1540 0
330 -1819 567 0
-546 -790 439 0
-1695 -1184 -490 0
863 -1864 1962 0
-227 -255 16 0
-1044 -123 -845 0
-1383 1630 -1334 0
-717 1403 483 0
339 -921 1244 0
150 537 -1168 0
-831 -1762 1342 0
1902 947 -463 0
1116 -295 -1224 0
-572 -969 -1664 0
1015 937 296 0
-1906 -324 1326 0
281 863 670 0
71 294 -1318 0
-1866 356 70 0
640 -486 473 0
960 1493 822 0
603 1250 1030 0
-53 1724 -889 0
1442 1216 83 0
526 -1352 575 0
713 1471 -1094 0
966 -1395 -895 0
-717 -1302 -628 0
1801 -1276 1324 0
-48 -643 531 0
993 40 -1295 0
-225 -1149 65 0
-646 1398 -737 0
290 -497 736 0
904 1525 1786 0
-1137 -925 176 0
673 -560 -1562 0
1643 1378 802 0
-602 1336 1400 0
1607 -1961 1269 0
-1994 -441 -1861 0
-1242 -1891 1986 0
-1137 -1386 -1005 0
-204 -563 -757 0
-519 -1266 -1047 0
-469 1442 -978 0
-432 -154 519 0
-1891 -1288 -998 0
1055 -1372 1342 0
614 1649 -1874 0
544 -817 897 0
-969 -1523 -721 0
-1168 -1113 -1622 0
1406 874 -206 0
-1551 -1487 -1756 0
9 -1788 -612 0
-1243 1655 563 0
-275 1647 1333 0
910 -1564 700 0
-365 -137 -303 0
1023 -729 -920 0
1275 1877 -1621 0
-1914 -647 1284 0
867 -204 208 0
-1052 486 -1839 0
1678 997 -273 0
1621 1016 -1345 0
1206 1446 -1985 0
-347 -854 -1984 0
192 -881 901 0
1303 -155 402 0
1695 -1392 226 0
894 880 1710 0
-339 921 -1244 0
-1829 -982 -1323 0
-339 402 1254 0
625 458 -885 0
-645 608 1531 0
74 712 -1789 0
1224 -1934 -331 0
-842 -1909 -330 0
1775 1395 -1652 0
1215 -472 -1856 0
521 1923 63 0
-135 1209 478 0
-546 -909 1286 0
1080 1376 -360 0
732 -22 -481 0
-1829 -894 1189 0
-398 578 -1863 0
-1806 34 -917 0
-412 -1263 -1098 0
-1695 -32 -1721 0
1712 643 -531 0
-1781 1022 -483 0
-1935 353 -1466 0
717 -1403 -483 0
-275 -1865 1864 0
-349 347 1098 0
1929 -149 1425 0
901 -1836 -1838 0
305 1254 106 0
1177 -921 -1596 0
-969 -469 1493 0
-1858 1979 1038 0
-347 -662 -1889 0
-281 863 -670 0
-1005 1529 -728 0
-1923 1310 270 0
654 1025 -1674 0
-1806 -259 -877 0
66 1833 1036 0
-621 -204 858 0
937 1539 1587 0
1551 -1599 -76 0
-756 271 -248 0
-325 -1438 93 0
-1326 -921 772 0
488 -1535 136 0
-264 813 -443 0
1291 -134 -850 0
-1963 -230 -1902 0
1671 -1152 -1991 0
677 638 -1669 0
1399 857 -297 0
-154 1065 -187 0
1010 1810 -1752 0
-1238 -1586 1194 0
1830 1480 -1599 0
924 -24 376 0
-527 -548 -1552 0
-1935 92 1939 0
1695 -1184 -490 0
-267 -263 773 0
967 1300 1775 0
1100 -1648 1202 0
-925 -1145 -1310 0
903 -251 831 0
1439 -1592 1677 0
1183 -1100 750 0
155 -305 -963 0
-289 -1634 -1578 0
225 -1149 -65 0
-1047 -1006 614 0
1224 -1813 -239 0
-230 1902 -1908 0
661 -968 -632 0
-1386 -545 1071 0
150 537 1168 0
-1935 353 -1893 0
801 -476 414 0
1522 -385 50 0
-455 1533 -1654 0
-267 661 1708 0
1805 1010 -1810 0
-987 960 101 0
1759 -897 -1485 0
-544 -245 -1585 0
-864 -458 1351 0
732 -1941 340 0
347 -1318 39 0
-1083 -378 712 0
-1080 -1741 749 0
1206 -1446 1985 0
422 -73 -501 0
-1372 -1985 -53 0
-1342 -1195 1024 0
402 -1504 -106 0
1423 -1209 371 0
-1550 -1715 153 0
82 -1282 -1380 0
1083 1190 139 0
1395 895 1652 0
1979 -1038 1551 0
1340 374 -711 0
264 781 -1996 0
-969 469 -1493 0
-356 1353 -150 0
1291 -948 11 0
329 -661 -1086 0
1406 -13 838 0
1116 -295 -1538 0
640 -1529 191 0
-1372 -1834 -1169 0
-1795 -643 531 0
472 -638 -349 0
717 1403 99 0
-967 1300 -1775 0
-612 -345 -153 0
-910 -802 731 0
74 -954 911 0
-1119 -613 383 0
-1866 -364 -1409 0
-1169 841 -287 0
-1442 -870 -374 0
-1976 1183 1831 0
1301 681 1055 0
969 221 863 0
-1242 -1891 461 0
1798 1893 1691 0
1429 713 550 0
-1244 -1566 924 0
-255 -1813 1444 0
1380 1763 1825 0
1398 -524 -737 0
-521 1726 251 0
237 1747 -1525 0
1383 -455 645 0
1687 107 1242 0
1372 214 -952 0
-1960 78 1415 0
-511 274 -1728 0
101 -923 -1641 0
1858 -1979 1038 0
180 -48 -1107 0
-1080 519 -1199 0
-1798 -1195 1405 0
1016 -1095 -1899 0
-1916 1789 327 0
-1394 513 -406 0
-325 969 -1910 0
-1442 -1947 -184 0
267 -661 1708 0
-997 101 -1327 0
-526 1352 -575 0
-1798 99 -89 0
-1529 -473 1798 0
-1251 -894 1521 0
1218 1806 431 0
502 -1854 -974 0
-833 -536 -1329 0
1801 -1523 1725 0
480 -217 1932 0
-1610 203 -185 0
330 -22 -682 0
330 1819 567 0
-1678 -969 1806 0
1013 -787 -1931 0
-969 863 -652 0
-347 -572 -1348 0
-935 -1390 1119 0
391 -713 1909 0
-1442 -1216 -83 0
230 -1902 -1908 0
-791 1938 589 0
1016 1115 407 0
-1372 -1539 1582 0
-1225 1643 -1546 0
1691 -1001 -1041 0
-13 -1637 418 0
-713 -1471 -1094 0
-1149 -65 944 0
-275 1647 -1333 0
1010 1810 -1752 0
-874 -958 1014 0
-69 625 901 0
1678 121 1341 0
472 -286 -665 0
-1949 394 -356 0
-422 1626 1024 0
546 -909 1286 0
-476 -143 1230 0
969 221 -34 0
-1985 -1193 -1185 0
545 1952 -1029 0
-325 -1327 -1757 0
1594 -187 1951 0
280 -381 1906 0
-997 -1338 1196 0
-1709 -1610 -203 0
-1243 1655 -563 0
1785 178 602 0
-546 -1797 -1446 0
381 1619 -1400 0
118 1971 -1321 0
1916 1789 2 0
-1044 1938 525 0
-556 -972 1074 0
578 -553 -1138 0
1209 1039 -1863 0
-1444 1934 1416 0
-1632 -1609 1157 0
548 422 1941 0
-1018 -1368 -51 0
-661 430 -45 0
1318 1877 1787 0
-1731 1711 727 0
1829 -619 -73 0
640 634 110 0
-1676 -1459 -1500 0
-1285 -1238 68 0
1947 291 -870 0
1406 1014 909 0
759 794 -1773 0
-904 -863 676 0
-438 -1866 1524 0
1423 -782 -1728 0
1833 -451 -1470 0
105 1839 -1524 0
987 325 -960 0
-1216 -934 374 0
-1493 591 1136 0
1209 -1190 -378 0
-245 1585 29 0
-1835 1932 1034 0
-645 -608 655 0
281 1865 1864 0
1038 1756 869 0
1406 1014 -909 0
1504 1815 696 0
-1858 -1979 1038 0
-1406 747 -108 0
-787 -1698 -1239 0
1543 1698 702 0
-1614 569 -1447 0
-1550 -1211 100 0
32 605 -1863 0
-1165 -797 -595 0
-37 -867 -1418 0
-1423 -759 130 0
58 1354 -12 0
-537 -1087 -955 0
-1242 -1512 1670 0
1979 1038 1551 0
723 -391 79 0
-864 -458 1351 0
1633 99 755 0
-268 -803 -599 0
422 874 -206 0
1887 809 -395 0
1438 335 572 0
-1775 -1096 -664 0
-741 -1081 1892 0
-1342 110 -1568 0
-377 1620 689 0
548 1044 -411 0
-118 1971 1321 0
-79 1137 -540 0
98 1820 1606 0
629 1963 429 0
1695 -1183 -750 0
-1831 1186 1950 0
-476 1582 1248 0
-79 -374 -739 0
-1833 500 221 0
-1959 -135 222 0
-347 -1318 39 0
-1626 535 -1603 0
-1328 -654 -353 0
488 -1647 -1443 0
1406 -1014 909 0
430 -991 1398 0
-513 98 -612 0
-1199 1951 1581 0
1291 900 -952 0
1959 513 -1820 0
904 -1276 979 0
550 -1406 -251 0
1285 1238 68 0
1406 1372 45 0
-618 -1496 1300 0
268 -62 803 0
-1891 280 -1619 0
-656 -245 935 0
-926 -50 65 0
899 198 -2 0
-1543 -787 -1698 0
380 739 849 0
1504 990 -98 0
513 -98 612 0
1375 1789 -2 0
1532 1368 1398 0
1238 852 1172 0
275 316 936 0
377 -1620 689 0
-523 -1939 1307 0
34 -1829 -903 0
-1679 -1805 1010 0
32 605 -1863 0
-1060 32 -913 0
-717 1403 -99 0
436 -118 -1790 0
1649 -572 -1348 0
1137 -81 -937 0
-1621 1829 1081 0
1189 1982 1705 0
-714 1728 -898 0
-1199 -1951 -1581 0
1866 356 70 0
-1074 1741 -1464 0
905 -322 -885 0
-1080 760 928 0
1455 322 -1542 0
1338 1700 1348 0
-1923 1797 845 0
-155 -924 1062 0
392 -1862 -1648 0
1342 1033 -952 0
1288 -461 1583 0
1285 -53 632 0
-1394 -1606 1936 0
1902 1807 470 0
-737 656 115 0
-423 1224 -1813 0
-398 -137 -119 0
1197 -752 1881 0
275 -407 136 0
-135 1108 -1219 0
-9 -780 1519 0
-782 -587 -913 0
-723 -391 79 0
-1010 1810 -1752 0
268 803 -599 0
-1869 1643 -1041 0
877 925 982 0
-870 -1923 -1996 0
1135 -789 -573 0
-987 -325 960 0
-71 294 1318 0
388 -1685 -1341 0
1372 -1073 1735 0
608 1397 1226 0
1829 -1143 -443 0
-1000 -1537 -761 0
1947 456 -400 0
-913 -1100 1741 0
135 712 217 0
-545 1614 1353 0
436 -118 1790 0
839 495 1180 0
-801 -901 115 0
-1634 -389 1866 0
1551 -629 825 0
-791 1938 589 0
-1285 1405 520 0
-546 51 -1113 0
-1333 -689 791 0
442 1858 -1979 0
-1137 -909 -1145 0
-1815 1959 -1820 0
1467 430 352 0
-252 -178 -1156 0
-1380 -1763 -1825 0
519 -1449 -121 0
1302 1490 -1587 0
761 526 1352 0
1372 53 1025 0
1866 206 -703 0
877 380 -1366 0
-1959 -684 596 0
1342 -1195 -1024 0
1788 1981 1415 0
-1798 937 1603 0
1614 569 1447 0
1923 -766 454 0
1211 474 1882 0
199 -1307 988 0
-717 -1836 449 0
-960 -1493 -822 0
-1906 188 1596 0
-1444 1416 -956 0
-1781 1030 -99 0
-1119 -1991 1905 0
-1135 789 -573 0
-1406 13 -838 0
1062 -435 658 0
-497 1153 811 0
-1695 172 578 0
-656 -245 -935 0
1959 -1601 -387 0
-877 -925 -982 0
-1934 331 1895 0
-1301 -681 -1055 0
-1429 -713 550 0
-546 -176 900 0
780 95 -707 0
1891 -9 305 0
83 -418 1436 0
1080 -304 -1098 0
1326 -1394 1959 0
-1278 -1002 -1887 0
-1169 -29 1445 0
1552 870 1676 0
1224 618 818 0
1524 1193 -1988 0
-280 -1245 -314 0
108 1295 1015 0
1215 -472 1856 0
-1209 -1190 378 0
1189 1996 -329 0
-1798 -1398 -266 0
-398 578 1863 0
-1372 -1935 -1633 0
1083 -49 96 0
-645 608 -1531 0
48 1179 1925 0
-325 1327 1757 0
404 820 1581 0
349 169 -1008 0
-1080 -404 -348 0
-34 -681 920 0
-1959 513 1820 0
-1209 198 759 0
-237 415 -184 0
-1442 -30 1132 0
237 1621 -1016 0
-833 333 -458 0
677 -638 -1669 0
1917 -196 -533 0
1924 -478 -376 0
-188 1254 -106 0
546 -51 -1113 0
-1949 394 356 0
-969 -469 1493 0
1400 1919 -231 0
-681 920 1436 0
443 -1892 380 0
1706 -544 830 0
1328 -833 92 0
-575 -1153 811 0
-1695 -1392 226 0
1244 513 1820 0
-1472 -1919 -339 0
-489 -558 -652 0
-1676 1459 1500 0
473 369 1168 0
1131 1100 -621 0
-677 563 806 0
-1152 -805 -582 0
1994 -1879 739 0
1932 -1034 782 0
1282 -1380 -1763 0
-1665 -1299 -885 0
526 -1352 575 0
-1225 1643 1546 0
1621 1470 -877 0
1906 -1303 -1888 0
1892 637 -1772 0
1665 -414 607 0
-188 -1414 -1254 0
289 400 -1647 0
-199 -1238 -1546 0
-1206 -649 -949 0
192 -1296 -99 0
-958 545 -1823 0
-1493 -591 -1136 0
-867 1376 1243 0
1342 1368 -968 0
1206 925 1529 0
-606 434 -1299 0
184 -1261 1864 0
-717 1351 -1172 0
-1440 -844 -1113 0
-677 395 -1598 0
-1785 280 -1156 0
145 -916 46 0
-488 -1535 136 0
565 1801 1647 0
34 -877 533 0
-1209 1190 378 0
-425 1000 -1537 0
2 -1932 137 0
1733 1601 -1305 0
-1209 1075 1387 0
-1440 -1798 -1087 0
-773 523 491 0
1338 93 1513 0
-1224 618 818 0
952 1398 -1407 0
347 -854 1984 0
-1206 649 949 0
155 1959 -1601 0
519 -187 -1951 0
1781 -1030 99 0
-924 345 859 0
-722 1848 1884 0
1935 -1025 -648 0
1842 -885 1441 0
-603 -1250 1030 0
1083 49 -96 0
1137 -1366 968 0
787 1698 -1931 0
-713 -729 -1839 0
-1807 -470 643 0
-614 -1649 1757 0
-199 1192 -946 0
1398 1192 -1759 0
-901 1658 715 0
-1767 -347 -1008 0
398 -759 861 0
1869 1346 889 0
-1038 -1650 1417 0
-347 1318 388 0
904 549 275 0
1923 -436 -1366 0
-513 1146 707 0
-1959 1882 -49 0
1398 1192 -1759 0
-199 -1238 1546 0
-1709 1610 -203 0
273 1327 -1806 0
572 -969 1664 0
-1242 1512 1670 0
-1318 -1877 1787 0
-548 -411 1301 0
118 -1971 -1321 0
450 -82 -1282 0
639 -1283 -255 0
-629 -1963 -429 0
1610 -203 -455 0
425 -1000 1537 0
-1994 909 108 0
-612 -1981 -508 0
913 -972 249 0
1709 1610 203 0
-1951 -1266 -71 0
254 1950 306 0
1116 767 -423 0
-755 1880 1662 0
-969 1523 -721 0
674 1027 767 0
-621 361 -1862 0
-204 -1464 1560 0
-379 431 1957 0
513 -612 -1970 0
-398 -641 -911 0
-391 713 1909 0
-268 -803 599 0
-593 -1568 1176 0
1074 -1741 1464 0
-1522 -225 65 0
-1923 436 1366 0
-1116 -295 1538 0
1423 759 -130 0
-1266 173 871 0
1935 1025 648 0
-1038 1756 -869 0
-286 -638 1604 0
-1444 1416 956 0
510 1230 -1746 0
1634 -1436 -340 0
-900 1793 -523 0
759 -794 1773 0
-1244 1519 1820 0
621 1741 -1464 0
-894 -1044 -1314 0
1072 1336 1472 0
1080 -1376 360 0
1113 1706 -737 0
-1189 -1317 560 0
-747 -985 -209 0
-1923 -1310 -270 0
562 -1108 -596 0
1664 890 -564 0
-1025 -648 1718 0
987 273 -572 0
1641 -1493 1309 0
1423 130 1061 0
1572 1921 621 0
-1052 -26 -501 0
-1806 877 -652 0
345 1423 712 0
1047 1889 1028 0
-268 976 -141 0
-1526 1302 -1378 0
-969 -1865 -670 0
-1936 72 -1228 0
572 379 -1140 0
1923 -1985 -1705 0
487 -1629 307 0
-1718 1390 -322 0
1869 -1346 889 0
-1278 -1002 -1887 0
-472 286 -1233 0
-1798 -1555 -986 0
1735 -1759 -1258 0
1044 251 -1626 0
1784 348 1266 0
904 863 676 0
-23 1678 1338 0
833 333 -458 0
-638 -806 1612 0
-108 -1579 -1771 0
-905 1410 -1152 0
76 1448 -142 0
654 1025 1674 0
-913 -204 -1648 0
88 -1117 689 0
1994 -580 -1446 0
1994 -909 108 0
-1996 1207 -1284 0
1423 -861 32 0
-1829 -1143 -443 0
-1986 -1102 461 0
275 -1647 1333 0
-1572 -1279 1976 0
432 -154 519 0
1979 -1038 -1551 0
1018 1323 775 0
-339 -1326 -1381 0
280 -1245 -314 0
-1994 1879 -739 0
-1552 -1923 -201 0
-1815 1959 963 0
-1025 -648 -1718 0
1472 -1919 -339 0
1882 -49 -1697 0
-1442 -741 -1143 0
-1665 1299 -885 0
192 -269 1603 0
-1795 -107 1990 0
-1137 640 -939 0
-108 1579 1771 0
-1002 1655 809 0
-53 -889 -1059 0
725 1258 -1539 0
-924 -345 -478 0
1996 1207 -1284 0
-1633 99 -755 0
-1044 -251 -1626 0
1891 35 359 0
1372 -1935 -1633 0
-645 1533 421 0
-1959 -153 -435 0
-1197 -1090 1732 0
1551 -629 -1963 0
-339 -1303 -1254 0
-345 1745 712 0
-756 -271 -248 0
-1914 -647 1284 0
348 -1266 173 0
-1626 -143 -625 0
-511 1265 1130 0
-1442 -400 -548 0
1858 1979 -1038 0
-335 1649 -1700 0
1678 121 388 0
-901 -1836 -1838 0
-573 1044 -1839 0
1863 -1183 1075 0
-729 589 993 0
-1398 524 -737 0
1242 1891 1986 0
-824 614 1911 0
-1647 -1044 1370 0
1862 -677 -1233 0
-391 -83 1592 0
-1116 767 -423 0
1010 1810 -1752 0
-136 -1792 -109 0
-1891 -1919 339 0
-1183 1100 750 0
-1406 1912 -1532 0
-34 -1052 -1342 0
-1723 370 -2000 0
-761 -526 -1352 0
-1914 647 -1284 0
-901 -1582 -1913 0
-910 -802 905 0
523 -1030 -657 0
736 385 -926 0
-1184 254 -750 0
1145 -991 554 0
1621 -819 -936 0
-443 781 745 0
280 -1420 -1336 0
904 863 676 0
1383 -636 1533 0
1935 948 881 0
1216 -548 949 0
3 1277 -393 0
598 1975 678 0
1244 -1519 1820 0
-71 960 653 0
-425 -1000 1537 0
1985 1706 1022 0
924 135 1484 0
-1326 -921 -772 0
787 -268 -141 0
-1869 -1285 192 0
1603 -1671 -1299 0
-612 1981 -508 0
-1699 984 -8 0
-238 -1403 -1110 0
51 -523 -656 0
1010 -1810 1752 0
-71 997 1318 0
-1372 1834 1169 0
1339 -244 -717 0
69 89 127 0
1229 554 650 0
1052 1284 -411 0
-629 -230 1902 0
1594 -1215 472 0
-761 -526 -1352 0
406 1871 686 0
-806 970 1210 0
-924 -893 658 0
1632 -1609 1157 0
-1034 759 -274 0
420 -1025 -1302 0
-1442 -521 1135 0
-619 -109 -697 0
-34 -720 -590 0
-345 -1745 -712 0
-1759 648 -1857 0
345 24 -376 0
-1906 188 -1596 0
-1543 787 1698 0
-105 1578 1809 0
1572 -1279 578 0
469 -1442 978 0
738 -1283 -16 0
-1543 -1013 -787 0
37 -605 -1576 0
-572 1910 1140 0
-356 1353 150 0
-347 997 733 0
-289 -128 -1386 0
1440 1798 -1087 0
-725 -1258 1539 0
-969 -221 34 0
-565 264 -1801 0
899 -2 -891 0
498 -1095 -723 0
-178 324 -314 0
1366 -1460 1755 0
958 -545 1823 0
347 -169 294 0
-273 1794 857 0
-662 1338 -1318 0
-1721 1831 -1131 0
870 790 374 0
180 -48 1107 0
-1806 877 1845 0
1780 -397 -1052 0
-717 -1952 -1234 0
1780 397 1052 0
-824 614 1911 0
-1891 -178 -1906 0
-398 274 130 0
400 527 1164 0
1551 -629 -1963 0
-1947 264 1523 0
1440 844 -1113 0
641 303 -865 0
-1754 169 336 0
-1161 -1267 269 0
-1149 -65 -944 0
639 1731 -1711 0
136 -1123 -1112 0
-176 -473 952 0
874 1342 1005 0
1797 -1983 773 0
-654 -1025 1674 0
1619 1919 -685 0
1723 1249 -448 0
-34 -681 920 0
1936 -1211 1062 0
-1621 1164 1892 0
-500 884 34 0
1447 -413 1912 0
717 -1351 -1172 0
347 -1263 -970 0
-183 1781 -1192 0
417 -1091 1584 0
1206 925 -1366 0
-806 157 1266 0
-1871 153 355 0
-877 -1446 1097 0
-1805 -1010 -1810 0
1375 -398 -327 0
-580 -482 -1972 0
336 -722 23 0
-780 -1211 686 0
-513 612 -1970 0
612 -100 -1999 0
374 1792 1406 0
-1665 -322 1564 0
-1864 1095 1439 0
548 422 -1941 0
-621 1741 1464 0
-374 -1792 1406 0
1632 199 -428 0
422 -1137 -1941 0
-1017 1629 -1079 0
-1209 -398 -226 0
1300 -1395 -895 0
-1805 -1010 1810 0
662 -1338 -1318 0
-1414 98 1550 0
546 1044 -430 0
-544 -817 897 0
-1695 1392 -226 0
894 -880 -1710 0
458 852 -383 0
1626 -510 -1347 0
1225 -1022 535 0
-662 1338 -1318 0
204 1124 202 0
1383 203 -455 0
597 -1265 -1863 0
-1637 965 567 0
-842 546 88 0
-1759 -544 1225 0
-155 -924 1062 0
290 1570 1153 0
-1406 874 -206 0
-280 381 -1472 0
1649 -1910 1354 0
1342 1529 -896 0
-967 -1300 1775 0
925 -138 -537 0
1665 322 1564 0
-656 -648 964 0
-71 1348 -1327 0
-1829 573 637 0
1788 -893 953 0
-761 526 1352 0
280 381 1472 0
-904 -1957 1845 0
-511 551 597 0
442 -1858 -1979 0
-891 -861 1572 0
1610 -203 455 0
-1891 252 557 0
-1767 -1951 453 0
391 443 374 0
-732 -26 -617 0
-966 1395 -895 0
-1278 -1002 1887 0
-330 -1819 567 0
-198 365 623 0
-1380 1763 1825 0
1923 138 -189 0
407 874 -1018 0
1806 1350 229 0
-1934 618 -956 0
-1825 1277 393 0
-654 -269 -1603 0
1695 -1184 490 0
-567 1941 -1433 0
1216 1634 -874 0
-48 310 -36 0
-1551 1830 -76 0
-1594 -1215 -472 0
-1521 -781 -815 0
-1610 455 -1630 0
472 286 -665 0
-1083 -49 96 0
1288 -1583 -205 0
-255 295 -1224 0
330 -1521 -13 0
-1038 -1756 869 0
-1149 -396 -756 0
-1947 289 981 0
1610 203 185 0
1781 830 1834 0
1400 -1472 -1906 0
941 -1399 1513 0
-58 -1350 1309 0
58 1350 1309 0
-1226 425 -1659 0
-1489 1351 -1564 0
-1936 658 -1209 0
-960 469 -1354 0
1442 30 1132 0
-71 325 -1006 0
1621 -1829 1081 0
-910 -276 383 0
1759 -897 1485 0
894 -640 -697 0
1695 -172 578 0
-1209 -1916 -954 0
-526 -1352 -575 0
-639 1349 1711 0
145 1354 -34 0
199 -420 -1609 0
1372 -1873 -1639 0
729 -925 1114 0
316 1429 -1688 0
-73 486 -610 0
-1522 225 65 0
894 -640 697 0
281 863 670 0
1372 -523 582 0
1893 -1671 1485 0
1161 1195 -199 0
71 1833 814 0
1550 1715 153 0
1366 -1460 1250 0
-1224 618 -331 0
1594 1215 472 0
1209 -1039 1863 0
677 519 -1141 0
-241 249 1629 0
406 -1871 -686 0
1775 -1096 664 0
1629 -492 -286 0
-1833 500 221 0
-1959 100 -1999 0
1383 455 645 0
-1372 -1460 -773 0
-188 -305 990 0
899 -861 -130 0
1990 1926 -1953 0
13 -1949 -1071 0
-155 -780 886 0
856 -954 -21 0
305 -1254 106 0
-1923 1044 -73 0
1864 -936 521 0
-545 -1614 1353 0
1005 1665 -1526 0
-498 -1095 -723 0
737 -656 115 0
497 1153 -811 0
-500 -884 34 0
71 1757 -390 0
1149 65 396 0
-1959 -660 1111 0
-1801 -1523 1725 0
1619 1919 -685 0
-1895 357 668 0
-1279 -913 361 0
280 381 1336 0
1291 900 952 0
-1795 -1514 1670 0
-423 239 -1444 0
-725 -773 -844 0
-1932 1034 -782 0
-1513 1806 -1309 0
-562 -1108 -596 0
-580 -603 1129 0
1071 1291 1015 0
-924 1924 1835 0
339 -921 -1244 0
-186 505 351 0
1936 -1209 96 0
-415 -498 -527 0
1891 -1288 1591 0
1947 184 -558 0
1539 1952 628 0
-1090 -1881 1686 0
-1023 729 920 0
-1183 -1831 -1186 0
1858 -1979 -1038 0
1394 1606 1936 0
-436 1760 -754 0
575 497 1153 0
-1199 1050 1754 0
544 606 1466 0
925 1145 -1310 0
1249 -1902 -947 0
1529 -473 -1798 0
-612 -1981 508 0
1423 1714 -759 0
176 1501 -1250 0
562 1108 596 0
-1806 34 -917 0
-264 -1801 -1276 0
1403 1466 706 0
1985 -394 -473 0
-1238 1405 414 0
-1161 69 -1761 0
1775 -962 405 0
442 1858 1979 0
1985 -1193 1185 0
-952 1398 -1407 0
-185 -1630 636 0
990 513 1211 0
-1808 157 1008 0
-347 1263 -970 0
32 -597 -1130 0
-1721 -1100 -1080 0
-1328 -353 -523 0
-1806 -390 1200 0
891 -861 1572 0
227 -1173 1607 0
398 578 1863 0
76 -629 -1448 0
924 -345 478 0
1947 -1355 289 0
-546 -196 -781 0
-1466 -755 -1542 0
71 1348 -1327 0
1711 239 -235 0
-1137 1366 968 0
-1375 -398 327 0
1407 656 -1609 0
717 -1836 449 0
-1366 -1460 1250 0
325 969 1910 0
-1799 1891 1288 0
-305 513 -886 0
1543 1013 787 0
-1829 443 -26 0
114 -1049 1224 0
-1224 -1934 1602 0
-1626 -1735 -284 0
-639 1731 -1711 0
729 -589 -993 0
347 824 -1338 0
-1153 64 736 0
-415 1261 484 0
1539 -483 -1842 0
1206 747 1625 0
-1018 420 1759 0
1539 1952 -628 0
-37 32 730 0
1711 239 235 0
-455 1533 -1654 0
608 -1397 1226 0
-1218 1806 431 0
1621 1470 877 0
-101 -265 1099 0
-280 -381 1906 0
-958 545 -1823 0
-769 549 275 0
-187 -23 687 0
1380 1763 1825 0
856 -217 -641 0
1080 1580 -1945 0
842 -1909 330 0
1621 1864 1786 0
1891 -1072 -1854 0
1695 553 306 0
-1333 689 791 0
-904 863 -676 0
575 1153 -995 0
1420 1472 685 0
-442 -1858 1979 0
347 997 -733 0
-973 328 777 0
-1457 -1771 1113 0
-1891 1986 1785 0
-1866 364 -1409 0
877 -681 584 0
-513 1146 -707 0
-1932 -861 1572 0
68 -69 -948 0
438 -745 743 0
-729 -589 993 0
916 1865 548 0
-1399 -1957 1794 0
1442 -870 374 0
114 -1049 -1224 0
1242 559 -1591 0
-400 -1653 1792 0
-545 -1614 -1353 0
1752 -450 -82 0
1083 1190 -139 0
619 109 -697 0
497 1153 -811 0
-1869 -773 1793 0
1775 1395 -1652 0
1805 1010 -1810 0
-802 -104 1880 0
-1621 -1016 1345 0
155 -1414 -98 0
-155 1815 1566 0
-1348 -564 -140 0
267 661 -1708 0
1249 1902 -947 0
-1423 -365 1773 0
-1423 49 135 0
-619 -13 -25 0
-1372 683 -1838 0
155 -924 1062 0
891 861 551 0
-289 745 -110 0
143 245 -1663 0
69 89 -127 0
1137 545 1129 0
-339 1326 -1381 0
-1440 53 1407 0
-791 109 -965 0
1784 349 -970 0
-1926 559 1799 0
-289 1081 1175 0
-1072 1336 -1472 0
-157 66 733 0
24 -1916 839 0
-1220 1897 -183 0
1781 937 -1329 0
1724 244 -1893 0
-713 63 -584 0
-1621 1164 1892 0
1206 -545 -1562 0
924 953 1209 0
1610 -203 185 0
-1015 -1073 97 0
1220 -1323 -112 0
1215 -360 1717 0
-714 1728 -898 0
-1580 -1968 -1993 0
187 -23 687 0
1338 93 -1036 0
-53 1724 889 0
1976 -1576 -578 0
-899 -198 -2 0
1798 937 1603 0
1621 397 -1126 0
575 1153 995 0
-937 -269 881 0
677 395 1598 0
1072 1336 1472 0
82 1282 -1380 0
-1712 643 531 0
-345 -1180 -641 0
903 965 -438 0
-713 1437 -533 0
1224 1496 1300 0
-1572 -130 1075 0
-937 -1539 1587 0
-899 -861 130 0
13 1018 1983 0
-1372 1632 -69 0
-157 1678 -997 0
407 619 -637 0
264 -407 -1135 0
-1588 1527 -476 0
1787 34 -652 0
-380 739 -849 0
-37 -913 -1392 0
-455 -185 645 0
1225 1258 -1466 0
1634 1574 807 0
-593 1568 1176 0
420 1025 -1302 0
1016 -1115 -407 0
-488 1647 -1443 0
1080 304 -1098 0
-135 -712 217 0
-1829 619 73 0
-1594 347 -1453 0
-1149 -396 756 0
1383 -1610 -185 0
1985 1366 -444 0
1815 -1959 -1820 0
1665 717 817 0
347 941 -1306 0
-739 1286 -356 0
1807 -470 -643 0
1302 -1613 1975 0
-136 1123 -1112 0
1552 -870 -1676 0
-1504 1815 696 0
-645 608 -1531 0
885 -996 -852 0
1018 -1368 51 0
-1044 1938 -525 0
-1959 658 135 0
-831 1762 -1342 0
-1244 -780 -98 0
-597 578 -1075 0
-732 22 -481 0
98 406 612 0
1298 870 -1500 0
1466 -755 -1542 0
1610 203 455 0
-289 -1634 -1578 0
347 1318 -388 0
639 -1731 1349 0
-787 1698 1931 0
392 -1741 -989 0
1924 -478 -376 0
-856 954 -21 0
-842 -400 -1535 0
-1951 -1006 1046 0
1665 -1769 -1893 0
-645 608 655 0
-1005 -725 802 0
713 1471 -1094 0
-1552 -1923 201 0
1000 -1537 761 0
-249 1454 -360 0
-1959 1601 387 0
-1318 904 -265 0
-1372 1539 1582 0
1797 -418 329 0
1695 1183 -750 0
-1784 -349 175 0
-267 661 -1708 0
1149 65 396 0
-1372 1460 -725 0
-762 -1074 -1510 0
-1400 1919 -231 0
1013 -787 1252 0
-1357 1149 65 0
1759 897 -1485 0
-455 185 -645 0
1695 556 1510 0
1831 -1186 -1950 0
-901 1658 -715 0
-867 204 -208 0
1798 1555 -986 0
-526 1352 575 0
1626 -1403 1913 0
73 -486 -610 0
1244 -1577 1596 0
526 1352 -575 0
1010 -1810 1752 0
486 -1529 1236 0
-1869 -773 -1793 0
1805 -1010 -1810 0
255 -295 1224 0
-724 -1670 699 0
-928 -401 273 0
-1539 -1603 -740 0
-1949 -394 356 0
-191 1398 -889 0
-1533 -419 -608 0
-738 255 674 0
1741 -1454 -307 0
-436 -118 1790 0
-1310 -1532 6 0
-1781 1030 -99 0
-1466 -755 -1542 0
1300 -1775 -962 0
-1916 -198 1714 0
-335 1649 -1700 0
1399 1957 1794 0
877 1446 -1097 0
1963 1751 -230 0
-546 1175 1289 0
404 820 -1581 0
105 -1839 1524 0
-1947 264 1523 0
146 1377 368 0
-1935 625 -115 0
-1785 1103 1536 0
-1137 -176 -1681 0
760 -1006 1449 0
-546 -1206 -240 0
-969 -1801 400 0
1621 1864 -1786 0
-519 -23 824 0
639 1349 -1711 0
-241 307 -1940 0
325 1438 93 0
1577 -459 305 0
13 -1637 -418 0
-1285 -1405 520 0
-1467 430 -352 0
-1153 -736 -543 0
-1372 -1935 1059 0
286 -638 -1604 0
-1976 1183 -1831 0
472 242 -1270 0
-1759 -89 1944 0
-139 1430 -1745 0
-1637 -1471 743 0
-266 801 704 0
-101 -265 -1099 0
521 -1923 63 0
-76 629 1448 0
910 -802 905 0
51 -654 -1622 0
-1891 252 1619 0
436 -1366 219 0
1192 1526 571 0
997 572 -1306 0
237 1016 1747 0
1941 -642 1562 0
-1718 1390 -322 0
-414 -245 -988 0
71 294 1678 0
-969 1947 -857 0
-614 -335 273 0
-1119 -1991 -1905 0
68 -69 948 0
-330 22 682 0
-1015 -1238 29 0
-1018 -167 1238 0
-1372 -703 1150 0
863 -1864 -1962 0
969 -1865 -670 0
-1829 619 73 0
-712 1007 911 0
-1005 937 1624 0
289 -1289 -1406 0
-639 -1731 -1349 0
204 -919 412 0
-1711 1116 295 0
1276 -721 -1298 0
-565 400 -1725 0
-580 -1167 -1843 0
-443 -1892 380 0
1394 -1054 -1882 0
1052 1284 411 0
-330 -1792 -1824 0
1192 -1526 -571 0
-345 -1423 -712 0
-1137 -1295 1765 0
-69 -625 901 0
1671 1152 -1991 0
1090 -752 -1881 0
969 1947 857 0
1871 146 -924 0
1220 -1366 -394 0
1762 -441 -206 0
-894 541 340 0
-289 745 -110 0
-877 584 1762 0
-575 1153 -811 0
-264 781 -1996 0
-1572 130 1075 0
1626 -1935 -889 0
347 348 -1600 0
519 1669 -1199 0
-1788 -435 -658 0
726 1208 931 0
1807 -1712 -1675 0
987 294 1833 0
-526 1352 -575 0
-900 269 1478 0
738 -1283 -16 0
1990 1926 1953 0
-1724 520 -1021 0
-575 -1644 -994 0
255 -1116 -698 0
1647 -1044 -1370 0
-1010 -1810 -1752 0
-1168 1113 1622 0
-618 -1775 1088 0
-608 -1531 -1397 0
-1723 -370 999 0
-526 1352 -575 0
1611 -356 -728 0
414 -245 988 0
1224 -618 331 0
1621 -1470 -877 0
523 -625 1001 0
-1197 -1930 1090 0
608 -1531 -1397 0
1621 -397 1126 0
469 229 367 0
-913 -1183 -499 0
-1788 135 139 0
1866 356 70 0
1735 535 607 0
178 -600 -314 0
1610 -455 -185 0
833 648 1178 0
1189 1317 560 0
1935 -353 -1466 0
-629 1963 -429 0
34 -521 -25 0
347 -941 -1306 0
-1959 -135 222 0
548 -1829 1052 0
155 1959 -1601 0
1647 -1044 1370 0
-1328 -654 353 0
1539 1603 740 0
438 745 -743 0
1865 -1734 1461 0
-1695 -553 306 0
113 639 -1213 0
1891 9 305 0
1815 -659 78 0
264 330 -1592 0
-1250 1798 -1195 0
-1407 -656 -1609 0
-1522 -225 -65 0
1090 1881 -1686 0
-1665 1769 1893 0
1249 -1902 -947 0
969 -1801 -400 0
-34 -1829 -903 0
-289 1081 -1175 0
-1288 212 -1986 0
1583 -381 1420 0
-622 -457 -506 0
1015 -910 -657 0
1574 1467 1129 0
-1916 495 -954 0
212 -1536 -1072 0
-925 -138 -537 0
1829 745 1869 0
-155 9 990 0
-900 -1793 -523 0
-392 -1202 15 0
736 -1148 926 0
192 296 -1410 0
-63 -1406 1373 0
544 1603 -1597 0
1183 1100 750 0
1006 -997 -1318 0
575 290 994 0
1521 -781 815 0
-1038 1650 -1417 0
-1342 -1033 -952 0
135 -437 -1924 0
422 1137 -1941 0
1005 937 -1624 0
-1132 565 456 0
-737 -1296 879 0
-1916 495 -954 0
236 1555 1542 0
1013 -787 -1698 0
101 923 -1641 0
969 -221 863 0
-1551 1487 1756 0
1795 643 -531 0
-438 745 -743 0
1342 -1617 1068 0
-1637 -965 567 0
1423 -782 1728 0
1226 -425 -1659 0
724 -1670 -699 0
-1695 -553 306 0
-241 -307 -1940 0
519 1449 121 0
-1830 -1599 -76 0
904 -498 1272 0
1425 558 -622 0
-1285 53 632 0
442 -1858 1979 0
340 501 176 0
-1941 939 982 0
-1353 955 -1771 0
82 1282 1380 0
910 1564 -700 0
-994 669 -1522 0
1863 1183 1075 0
-1941 939 -982 0
904 -1276 1523 0
-380 -726 -1114 0
761 -526 -1352 0
398 137 119 0
32 597 -1130 0
-1551 1830 76 0
-390 -786 1140 0
1731 738 674 0
-916 1929 -622 0
548 391 -790 0
1941 -460 1656 0
-634 -1823 7 0
1829 -436 1323 0
1731 -738 674 0
406 1871 686 0
1116 1173 114 0
280 1245 314 0
1788 1423 398 0
1328 -654 -353 0
1914 -1996 -732 0
-1550 1715 153 0
987 960 101 0
-806 -970 -1210 0
1665 -1302 1390 0
628 -1451 -805 0
781 -1076 26 0
-1394 -406 -1550 0
1914 -647 1284 0
-305 -1559 410 0
-192 1329 571 0
-139 -1430 1745 0
-273 1794 -857 0
-436 -1760 754 0
186 -505 351 0
1794 -1877 500 0
1797 1983 -773 0
-952 -1025 -801 0
646 1798 1163 0
-801 -476 -414 0
725 955 491 0
519 -888 1002 0
519 412 1945 0
1619 -1919 -685 0
-546 53 1073 0
345 -1180 -641 0
-662 928 133 0
-1603 -1671 -1299 0
1891 -1400 1177 0
322 -162 -1586 0
-629 -1751 1723 0
-924 893 -658 0
-548 1492 882 0
1383 636 -1533 0
937 269 881 0
-1643 1939 245 0
-1959 -660 -1111 0
-1621 -397 -1126 0
-725 -955 -491 0
652 456 264 0
1960 -78 -1415 0
-717 -1403 483 0
-523 625 1001 0
1806 229 237 0
1459 1206 -1792 0
-973 -328 777 0
-1302 -1230 322 0
-1206 -925 1529 0
-1005 1529 728 0
1406 -1912 -1532 0
1206 -422 394 0
-1665 414 -607 0
398 274 -130 0
1634 389 1866 0
-760 -1974 1758 0
-1244 -780 -98 0
-1916 198 1714 0
488 1333 -1251 0
-867 -204 -208 0
-1137 108 -708 0
1199 349 -1900 0
924 -24 -376 0
-420 1025 1302 0
-1505 542 -1372 0
867 -1464 -810 0
1137 640 -939 0
-192 -269 1603 0
-739 -197 971 0
-248 -1679 1805 0
-1754 -169 336 0
575 -497 -1153 0
1891 1072 1854 0
-614 -273 -93 0
-1323 -1286 766 0
-1863 -1186 1215 0
423 239 1444 0
-1108 -1190 -96 0
1577 -1815 -780 0
519 -1266 1337 0
-199 -1238 1546 0
-1945 1832 -465 0
-1209 -398 551 0
-614 273 -93 0
289 1866 -646 0
-71 325 -1006 0
713 63 -584 0
-1916 495 954 0
-391 443 -374 0
-559 -461 1591 0
483 -1347 -458 0
1712 -643 477 0
-1891 1906 402 0
-1249 370 -999 0
1353 -955 -1771 0
1759 -937 -779 0
-245 -1585 -29 0
-34 -720 -590 0
-1480 -825 1963 0
-135 1209 -1121 0
-99 1720 -1152 0
-1762 105 285 0
241 307 -1940 0
-157 -760 -84 0
-442 -1858 1979 0
-1891 -9 305 0
1005 1665 -1526 0
618 1416 956 0
392 1594 -1376 0
422 -329 580 0
441 725 -1971 0
732 -26 617 0
1759 -937 779 0
-1718 1390 322 0
1197 1930 1090 0
-1348 -1493 -431 0
380 726 -1114 0
-1444 -1934 618 0
1959 780 -98 0
1923 1653 561 0
-53 -1724 889 0
281 -275 -234 0
-1543 1013 -787 0
-325 1438 -93 0
-478 -712 -839 0
-997 1399 -751 0
-839 -495 1180 0
-831 -1018 -1342 0
1300 1395 -895 0
289 1289 1406 0
1291 -134 850 0
-237 1621 -1016 0
-1552 -870 -1676 0
899 -861 130 0
-1083 378 712 0
1619 -1336 20 0
544 -606 1466 0
-176 -1869 -547 0
-290 -1570 -1153 0
-1131 -1100 621 0
-1539 576 -885 0
71 -1318 431 0
-1323 -1286 766 0
1383 1610 185 0
497 -1153 994 0
1152 -805 582 0
519 412 1945 0
916 1865 548 0
-1339 244 -717 0
356 -1145 -51 0
773 1422 -544 0
640 -816 -444 0
-155 311 1997 0
-1594 347 -1453 0
1923 -894 -1611 0
269 -1390 -598 0
-68 -889 -1651 0
280 -381 -1336 0
-747 985 209 0
-1619 -1156 1472 0
-108 1398 1609 0
110 1145 -1086 0
-392 -1202 15 0
-146 1377 368 0
-1206 -422 394 0
-1891 1336 1400 0
910 802 -731 0
356 -1145 -51 0
1406 -747 1988 0
-773 -1632 -524 0
1539 1603 -740 0
842 -870 -1081 0
157 -1678 -997 0
-275 -400 -1676 0
1345 -1355 -1364 0
-187 -348 -1266 0
546 -1175 1289 0
717 -1403 99 0
1440 -53 -1407 0
1080 -760 928 0
511 -181 867 0
-616 -728 -1567 0
-1215 -360 -1717 0
95 153 -859 0
1329 -864 -1035 0
-1649 572 -1348 0
-901 -1169 -276 0
-717 1403 99 0
756 -271 248 0
1339 -1724 -1546 0
-1025 -1834 581 0
-450 -82 1282 0
548 1044 411 0
511 551 -597 0
-1288 212 1986 0
9 -1788 612 0
-1080 -360 -888 0
502 -1854 974 0
780 1211 -686 0
-1383 -185 -645 0
-901 -1582 1913 0
-390 -786 1140 0
-712 1007 -911 0
997 1348 -1757 0
573 251 105 0
1754 169 -336 0
153 1601 -1415 0
347 997 733 0
-899 -198 2 0
-969 -1865 -670 0
-1798 833 1893 0
-1350 -237 -140 0
-904 1957 -1845 0
1336 1472 1906 0
1285 1834 779 0
1394 -406 -1211 0
-519 1449 121 0
227 674 -1269 0
-717 868 1320 0
1100 -1479 1594 0
176 909 1737 0
806 157 1266 0
347 348 -1600 0
-1936 -1209 96 0
-1935 -353 1466 0
-1457 -1771 1113 0
-1723 -48 -1807 0
867 -1648 -677 0
1895 -357 668 0
-1080 -1376 -360 0
874 1342 1005 0
325 -1327 -1757 0
1891 -1400 1177 0
-1994 -640 -807 0
1923 1653 561 0
1583 -381 1420 0
-738 1116 -1412 0
391 443 374 0
1216 -934 374 0
1678 1874 969 0
71 101 -265 0
178 -324 314 0
-621 1901 -204 0
1979 -1038 -1551 0
-237 415 -184 0
-640 486 473 0
-903 -251 -831 0
-1328 -991 -496 0
1244 1548 -1606 0
580 482 -1972 0
1902 1807 -470 0
806 349 -309 0
-1423 376 223 0
1833 101 653 0
324 193 1303 0
729 441 826 0
71 1348 1327 0
13 -1220 1185 0
713 1797 589 0
-1439 -391 790 0
-136 573 1023 0
1858 -1979 -1038 0
-1539 -483 1842 0
407 1081 -1620 0
-1342 110 -1568 0
1797 1398 -1793 0
-1015 -1238 29 0
-736 -1148 926 0
-1329 -1302 -625 0
70 -1346 1724 0
1372 -1632 -69 0
455 -645 1922 0
-1550 1211 -100 0
-737 1302 -868 0
1300 -1775 1652 0
1985 -773 -1532 0
-546 -1220 -542 0
199 -1192 946 0
-1819 418 1446 0
1951 -1006 1046 0
1238 -852 1172 0
1797 418 -329 0
-899 -861 274 0
-780 1936 -474 0
-1505 542 -1372 0
1266 -173 871 0
775 -1735 -496 0
1116 -1292 1224 0
1629 492 -286 0
904 -275 489 0
-340 -1386 -603 0
-53 -889 1059 0
-1532 1368 -1398 0
614 1318 -733 0
1699 -984 -8 0
-455 -182 -421 0
578 553 1138 0
-775 1735 -496 0
-1781 -544 -1466 0
-379 -431 1957 0
729 -681 464 0
-1014 1005 -1869 0
442 1858 -1979 0
-724 1670 -699 0
1619 1919 -685 0
1996 -1207 -1284 0
-1137 889 737 0
1186 810 487 0
1263 465 1948 0
-1864 -1095 -1439 0
1629 492 -286 0
-548 1829 -1052 0
-760 1974 -1758 0
-63 -533 123 0
593 1502 375 0
773 -1422 -544 0
-1620 -374 13 0
-345 893 217 0
1959 1882 -49 0
-1137 -1626 -266 0
-575 1522 -50 0
-1345 -1355 1364 0
37 -913 1392 0
1849 1502 880 0
-1318 1833 -1036 0
1947 -456 -400 0
-483 -1347 -458 0
1676 1459 -1500 0
-1891 -557 -1619 0
548 -411 -1301 0
330 -1819 -567 0
-349 -169 -1337 0
51 -1030 -717 0
-1923 138 -189 0
273 -1327 -1806 0
-1985 1869 -364 0
1005 -725 -802 0
-1100 1186 249 0
1244 -362 155 0
-1071 -1025 -1489 0
1186 810 -487 0
71 -101 -265 0
787 -1698 1239 0
1682 -1132 457 0
472 -286 665 0
1301 681 -1055 0
1823 642 -560 0
1288 212 -1986 0
-178 1336 -1638 0
1291 1238 -89 0
486 1474 -1769 0
266 -801 704 0
-510 1230 1746 0
-904 1829 -1333 0
229 259 -565 0
349 169 -1008 0
1798 -1015 -11 0
198 1789 -1007 0
-178 -381 1420 0
-1000 -1537 761 0
-267 1971 -1593 0
910 -276 -383 0
-273 -1794 -857 0
1115 1552 -79 0
425 1000 -1537 0
68 -889 -1651 0
-1010 -1810 -1752 0
-573 240 -1373 0
-1044 -640 610 0
-1197 1930 1090 0
756 -271 248 0
806 -453 366 0
-289 -1216 -789 0
324 427 -1878 0
441 725 -1971 0
1788 435 -658 0
1318 -904 265 0
1788 -435 -658 0
423 -1293 -235 0
1015 910 -657 0
1152 -1880 -1351 0
1815 513 -1411 0
-422 874 206 0
-1788 893 -1430 0
-1000 -1537 761 0
-645 1533 -421 0
423 -1224 -1813 0
-1229 554 650 0
990 406 612 0
-423 1224 1813 0
1052 486 1839 0
76 629 -1963 0
-1318 297 549 0
-1137 1366 968 0
-965 438 -1220 0
-640 -816 -444 0
-1263 465 1948 0
-1769 581 607 0
-145 -1275 -591 0
34 1044 1203 0
-1015 -1073 -97 0
1543 1013 787 0
738 -255 674 0
-1543 1698 -702 0
-831 1208 -1705 0
-1119 613 383 0
1829 -436 -1323 0
729 -681 -464 0
1037 1354 -1957 0
781 13 -1189 0
-1613 -1880 -852 0
237 -1747 -1525 0
-1724 -244 1893 0
-135 1190 -712 0
264 781 1996 0
1189 -1317 560 0
741 1081 -1892 0
-794 -1091 -1039 0
-1156 1518 111 0
575 497 -1153 0
1034 759 274 0
-575 -1522 -103 0
114 1049 -1224 0
1863 1186 -1215 0
-442 -1858 -1979 0
-145 -916 -46 0
1643 1169 -322 0
-1339 -535 -1403 0
-1979 1038 1551 0
1795 477 -1512 0
-826 -1501 -68 0
9 -1788 -612 0
455 182 421 0
619 13 25 0
924 -355 -671 0
-442 1858 -1979 0
-894 -640 -697 0
919 -154 -1199 0
1460 1192 -1724 0
-423 -323 -317 0
1806 -390 1200 0
899 -198 -2 0
-79 1137 540 0
-1012 -712 1375 0
1709 -1610 -203 0
-608 1531 -1397 0
281 -275 234 0
-1603 -1671 -1299 0
-1775 962 -405 0
-580 -745 -1760 0
-997 39 1275 0
1572 37 1138 0
486 1893 1482 0
1916 -1789 327 0
-328 1594 1648 0
761 -526 -1352 0
69 625 -901 0
-1442 870 -374 0
-24 -1916 -839 0
-487 1629 -307 0
-548 481 -1980 0
-597 -1265 -1863 0
227 674 -1269 0
-88 1117 689 0
969 863 -652 0
365 -641 -891 0
-1211 -474 -1882 0
806 -970 -1210 0
899 861 274 0
1788 435 658 0
-1923 -903 -1436 0
-511 274 -1728 0
325 -969 1910 0
969 221 863 0
-1176 -1529 1626 0
1634 1574 -807 0
712 -1007 -911 0
1071 -1291 1015 0
420 544 -414 0
-608 1531 1397 0
204 -919 -709 0
1348 -452 -379 0
-422 -874 206 0
-1372 -214 952 0
32 -898 -1039 0
-472 638 -349 0
227 295 1293 0
831 -1203 341 0
1366 -1460 1250 0
-340 1578 -838 0
1276 -721 1298 0
-1699 -561 1321 0
-236 -1555 -1542 0
960 -1493 -822 0
-486 1529 1236 0
-548 1829 1052 0
-412 -1263 1098 0
997 -1348 1757 0
69 -1674 -606 0
1551 -1756 -1417 0
-347 -824 -1338 0
1634 1460 -1988 0
1951 1266 1438 0
-960 751 -1058 0
-1741 -249 -677 0
-1665 1169 1746 0
856 217 641 0
-1279 -913 -361 0
34 -720 -590 0
-904 -1276 -1523 0
-1346 1285 -1407 0
1858 1979 -1038 0
593 -1568 -1176 0
-1406 1129 -1614 0
136 -330 1044 0
1864 723 -1057 0
-1947 -289 981 0
1005 -654 -1113 0
-1895 -409 668 0
-969 -1865 -670 0
423 1224 403 0
775 -1735 -496 0
-1368 1024 1632 0
1626 -510 1347 0
1865 721 936 0
-1781 830 -1834 0
1678 -997 273 0
-806 -349 312 0
-1923 -1044 73 0
-904 -549 275 0
-831 -1018 1342 0
-34 -681 -920 0
1216 13 422 0
-794 1091 -1039 0
-1399 -1957 -1794 0
-681 920 1436 0
-204 -677 1669 0
1572 37 -1138 0
-1583 381 1420 0
252 -178 -1854 0
340 501 176 0
-93 1348 -1399 0
-1269 -423 -1224 0
-407 -1081 1620 0
1438 335 572 0
-1858 -1979 1038 0
-1438 -66 1434 0
-1420 1400 -685 0
575 1153 -995 0
1292 1049 239 0
-1044 123 845 0
-1052 -418 1301 0
-1278 -1002 -1887 0
-523 -1939 1307 0
1741 -249 -677 0
614 -1649 1874 0
-1116 -1292 1224 0
1242 -1891 1986 0
-289 548 -1498 0
1372 -1935 -1633 0
1551 624 869 0
1398 -524 -737 0
1149 65 -396 0
1291 -1511 -1403 0
-1959 1882 -49 0
-614 572 -758 0
-1621 -407 -1620 0
-1891 35 -359 0
-1723 1249 -448 0
603 -1988 1467 0
502 -1854 -974 0
-184 -332 -264 0
1372 -1073 -1735 0
-1767 -1951 -453 0
-1550 -1211 -100 0
1474 -656 -504 0
-519 404 -662 0
-1806 229 237 0
-904 275 489 0
1935 -1030 1651 0
1206 925 -1366 0
-1537 761 -526 0
-1731 -738 -674 0
267 1971 1593 0
-1891 -1288 -1591 0
511 -1265 -1130 0
1806 1621 124 0
904 1829 -1333 0
546 -790 439 0
-1985 394 473 0
-580 603 1129 0
1289 1181 1726 0
900 -1793 -523 0
192 -296 1410 0
-1951 -1266 71 0
1603 1489 1836 0
894 1044 -1314 0
-155 -305 963 0
-95 -153 -859 0
-546 -1762 -603 0
-486 -1529 -1236 0
1100 1080 1594 0
254 1950 306 0
1447 -413 1912 0
-423 -239 1444 0
-2 1932 137 0
-1963 230 -370 0
753 913 -1130 0
1798 833 1893 0
1161 -69 1761 0
-1339 -244 717 0
-575 -290 994 0
-1383 -1610 -185 0
-790 1879 -1772 0
-1006 1449 1004 0
-924 -355 671 0
-398 274 130 0
1994 -240 542 0
-155 -305 1519 0
1923 -894 -1611 0
-1169 1671 678 0
575 -1522 -50 0
-629 -230 1902 0
-1340 374 711 0
1806 229 -1534 0
1243 1655 -563 0
-221 -34 -1425 0
-1985 -1869 -364 0
155 -1937 -139 0
-921 990 -1063 0
-1010 1810 -1752 0
-559 602 502 0
-737 -1489 -868 0
1551 629 825 0
725 -1162 1761 0
1183 -1831 1186 0
-1723 370 -999 0
-74 -1180 137 0
-1291 -1192 1405 0
867 -1464 810 0
-335 -1649 1218 0
-572 -379 1140 0
-1621 -1682 1523 0
1789 641 137 0
1016 -30 -1742 0
1583 1072 -1156 0
1345 1355 -1364 0
-1372 -1985 -53 0
1807 -1179 1712 0
-1406 1076 215 0
398 -1695 597 0
-289 1081 1175 0
1420 1472 -685 0
-1209 398 551 0
-264 -407 1135 0
1071 -1163 555 0
987 1678 -904 0
677 1065 -1050 0
-780 95 707 0
-1328 -353 -523 0
-1383 203 455 0
-275 -400 1676 0
443 1892 -380 0
-1023 1018 -1433 0
-1723 370 -2000 0
1902 36 -27 0
1891 -252 557 0
-1189 -831 1941 0
422 -73 -501 0
775 430 -1353 0
546 51 1113 0
578 1074 1950 0
450 -82 -1282 0
1935 -92 -1939 0
-1829 443 -26 0
1594 709 665 0
390 -786 1140 0
1442 -237 -1734 0
1985 51 -1765 0
-48 643 531 0
1678 -1874 969 0
737 1405 1893 0
-1539 1489 91 0
622 457 506 0
1406 -1076 -215 0
-904 1829 -1333 0
-1613 -1913 -1172 0
-640 1529 191 0
289 -548 -1498 0
-1699 -984 8 0
-1542 -1362 -1194 0
-1805 -1010 1810 0
-997 -101 -1327 0
1010 -1810 1752 0
-1080 -304 1098 0
108 1836 -1299 0
-68 -69 -948 0
1806 1621 -124 0
1947 721 1955 0
-1931 -1239 -1252 0
188 1254 106 0
1285 353 1258 0
199 -1771 -1 0
761 -526 -1352 0
1866 -356 -70 0
-1891 -381 -324 0
-900 1793 523 0
1152 1880 -1351 0
-924 1426 -596 0
-1959 135 222 0
188 1414 1254 0
1192 -1526 -571 0
489 558 652 0
-425 1000 1537 0
1941 939 -982 0
1916 -198 -1714 0
-1406 -703 183 0
229 259 -565 0
-1808 157 1008 0
1065 -242 908 0
1785 -557 1619 0
-1932 -137 -1660 0
-1695 32 -1721 0
-1076 739 1315 0
-614 -1649 -1757 0
-725 364 6 0
-183 -1457 -1168 0
486 -1893 -1482 0
910 -1564 -700 0
-423 1293 -235 0
244 656 1834 0
-1522 103 385 0
-1423 1714 -759 0
-877 -1459 -1314 0
-1238 1836 885 0
155 1815 -1566 0
831 1203 -341 0
-135 -1209 -1121 0
58 -1350 1309 0
-654 -1378 648 0
-1504 990 98 0
-1935 -801 -1230 0
741 407 -1154 0
-404 157 453 0
-1399 -1957 1794 0
-1788 893 953 0
1249 -180 -1807 0
1010 1810 -1752 0
714 1130 1646 0
255 239 -1444 0
773 -1422 -544 0
1864 456 -316 0
1543 -1013 1698 0
1626 -1403 -1913 0
1550 1566 1146 0
-74 1835 1932 0
51 -1030 717 0
1197 -1090 -1732 0
-1923 -903 -1436 0
1116 767 -423 0
969 -1801 -400 0
-1016 -842 -721 0
608 1531 -1397 0
1025 -1834 -581 0
1014 -1005 1869 0
-289 128 1386 0
-656 245 935 0
1119 -1082 715 0
-1833 -1399 1608 0
1551 -1756 1417 0
1375 -1789 -2 0
1292 1049 -239 0
1342 1529 -896 0
1439 1592 -1677 0
-904 -1552 1289 0
1342 -1617 -1068 0
-1807 -1179 1712 0
-1594 432 1124 0
155 1937 139 0
-1529 661 1073 0
-1279 -1741 914 0
83 -418 -1436 0
1318 -1306 101 0
-545 1759 1582 0
-442 -1858 -1979 0
1858 -1979 -1038 0
913 -204 -1648 0
-1798 937 1603 0
1721 -1831 1131 0
-546 713 -1521 0
652 -456 -264 0
-1291 1192 -1405 0
-713 136 -1181 0
1626 250 420 0
1243 1689 -207 0
273 1757 145 0
71 1399 1306 0
1902 180 -310 0
-714 -1130 -1646 0
1775 1395 -895 0
-198 -641 -247 0
-84 -294 -335 0
937 -1539 1587 0
-1261 498 -676 0
-99 -1720 -1152 0
-990 513 1211 0
-442 1858 1979 0
877 546 -1044 0
273 -960 -564 0
1542 -1362 -1194 0
717 -89 1586 0
-1406 -747 1988 0
547 -1983 -1287 0
-1891 -178 1906 0
859 49 135 0
-870 790 -374 0
913 -204 -1648 0
365 -641 -891 0
-1072 -1336 1472 0
1923 766 -454 0
-1891 252 557 0
-1891 -1785 1561 0
629 230 -1902 0
1372 -214 952 0
-1291 -244 143 0
-725 955 491 0
336 722 23 0
1394 -513 -406 0
924 -345 -859 0
794 -553 1183 0
1582 -1451 582 0
349 -347 -1098 0
-737 -414 -648 0
-1338 -93 1513 0
639 1349 -227 0
-443 589 -1702 0
723 -391 79 0
1013 787 1698 0
1741 -1454 -307 0
546 -196 781 0
1137 1386 -1005 0
478 -712 -839 0
1074 -749 528 0
-656 657 1967 0
-773 -900 -244 0
-154 1065 187 0
34 -1747 -506 0
-1100 1648 -1202 0
-1168 1781 889 0
1189 -1317 -560 0
-1288 461 -1583 0
-1759 544 -1225 0
-1759 -648 1857 0
-677 -1717 -208 0
-1784 -349 -175 0
1442 -1216 -83 0
289 -400 -1647 0
-273 -960 -564 0
-73 486 -610 0
1137 -176 -1681 0
-1209 398 -226 0
-1936 72 -1228 0
-1383 -636 1533 0
519 23 824 0
1220 -1897 -183 0
-1372 -1935 1059 0
969 863 -652 0
1338 93 -1036 0
-273 1757 145 0
-290 736 995 0
1568 33 -844 0
-877 1459 -1314 0
1380 1763 -1825 0
-1328 -991 -496 0
-34 1052 1342 0
-654 -353 -737 0
289 -1634 -1578 0
-1947 289 -981 0
893 478 495 0
-1291 1238 89 0
105 1839 -1524 0
1414 -98 -1550 0
725 -364 -6 0
-573 251 -874 0
192 833 1853 0
-1935 948 881 0
-1380 1763 1825 0
-340 -1471 298 0
1244 513 1820 0
1923 -1797 -845 0
-3 1277 -393 0
580 -1167 -1843 0
486 -364 -1422 0
227 -674 1269 0
-1643 -1169 322 0
-575 -1522 -50 0
1149 396 -756 0
-1339 -1724 -1546 0
1795 -1512 -559 0
-1829 745 -1869 0
-63 533 -123 0
-1731 738 -255 0
1291 900 952 0
-1682 -1132 -457 0
-1788 -1423 398 0
1366 -991 -1015 0
349 -169 -1337 0
-1386 -545 -1071 0
-867 -1376 -1243 0
1951 -426 997 0
438 -1386 -945 0
-1626 737 -1622 0
603 -1988 -1467 0
-916 1929 -622 0
-1522 -385 -50 0
1291 948 -11 0
-606 -434 -1299 0
34 863 -558 0
-593 -1502 -375 0
1080 1278 -349 0
-780 -1936 474 0
186 505 -351 0
-738 -1116 -1412 0
1339 69 134 0
1985 1706 1022 0
1244 -1566 153 0
-347 -348 -1600 0
71 294 -1318 0
1775 962 408 0
-1926 -1799 -1288 0
-469 229 -367 0
1665 1769 1893 0
-1030 1302 -282 0
1115 1552 -79 0
1613 -1913 -1172 0
-336 -987 1491 0
-870 -1923 -1996 0
1052 -1949 464 0
969 -1523 -721 0
1423 -861 32 0
425 1000 1537 0
-269 1390 598 0
-519 404 -662 0
-1206 -1076 -1317 0
736 -1148 926 0
-1080 677 1852 0
-1611 356 728 0
1169 -1671 678 0
1238 1403 964 0
1013 -787 1252 0
-526 1352 -575 0
-1115 1552 79 0
268 -62 424 0
-1300 1775 962 0
744 -956 -1602 0
1013 787 -1698 0
1372 -683 -1838 0
441 -725 -1971 0
-1071 -1025 -1489 0
-801 -901 -115 0
-1185 -430 -1246 0
1936 -1211 1062 0
-618 -1775 821 0
-289 400 1647 0
-1947 -264 -1523 0
1263 -312 1722 0
-775 430 1353 0
-1931 268 141 0
-1994 1339 -1291 0
894 541 340 0
-340 -501 176 0
-1902 36 -27 0
-273 -431 631 0
580 1501 -1681 0
29 1152 -1880 0
546 -1762 -603 0
13 -1849 -807 0
867 1184 226 0
556 -1131 1074 0
1979 1038 1551 0
-548 -1446 -1055 0
-1423 1875 1572 0
-71 -325 273 0
726 1342 1839 0
544 817 -897 0
-71 101 -265 0
-544 -510 -868 0
-1013 -787 -1931 0
1752 -450 -82 0
1018 167 1238 0
-1080 -677 1852 0
188 -1254 -106 0
-381 1619 1400 0
-422 1071 -1562 0
-1238 -1403 755 0
244 -92 -535 0
-1858 1979 -1038 0
-469 -857 -769 0
-204 -919 -709 0
-900 -269 1478 0
330 -1792 -1824 0
1236 -725 -482 0
952 1025 801 0
-204 -919 -412 0
760 -1006 1449 0
1643 -1939 -245 0
-1649 -1306 -666 0
349 336 1889 0
-523 1939 -1307 0
-1723 -1249 -448 0
-34 -521 25 0
-894 -1206 -1797 0
-1979 1038 1551 0
169 -630 465 0
241 638 -432 0
619 109 697 0
867 1184 -226 0
-1794 1877 -500 0
-545 -910 1378 0
519 -888 -1002 0
79 -903 -1018 0
1891 -1906 -402 0
-176 -473 952 0
-575 1522 -50 0
1440 844 1113 0
1626 535 1603 0
1044 -251 1626 0
753 -913 1130 0
-597 -1265 -1863 0
-71 1757 390 0
-264 -1801 -1276 0
-1414 -1815 -1550 0
1979 -1038 -1551 0
640 -1323 -1185 0
388 1685 1341 0
1941 -642 -1562 0
1263 -312 1722 0
1829 1143 443 0
-1805 -1010 -1810 0
-1891 -280 -1619 0
1724 -244 -1893 0
1795 1514 -1670 0
-1550 1566 1146 0
-248 -1679 -1805 0
-1797 -1018 -1724 0
618 -1775 1088 0
-1741 1454 -307 0
199 1771 1 0
725 -134 -42 0
901 628 885 0
-1052 -486 1839 0
230 -1902 429 0
-640 816 -444 0
1687 107 1242 0
1439 548 1298 0
1460 1192 -1724 0
-1785 557 1619 0
-1936 -49 1484 0
-791 109 965 0
-1368 1024 -1632 0
1979 -1038 1551 0
-155 1815 1566 0
-71 987 -1438 0
345 1423 -712 0
-227 -295 -1293 0
349 -465 1047 0
-417 -1091 -1584 0
-867 -1184 -1739 0
1869 -1643 -1041 0
-565 -1429 527 0
621 -361 1862 0
1423 435 1907 0
51 -1030 717 0
-527 -548 -1552 0
-1679 -1805 -1010 0
994 -103 1148 0
1643 1378 802 0
-1935 -1030 -1651 0
-93 1348 1399 0
-1523 1216 -604 0
-1522 -103 -385 0
-781 580 1436 0
864 628 -905 0
713 -729 1839 0
-925 -726 -1578 0
-1289 -1181 1726 0
1529 199 -192 0
-618 1496 1300 0
1935 1025 648 0
1442 -916 -332 0
486 -420 948 0
-1731 255 16 0
-1775 1395 -1652 0
-1074 -1741 1464 0
-1071 -725 -554 0
-32 -597 -1130 0
-511 -551 597 0
-1423 -376 223 0
-1887 809 395 0
-281 -863 670 0
-68 -69 -948 0
-252 -178 1156 0
-1372 -1834 1169 0
539 -1827 705 0
-349 465 -1047 0
-1289 -13 -965 0
1797 1398 1793 0
-1372 -69 353 0
1209 -1075 1387 0
275 87 -149 0
-1394 -98 -1519 0
1934 331 -1895 0
-1383 -185 645 0
870 1923 -1996 0
1238 -1586 -1194 0
-1806 -390 1200 0
1781 1022 483 0
666 -904 -1608 0
71 -1399 1306 0
1806 877 -1845 0
-546 1797 -1446 0
1005 -1587 -1455 0
-1071 1291 -1015 0
546 53 1073 0
268 803 -599 0
13 73 1094 0
1439 1592 -1677 0
1016 -1095 -1899 0
-1815 1788 963 0
-448 463 -2000 0
1583 -1103 -205 0
-928 823 -1449 0
-1529 661 -1073 0
1805 1010 -1810 0
-1788 893 -1430 0
-618 -1496 -1300 0
-1572 -417 1265 0
13 -1938 -176 0
-921 1244 1394 0
-248 -1679 1805 0
377 -1620 689 0
1285 53 -632 0
1583 1103 205 0
741 -407 -1154 0
-1394 513 406 0
1806 -229 -237 0
1161 -69 -1761 0
969 -1523 721 0
-1165 -797 595 0
-674 1027 767 0
-737 1296 -879 0
349 -169 1008 0
149 -863 46 0
-275 400 -1676 0
-625 -458 -885 0
1339 544 1769 0
-904 -1525 -1786 0
-1076 739 -1315 0
1383 1630 -1334 0
1891 -1288 1591 0
1665 717 817 0
-136 1923 1206 0
-1781 -937 1329 0
526 1352 -575 0
1806 -229 237 0
-135 -1209 -1121 0
1626 737 1622 0
-1116 1173 -114 0
204 -677 1669 0
-1013 787 -1252 0
1932 -137 -1660 0
1399 -1275 229 0
1400 -1472 -1906 0
1302 -1613 1975 0
347 662 -1889 0
145 -1275 591 0
-1279 -254 1989 0
1721 1100 -1080 0
-241 638 432 0
-1785 -280 -1156 0
-198 365 -623 0
1224 -235 744 0
1440 53 1407 0
1153 64 -736 0
1858 -1979 -1038 0
904 1957 -1845 0
-398 137 -119 0
645 -608 -655 0
1459 -1206 -1792 0
1366 -1460 1755 0
280 -1072 1262 0
-1891 1986 -1785 0
-76 1448 142 0
1574 -1467 -1129 0
-1767 -347 1008 0
1643 -510 571 0
280 1072 1262 0
1678 -1874 -969 0
-225 -1149 -65 0
-610 1574 -807 0
-83 -418 -1436 0
-1005 -1529 728 0
-519 23 -824 0
-1080 -1669 -404 0
1891 990 -1134 0
1699 -984 -8 0
345 -1745 712 0
-1678 614 -1399 0
-901 -628 -885 0
-268 -976 -141 0
-1429 446 -797 0
1934 -403 -1743 0
-1723 -48 1807 0
-967 1300 1775 0
-1310 -1447 1639 0
1902 36 -27 0
442 -1858 1979 0
639 -1731 -1711 0
-455 -185 645 0
-1199 -1050 1754 0
178 1336 1638 0
-204 -1464 -1560 0
-1215 472 1856 0
-400 -1909 -1207 0
1459 -1206 1792 0
51 -1617 1765 0
-1439 330 73 0
1795 -1514 1670 0
-347 336 1266 0
1023 -1018 -1433 0
-1423 861 1060 0
-565 1429 -527 0
926 50 -65 0
856 217 -641 0
-859 -49 135 0
1941 -298 -1176 0
324 -427 1878 0
180 48 1107 0
-1300 -1775 962 0
913 621 1074 0
-441 -725 1971 0
1224 -1813 239 0
-187 -1047 278 0
762 1074 1510 0
-901 -333 -1222 0
-1403 1671 1172 0
-1951 1266 -1438 0
-864 458 1351 0
1572 -1921 621 0
-1007 -1932 -1875 0
-826 1501 -68 0
-1759 -937 -779 0
780 -1936 -474 0
1425 -558 -622 0
1735 -1759 1258 0
1665 238 434 0
1209 1916 954 0
1288 -1583 -205 0
1189 831 -1941 0
187 348 -1266 0
546 53 1073 0
461 1583 -205 0
1959 153 435 0
1724 520 1021 0
1504 990 -98 0
-1526 -1302 -1378 0
1746 -885 449 0
1339 69 -134 0
572 969 1664 0
108 1295 1015 0
-1891 -386 602 0
1017 1629 1079 0
969 1095 1217 0
753 913 1130 0
1291 244 -143 0
-264 1792 1996 0
-347 -169 294 0
275 -87 -149 0
1318 1833 -572 0
1849 -1502 880 0
-924 684 -378 0
-1220 1366 394 0
713 -63 -584 0
255 295 1224 0
-1805 -1010 -1810 0
-1090 1881 1686 0
-1583 -381 -1420 0
-1366 -1460 1250 0
636 182 1922 0
-1238 -1817 1253 0
-178 -600 314 0
-925 138 537 0
969 1947 857 0
-1829 -443 26 0
-1406 703 -183 0
1577 -1815 -780 0
-1537 761 -526 0
597 578 1075 0
725 -773 844 0
1345 -1355 -1364 0
-937 269 -881 0
-1775 1096 -664 0
-1858 -1979 1038 0
135 -1190 -712 0
-1442 -400 -548 0
-519 -888 1002 0
-1137 -413 1474 0
-737 -656 -115 0
-919 -154 -1199 0
677 -563 806 0
-1858 1979 1038 0
1626 1935 -889 0
-874 -1342 -1005 0
-614 335 -273 0
1018 -1323 775 0
169 1263 -1900 0
-281 -275 234 0
-1941 298 -1176 0
415 1261 -484 0
-1643 1169 -322 0
-1938 -1137 -1982 0
-1285 1834 -779 0
580 -745 1760 0
124 1515 1688 0
227 -674 1269 0
-894 1446 593 0
1524 1193 1988 0
1403 -1671 -1172 0
-1263 -465 1948 0
565 1801 1647 0
794 -130 -1721 0
-1629 -492 286 0
545 -1823 -1236 0
610 -1574 807 0
1279 -1741 914 0
-1959 153 435 0
-677 638 -1669 0
885 -996 852 0
-1902 -180 -310 0
982 1073 -1246 0
1634 1446 1498 0
1224 331 409 0
-1224 -1934 331 0
1833 451 1470 0
-1678 121 -1341 0
1621 1682 1523 0
-952 1632 1113 0
-71 -960 -653 0
1866 206 -703 0
-1025 -1834 581 0
-1902 -448 -1589 0
1610 203 -185 0
-442 -1858 -1979 0
347 572 -1348 0
-1979 1038 1551 0
-539 1827 -705 0
-1996 -1207 1284 0
-108 -1579 1771 0
-1959 -1871 1305 0
-567 -1941 -1433 0
-1442 -1947 -184 0
241 -472 43 0
1539 -576 -885 0
236 -1555 1542 0
1135 -789 -573 0
1023 1018 -1433 0
-1505 542 -1372 0
1018 -420 1759 0
1368 1015 1201 0
32 -605 -1863 0
422 -1071 1562 0
-1073 -1422 1609 0
-521 1726 251 0
-1671 -996 -383 0
1681 -250 -1068 0
1044 -640 610 0
392 1202 15 0
-135 437 -1924 0
969 1545 819 0
72 -478 712 0
997 1399 751 0
-1759 -1665 91 0
-1762 441 206 0
-1398 -1192 1759 0
717 -1302 628 0
-1466 -1347 -1445 0
-526 -1352 575 0
-1626 250 420 0
1216 -1634 -874 0
-903 -965 -438 0
1209 -1916 -954 0
546 713 -1521 0
-365 274 37 0
-618 1775 -821 0
1444 1934 618 0
739 -197 -971 0
-1572 -1279 1976 0
797 713 1620 0
1551 629 -825 0
1959 -658 -135 0
295 -1934 -403 0
1610 203 -1540 0
305 -513 -886 0
185 1630 -636 0
1071 -1163 -555 0
-987 1678 904 0
894 -416 -1373 0
-345 893 -217 0
-1806 -229 -1534 0
-913 972 249 0
-1535 -397 1304 0
