c Type 2: interval ordering (ordered), n=50, m_intervals=50, t=4
p cnf 50 200
2 1 -3 5 0
2 -1 3 5 0
2 1 -3 5 0
2 1 -3 5 0
-2 1 -3 -5 0
2 1 -3 -5 0
-2 1 -3 -5 0
-2 -1 -3 -5 0
2 1 -3 5 0
-2 1 -3 5 0
-2 1 -3 -5 0
2 -1 -3 -5 0
2 -1 3 -5 0
-2 1 -3 -5 0
2 -1 -3 5 0
-2 1 -3 -5 0
-2 -3 -5 13 0
2 -3 5 13 0
-2 3 5 13 0
2 -3 -5 13 0
5 -13 -4 -7 0
-5 -13 -4 7 0
5 13 4 7 0
5 -13 -4 -7 0
-5 13 4 -7 0
5 13 4 -7 0
-5 13 4 -7 0
5 13 -4 -7 0
-5 13 -4 7 0
5 13 4 7 0
-5 -13 4 -7 0
-5 13 4 7 0
-13 7 8 -12 0
13 -7 -8 12 0
13 7 8 -12 0
-13 -7 8 -12 0
13 -12 10 11 0
-13 12 -10 11 0
-13 -12 -10 -11 0
-13 12 10 11 0
-13 -12 10 -11 0
-13 12 10 11 0
-13 12 -10 -11 0
13 12 -10 -11 0
13 -12 -10 11 0
13 -12 10 11 0
13 12 -10 -11 0
-13 12 -10 -11 0
-13 -12 -11 16 0
13 -12 11 16 0
13 12 11 -16 0
-13 12 -11 -16 0
13 12 11 16 0
13 12 11 16 0
-13 -12 11 -16 0
13 -12 11 16 0
-16 17 -15 -14 0
16 -17 15 -14 0
16 17 15 14 0
-16 17 15 14 0
-16 17 -15 -30 0
-16 -17 15 30 0
16 17 15 30 0
-16 -17 15 30 0
16 -17 15 30 0
-16 17 15 -30 0
16 -17 -15 30 0
16 -17 15 30 0
16 -17 -15 -30 0
-16 -17 -15 -30 0
16 -17 15 30 0
-16 -17 -15 30 0
-17 -30 18 19 0
-17 -30 18 19 0
17 30 18 -19 0
-17 30 -18 19 0
-17 30 18 19 0
-17 -30 18 19 0
-17 30 18 -19 0
17 30 18 -19 0
-30 18 19 -42 0
30 -18 -19 42 0
-30 18 -19 42 0
30 -18 19 -42 0
-30 18 19 42 0
-30 -18 -19 42 0
30 -18 -19 42 0
30 18 19 -42 0
19 42 28 21 0
19 42 28 -21 0
-19 42 28 21 0
19 42 28 -21 0
42 -28 -35 20 0
-42 28 35 -20 0
-42 28 35 -20 0
42 28 -35 20 0
-28 -21 35 20 0
28 -21 -35 20 0
-28 -21 -35 20 0
-28 -21 35 20 0
-30 42 -21 -35 0
-30 42 -21 -35 0
-30 42 -21 35 0
-30 42 21 35 0
-42 -24 41 -23 0
-42 -24 41 23 0
-42 -24 41 -23 0
42 -24 41 23 0
-30 28 -35 41 0
30 28 35 -41 0
30 -28 -35 -41 0
-30 28 35 41 0
-30 42 38 -27 0
30 -42 38 27 0
-30 42 38 27 0
-30 42 38 -27 0
42 -35 -27 -25 0
42 -35 -27 25 0
42 35 27 25 0
42 -35 -27 -25 0
30 -42 41 -27 0
-30 42 -41 27 0
30 42 41 -27 0
30 -42 41 27 0
38 -41 -49 33 0
-38 -41 -49 33 0
38 -41 -49 33 0
-38 -41 -49 33 0
30 42 28 -49 0
30 -42 28 -49 0
30 42 28 -49 0
-30 42 -28 -49 0
-30 -35 -27 29 0
-30 -35 27 -29 0
30 35 27 29 0
30 -35 -27 29 0
-35 -38 -41 -49 0
-35 38 41 49 0
35 38 -41 -49 0
-35 -38 -41 -49 0
30 -38 46 34 0
-30 -38 -46 34 0
30 -38 -46 34 0
30 38 -46 34 0
41 -49 -46 36 0
41 49 46 -36 0
41 -49 46 36 0
41 49 46 -36 0
-35 41 -46 32 0
-35 -41 46 -32 0
-35 41 46 -32 0
-35 -41 46 -32 0
38 41 -49 -46 0
38 41 -49 46 0
-38 41 -49 -46 0
-38 41 49 -46 0
42 -41 -49 -45 0
42 41 -49 -45 0
42 -41 -49 -45 0
-42 -41 49 -45 0
-38 -36 -47 -43 0
-38 36 47 -43 0
-38 36 47 -43 0
-38 -36 -47 -43 0
42 -49 -46 37 0
-42 49 -46 37 0
42 49 46 37 0
42 49 46 -37 0
-41 -49 43 50 0
-41 49 43 -50 0
-41 -49 -43 50 0
41 -49 43 -50 0
47 -43 -48 44 0
47 43 -48 44 0
47 43 -48 44 0
-47 -43 48 -44 0
47 -48 37 50 0
-47 -48 -37 50 0
-47 48 -37 50 0
-47 -48 37 -50 0
49 -36 -50 44 0
49 36 -50 44 0
49 -36 50 -44 0
-49 36 -50 -44 0
-46 -47 37 50 0
-46 47 -37 -50 0
-46 -47 37 50 0
46 47 -37 50 0
38 45 -40 -39 0
-38 -45 40 -39 0
-38 45 40 39 0
38 45 40 -39 0
41 45 -48 -50 0
41 -45 48 -50 0
-41 45 -48 50 0
41 45 48 -50 0
49 47 48 -40 0
-49 -47 -48 -40 0
49 -47 -48 -40 0
49 -47 48 40 0
