c Type 2: interval ordering (ordered), n=50, m_intervals=50, t=3
p cnf 50 176
8 1 3 0
-8 1 -3 0
8 -1 3 0
8 -1 -3 0
8 1 -3 0
-8 -1 -3 0
-8 1 -3 0
8 1 -3 0
8 3 4 0
-8 -3 -4 0
8 -3 4 0
-8 -3 -4 0
-8 3 -4 0
8 -3 -4 0
8 3 -4 0
8 -3 4 0
9 -5 10 0
9 -5 10 0
9 5 -10 0
9 5 10 0
8 7 11 0
-8 -7 -11 0
8 7 11 0
8 7 11 0
10 11 12 0
10 -11 12 0
10 11 12 0
-10 -11 12 0
-11 12 13 0
-11 12 13 0
11 -12 -13 0
11 -12 13 0
14 -15 16 0
14 -15 -16 0
14 15 16 0
14 -15 -16 0
-14 15 -16 0
-14 -15 16 0
-14 -15 -16 0
-14 -15 16 0
17 18 19 0
-17 18 -19 0
17 18 -19 0
-17 18 -19 0
17 -18 19 0
-17 -18 -19 0
-17 -18 19 0
-17 -18 -19 0
17 18 -19 0
-17 18 -19 0
17 18 19 0
-17 -18 19 0
17 -18 -19 0
17 -18 19 0
-17 -18 19 0
-17 -18 19 0
-30 -26 24 0
30 26 24 0
-30 -26 -24 0
30 -26 -24 0
-26 23 22 0
-26 -23 -22 0
26 -23 -22 0
26 -23 -22 0
-30 26 -25 0
-30 26 -25 0
-30 26 -25 0
30 26 25 0
-30 -31 -42 0
-30 31 -42 0
30 -31 -42 0
-30 -31 42 0
-31 -42 36 0
-31 -42 -36 0
-31 42 36 0
31 -42 36 0
31 42 -36 0
-31 42 -36 0
31 42 -36 0
-31 42 36 0
42 36 39 0
42 -36 39 0
42 36 -39 0
-42 -36 -39 0
39 -32 34 0
39 32 -34 0
39 -32 34 0
39 32 -34 0
42 36 32 0
42 -36 -32 0
42 -36 -32 0
42 -36 32 0
36 39 -34 0
36 39 34 0
-36 39 -34 0
-36 -39 34 0
-42 36 39 0
42 -36 -39 0
-42 36 39 0
42 36 39 0
39 43 38 0
-39 -43 -38 0
-39 43 -38 0
-39 -43 -38 0
-42 39 -43 0
-42 -39 43 0
42 -39 -43 0
-42 39 43 0
-42 43 -48 0
-42 43 -48 0
-42 43 -48 0
42 43 48 0
-42 43 48 0
-42 -43 48 0
42 43 48 0
42 -43 -48 0
-42 -39 43 0
-42 -39 -43 0
42 39 -43 0
42 39 -43 0
42 -39 -48 0
-42 -39 48 0
42 39 48 0
42 -39 -48 0
-42 48 40 0
-42 48 40 0
-42 48 -40 0
-42 48 40 0
42 48 40 0
-42 48 -40 0
-42 -48 40 0
42 -48 40 0
43 48 40 0
-43 -48 -40 0
43 48 40 0
43 -48 -40 0
42 -43 48 0
-42 43 -48 0
42 43 -48 0
42 43 48 0
-42 -43 48 0
42 43 -48 0
42 -43 -48 0
-42 43 -48 0
-42 -43 45 0
-42 -43 -45 0
-42 -43 45 0
42 43 45 0
-43 -45 47 0
-43 -45 -47 0
43 -45 -47 0
-43 -45 47 0
48 44 -46 0
48 -44 46 0
-48 44 -46 0
48 -44 -46 0
-48 -47 -46 0
48 -47 -46 0
-48 -47 -46 0
48 -47 46 0
49 46 50 0
49 46 -50 0
49 46 50 0
49 46 -50 0
-49 -46 50 0
49 -46 -50 0
-49 46 -50 0
-49 -46 -50 0
-48 -49 -50 0
48 49 -50 0
-48 -49 50 0
48 49 50 0
-49 -50 0
-49 -50 0
-49 50 0
-49 50 0
