c Type 2: interval ordering (ordered), n=200, m_intervals=200, t=3
p cnf 200 800
1 2 5 0
-1 -2 -5 0
1 2 5 0
-1 -2 5 0
2 -5 4 0
-2 -5 -4 0
-2 5 4 0
2 -5 4 0
2 5 4 0
-2 -5 -4 0
2 5 -4 0
2 5 4 0
2 -5 -4 0
2 -5 -4 0
-2 5 -4 0
-2 -5 -4 0
2 5 4 0
2 5 4 0
-2 5 -4 0
2 -5 -4 0
-2 -5 4 0
2 5 4 0
-2 5 4 0
2 5 -4 0
-5 -4 7 0
-5 -4 7 0
5 4 7 0
-5 4 7 0
5 -4 7 0
5 4 -7 0
-5 4 -7 0
5 4 -7 0
-5 4 -7 0
-5 4 7 0
-5 -4 -7 0
5 4 7 0
17 -9 -24 0
-17 9 -24 0
17 9 -24 0
-17 -9 -24 0
18 15 25 0
18 15 -25 0
18 -15 25 0
-18 15 25 0
19 -24 -13 0
19 24 -13 0
19 24 13 0
-19 -24 -13 0
-19 17 -15 0
-19 -17 15 0
19 17 -15 0
19 17 15 0
-16 -25 -20 0
-16 -25 20 0
16 25 20 0
16 25 20 0
-18 -16 -25 0
-18 -16 -25 0
18 -16 25 0
-18 16 25 0
24 25 20 0
-24 -25 -20 0
-24 25 20 0
24 -25 -20 0
-19 -25 20 0
19 -25 20 0
19 25 20 0
19 -25 20 0
-24 20 28 0
24 -20 -28 0
-24 20 28 0
24 20 28 0
-24 -28 -26 0
24 28 26 0
-24 28 26 0
-24 28 -26 0
24 -21 -28 0
24 -21 -28 0
-24 -21 -28 0
-24 21 -28 0
24 25 -28 0
24 -25 -28 0
24 25 -28 0
24 -25 -28 0
-25 -28 27 0
25 28 27 0
25 -28 27 0
-25 28 27 0
30 -27 -29 0
30 -27 -29 0
30 -27 29 0
-30 -27 29 0
-25 -26 -29 0
25 -26 -29 0
25 -26 -29 0
-25 26 29 0
-25 -27 -32 0
-25 27 -32 0
-25 -27 -32 0
-25 -27 32 0
30 -32 -29 0
30 -32 -29 0
-30 32 29 0
30 -32 29 0
28 -29 -37 0
28 -29 -37 0
28 -29 37 0
28 -29 37 0
28 30 34 0
-28 -30 -34 0
-28 -30 -34 0
28 -30 34 0
-32 -29 31 0
-32 29 31 0
32 29 -31 0
32 29 31 0
32 -37 -31 0
32 37 -31 0
32 -37 -31 0
32 37 31 0
-30 -32 -34 0
-30 32 34 0
30 32 34 0
-30 32 -34 0
-32 -33 -38 0
-32 33 -38 0
32 33 -38 0
32 -33 -38 0
32 34 -33 0
-32 -34 -33 0
-32 -34 33 0
-32 -34 -33 0
-37 34 -41 0
37 -34 -41 0
37 -34 41 0
37 34 -41 0
-37 -34 38 0
37 -34 -38 0
-37 -34 38 0
-37 34 38 0
38 41 -39 0
38 41 39 0
-38 -41 39 0
-38 -41 39 0
-41 35 -39 0
-41 35 -39 0
41 35 -39 0
-41 35 -39 0
38 -39 36 0
-38 -39 -36 0
-38 -39 -36 0
-38 -39 36 0
41 39 36 0
41 -39 -36 0
-41 39 36 0
-41 -39 -36 0
-41 -43 36 0
41 -43 -36 0
41 -43 -36 0
-41 -43 -36 0
37 41 -43 0
37 -41 43 0
-37 41 43 0
37 41 -43 0
-38 -39 42 0
-38 39 42 0
-38 39 -42 0
38 39 -42 0
-38 -41 -42 0
38 -41 -42 0
38 -41 -42 0
38 41 -42 0
-37 -41 39 0
37 41 -39 0
37 41 39 0
37 41 -39 0
38 41 39 0
38 41 39 0
38 -41 39 0
38 -41 -39 0
-38 41 -42 0
38 41 -42 0
38 41 -42 0
-38 -41 -42 0
41 39 42 0
41 39 42 0
-41 39 42 0
41 -39 -42 0
38 39 -43 0
38 39 43 0
38 39 -43 0
38 39 43 0
38 43 42 0
-38 43 42 0
-38 43 -42 0
-38 -43 42 0
41 -43 -42 0
-41 -43 42 0
-41 -43 42 0
41 -43 -42 0
-43 -50 44 0
-43 50 44 0
43 50 44 0
43 -50 -44 0
50 44 45 0
50 44 -45 0
50 -44 -45 0
50 44 -45 0
-50 -44 -45 0
50 -44 -45 0
-50 44 45 0
50 -44 45 0
-50 45 46 0
50 45 46 0
-50 -45 46 0
-50 45 -46 0
50 45 -46 0
-50 45 46 0
50 -45 46 0
-50 45 -46 0
50 -45 48 0
50 -45 48 0
50 45 48 0
50 45 -48 0
48 -55 -49 0
-48 55 49 0
-48 55 -49 0
-48 -55 -49 0
-55 54 -58 0
-55 54 58 0
55 54 58 0
55 54 -58 0
-55 54 -58 0
-55 54 58 0
-55 54 -58 0
55 -54 58 0
55 54 -59 0
-55 54 -59 0
-55 54 -59 0
-55 -54 -59 0
-55 -54 59 0
55 -54 59 0
-55 -54 59 0
-55 54 -59 0
-55 58 -60 0
-55 58 60 0
55 -58 -60 0
55 -58 -60 0
-59 -61 60 0
-59 61 60 0
59 61 60 0
59 -61 -60 0
59 61 60 0
59 61 60 0
-59 61 -60 0
59 61 60 0
61 60 62 0
-61 60 -62 0
61 -60 -62 0
-61 60 62 0
-61 62 64 0
-61 -62 -64 0
-61 62 64 0
-61 -62 -64 0
-64 -63 -65 0
64 -63 65 0
-64 -63 -65 0
-64 63 -65 0
64 -63 65 0
-64 -63 -65 0
-64 -63 65 0
-64 63 -65 0
64 -63 -65 0
-64 -63 -65 0
64 63 65 0
-64 63 -65 0
-64 65 66 0
-64 -65 66 0
64 65 66 0
64 65 66 0
-65 -66 69 0
-65 -66 69 0
-65 66 -69 0
65 66 69 0
65 -66 69 0
65 66 -69 0
-65 -66 69 0
65 -66 69 0
65 -66 -69 0
-65 66 69 0
65 66 -69 0
65 -66 -69 0
69 -67 68 0
69 67 68 0
69 -67 -68 0
-69 -67 -68 0
69 67 -68 0
-69 -67 -68 0
-69 67 68 0
-69 -67 68 0
-72 -73 74 0
72 73 -74 0
-72 73 -74 0
-72 73 -74 0
-73 -74 77 0
-73 74 77 0
73 74 77 0
73 74 -77 0
77 75 76 0
77 75 76 0
77 -75 -76 0
77 -75 -76 0
-78 79 -80 0
78 79 80 0
-78 79 -80 0
-78 79 80 0
78 79 -80 0
78 -79 80 0
78 79 -80 0
78 79 80 0
78 -79 -80 0
78 -79 -80 0
78 79 80 0
78 79 80 0
-79 -80 -81 0
-79 -80 81 0
79 -80 -81 0
-79 80 -81 0
-79 80 81 0
79 80 81 0
-79 -80 81 0
-79 80 -81 0
-79 80 81 0
79 80 -81 0
-79 -80 81 0
-79 80 81 0
79 -80 81 0
79 -80 81 0
-79 -80 81 0
79 80 -81 0
79 -80 81 0
79 80 81 0
-79 -80 -81 0
-79 80 81 0
80 -81 -82 0
80 81 -82 0
-80 -81 -82 0
80 -81 82 0
-80 81 82 0
80 -81 82 0
80 -81 82 0
-80 -81 82 0
-80 81 82 0
80 -81 -82 0
-80 -81 -82 0
80 81 -82 0
-93 83 -95 0
93 83 95 0
93 -83 -95 0
93 -83 -95 0
93 95 -87 0
93 95 -87 0
93 -95 -87 0
-93 -95 87 0
-95 85 -84 0
95 85 -84 0
-95 85 -84 0
-95 85 -84 0
-95 -87 -89 0
-95 87 -89 0
95 -87 -89 0
95 -87 -89 0
-93 85 87 0
-93 -85 -87 0
-93 -85 87 0
-93 85 -87 0
87 84 -89 0
-87 -84 89 0
87 84 89 0
87 -84 89 0
-87 -89 -102 0
87 -89 102 0
87 89 -102 0
87 89 -102 0
-95 102 -111 0
95 -102 -111 0
-95 -102 111 0
95 -102 111 0
87 89 -102 0
87 -89 -102 0
87 -89 102 0
87 89 -102 0
87 102 98 0
87 -102 98 0
-87 -102 98 0
87 102 -98 0
93 -87 111 0
93 -87 -111 0
93 -87 -111 0
-93 87 111 0
89 -96 88 0
89 96 -88 0
89 -96 -88 0
89 -96 88 0
99 91 108 0
99 -91 -108 0
99 91 108 0
-99 91 108 0
-95 -90 -94 0
95 -90 94 0
-95 -90 -94 0
95 -90 -94 0
-103 -99 112 0
-103 -99 112 0
103 -99 -112 0
103 -99 -112 0
103 -98 108 0
-103 -98 108 0
103 98 -108 0
103 -98 -108 0
95 101 100 0
-95 -101 -100 0
-95 101 100 0
-95 101 100 0
99 -108 -92 0
-99 108 -92 0
99 108 92 0
-99 108 92 0
97 100 105 0
97 -100 -105 0
-97 -100 -105 0
97 -100 -105 0
-98 112 105 0
98 112 105 0
-98 112 105 0
98 -112 105 0
111 -97 105 0
-111 -97 105 0
-111 97 -105 0
111 -97 105 0
103 104 -106 0
-103 -104 -106 0
-103 -104 -106 0
103 -104 106 0
-111 108 -110 0
111 -108 -110 0
111 108 -110 0
-111 108 -110 0
104 105 -106 0
104 -105 -106 0
104 105 -106 0
-104 105 -106 0
111 -108 -120 0
111 -108 120 0
-111 -108 -120 0
-111 108 120 0
110 120 109 0
-110 120 -109 0
-110 120 -109 0
110 -120 -109 0
112 -120 -114 0
112 120 114 0
112 -120 114 0
112 -120 -114 0
112 -120 114 0
-112 -120 114 0
112 120 114 0
112 -120 -114 0
-120 -114 116 0
120 114 116 0
-120 -114 -116 0
-120 114 116 0
-112 120 113 0
112 -120 -113 0
112 120 113 0
-112 120 113 0
-120 -114 -116 0
120 114 116 0
-120 -114 116 0
120 114 -116 0
-120 116 115 0
120 116 115 0
120 116 115 0
-120 -116 115 0
120 116 115 0
-120 -116 115 0
120 -116 -115 0
-120 -116 115 0
120 116 115 0
-120 116 115 0
-120 116 -115 0
-120 116 -115 0
-120 116 -115 0
-120 -116 -115 0
-120 116 -115 0
120 116 115 0
120 -119 121 0
120 -119 121 0
-120 119 121 0
-120 -119 121 0
-120 121 122 0
-120 121 122 0
-120 -121 122 0
-120 121 -122 0
122 123 -124 0
-122 -123 124 0
122 -123 -124 0
-122 -123 124 0
125 126 -130 0
-125 -126 130 0
-125 126 130 0
-125 126 130 0
125 126 -130 0
-125 126 -130 0
-125 126 130 0
125 126 -130 0
125 -126 130 0
-125 126 130 0
-125 126 130 0
-125 126 -130 0
125 -126 -130 0
125 -126 -130 0
-125 126 130 0
125 -126 130 0
126 -130 127 0
-126 -130 -127 0
126 -130 -127 0
-126 -130 -127 0
-126 -130 -127 0
126 130 -127 0
126 130 127 0
-126 -130 127 0
-130 -127 -128 0
-130 127 -128 0
130 -127 -128 0
130 127 -128 0
-130 -128 129 0
-130 -128 129 0
130 -128 129 0
130 128 -129 0
-130 128 129 0
130 128 129 0
-130 128 129 0
130 128 -129 0
130 -128 -129 0
-130 128 -129 0
130 128 129 0
130 128 129 0
-130 -128 -129 0
130 128 129 0
130 -128 -129 0
-130 -128 129 0
-130 -128 -129 0
-130 128 -129 0
-130 -128 129 0
130 -128 129 0
-130 128 129 0
130 -128 129 0
-130 -128 129 0
130 -128 -129 0
130 128 129 0
-130 -128 -129 0
-130 128 -129 0
130 128 129 0
130 131 -132 0
130 -131 -132 0
130 -131 132 0
-130 -131 132 0
-132 -134 133 0
132 134 -133 0
-132 134 133 0
-132 134 133 0
134 133 135 0
-134 -133 -135 0
134 133 -135 0
-134 -133 135 0
-134 133 -135 0
-134 133 -135 0
134 -133 -135 0
134 -133 135 0
-135 -136 -137 0
135 -136 -137 0
135 136 137 0
135 136 137 0
137 -139 -138 0
137 -139 138 0
-137 139 -138 0
-137 139 -138 0
-139 138 141 0
-139 138 -141 0
-139 -138 141 0
-139 -138 141 0
-138 141 -140 0
-138 141 140 0
-138 -141 -140 0
138 141 -140 0
148 144 -145 0
-148 144 -145 0
-148 144 145 0
148 144 -145 0
148 -145 146 0
148 -145 -146 0
148 145 146 0
148 145 -146 0
-148 -160 179 0
148 160 179 0
-148 -160 -179 0
148 -160 -179 0
-148 -160 179 0
-148 160 179 0
148 160 179 0
-148 -160 -179 0
-148 160 179 0
-148 160 -179 0
-148 160 -179 0
148 -160 -179 0
148 -179 149 0
-148 179 -149 0
-148 179 -149 0
-148 -179 -149 0
-160 -179 155 0
160 -179 -155 0
160 179 155 0
-160 -179 -155 0
-160 -150 -154 0
-160 150 154 0
-160 150 -154 0
-160 150 -154 0
-160 -154 156 0
160 154 156 0
160 -154 -156 0
-160 -154 -156 0
-155 -154 -152 0
155 154 152 0
-155 -154 152 0
-155 154 152 0
-179 -154 156 0
-179 154 -156 0
-179 154 -156 0
-179 -154 -156 0
179 -156 -188 0
-179 156 -188 0
179 -156 -188 0
179 156 188 0
179 155 -151 0
179 -155 -151 0
179 155 -151 0
179 155 151 0
179 188 -157 0
179 -188 -157 0
179 -188 -157 0
-179 188 -157 0
168 -188 157 0
-168 -188 -157 0
168 188 -157 0
168 -188 -157 0
-168 157 -166 0
-168 157 166 0
168 -157 -166 0
-168 -157 -166 0
179 -157 166 0
179 -157 -166 0
-179 157 -166 0
-179 157 166 0
188 166 -187 0
-188 -166 -187 0
188 -166 -187 0
188 166 -187 0
188 -187 -159 0
-188 187 -159 0
188 -187 -159 0
188 187 159 0
-179 -168 188 0
-179 168 -188 0
179 168 -188 0
179 -168 -188 0
-179 162 159 0
179 162 159 0
-179 162 159 0
179 -162 159 0
-160 -162 163 0
160 -162 -163 0
-160 162 163 0
-160 162 -163 0
162 187 165 0
162 -187 -165 0
162 -187 165 0
162 -187 165 0
168 -166 -165 0
168 166 165 0
-168 -166 -165 0
168 -166 165 0
168 166 187 0
-168 -166 187 0
168 166 187 0
168 -166 -187 0
168 188 -162 0
168 188 162 0
168 188 -162 0
168 188 -162 0
-179 -163 -165 0
-179 -163 165 0
-179 163 -165 0
179 163 -165 0
-166 165 -167 0
-166 -165 167 0
-166 -165 167 0
-166 -165 -167 0
166 -187 165 0
166 187 165 0
-166 187 165 0
-166 -187 -165 0
168 172 -167 0
168 -172 167 0
-168 172 167 0
-168 -172 167 0
-187 -171 169 0
187 171 -169 0
-187 -171 169 0
-187 -171 -169 0
-188 172 -186 0
188 -172 -186 0
188 172 -186 0
188 -172 186 0
187 193 -173 0
187 193 173 0
-187 193 -173 0
187 193 173 0
-187 -172 -173 0
-187 -172 -173 0
-187 -172 173 0
187 172 173 0
186 -174 -190 0
186 174 190 0
186 -174 -190 0
-186 -174 -190 0
179 -187 -193 0
-179 -187 193 0
-179 -187 193 0
179 -187 -193 0
-188 -193 -178 0
-188 193 -178 0
-188 193 178 0
188 193 178 0
-185 180 -198 0
185 -180 198 0
-185 -180 -198 0
-185 180 198 0
187 186 193 0
-187 -186 -193 0
187 -186 193 0
-187 -186 193 0
176 180 -175 0
176 180 175 0
176 180 -175 0
-176 -180 -175 0
-179 178 198 0
179 -178 198 0
179 -178 -198 0
179 178 -198 0
180 198 183 0
-180 198 -183 0
180 198 183 0
-180 198 183 0
-179 -187 186 0
-179 -187 -186 0
179 187 186 0
-179 187 -186 0
188 186 -181 0
188 -186 181 0
-188 186 -181 0
188 186 181 0
-179 -186 -185 0
-179 186 185 0
179 -186 185 0
-179 186 185 0
190 181 -197 0
190 -181 -197 0
-190 -181 197 0
-190 -181 -197 0
-187 183 196 0
187 -183 196 0
187 183 196 0
-187 -183 196 0
-185 183 -196 0
-185 -183 -196 0
-185 183 -196 0
-185 -183 -196 0
-185 193 -183 0
-185 -193 183 0
-185 -193 -183 0
-185 193 -183 0
-185 183 197 0
185 183 -197 0
185 -183 197 0
-185 183 197 0
187 186 -198 0
-187 -186 -198 0
187 -186 -198 0
187 186 -198 0
