c Type 2: interval ordering (permuted), n=50, m_intervals=50, t=4
p cnf 50 180
45 41 -35 -23 0
45 -14 7 -50 0
45 14 50 24 0
-45 -32 -23 -27 0
-45 46 16 -10 0
45 -14 7 -50 0
-45 14 -18 7 0
-45 -36 -48 1 0
3 26 -9 -41 0
-45 14 -18 -7 0
6 -15 5 49 0
-15 -5 -49 45 0
3 -26 -9 -41 0
45 50 19 36 0
-45 4 9 -27 0
6 -15 -5 -49 0
15 5 49 -45 0
-9 -30 41 27 0
45 -50 -19 36 0
45 14 -18 -7 0
-13 -4 48 -26 0
-9 41 -23 -27 0
-50 13 4 20 0
-4 26 -41 35 0
45 -3 -30 -41 0
45 50 -3 -21 0
-45 -19 36 4 0
-6 -15 -33 -5 0
45 22 46 16 0
45 -46 16 10 0
-15 -5 -49 -45 0
49 45 -22 -46 0
-45 -14 -19 36 0
45 4 26 9 0
-45 14 -50 -24 0
13 9 41 -23 0
4 26 35 -23 0
45 30 -35 -32 0
-6 -15 -33 5 0
50 -13 4 20 0
-45 -9 35 -23 0
45 -46 16 -10 0
-9 -32 23 0
-45 14 50 24 0
15 5 49 -45 0
36 4 44 -17 0
50 13 4 -20 0
45 14 18 7 0
9 -32 -23 0
49 -45 -22 -46 0
-4 -48 -21 34 0
36 4 44 -17 0
-45 50 -3 21 0
4 -26 -35 23 0
-45 50 19 -36 0
4 -48 21 34 0
-45 14 50 -24 0
-9 -41 23 27 0
-45 14 -19 36 0
-15 5 49 -45 0
-9 30 41 -27 0
-45 50 -19 -36 0
45 -50 3 21 0
9 32 -23 0
-45 -50 19 36 0
-45 -4 -26 -9 0
-45 -14 7 -50 0
-9 32 23 0
45 -30 35 -32 0
9 -32 -23 0
45 36 48 -1 0
-15 5 -49 45 0
9 -41 -23 27 0
-45 14 50 24 0
45 -36 48 1 0
-45 22 46 16 0
45 19 36 -4 0
-45 50 19 -36 0
4 -26 -41 -35 0
-15 -5 49 45 0
-45 -36 13 20 0
-45 4 9 27 0
45 22 -46 -16 0
-45 32 -23 -27 0
6 15 5 49 0
45 -3 30 41 0
6 15 -33 -5 0
-45 -14 -18 7 0
-45 4 9 27 0
-45 -46 16 -10 0
-45 -41 -35 -23 0
-6 15 33 -5 0
-6 15 -5 -49 0
45 -3 -9 23 0
-6 -15 33 5 0
6 -15 -5 -49 0
-45 32 -23 27 0
-45 -4 26 9 0
9 32 -23 0
45 14 7 -50 0
45 -30 -35 -32 0
-45 41 -35 23 0
-4 1 -38 -11 0
-15 -5 49 45 0
45 -50 -19 -36 0
4 -1 38 11 0
-9 30 41 27 0
9 41 -23 -27 0
-13 -4 48 -26 0
-45 50 -19 36 0
-45 50 -19 -36 0
45 14 18 7 0
-6 -15 33 -5 0
-15 -5 -49 45 0
9 32 23 0
45 -22 -46 -16 0
45 50 -3 -21 0
-9 32 23 0
-6 15 -33 -5 0
45 36 13 20 0
13 4 48 26 0
15 -5 49 45 0
-45 19 36 -4 0
-45 3 30 -41 0
45 3 30 -41 0
-45 -4 -9 -27 0
45 36 -13 -20 0
-15 -5 49 45 0
-6 -15 5 49 0
45 -9 -35 23 0
-15 5 49 -45 0
-4 -48 21 -34 0
45 14 50 -24 0
6 15 -5 -49 0
-9 -30 41 -27 0
45 -3 9 23 0
-6 15 -33 -5 0
-45 -3 -9 -23 0
45 14 18 7 0
-45 30 -35 -32 0
45 -41 35 23 0
-3 -26 -9 -41 0
-15 -5 49 45 0
-45 19 -36 4 0
-45 -9 35 -23 0
4 -26 -35 -23 0
4 26 -41 -35 0
-45 -32 23 27 0
-6 15 -5 49 0
4 1 -38 -11 0
45 36 -48 1 0
-45 -50 19 36 0
-13 -4 -48 26 0
15 5 49 45 0
-49 45 -22 46 0
49 -45 22 46 0
-45 50 19 -36 0
45 4 -26 -9 0
-4 26 -35 23 0
-50 13 4 -20 0
-36 4 -44 -17 0
13 9 41 -23 0
-45 14 18 7 0
15 -5 49 45 0
36 4 44 -17 0
4 1 38 11 0
13 -9 -41 23 0
-45 -14 50 -24 0
-45 -3 -9 23 0
-15 -5 49 -45 0
-4 -48 21 -34 0
-45 14 50 24 0
45 -14 19 36 0
-45 14 19 36 0
3 26 9 41 0
45 9 35 23 0
-45 50 19 -36 0
-13 -9 41 23 0
-45 -36 13 20 0
-4 26 -41 -35 0
