c Type 2: interval ordering (permuted), n=500, m_intervals=500, t=3
p cnf 500 2000
-283 -78 -52 0
233 -85 -30 0
155 -384 -163 0
26 -374 -300 0
46 412 370 0
-377 -146 83 0
-43 -374 -484 0
-169 467 -81 0
-230 412 38 0
240 458 413 0
-449 -303 135 0
377 -395 -243 0
-263 350 234 0
-211 315 275 0
108 -176 100 0
-494 -136 401 0
37 257 -465 0
397 -179 251 0
-162 -406 73 0
-194 -217 424 0
446 -336 -250 0
130 -3 419 0
287 419 -125 0
488 -199 318 0
-449 352 2 0
227 238 -159 0
68 482 260 0
227 -435 -383 0
-313 -371 -9 0
-316 -275 -3 0
-446 6 -497 0
-439 -424 -479 0
-300 458 -208 0
51 -32 -367 0
-336 28 -223 0
-15 -154 236 0
-448 -1 51 0
-377 -243 -446 0
287 419 125 0
202 72 -140 0
-313 381 -203 0
-51 -32 -367 0
-352 -246 -423 0
36 -302 -128 0
-462 -448 -159 0
-3 -468 -347 0
-108 -176 70 0
435 271 68 0
313 243 -193 0
243 213 -461 0
446 430 43 0
-446 315 -278 0
459 220 -62 0
-468 57 384 0
-325 80 -310 0
109 -429 398 0
-286 -482 -474 0
256 244 -208 0
456 495 98 0
169 -391 -133 0
-395 201 -291 0
377 -313 -258 0
-442 52 184 0
320 284 467 0
-325 228 419 0
-296 319 -139 0
405 -100 330 0
135 325 -490 0
-484 -451 132 0
-428 -336 165 0
313 -483 -212 0
-449 -491 310 0
-240 -54 106 0
391 -9 150 0
470 232 -224 0
-369 -181 226 0
32 -15 -442 0
377 -164 193 0
-352 275 -499 0
-90 91 -491 0
-51 -340 78 0
446 471 -14 0
-446 -6 497 0
243 111 -488 0
-101 -243 112 0
-446 336 250 0
-283 -439 -292 0
313 483 212 0
430 -356 -196 0
-435 30 -311 0
32 -342 320 0
-233 -435 -30 0
-446 449 496 0
-324 -459 346 0
356 -14 13 0
-494 -136 -401 0
181 165 75 0
484 13 -40 0
68 283 359 0
449 -74 403 0
26 -240 -262 0
-14 -135 -92 0
-387 6 -434 0
-391 77 -488 0
-325 493 -230 0
-490 -202 17 0
-303 316 -61 0
46 -315 90 0
65 69 -390 0
-211 493 -66 0
-303 466 -366 0
32 -15 -442 0
-320 164 467 0
-320 -101 467 0
469 -498 -359 0
-391 77 488 0
157 46 -75 0
-369 -181 226 0
51 340 -15 0
243 -164 185 0
377 164 257 0
-300 13 226 0
-405 100 330 0
109 -106 287 0
-488 -463 -175 0
300 250 352 0
-325 230 -409 0
377 21 -77 0
428 26 -472 0
375 97 -300 0
277 -279 -153 0
238 -30 462 0
-232 -177 116 0
-467 487 47 0
243 -232 237 0
243 488 -102 0
-320 -101 467 0
449 303 135 0
388 -499 218 0
-377 -193 381 0
227 455 -448 0
243 470 -77 0
-471 308 349 0
-397 -179 251 0
375 -363 131 0
372 494 171 0
-233 435 -30 0
-446 430 -43 0
304 -251 117 0
-430 211 61 0
300 -13 -226 0
237 199 430 0
-449 303 135 0
-169 -296 -245 0
-336 28 -223 0
-289 262 -39 0
-109 247 -285 0
352 -321 -176 0
219 -356 -36 0
-338 -171 261 0
279 -425 409 0
162 178 -367 0
-313 243 -193 0
-169 258 31 0
-363 -14 -475 0
-243 -237 116 0
118 -227 -85 0
-439 -205 184 0
-428 13 458 0
-90 208 -218 0
43 -368 14 0
-300 -171 128 0
-15 -78 -358 0
-303 6 308 0
181 -75 247 0
51 -340 498 0
-435 271 -68 0
51 -340 -498 0
283 -442 -41 0
442 -495 184 0
211 -429 315 0
287 -88 397 0
-32 -367 -194 0
243 -187 461 0
21 -77 446 0
-303 -463 204 0
303 316 61 0
-75 -452 273 0
211 -136 -145 0
-313 177 460 0
105 -383 159 0
-243 -391 77 0
-169 391 133 0
193 -467 58 0
-300 13 -226 0
-240 -458 -413 0
325 493 230 0
43 -368 14 0
-51 340 -498 0
123 28 368 0
-303 109 277 0
-442 -205 -197 0
9 173 -483 0
-360 -67 -399 0
193 381 65 0
-15 -456 -23 0
303 132 92 0
-304 251 -468 0
449 -303 131 0
54 202 -287 0
-169 185 -267 0
26 240 -262 0
494 -226 -206 0
-435 -30 448 0
91 -321 218 0
-253 -426 405 0
-243 237 -116 0
491 44 25 0
-65 390 470 0
130 289 499 0
324 459 91 0
340 469 498 0
204 334 -308 0
-363 308 338 0
-32 178 358 0
123 -375 190 0
-459 220 -62 0
238 -53 -427 0
-377 21 77 0
109 -7 220 0
336 26 -374 0
428 -13 -458 0
-419 323 27 0
-283 -291 180 0
-377 -313 258 0
304 251 -468 0
352 -275 499 0
211 315 275 0
-391 428 -470 0
-352 -366 256 0
352 366 -256 0
449 -334 -493 0
-239 -32 498 0
367 294 -358 0
109 -300 366 0
470 -232 -276 0
-287 88 397 0
32 367 194 0
320 395 -101 0
352 -275 -290 0
-313 65 -127 0
-68 -283 -359 0
26 240 -44 0
-467 465 -77 0
135 206 -451 0
109 -7 220 0
-313 -187 -58 0
-279 -425 409 0
-303 26 -369 0
232 -177 -116 0
356 -14 128 0
-26 240 -262 0
-240 360 -397 0
-352 -246 423 0
406 -184 -395 0
-164 -390 -470 0
352 275 290 0
377 296 390 0
26 250 -388 0
389 414 147 0
-190 -368 131 0
3 468 -347 0
435 260 32 0
15 367 358 0
366 17 191 0
30 480 55 0
59 453 29 0
109 106 287 0
243 -187 461 0
453 -227 30 0
-142 -222 442 0
315 316 90 0
-164 -65 -69 0
15 456 23 0
428 -388 458 0
240 -54 106 0
-30 -68 -55 0
-26 91 -262 0
320 243 487 0
-252 434 369 0
-488 199 318 0
-428 75 -337 0
-50 -351 -105 0
-325 -397 -63 0
123 28 -368 0
-123 28 -368 0
46 -226 -493 0
391 -151 199 0
304 -251 468 0
320 -201 291 0
90 246 423 0
-69 -391 9 0
320 -234 -296 0
26 -240 -262 0
-395 -353 -378 0
169 -258 31 0
-449 334 -493 0
-412 90 431 0
-283 350 291 0
-91 -321 218 0
-325 -388 -108 0
-193 428 274 0
-123 -43 -429 0
-313 243 -193 0
-287 88 -397 0
-391 151 199 0
-193 -58 -257 0
388 67 125 0
90 -208 218 0
-377 243 446 0
88 397 -405 0
-68 480 311 0
-300 250 -352 0
-211 334 -475 0
283 -183 -154 0
-130 3 419 0
-435 -448 -271 0
-164 65 69 0
30 -480 -55 0
239 -32 -498 0
-130 289 -499 0
-15 -194 439 0
-377 243 213 0
-446 -315 -278 0
109 429 398 0
377 -296 -390 0
412 -244 -140 0
109 -300 366 0
-279 425 -409 0
490 -90 275 0
-287 -419 125 0
-435 -71 -105 0
15 456 -23 0
-387 446 116 0
-51 -474 222 0
-219 -204 157 0
-303 463 204 0
-428 199 471 0
-446 488 -375 0
-368 36 -129 0
-250 388 54 0
-15 -52 -495 0
181 -75 -247 0
-125 100 301 0
135 -230 -110 0
43 -374 484 0
211 -171 -404 0
-169 296 245 0
-51 340 -178 0
324 -87 -140 0
442 379 439 0
-491 44 -25 0
238 53 427 0
-387 212 -199 0
491 323 -44 0
-391 -428 470 0
398 191 -91 0
435 71 -105 0
-316 106 2 0
303 -188 28 0
-320 -76 381 0
21 77 -446 0
-388 398 -218 0
388 67 125 0
395 201 291 0
-283 -183 23 0
-303 -26 -369 0
-243 -232 237 0
88 -218 304 0
-169 185 267 0
-338 171 -261 0
-243 164 185 0
449 -91 -208 0
250 -388 -54 0
-470 -232 -212 0
135 250 404 0
320 -76 -381 0
377 313 -31 0
462 -1 -159 0
-494 -226 206 0
-428 -126 -471 0
-336 181 338 0
-429 230 388 0
151 -375 -276 0
-296 69 -207 0
428 129 -206 0
193 314 391 0
109 106 287 0
-428 199 471 0
157 46 -75 0
26 374 -300 0
68 -482 260 0
-90 208 -218 0
-303 -132 92 0
90 -366 167 0
-341 330 -298 0
-275 323 -176 0
320 234 -296 0
-243 -164 -185 0
325 -493 -230 0
-296 391 -282 0
-88 397 -405 0
-227 -238 -159 0
-303 26 369 0
227 -238 -30 0
377 -395 -243 0
-109 -459 -62 0
435 30 311 0
-453 227 -435 0
-467 -465 -77 0
-300 -388 -220 0
-240 -255 440 0
65 212 -111 0
-499 -362 -384 0
283 41 52 0
227 455 -448 0
-59 29 85 0
363 308 -338 0
-405 100 330 0
-377 169 241 0
-15 194 -439 0
-449 -135 -220 0
-211 230 412 0
-234 -407 266 0
-125 -100 301 0
377 -296 -390 0
30 -68 55 0
-270 -59 49 0
162 442 194 0
-277 -279 -153 0
-315 -316 -90 0
-164 390 -470 0
-320 101 -467 0
428 -97 -190 0
336 -28 -223 0
90 -366 -167 0
-395 201 291 0
193 467 58 0
366 -2 -218 0
320 -284 467 0
32 -15 442 0
-388 -322 459 0
375 -303 -463 0
-91 167 -179 0
65 -69 -390 0
-446 336 -250 0
-363 -308 338 0
-462 -1 -159 0
324 -87 -140 0
449 -91 208 0
-456 -495 -98 0
-211 171 404 0
-458 54 275 0
-169 -258 31 0
-430 356 196 0
428 334 -300 0
88 -397 405 0
-149 -459 -404 0
342 -154 393 0
43 -374 -484 0
-21 127 -387 0
51 340 -78 0
243 237 -449 0
-303 -463 204 0
243 111 -488 0
-238 -435 -30 0
-219 252 -6 0
470 -232 224 0
30 -462 411 0
320 -187 8 0
-238 30 -462 0
-3 -468 347 0
-30 462 -411 0
430 109 334 0
-303 -466 366 0
462 -1 159 0
458 54 275 0
-15 -367 358 0
91 -321 218 0
-325 134 -63 0
109 -7 -220 0
-490 90 -275 0
428 -484 425 0
-123 375 -334 0
406 -184 -395 0
-162 -178 -367 0
243 232 -237 0
-109 459 62 0
270 59 49 0
43 493 90 0
-270 -59 -49 0
-428 97 -190 0
308 332 -425 0
162 178 -367 0
-313 381 203 0
-446 -6 497 0
211 136 -145 0
-20 413 149 0
-238 30 -462 0
130 -218 -176 0
162 442 194 0
-377 146 -83 0
-46 -412 370 0
494 -325 96 0
157 -308 -450 0
123 -156 303 0
-391 151 -199 0
-243 -193 185 0
313 -381 203 0
13 20 -35 0
123 156 303 0
450 -165 36 0
-325 -388 -108 0
458 366 459 0
366 -17 -191 0
-439 -205 -184 0
59 227 29 0
-391 -470 -123 0
-387 -126 219 0
-243 274 -127 0
256 -244 -208 0
442 495 184 0
388 67 -125 0
342 154 393 0
-15 456 23 0
101 284 164 0
-65 21 -344 0
146 -336 272 0
-449 -334 493 0
-109 -429 398 0
-97 434 -223 0
180 284 381 0
101 284 164 0
-296 391 -282 0
375 -303 463 0
-91 -108 -39 0
-435 260 32 0
391 151 -199 0
105 383 159 0
65 -391 150 0
428 -19 -190 0
287 -405 -235 0
363 -374 -109 0
227 85 -435 0
243 -237 -116 0
-446 336 -250 0
238 -435 -462 0
-315 316 -90 0
135 230 -110 0
-446 471 14 0
252 -26 -188 0
-491 44 -25 0
-164 -390 470 0
169 -391 133 0
287 -88 -397 0
428 165 279 0
-306 -398 -99 0
-37 -257 -465 0
130 289 499 0
324 -459 -346 0
-368 -36 129 0
46 226 493 0
111 219 -463 0
-374 -338 285 0
-153 -316 145 0
-283 -183 -23 0
-46 135 -401 0
26 -240 44 0
-303 188 28 0
-435 51 283 0
219 -471 -97 0
-270 59 -49 0
131 -403 -36 0
219 -109 -45 0
69 -391 -9 0
-453 227 -30 0
51 32 359 0
142 -222 -442 0
-377 350 101 0
26 -374 -300 0
-30 -137 -10 0
-377 -320 313 0
-325 388 108 0
352 -466 38 0
-313 234 -112 0
-237 199 -430 0
325 -230 409 0
296 391 282 0
211 230 412 0
303 466 -366 0
494 -136 401 0
-377 -58 -288 0
-59 453 29 0
428 388 458 0
-377 -263 -112 0
-240 54 -106 0
-51 -32 367 0
313 -483 -212 0
-491 -323 -44 0
65 390 470 0
-59 -453 -29 0
169 296 -245 0
320 -284 -467 0
446 6 -497 0
169 185 267 0
37 -257 -465 0
243 -488 102 0
134 289 -397 0
435 -71 -105 0
275 256 -244 0
164 65 -69 0
-176 125 -426 0
-484 451 132 0
-252 -26 -188 0
459 -220 -62 0
-303 109 -277 0
-490 -202 -17 0
303 -26 369 0
-6 -131 250 0
286 -239 -178 0
206 230 -458 0
-352 -321 -176 0
387 212 -199 0
428 -26 -472 0
-377 320 -313 0
-51 -178 -52 0
300 -40 89 0
-238 -30 -455 0
-206 230 -458 0
-65 -69 390 0
135 325 352 0
240 -360 397 0
-313 -483 212 0
442 379 -439 0
325 134 63 0
-1 311 -482 0
-234 112 -284 0
-296 69 -207 0
286 482 474 0
-169 -296 -245 0
-442 -205 197 0
101 284 164 0
303 132 92 0
193 -58 -257 0
-108 -176 100 0
30 -141 -68 0
238 -411 448 0
-51 -32 359 0
-109 429 398 0
-446 449 -496 0
-448 -1 51 0
363 -374 109 0
-243 164 185 0
-448 -254 -53 0
219 -471 97 0
495 -143 395 0
352 321 -176 0
194 217 424 0
243 111 488 0
-123 463 363 0
389 -414 147 0
-340 498 -142 0
51 340 -178 0
46 135 401 0
164 -69 391 0
-419 323 -27 0
20 413 149 0
-90 246 423 0
-243 -391 -77 0
51 -469 -498 0
32 342 -320 0
-65 391 150 0
377 -243 -213 0
51 178 -52 0
360 445 478 0
-449 240 -459 0
-211 -136 -145 0
-135 -325 352 0
377 -193 -381 0
-194 225 197 0
26 -315 -136 0
412 54 99 0
325 256 167 0
-424 -184 263 0
162 -498 -359 0
-232 177 -116 0
69 391 9 0
243 -274 127 0
164 467 139 0
-470 232 212 0
75 -452 -273 0
283 -406 -395 0
435 -260 -32 0
-352 366 256 0
-134 -415 445 0
-428 429 135 0
-243 -470 77 0
377 146 83 0
449 -240 -459 0
-391 127 -151 0
-30 480 55 0
-6 -109 46 0
-449 240 -459 0
68 -32 -469 0
169 467 81 0
375 -363 -131 0
-193 -467 58 0
-193 -428 -274 0
-320 -187 8 0
-462 448 159 0
-313 -371 -9 0
6 -300 171 0
130 218 176 0
304 -251 117 0
252 -434 369 0
77 212 318 0
-176 125 426 0
-285 451 394 0
-43 -171 -490 0
-6 300 171 0
484 -451 -132 0
243 193 -185 0
-388 398 -218 0
-238 435 -462 0
-488 199 318 0
-217 -424 168 0
-123 -375 -190 0
388 -322 -459 0
-164 467 -139 0
449 303 131 0
180 -284 -381 0
-162 178 367 0
283 -442 -41 0
296 -319 -139 0
-51 -340 -15 0
351 383 159 0
-46 226 -493 0
-181 165 -75 0
-303 -316 61 0
484 -13 40 0
-325 11 48 0
-89 -246 255 0
428 -484 -425 0
-135 325 352 0
-469 498 359 0
351 -383 159 0
-320 164 -467 0
15 -78 358 0
193 428 274 0
412 90 431 0
-252 26 188 0
-393 350 -234 0
313 -164 187 0
135 206 -451 0
-197 -350 -266 0
435 -448 271 0
194 -406 205 0
-446 -449 496 0
428 484 -425 0
-448 254 -53 0
377 -296 -390 0
-352 366 -256 0
-3 -468 347 0
352 -275 -499 0
395 -353 -378 0
-303 -188 -28 0
-340 15 -359 0
458 54 -275 0
430 -109 334 0
-306 398 -99 0
453 227 30 0
204 334 -308 0
459 220 62 0
-246 -67 327 0
253 -426 -405 0
-88 -218 -304 0
-21 -77 -446 0
325 -256 -167 0
58 282 34 0
-283 -406 395 0
387 -6 434 0
-59 -29 85 0
-164 -69 -391 0
-68 283 -359 0
-442 -205 -197 0
26 295 325 0
-50 -351 105 0
243 391 77 0
-155 -384 -163 0
490 -202 17 0
-108 -176 70 0
-372 494 171 0
-449 -491 -310 0
-283 -41 52 0
169 371 -314 0
227 455 448 0
109 459 62 0
-243 -470 77 0
-325 397 63 0
-123 375 -334 0
-238 50 448 0
-181 -165 -75 0
-494 -226 206 0
-393 350 -234 0
43 -493 -90 0
-75 -452 273 0
377 487 34 0
197 350 266 0
-13 -226 -322 0
135 250 404 0
-449 240 -324 0
-285 -451 394 0
239 32 -498 0
-391 127 -151 0
435 30 448 0
325 -493 -230 0
-194 -225 197 0
300 -40 89 0
108 176 100 0
-134 289 397 0
428 129 206 0
15 52 495 0
360 -246 -323 0
43 -493 90 0
-123 -156 303 0
-270 59 49 0
316 -106 2 0
366 17 191 0
68 -32 469 0
458 366 -459 0
-449 -240 -459 0
-467 487 -47 0
250 -388 -54 0
-211 -429 315 0
367 -294 358 0
-164 -187 -33 0
26 91 -262 0
-296 69 207 0
-91 321 218 0
435 51 283 0
-352 -321 176 0
246 67 -327 0
-123 375 190 0
313 -177 -460 0
-377 169 241 0
-449 303 -131 0
-387 126 219 0
-227 -238 -30 0
-377 -164 193 0
233 -85 30 0
-90 91 491 0
-111 -219 -463 0
-313 -187 58 0
-313 65 127 0
-250 409 490 0
324 459 -91 0
320 296 -185 0
324 -459 91 0
467 465 77 0
26 91 262 0
366 17 -191 0
238 411 448 0
-51 340 -15 0
338 171 -261 0
428 388 458 0
238 435 -30 0
-164 -187 -33 0
-270 59 49 0
26 -403 195 0
65 -212 111 0
277 -279 153 0
246 -67 -327 0
134 -431 -44 0
456 495 -98 0
-377 -58 -288 0
491 -44 -25 0
6 -131 250 0
-234 -407 -266 0
448 -1 51 0
26 -374 300 0
-52 -456 377 0
320 284 -467 0
388 -67 125 0
123 -226 285 0
435 -482 -474 0
-377 -263 -112 0
-243 187 -461 0
219 204 157 0
-398 -191 91 0
246 -67 -327 0
238 411 -448 0
-134 -415 -445 0
283 406 395 0
-428 -334 300 0
-219 -252 6 0
489 -459 287 0
-435 -30 -448 0
211 -334 -475 0
-46 -316 -35 0
-109 -459 -62 0
499 -362 384 0
-218 -440 -63 0
-52 -205 143 0
-428 366 -431 0
300 171 128 0
429 -230 388 0
320 -395 -101 0
-313 -177 460 0
287 -419 -125 0
412 90 -431 0
-51 -340 78 0
471 -308 349 0
-211 171 -404 0
54 -202 287 0
51 -32 -359 0
-449 -135 -220 0
-240 458 -413 0
-164 65 -9 0
-387 -6 434 0
367 294 358 0
-360 67 -399 0
135 230 110 0
211 230 -412 0
395 353 -378 0
-494 -325 96 0
-360 -67 -399 0
169 371 314 0
-284 -189 381 0
-430 211 61 0
123 463 -363 0
377 243 -446 0
-135 206 -451 0
286 -239 -178 0
-397 -235 -70 0
-75 -452 273 0
325 -397 63 0
387 -446 116 0
377 296 390 0
-377 21 -77 0
-300 458 208 0
46 316 35 0
-284 -189 381 0
-123 -97 -6 0
325 -397 63 0
-398 191 91 0
-46 412 -370 0
-449 74 497 0
51 32 -359 0
-283 377 395 0
286 -239 -178 0
169 -467 -81 0
-388 -398 -218 0
-484 -451 132 0
-46 412 370 0
194 379 -364 0
-360 -246 -323 0
-412 -388 352 0
252 434 -369 0
43 374 484 0
-448 -254 -53 0
-342 -154 -393 0
238 30 455 0
-313 -164 -187 0
363 285 451 0
-428 334 300 0
15 78 358 0
-234 -407 -266 0
-123 -226 -285 0
-430 211 -61 0
-30 -480 -55 0
100 -445 -155 0
391 127 -151 0
313 234 112 0
243 193 185 0
90 -208 218 0
-211 -315 275 0
-374 -338 -285 0
-412 388 -352 0
-227 85 435 0
-162 -498 359 0
435 271 68 0
59 227 -29 0
-494 226 -206 0
-233 -85 -30 0
21 -127 -387 0
-352 -275 290 0
377 -58 288 0
-300 -171 -128 0
-123 387 -446 0
108 176 -70 0
28 368 -432 0
446 315 -278 0
-446 -430 43 0
211 -230 412 0
-123 -375 334 0
46 -429 -240 0
-234 -112 -284 0
439 424 -479 0
-238 -50 448 0
369 -181 -226 0
131 403 -36 0
-194 -379 -364 0
-283 -291 -180 0
377 169 241 0
-240 360 -397 0
-65 -21 344 0
-193 381 -65 0
30 137 -10 0
-131 403 -36 0
-256 244 208 0
153 -316 145 0
-428 -366 -431 0
-135 325 352 0
-219 -252 -6 0
435 68 -333 0
-467 -487 47 0
-157 -46 -75 0
-90 -91 -491 0
218 -440 63 0
-397 -179 251 0
-91 -167 -179 0
-149 459 -404 0
164 187 33 0
-439 -424 -479 0
-287 -405 235 0
439 205 -184 0
-164 -467 -139 0
-123 369 -204 0
234 -112 284 0
-393 350 234 0
-428 126 471 0
375 -303 -463 0
123 463 -363 0
412 244 -140 0
123 -387 -446 0
320 187 8 0
238 30 455 0
377 -164 -193 0
-157 46 75 0
377 -320 -313 0
442 52 184 0
-395 201 291 0
-15 -154 236 0
-135 -206 -451 0
-313 -381 203 0
-391 -428 -470 0
-13 20 -35 0
-430 -356 196 0
-109 -7 -220 0
227 238 -30 0
26 -315 -136 0
68 -482 -260 0
123 -156 -303 0
435 -30 311 0
190 368 131 0
58 282 -34 0
377 487 34 0
-219 109 -45 0
-30 141 -68 0
412 -244 -140 0
387 -6 -434 0
-234 112 284 0
484 13 -40 0
-46 429 -240 0
325 80 -310 0
-14 135 92 0
352 -108 -447 0
-313 391 483 0
429 230 -388 0
-340 15 359 0
-26 -403 195 0
162 -442 -194 0
-30 -1 311 0
325 -80 -310 0
-59 453 29 0
1 311 482 0
-243 -232 237 0
-46 -316 -35 0
430 211 61 0
-270 -59 -95 0
-243 213 -461 0
118 -227 -85 0
202 72 140 0
490 413 -90 0
439 205 184 0
377 -313 -258 0
37 257 465 0
-217 -424 -168 0
-15 367 -358 0
-449 303 -131 0
283 41 -52 0
-453 227 435 0
51 340 178 0
315 -316 -90 0
-412 388 352 0
-169 371 314 0
-51 469 -498 0
412 -244 140 0
-77 212 -318 0
-211 -171 404 0
-233 -29 85 0
406 184 395 0
15 -367 358 0
-352 108 -447 0
-135 -325 490 0
283 439 -292 0
-320 201 -291 0
-194 225 -197 0
-211 -493 -66 0
377 313 31 0
397 -235 -70 0
-283 350 291 0
-391 9 -150 0
250 388 -54 0
325 -228 419 0
325 -228 419 0
429 -136 145 0
123 -43 429 0
46 226 493 0
-424 -184 263 0
-202 72 -140 0
-6 109 46 0
-75 -398 -366 0
283 -439 -292 0
313 -234 -112 0
320 -243 487 0
-325 228 419 0
30 -1 -311 0
-65 212 -111 0
325 134 -63 0
313 65 127 0
377 -350 101 0
442 -52 184 0
-46 -316 35 0
-36 -302 -128 0
-287 -405 -235 0
-250 -409 490 0
162 406 73 0
-316 275 3 0
-218 -440 -63 0
449 -74 403 0
-130 -289 499 0
227 -238 159 0
-412 90 431 0
-43 171 -490 0
65 391 -150 0
243 -237 449 0
-352 -466 -38 0
-428 -13 -458 0
391 77 488 0
-428 -165 279 0
-352 -108 -447 0
270 -59 95 0
352 -108 447 0
-488 138 -135 0
-391 -77 -488 0
336 28 -223 0
-449 74 -403 0
-263 350 -234 0
-306 398 99 0
-135 -325 -490 0
363 285 451 0
26 403 -195 0
-6 300 -171 0
26 240 -44 0
-320 164 -467 0
238 -30 455 0
-352 246 423 0
32 15 -222 0
21 127 -387 0
227 -435 4 0
-489 -459 287 0
283 -350 291 0
-32 367 -194 0
232 -177 116 0
-51 376 -367 0
289 262 39 0
-108 -176 100 0
-123 97 6 0
490 -287 -88 0
193 -381 -65 0
-227 435 -4 0
-123 43 -429 0
-289 262 39 0
-123 387 -446 0
388 322 459 0
-366 2 -218 0
428 13 458 0
320 -296 -185 0
488 -138 -135 0
499 362 384 0
-391 9 -150 0
449 -91 -208 0
428 -336 165 0
270 59 95 0
-303 -6 308 0
-58 -282 -34 0
90 246 423 0
316 -275 3 0
-135 325 -490 0
449 135 220 0
-338 171 261 0
59 -29 85 0
285 451 394 0
32 15 442 0
-75 135 -99 0
446 488 375 0
-178 -469 15 0
-238 50 -448 0
240 -255 -440 0
303 -6 -308 0
-32 178 -358 0
387 -212 -199 0
-243 488 -102 0
-428 429 135 0
59 -29 -85 0
419 -323 27 0
-13 -226 -322 0
-391 -428 -470 0
300 40 -89 0
-13 20 35 0
118 -227 85 0
-69 -391 9 0
360 445 478 0
-439 424 -479 0
-389 414 147 0
237 -199 430 0
123 375 334 0
46 315 90 0
13 273 466 0
285 451 394 0
46 -429 240 0
30 1 311 0
320 -243 -487 0
-20 -413 -149 0
-313 391 483 0
-377 -428 387 0
-227 435 -383 0
449 74 497 0
-435 448 271 0
303 -13 494 0
-495 -143 395 0
-336 181 338 0
-32 15 -442 0
-449 491 -310 0
-263 350 -234 0
-377 296 390 0
-26 295 325 0
135 -250 -404 0
270 59 -49 0
488 138 -135 0
-217 424 -168 0
151 -375 276 0
369 181 -226 0
-105 -383 -159 0
-51 -469 -498 0
341 330 298 0
356 14 13 0
30 462 -411 0
-377 58 -288 0
-65 -390 -470 0
15 154 236 0
100 -445 -155 0
377 -296 390 0
284 -189 -381 0
435 51 283 0
-181 165 75 0
313 -187 58 0
-450 165 36 0
-488 -463 -175 0
-428 -19 190 0
-391 -127 -151 0
-243 193 185 0
-125 -100 -301 0
243 488 -102 0
-134 -289 397 0
316 -106 2 0
449 74 497 0
51 -340 -178 0
428 -336 -165 0
435 -68 -333 0
164 -187 33 0
204 334 -308 0
377 164 -257 0
377 296 -390 0
-36 302 -128 0
-65 21 344 0
193 467 -58 0
-169 -258 31 0
-194 379 364 0
320 -234 296 0
-470 -232 -212 0
146 336 -272 0
253 426 405 0
-325 -230 -409 0
-227 -238 -159 0
-449 -352 2 0
109 106 -287 0
-90 -366 -167 0
26 250 388 0
491 323 -44 0
442 -495 -184 0
320 296 -185 0
-435 -51 -283 0
448 254 53 0
-238 -435 -30 0
-123 -463 -363 0
-219 -356 36 0
-26 -295 -325 0
52 456 377 0
-471 308 -349 0
190 -368 -131 0
429 -230 388 0
155 -384 163 0
275 256 -244 0
-446 488 375 0
202 72 -140 0
157 -308 450 0
453 227 30 0
243 -391 77 0
-320 -76 -381 0
-289 -262 39 0
377 -313 31 0
488 -463 -175 0
-32 15 -442 0
-169 467 -81 0
391 470 -123 0
-428 -126 471 0
-375 97 -300 0
-219 356 -36 0
-123 28 -368 0
-449 91 -208 0
-26 315 136 0
283 -183 154 0
320 -395 101 0
387 -126 219 0
-130 3 -419 0
46 135 401 0
-26 -250 388 0
-458 -366 -459 0
178 -469 -15 0
-453 227 -435 0
164 69 -391 0
32 342 320 0
-51 340 498 0
405 100 -330 0
-227 -435 -4 0
-428 -429 -135 0
218 -440 -63 0
-446 430 43 0
-176 125 426 0
-1 -311 482 0
360 67 399 0
360 246 -323 0
180 284 381 0
490 413 -90 0
-194 379 -364 0
-367 -294 358 0
90 -246 -423 0
-468 57 -384 0
68 -283 -359 0
-374 -338 285 0
-238 435 30 0
-352 -466 38 0
283 -350 291 0
162 498 -359 0
238 435 30 0
377 313 258 0
123 375 -190 0
54 202 -287 0
-391 344 77 0
-283 -78 52 0
-123 -188 368 0
-462 1 -159 0
30 -141 -68 0
313 -187 -58 0
-468 -57 384 0
300 458 208 0
89 246 -255 0
130 -3 419 0
490 90 275 0
-377 -243 -446 0
-470 -232 -224 0
100 -445 -155 0
-65 390 -470 0
-470 232 -276 0
495 -143 395 0
-51 32 367 0
-308 -332 -425 0
-303 13 494 0
227 435 383 0
-325 230 409 0
406 184 -395 0
-283 -439 -292 0
-324 -87 140 0
352 246 423 0
-43 -493 -90 0
320 234 296 0
419 323 27 0
351 383 -159 0
-238 435 -30 0
-412 -54 99 0
-243 -237 116 0
467 -465 -77 0
-490 -287 -88 0
43 -368 -14 0
-30 462 411 0
-377 263 112 0
-46 315 -90 0
123 -387 -446 0
146 336 -272 0
-149 -459 404 0
-313 243 -319 0
468 57 384 0
-313 -243 -193 0
462 -1 -159 0
-283 377 395 0
-324 459 346 0
90 366 167 0
-300 -171 -128 0
470 232 -224 0
211 -429 315 0
123 -369 -204 0
-238 50 -448 0
-108 -176 70 0
-455 137 10 0
395 353 -378 0
424 184 -263 0
-21 -77 446 0
313 -391 483 0
368 36 -129 0
109 -300 366 0
-32 15 222 0
320 296 185 0
-393 -350 234 0
68 32 469 0
469 -498 359 0
-68 480 311 0
303 13 494 0
-435 271 68 0
-446 471 -14 0
-313 -234 -112 0
-469 -498 -359 0
-91 -108 39 0
-181 -75 -247 0
-428 -129 206 0
308 332 -425 0
233 85 30 0
372 -494 -171 0
-412 -388 352 0
449 -74 497 0
270 -59 49 0
-462 448 159 0
26 -250 388 0
313 -391 -483 0
250 409 -490 0
-303 132 -92 0
30 141 68 0
283 -442 41 0
428 75 337 0
227 -435 383 0
-490 -287 88 0
428 -199 -471 0
304 251 -117 0
446 -449 496 0
-142 -222 -442 0
377 243 213 0
-164 65 69 0
194 406 205 0
449 -352 -2 0
-391 -9 -150 0
-155 384 -163 0
-164 -467 139 0
-97 434 223 0
13 -273 466 0
-374 338 285 0
-13 -226 322 0
-32 -342 320 0
178 469 -15 0
-52 -205 -143 0
-387 -126 219 0
-32 15 442 0
-123 -97 -6 0
-238 435 -30 0
356 -14 128 0
-101 243 112 0
-238 -435 -462 0
-296 69 -207 0
-51 -178 -52 0
-91 -108 39 0
-270 59 -49 0
449 352 -2 0
377 21 77 0
-377 350 101 0
-123 -369 -204 0
430 135 -240 0
131 -403 -36 0
-300 388 -220 0
428 366 431 0
142 -222 442 0
-9 173 483 0
-123 -188 368 0
-470 232 -276 0
-377 -193 -381 0
356 14 128 0
97 -434 -223 0
-488 -199 318 0
-470 -232 212 0
28 -368 432 0
-283 377 395 0
-375 97 -300 0
-428 -336 -165 0
-243 187 -461 0
227 -435 -4 0
162 -406 -73 0
-340 -469 498 0
-105 -383 159 0
-9 173 483 0
-26 -240 44 0
-256 244 -208 0
75 -135 -99 0
59 -227 29 0
428 165 -279 0
-237 -199 430 0
197 350 266 0
50 351 105 0
490 -90 -275 0
458 366 -459 0
435 68 -333 0
-194 -217 -424 0
296 -319 -139 0
-149 459 -404 0
-429 -136 -145 0
377 -428 -387 0
-303 6 -308 0
51 340 78 0
-351 383 -159 0
388 -499 -218 0
-391 470 123 0
-109 -247 -285 0
-449 240 -324 0
-6 -131 -250 0
-97 -434 -223 0
-164 -21 -470 0
320 -187 8 0
-123 -188 368 0
467 487 -47 0
240 -360 397 0
-88 218 -304 0
-13 273 466 0
-243 213 -461 0
243 237 -449 0
88 -397 405 0
377 -263 112 0
494 325 96 0
-428 -129 -206 0
-283 291 180 0
238 -435 462 0
-130 218 -176 0
193 -58 257 0
252 434 369 0
449 491 -310 0
164 -21 470 0
442 -379 -439 0
-363 -308 338 0
77 212 318 0
-489 459 -287 0
-243 470 77 0
430 -109 334 0
300 458 -208 0
-387 212 -199 0
-26 -91 262 0
-303 -463 204 0
-164 21 -470 0
-435 -482 474 0
164 -187 -314 0
-316 275 3 0
-340 498 142 0
-111 219 -463 0
275 323 176 0
-320 76 381 0
101 243 -112 0
-300 388 220 0
123 -226 285 0
75 -398 -366 0
377 169 241 0
-194 -217 424 0
490 -287 88 0
20 413 -149 0
211 -136 145 0
252 -26 188 0
-325 -80 -310 0
-300 250 352 0
-109 -300 -366 0
211 493 66 0
-304 251 468 0
320 395 101 0
283 -377 395 0
-300 250 352 0
-283 -183 -154 0
6 -300 -171 0
428 -484 -425 0
-430 -135 240 0
-446 -471 14 0
-449 -303 -135 0
59 227 -29 0
227 -85 -435 0
-134 -289 397 0
134 431 44 0
193 -58 -257 0
-388 499 -218 0
363 14 -475 0
-324 -87 -140 0
206 -230 458 0
-391 -344 77 0
90 -91 491 0
-313 243 -319 0
-366 2 218 0
-123 -97 6 0
391 -470 123 0
-151 375 276 0
-366 -2 -218 0
462 -1 -159 0
227 455 448 0
488 -138 135 0
303 188 -28 0
450 -165 -36 0
-462 448 159 0
-313 -164 -187 0
-304 -251 -117 0
-320 -201 -291 0
1 -311 482 0
-356 -14 -128 0
428 -19 190 0
-211 493 66 0
-51 -474 -222 0
-375 303 463 0
-68 32 469 0
65 -212 111 0
-435 -30 311 0
-428 199 -471 0
-51 469 -498 0
-51 474 222 0
238 -53 427 0
153 -316 -145 0
453 -227 -435 0
363 -14 475 0
-428 -97 190 0
300 388 220 0
-435 30 -448 0
65 21 344 0
-233 -29 85 0
270 -59 49 0
-169 185 267 0
-15 -194 -439 0
430 109 334 0
52 -205 143 0
68 480 -311 0
-211 -429 -315 0
412 54 -99 0
-125 -100 -301 0
340 -469 498 0
-442 52 184 0
-169 371 314 0
109 -247 -285 0
-430 135 -240 0
240 -458 -413 0
363 -374 -109 0
-325 -256 -167 0
-458 54 -275 0
-336 -181 -338 0
43 -171 -490 0
227 -238 30 0
130 218 -176 0
-340 -469 498 0
-428 -75 -337 0
-243 -237 -449 0
-206 230 458 0
-375 -363 131 0
313 65 -127 0
-286 -239 -178 0
-123 369 -204 0
456 495 -98 0
-51 -376 367 0
-234 407 -266 0
-180 -284 381 0
230 412 38 0
46 -315 -90 0
240 54 -106 0
68 480 311 0
-194 225 -197 0
377 -193 381 0
194 -406 -205 0
-449 -334 493 0
494 136 401 0
-435 -448 -271 0
-217 -424 168 0
-270 59 -49 0
194 -406 -205 0
377 164 -193 0
-52 456 377 0
435 -71 -105 0
275 256 -244 0
-324 -459 91 0
164 187 314 0
303 13 -494 0
428 -97 190 0
-352 466 -38 0
-490 -202 -17 0
52 -456 -377 0
-377 164 257 0
-283 183 -154 0
-26 -295 325 0
336 -181 338 0
340 -15 -359 0
-435 260 32 0
-164 -187 -314 0
-30 -137 -10 0
455 137 -10 0
-363 -285 451 0
286 -482 -474 0
-325 256 167 0
134 415 -445 0
308 332 -425 0
300 13 226 0
-435 68 -333 0
32 -15 -222 0
15 154 236 0
471 308 349 0
-449 240 -324 0
375 -363 131 0
448 1 51 0
320 -164 467 0
-303 -466 366 0
-428 -26 -472 0
178 -469 -15 0
-51 -376 367 0
-428 366 431 0
30 -68 -55 0
442 -379 439 0
377 -320 313 0
-363 -285 -451 0
340 498 -142 0
428 -19 -190 0
15 78 -358 0
341 -330 -298 0
28 -368 432 0
-428 126 -471 0
-398 -191 -91 0
377 -487 -34 0
243 213 -461 0
-75 -135 99 0
164 -390 470 0
-238 -435 30 0
-377 -146 -83 0
320 -201 291 0
283 -183 -23 0
135 -230 110 0
-341 -330 298 0
-428 -334 300 0
-313 -177 460 0
134 -431 -44 0
325 11 48 0
89 246 -255 0
303 -109 277 0
193 314 -391 0
-387 446 116 0
-340 498 -142 0
-313 371 -9 0
449 -240 -324 0
-435 482 -474 0
-13 273 466 0
51 -340 15 0
134 -431 44 0
-239 -32 -498 0
-313 -371 9 0
-169 391 -133 0
190 -368 131 0
-388 398 218 0
-428 -388 458 0
51 -376 -367 0
296 -391 -282 0
204 -334 308 0
75 398 366 0
-46 135 -401 0
164 65 -9 0
-363 -374 -109 0
-219 109 -45 0
-270 59 -49 0
-352 -275 290 0
277 279 -153 0
279 -425 409 0
-111 -219 463 0
-32 -178 358 0
240 -255 440 0
-283 183 -23 0
-77 212 -318 0
377 395 243 0
283 -291 -180 0
286 482 -474 0
176 -125 -426 0
89 246 255 0
32 15 -222 0
193 -381 -65 0
233 -29 -85 0
284 189 -381 0
-303 -316 61 0
-32 -367 -194 0
388 -322 459 0
375 97 300 0
-377 -164 -257 0
-430 -356 -196 0
134 -415 -445 0
9 -173 -483 0
-211 -315 275 0
233 -29 -85 0
-193 428 -274 0
164 69 391 0
101 284 -164 0
-164 -21 -470 0
162 -406 -73 0
-340 -15 359 0
-75 398 366 0
-6 109 46 0
490 -413 90 0
-227 -85 -435 0
-360 246 -323 0
197 -350 -266 0
162 -442 194 0
15 52 -495 0
-123 188 -368 0
430 135 -240 0
300 -40 89 0
320 -101 -467 0
181 -75 247 0
449 135 -220 0
283 -406 395 0
51 178 -52 0
-283 78 52 0
162 498 359 0
-54 202 287 0
388 -499 -218 0
-360 -445 478 0
-243 -274 127 0
275 323 -176 0
-118 -227 85 0
-336 26 -374 0
65 -69 -390 0
-219 252 -6 0
377 243 -213 0
-219 204 -157 0
336 -26 374 0
446 -488 -375 0
-13 -20 -35 0
275 -256 -244 0
13 226 -322 0
230 412 38 0
-15 -52 495 0
462 -1 159 0
253 426 -405 0
36 302 -128 0
-91 167 179 0
-263 -350 234 0
-412 -54 99 0
-391 344 -77 0
-428 -26 472 0
-6 131 -250 0
-238 -53 -427 0
-14 -135 -92 0
-296 -319 139 0
109 -247 285 0
-91 -167 -179 0
6 109 46 0
-377 428 -387 0
306 -398 99 0
-397 235 -70 0
-429 -136 -145 0
238 -411 -448 0
-28 -368 432 0
-153 316 145 0
-387 446 -116 0
-377 395 -243 0
-14 135 -92 0
455 -137 10 0
-368 -36 -129 0
-43 171 490 0
240 255 -440 0
499 -362 -384 0
449 -74 403 0
-250 -409 -490 0
-151 375 276 0
313 164 187 0
91 108 -39 0
429 -136 -145 0
32 178 -358 0
30 -68 55 0
270 59 95 0
50 351 105 0
243 -274 127 0
-193 -314 391 0
219 -471 -97 0
-470 -232 276 0
-462 -1 159 0
-157 308 -450 0
356 -14 13 0
-219 -204 157 0
-193 314 391 0
-65 -391 150 0
238 30 462 0
-450 165 -36 0
-325 134 -63 0
230 -412 -38 0
377 -428 387 0
-303 -109 277 0
313 243 319 0
135 -250 -404 0
-442 495 -184 0
316 106 2 0
-428 165 -279 0
-164 65 9 0
-43 -368 -14 0
-68 482 260 0
-211 -334 -475 0
-123 226 -285 0
-428 -75 -337 0
489 -459 287 0
-484 13 40 0
287 -405 235 0
-30 -137 10 0
-211 -334 -475 0
-164 -65 -9 0
377 350 101 0
-442 205 197 0
283 -78 52 0
-325 388 -108 0
-360 -445 478 0
51 -474 222 0
363 14 475 0
490 -413 90 0
275 323 -176 0
-219 356 -36 0
435 482 474 0
233 -435 -30 0
491 323 -44 0
-336 26 374 0
26 -315 136 0
-283 442 -41 0
100 445 -155 0
15 -194 439 0
-243 111 -488 0
377 -313 -31 0
157 308 450 0
325 -11 48 0
424 -184 263 0
494 325 -96 0
397 235 -70 0
446 -315 278 0
-372 -494 -171 0
389 -414 147 0
495 143 -395 0
352 275 499 0
-428 -429 135 0
-146 336 272 0
-32 -15 -442 0
30 1 311 0
-342 -154 393 0
-325 -11 48 0
320 243 -487 0
-324 459 346 0
-397 -179 251 0
455 137 -10 0
-313 -243 -319 0
-101 243 -112 0
488 463 -175 0
-46 -429 -240 0
-26 403 -195 0
58 282 34 0
-123 43 429 0
-391 344 -77 0
233 435 -30 0
219 109 -45 0
-21 127 -387 0
219 -471 -97 0
-356 14 13 0
-164 -187 -314 0
52 -205 -143 0
75 -135 99 0
-283 41 -52 0
-377 -487 -34 0
88 -218 -304 0
