c Type 2: interval ordering (permuted), n=25, m_intervals=25, t=4
p cnf 25 100
-1 7 10 -5 0
1 -7 -10 -5 0
-14 6 8 -15 0
-7 10 -13 -18 0
-14 -6 8 -15 0
-13 18 -11 -3 0
-1 7 10 -5 0
-14 6 8 -15 0
12 -9 -2 20 0
-1 7 10 5 0
11 -3 23 16 0
7 10 -13 -18 0
-14 -6 -8 15 0
11 16 -25 0
-17 14 -6 -8 0
-17 14 6 -8 0
7 -10 -13 -18 0
-1 7 -10 -5 0
-12 -9 2 20 0
13 18 11 3 0
-16 -25 0
-14 -4 -22 21 0
-1 7 -10 -5 0
-14 -6 -8 -15 0
-13 -18 11 -3 0
13 18 11 -3 0
14 4 -22 -21 0
-14 -4 22 21 0
-16 -25 0
14 4 -22 -21 0
14 -4 22 -21 0
-14 -6 -8 -15 0
1 7 -10 -5 0
-14 -6 8 15 0
11 16 -25 0
11 -16 25 0
-20 17 -14 6 0
-16 -25 0
16 25 0
-17 -14 -6 8 0
13 18 11 3 0
-20 -17 -14 -6 0
-7 10 13 -18 0
14 -6 -8 -15 0
-14 4 22 -21 0
-11 -3 23 16 0
13 18 -11 -3 0
11 16 -25 0
14 -8 15 4 0
-14 -4 -22 21 0
14 4 22 21 0
-1 7 10 -5 0
-14 -8 15 4 0
14 -6 -8 15 0
-13 -18 11 -3 0
11 16 -25 0
-12 -9 -2 20 0
14 -8 15 4 0
-11 -16 -25 0
12 2 20 -17 0
14 4 22 21 0
-14 -6 -8 15 0
-14 -8 15 4 0
14 -6 -8 -15 0
11 -16 25 0
14 -4 -22 -21 0
-14 8 15 4 0
-14 -4 -22 21 0
-14 -8 15 -4 0
14 4 -22 21 0
-14 4 -22 21 0
16 -25 0
-1 -7 10 5 0
-14 -8 -15 -4 0
1 7 -10 -5 0
-20 17 -14 -6 0
14 -8 -15 4 0
16 -25 0
11 3 -23 16 0
12 2 -20 17 0
12 -2 -20 17 0
14 -6 -8 15 0
11 -16 -25 0
14 6 8 -15 0
11 3 23 16 0
16 25 0
12 2 20 17 0
-14 4 -22 -21 0
12 9 2 20 0
14 -6 -8 -15 0
-14 -6 8 -15 0
14 4 -22 21 0
1 -7 10 5 0
17 14 -6 8 0
-16 25 0
13 -18 11 3 0
-14 6 8 -15 0
14 -4 22 -21 0
20 17 14 -6 0
-1 -7 -10 -5 0
