c Type 2: interval ordering (permuted), n=50, m_intervals=50, t=3
p cnf 50 200
-35 46 -7 0
-25 -26 -19 0
-5 45 49 0
10 -14 7 0
-30 45 -6 0
-12 -28 29 0
-25 -30 6 0
44 25 49 0
41 31 -40 0
-18 12 -44 0
10 35 -46 0
-26 45 -6 0
-32 -28 4 0
-10 -33 34 0
-5 -23 40 0
12 36 39 0
44 43 30 0
10 -14 -7 0
46 -14 -7 0
10 14 7 0
30 -45 -6 0
-10 33 -34 0
18 -27 -12 0
-35 -7 27 0
-25 -30 -6 0
-5 -23 -40 0
5 13 40 0
10 -12 -28 0
-10 -18 27 0
-18 28 36 0
32 28 4 0
35 46 33 0
-10 46 -33 0
32 12 -2 0
10 -12 -28 0
-30 -45 -6 0
10 -18 -27 0
43 -15 -17 0
18 9 -44 0
25 -30 6 0
-26 -21 6 0
5 -13 40 0
26 21 6 0
10 33 -34 0
-18 -27 12 0
-25 26 19 0
25 -45 6 0
-25 30 6 0
44 25 -49 0
10 -18 27 0
44 -40 -49 0
-5 13 -40 0
-41 30 6 0
-43 15 -17 0
-1 12 28 0
-23 -40 45 0
-36 -41 -5 0
-44 41 -40 0
44 -41 40 0
32 -12 2 0
43 41 -15 0
36 41 5 0
-5 -23 40 0
18 28 -36 0
-5 -23 -40 0
22 -1 -8 0
-41 -30 -6 0
35 46 -7 0
-41 -31 40 0
5 45 -49 0
44 25 49 0
10 -46 -33 0
41 -30 -6 0
43 -41 -15 0
-30 45 -6 0
-44 -25 6 0
27 12 28 0
10 14 7 0
35 -46 33 0
-26 -45 6 0
-35 -46 -33 0
5 -45 -49 0
-32 28 -4 0
44 -41 40 0
-5 13 40 0
43 15 17 0
43 -41 -15 0
10 -33 34 0
18 32 28 0
30 45 6 0
12 -36 -39 0
-18 -28 36 0
27 12 28 0
32 -12 -2 0
46 14 7 0
25 45 6 0
-10 35 -46 0
25 30 6 0
-35 -46 7 0
44 40 -49 0
43 41 -15 0
12 36 -39 0
35 -7 -27 0
10 46 -33 0
36 -41 5 0
-28 -29 -9 0
10 -35 46 0
-25 26 19 0
-14 -8 32 0
18 -9 44 0
-1 -12 -28 0
5 45 49 0
-10 -18 8 0
-10 35 -46 0
-14 8 32 0
-44 -25 6 0
14 8 -32 0
44 -43 30 0
10 -35 -46 0
-22 -1 8 0
36 -41 -5 0
-25 30 6 0
26 21 6 0
18 32 -28 0
-27 12 -28 0
35 -46 7 0
-10 35 -46 0
-12 28 29 0
30 -45 -6 0
-28 -29 -9 0
23 40 45 0
-10 -18 -27 0
10 -18 8 0
1 12 -28 0
10 -18 14 0
18 -9 44 0
10 -12 -28 0
-32 28 4 0
-18 -9 -44 0
-44 43 -30 0
18 -27 12 0
12 -36 -39 0
-23 -40 45 0
-41 -30 -6 0
10 -18 -14 0
-12 -28 29 0
-25 45 -6 0
25 26 -19 0
-1 -12 -28 0
10 18 14 0
-25 -30 6 0
10 46 -33 0
-35 -46 33 0
12 28 29 0
-26 -45 6 0
-18 32 28 0
10 -18 -8 0
-10 12 -28 0
44 41 40 0
30 45 -6 0
41 31 -40 0
44 40 -49 0
-44 40 49 0
-44 25 49 0
-35 7 27 0
-35 46 33 0
-10 35 -46 0
10 18 -14 0
-26 -21 6 0
44 -25 6 0
14 -8 -32 0
-46 14 7 0
-18 -12 44 0
18 12 -44 0
-46 -14 7 0
28 -29 -9 0
18 27 -12 0
28 29 9 0
35 7 -27 0
-25 -45 6 0
-10 35 -46 0
-10 -18 -8 0
-26 -45 6 0
32 12 2 0
18 -12 -44 0
18 -28 -36 0
35 46 33 0
43 -15 -17 0
-18 -32 -28 0
44 43 -30 0
35 46 33 0
-25 -30 -6 0
-30 -45 6 0
41 -31 40 0
27 -12 28 0
23 40 -45 0
-22 -1 8 0
35 -46 -33 0
-44 -25 6 0
-22 -1 8 0
