c Type 2: interval ordering (permuted), n=25, m_intervals=25, t=3
p cnf 25 100
-6 16 1 0
-18 11 -20 0
-23 20 2 0
-24 10 -21 0
-6 -16 -15 0
16 -17 -4 0
24 10 21 0
-16 17 -4 0
-10 12 6 0
24 -10 -21 0
-23 8 14 0
4 -18 11 0
10 -9 -12 0
-4 18 -11 0
10 -12 6 0
4 23 -11 0
6 -16 -15 0
4 18 11 0
-10 -12 -6 0
-4 -23 11 0
-4 -23 -11 0
10 12 6 0
16 17 4 0
10 -12 -6 0
18 11 -20 0
-10 -12 -6 0
-6 15 -4 0
-4 23 -18 0
23 8 14 0
24 -10 21 0
-6 3 -16 0
10 12 6 0
6 16 1 0
-10 -12 -6 0
6 15 17 0
18 11 20 0
-6 -16 1 0
9 -12 6 0
-10 9 12 0
-23 -8 -14 0
6 -15 17 0
4 -23 18 0
-6 3 -16 0
-6 -15 -4 0
-9 12 -6 0
-4 -23 -14 0
-6 -15 -4 0
-6 16 -1 0
24 -10 -21 0
-6 16 -1 0
-23 -20 2 0
4 18 11 0
9 12 6 0
10 -9 -12 0
-6 -16 1 0
-10 9 12 0
9 -12 6 0
-23 20 -2 0
4 23 -14 0
-16 -17 4 0
-10 12 -6 0
4 23 11 0
6 -15 4 0
4 -23 14 0
-6 -16 -1 0
10 -12 -6 0
10 -9 -12 0
-10 -9 12 0
6 -16 15 0
-9 -12 -6 0
6 3 16 0
-10 -12 -6 0
24 10 21 0
-6 -15 -17 0
10 12 -6 0
10 -12 6 0
6 -15 -17 0
10 12 6 0
-10 -12 -6 0
-4 23 -14 0
-23 -8 -14 0
4 23 18 0
-6 -3 16 0
-6 16 1 0
6 16 -1 0
-24 10 -21 0
18 -11 20 0
-9 -12 -6 0
10 -9 -12 0
-9 12 -6 0
-6 16 -1 0
-4 23 -18 0
-10 12 6 0
-24 10 -21 0
6 -16 -1 0
23 -20 2 0
-9 -12 6 0
6 -16 -15 0
-6 16 -1 0
10 9 12 0
