c Type 2: interval ordering (ordered), n=25, m_intervals=25, t=4
p cnf 25 100
2 1 -3 -4 0
2 1 -3 4 0
2 -1 -3 4 0
-2 1 -3 4 0
2 -3 -4 5 0
2 -3 -4 5 0
-2 -3 -4 5 0
2 -3 -4 5 0
3 4 5 -6 0
-3 4 5 -6 0
-3 4 5 -6 0
-3 4 5 6 0
3 -4 -5 6 0
-3 -4 -5 -6 0
3 -4 -5 -6 0
-3 4 -5 6 0
3 -4 5 6 0
-3 4 5 6 0
3 4 -5 -6 0
3 4 -5 -6 0
-5 6 -19 9 0
-5 6 -19 9 0
5 -6 19 9 0
-5 6 -19 9 0
-19 9 21 -11 0
19 9 -21 -11 0
19 -9 -21 -11 0
-19 -9 21 -11 0
19 9 -21 11 0
-19 9 -21 -11 0
19 9 -21 11 0
-19 -9 21 -11 0
18 -22 -16 -12 0
18 -22 16 -12 0
18 22 16 12 0
18 22 -16 -12 0
18 -14 16 -15 0
-18 -14 -16 -15 0
-18 14 16 -15 0
-18 14 16 -15 0
-14 22 -13 15 0
14 22 -13 15 0
14 -22 13 15 0
-14 22 13 15 0
-18 -15 -24 25 0
-18 15 -24 -25 0
-18 -15 24 -25 0
18 15 24 -25 0
-19 16 23 17 0
19 -16 -23 17 0
-19 -16 23 -17 0
19 -16 23 -17 0
-21 22 25 -17 0
-21 -22 25 -17 0
21 -22 -25 -17 0
-21 22 25 17 0
-18 -16 20 17 0
18 -16 -20 17 0
18 -16 -20 -17 0
-18 -16 20 -17 0
-18 15 -23 -20 0
18 -15 -23 -20 0
18 -15 -23 20 0
18 -15 23 -20 0
16 -23 25 -17 0
-16 -23 25 17 0
-16 -23 25 17 0
-16 -23 25 17 0
-21 18 -25 -17 0
-21 -18 25 17 0
-21 18 25 17 0
-21 18 25 17 0
22 23 20 24 0
-22 23 20 24 0
-22 -23 -20 24 0
-22 -23 20 -24 0
-21 22 25 17 0
-21 -22 -25 17 0
-21 22 -25 -17 0
-21 -22 25 17 0
-19 -21 -20 24 0
19 -21 -20 -24 0
19 21 -20 -24 0
-19 -21 -20 24 0
-19 22 24 25 0
-19 -22 -24 25 0
-19 22 -24 25 0
19 -22 24 -25 0
-19 22 -23 24 0
-19 -22 23 -24 0
19 -22 23 24 0
-19 -22 23 -24 0
19 -23 -24 -25 0
19 23 24 25 0
-19 23 24 -25 0
19 23 -24 25 0
19 -22 23 20 0
-19 -22 -23 20 0
19 22 23 20 0
19 22 -23 20 0
