p cnf 1260 4125
-1 3 -2 0
-3 1 0
2 -3 0
-4 5 -2 0
4 -5 0
2 -5 0
-1 7 -6 0
1 -7 0
6 -7 0
-7 -8 -5 0
-8 7 5 0
-7 8 5 0
8 7 -5 0
-7 9 -5 0
-9 5 0
-9 7 0
11 -10 -2 0
10 -11 0
2 -11 0
12 -4 -6 0
4 -12 0
6 -12 0
-13 -12 -11 0
11 12 -13 0
11 -12 13 0
12 13 -11 0
-9 -14 -13 0
9 -14 13 0
14 -9 13 0
14 9 -13 0
15 -9 -13 0
-15 13 0
-15 9 0
16 -12 -11 0
11 -16 0
12 -16 0
-17 16 15 0
-15 17 0
-16 17 0
-18 19 -2 0
-19 18 0
2 -19 0
-10 20 -6 0
-20 10 0
-20 6 0
-20 -21 -19 0
19 -21 20 0
-20 19 21 0
20 -19 21 0
-17 -22 -21 0
17 -22 21 0
-17 22 21 0
-21 22 17 0
23 -17 -21 0
-23 21 0
-23 17 0
-20 -19 24 0
-24 19 0
-24 20 0
23 -25 24 0
-23 25 0
-24 25 0
27 -26 -2 0
26 -27 0
2 -27 0
-18 28 -6 0
-28 18 0
-28 6 0
-28 -29 -27 0
27 -29 28 0
27 -28 29 0
28 -27 29 0
-30 -29 -25 0
-30 25 29 0
30 -25 29 0
30 -29 25 0
31 -29 -25 0
-31 29 0
-31 25 0
-28 -27 32 0
-32 27 0
-32 28 0
31 -33 32 0
-31 33 0
-32 33 0
35 -2 -34 0
-35 34 0
-35 2 0
36 -26 -6 0
26 -36 0
6 -36 0
-35 -37 -36 0
36 -37 35 0
-36 37 35 0
36 -35 37 0
-33 -37 -38 0
33 -38 37 0
-33 38 37 0
-37 38 33 0
-33 -37 39 0
-39 37 0
-39 33 0
-35 -36 40 0
-40 35 0
36 -40 0
-41 39 40 0
41 -39 0
41 -40 0
-42 43 -2 0
42 -43 0
2 -43 0
-6 44 -34 0
34 -44 0
6 -44 0
-45 -43 -44 0
-45 43 44 0
45 43 -44 0
45 -43 44 0
-46 -41 -45 0
41 45 -46 0
46 45 -41 0
41 46 -45 0
47 -41 -45 0
45 -47 0
41 -47 0
48 -43 -44 0
-48 43 0
-48 44 0
47 48 -49 0
49 -47 0
-48 49 0
-50 51 -2 0
50 -51 0
2 -51 0
52 -42 -6 0
-52 42 0
-52 6 0
-52 -51 -53 0
51 52 -53 0
51 -52 53 0
52 53 -51 0
-54 -49 -53 0
49 53 -54 0
54 53 -49 0
54 49 -53 0
55 -49 -53 0
-55 53 0
-55 49 0
-52 56 -51 0
51 -56 0
52 -56 0
56 55 -57 0
-55 57 0
57 -56 0
-58 59 -2 0
-59 58 0
-59 2 0
-50 60 -6 0
50 -60 0
6 -60 0
-61 -59 -60 0
60 -61 59 0
61 59 -60 0
60 -59 61 0
-62 -61 -57 0
-62 61 57 0
62 61 -57 0
62 -61 57 0
63 -61 -57 0
-63 61 0
-63 57 0
64 -59 -60 0
-64 59 0
60 -64 0
63 64 -65 0
-63 65 0
-64 65 0
-66 67 -2 0
66 -67 0
-67 2 0
-58 68 -6 0
-68 58 0
-68 6 0
-68 -69 -67 0
-69 68 67 0
-68 69 67 0
69 -67 68 0
-70 -69 -65 0
-70 69 65 0
70 69 -65 0
70 -69 65 0
-69 71 -65 0
-71 69 0
-71 65 0
-68 -67 72 0
-72 67 0
-72 68 0
71 72 -73 0
-71 73 0
-72 73 0
75 -74 -2 0
74 -75 0
2 -75 0
-66 76 -6 0
66 -76 0
-76 6 0
-76 -75 -77 0
75 76 -77 0
77 75 -76 0
76 77 -75 0
-78 -77 -73 0
77 -78 73 0
77 78 -73 0
73 -77 78 0
79 -77 -73 0
77 -79 0
73 -79 0
80 -76 -75 0
75 -80 0
76 -80 0
80 -81 79 0
81 -79 0
81 -80 0
-82 83 -2 0
-83 82 0
2 -83 0
-74 84 -6 0
74 -84 0
-84 6 0
-84 -85 -83 0
83 -85 84 0
85 83 -84 0
85 -83 84 0
-86 -85 -81 0
85 81 -86 0
85 -81 86 0
81 -85 86 0
-85 87 -81 0
85 -87 0
81 -87 0
88 -84 -83 0
83 -88 0
-88 84 0
88 -89 87 0
-87 89 0
89 -88 0
-90 91 -2 0
-91 90 0
-91 2 0
92 -82 -6 0
-92 82 0
6 -92 0
-91 -92 -93 0
-93 91 92 0
93 -92 91 0
-91 93 92 0
-94 -93 -89 0
-94 93 89 0
94 -89 93 0
94 -93 89 0
-93 -89 95 0
-95 93 0
-95 89 0
-91 96 -92 0
-96 91 0
-96 92 0
96 -97 95 0
-95 97 0
-96 97 0
-98 -2 99 0
98 -99 0
-99 2 0
-90 100 -6 0
90 -100 0
6 -100 0
-101 -99 -100 0
-101 99 100 0
101 99 -100 0
-99 100 101 0
-101 -97 -102 0
101 -102 97 0
101 -97 102 0
-101 102 97 0
-101 -97 103 0
101 -103 0
97 -103 0
-99 104 -100 0
99 -104 0
100 -104 0
104 -105 103 0
105 -103 0
105 -104 0
107 -106 -2 0
-107 106 0
2 -107 0
108 -98 -6 0
98 -108 0
6 -108 0
-108 -109 -107 0
107 108 -109 0
107 109 -108 0
108 109 -107 0
-110 -105 -109 0
-110 105 109 0
-105 110 109 0
110 105 -109 0
-105 111 -109 0
-111 109 0
-111 105 0
-108 112 -107 0
107 -112 0
108 -112 0
-113 112 111 0
-111 113 0
113 -112 0
114 -106 -6 0
-114 106 0
6 -114 0
-113 -115 -114 0
113 114 -115 0
113 115 -114 0
115 -113 114 0
116 -113 -114 0
113 -116 0
-116 114 0
-1 -117 118 0
1 -118 0
117 -118 0
-119 -14 -118 0
14 -119 118 0
14 119 -118 0
119 -14 118 0
120 -14 -118 0
14 -120 0
-120 118 0
-4 121 -117 0
4 -121 0
117 -121 0
-122 -22 -121 0
-122 121 22 0
-121 22 122 0
-22 121 122 0
-122 -123 -120 0
-123 120 122 0
-120 122 123 0
-122 123 120 0
-122 124 -120 0
-124 122 0
-124 120 0
-22 125 -121 0
-125 22 0
121 -125 0
124 125 -126 0
126 -124 0
126 -125 0
-10 -117 127 0
10 -127 0
117 -127 0
-30 -128 -127 0
30 -128 127 0
30 128 -127 0
-30 128 127 0
-128 -126 -129 0
128 126 -129 0
128 -126 129 0
-128 126 129 0
-128 130 -126 0
128 -130 0
126 -130 0
131 -30 -127 0
30 -131 0
-131 127 0
131 130 -132 0
132 -130 0
132 -131 0
-18 133 -117 0
-133 18 0
-133 117 0
-133 -134 -38 0
-134 38 133 0
-133 134 38 0
134 133 -38 0
-134 -135 -132 0
134 -135 132 0
134 -132 135 0
-134 132 135 0
-134 -132 136 0
134 -136 0
132 -136 0
-133 -38 137 0
-137 38 0
-137 133 0
-138 136 137 0
-136 138 0
-137 138 0
139 -26 -117 0
26 -139 0
-139 117 0
-46 -139 -140 0
46 139 -140 0
46 -139 140 0
-46 139 140 0
-141 -138 -140 0
-141 140 138 0
-138 141 140 0
138 141 -140 0
142 -138 -140 0
-142 140 0
-142 138 0
-46 -139 143 0
46 -143 0
139 -143 0
-144 142 143 0
144 -142 0
-143 144 0
145 -117 -34 0
-145 34 0
-145 117 0
-145 -54 -146 0
54 -146 145 0
54 146 -145 0
146 -54 145 0
-144 -146 -147 0
-147 146 144 0
-144 146 147 0
144 -146 147 0
-144 148 -146 0
-148 146 0
-148 144 0
-145 149 -54 0
54 -149 0
-149 145 0
148 149 -150 0
-148 150 0
-149 150 0
-42 -117 151 0
42 -151 0
117 -151 0
-62 -152 -151 0
62 -152 151 0
62 152 -151 0
-62 152 151 0
-150 -152 -153 0
-153 152 150 0
152 -150 153 0
153 -152 150 0
154 -150 -152 0
152 -154 0
150 -154 0
-62 -151 155 0
62 -155 0
-155 151 0
155 -156 154 0
156 -154 0
-155 156 0
-50 157 -117 0
50 -157 0
-157 117 0
-70 -157 -158 0
70 157 -158 0
158 70 -157 0
158 -70 157 0
-156 -159 -158 0
158 -159 156 0
158 -156 159 0
159 156 -158 0
-156 160 -158 0
158 -160 0
-160 156 0
-70 -157 161 0
70 -161 0
157 -161 0
161 160 -162 0
162 -160 0
162 -161 0
163 -58 -117 0
58 -163 0
117 -163 0
-164 -78 -163 0
163 -164 78 0
164 78 -163 0
163 -78 164 0
-164 -165 -162 0
162 -165 164 0
165 164 -162 0
-164 165 162 0
-164 166 -162 0
-166 164 0
162 -166 0
-78 167 -163 0
-167 78 0
163 -167 0
-168 166 167 0
-166 168 0
-167 168 0
-66 -117 169 0
66 -169 0
117 -169 0
-86 -170 -169 0
-170 169 86 0
-169 170 86 0
-86 170 169 0
-168 -170 -171 0
-171 168 170 0
-168 171 170 0
-170 171 168 0
-168 -170 172 0
-172 170 0
-172 168 0
-86 -169 173 0
-173 86 0
-173 169 0
-174 173 172 0
-172 174 0
-173 174 0
175 -74 -117 0
-175 74 0
-175 117 0
-175 -94 -176 0
94 175 -176 0
-175 94 176 0
-94 175 176 0
-174 -176 -177 0
176 -177 174 0
-174 177 176 0
177 -176 174 0
-174 -176 178 0
176 -178 0
-178 174 0
-175 -94 179 0
-179 94 0
-179 175 0
-180 179 178 0
180 -178 0
-179 180 0
-82 -117 181 0
-181 82 0
-181 117 0
-181 -102 -182 0
102 181 -182 0
-181 102 182 0
182 181 -102 0
-180 -183 -182 0
180 -183 182 0
-180 183 182 0
180 183 -182 0
-180 184 -182 0
182 -184 0
180 -184 0
185 -181 -102 0
102 -185 0
181 -185 0
184 -186 185 0
186 -184 0
186 -185 0
-90 187 -117 0
90 -187 0
117 -187 0
-188 -110 -187 0
-188 110 187 0
110 188 -187 0
-110 187 188 0
-188 -189 -186 0
-189 186 188 0
189 -186 188 0
-188 189 186 0
-188 190 -186 0
-190 188 0
-190 186 0
191 -110 -187 0
-191 110 0
-191 187 0
191 190 -192 0
-190 192 0
-191 192 0
-98 -117 193 0
98 -193 0
-193 117 0
-193 -115 -194 0
-194 115 193 0
-193 115 194 0
194 -115 193 0
-195 -192 -194 0
-195 194 192 0
195 194 -192 0
195 192 -194 0
196 -192 -194 0
-196 194 0
-196 192 0
-193 -115 197 0
-197 115 0
-197 193 0
197 -198 196 0
-196 198 0
-197 198 0
199 -106 -117 0
-199 106 0
-199 117 0
-199 -200 -116 0
199 -200 116 0
-199 116 200 0
199 -116 200 0
-200 -198 -201 0
198 200 -201 0
201 -198 200 0
-200 198 201 0
-200 -198 202 0
-202 200 0
-202 198 0
-199 203 -116 0
-203 116 0
199 -203 0
203 -204 202 0
-202 204 0
-203 204 0
-1 206 -205 0
1 -206 0
205 -206 0
-123 -207 -206 0
123 -207 206 0
123 207 -206 0
-123 207 206 0
-123 208 -206 0
123 -208 0
-208 206 0
-4 -205 209 0
4 -209 0
205 -209 0
-210 -209 -129 0
-210 209 129 0
210 -209 129 0
210 -129 209 0
-211 -208 -210 0
210 208 -211 0
210 -208 211 0
-210 211 208 0
212 -208 -210 0
210 -212 0
208 -212 0
213 -209 -129 0
-213 129 0
-213 209 0
213 212 -214 0
214 -212 0
214 -213 0
-10 -205 215 0
10 -215 0
205 -215 0
-216 -135 -215 0
-216 135 215 0
216 135 -215 0
-135 216 215 0
-216 -214 -217 0
214 216 -217 0
216 -214 217 0
-216 214 217 0
-216 218 -214 0
-218 216 0
-218 214 0
219 -135 -215 0
-219 135 0
-219 215 0
219 218 -220 0
-218 220 0
-219 220 0
-18 -205 221 0
-221 18 0
-221 205 0
-221 -222 -141 0
-222 141 221 0
-221 222 141 0
222 -141 221 0
-220 -223 -222 0
222 -223 220 0
222 -220 223 0
220 -222 223 0
224 -220 -222 0
222 -224 0
220 -224 0
-221 225 -141 0
141 -225 0
-225 221 0
224 225 -226 0
226 -224 0
226 -225 0
227 -26 -205 0
-227 26 0
-227 205 0
-147 -228 -227 0
227 -228 147 0
-227 228 147 0
-147 227 228 0
-226 -228 -229 0
-229 226 228 0
229 -226 228 0
229 -228 226 0
230 -226 -228 0
-230 228 0
-230 226 0
-147 231 -227 0
-231 147 0
-231 227 0
230 231 -232 0
-230 232 0
-231 232 0
233 -205 -34 0
34 -233 0
205 -233 0
-233 -153 -234 0
153 233 -234 0
153 -233 234 0
233 -153 234 0
-235 -232 -234 0
-235 232 234 0
235 -232 234 0
235 232 -234 0
236 -232 -234 0
-236 234 0
232 -236 0
237 -233 -153 0
-237 153 0
-237 233 0
237 -238 236 0
238 -236 0
-237 238 0
239 -42 -205 0
42 -239 0
205 -239 0
-240 -159 -239 0
159 -240 239 0
159 240 -239 0
239 -159 240 0
-240 -238 -241 0
238 -241 240 0
-238 240 241 0
238 -240 241 0
-240 -238 242 0
240 -242 0
238 -242 0
243 -159 -239 0
159 -243 0
239 -243 0
-244 243 242 0
244 -242 0
244 -243 0
-50 245 -205 0
50 -245 0
-245 205 0
-165 -246 -245 0
245 165 -246 0
-245 246 165 0
-165 245 246 0
-244 -246 -247 0
246 244 -247 0
-244 246 247 0
-246 244 247 0
-244 -246 248 0
246 -248 0
-248 244 0
-165 -245 249 0
165 -249 0
245 -249 0
248 -250 249 0
-248 250 0
-249 250 0
251 -58 -205 0
58 -251 0
205 -251 0
-252 -171 -251 0
251 -252 171 0
171 252 -251 0
251 -171 252 0
-252 -250 -253 0
-253 252 250 0
-250 253 252 0
-252 253 250 0
-252 -250 254 0
-254 252 0
-254 250 0
255 -171 -251 0
-255 171 0
251 -255 0
254 -256 255 0
256 -254 0
256 -255 0
-66 -205 257 0
66 -257 0
205 -257 0
-257 -258 -177 0
177 -258 257 0
258 177 -257 0
258 -177 257 0
-259 -256 -258 0
258 -259 256 0
258 -256 259 0
256 -258 259 0
-256 -258 260 0
258 -260 0
256 -260 0
-257 -177 261 0
177 -261 0
-261 257 0
-262 261 260 0
-260 262 0
262 -261 0
-74 -205 263 0
74 -263 0
205 -263 0
-264 -183 -263 0
183 -264 263 0
183 264 -263 0
264 -183 263 0
-265 -262 -264 0
-265 264 262 0
-262 265 264 0
265 -264 262 0
266 -262 -264 0
-266 264 0
-266 262 0
267 -183 -263 0
-267 183 0
-267 263 0
266 267 -268 0
-266 268 0
-267 268 0
-82 269 -205 0
-269 82 0
-269 205 0
-269 -189 -270 0
269 189 -270 0
-269 189 270 0
269 -189 270 0
-271 -268 -270 0
-271 270 268 0
-268 271 270 0
271 -270 268 0
272 -268 -270 0
-272 270 0
-272 268 0
273 -269 -189 0
-273 189 0
-273 269 0
272 273 -274 0
274 -272 0
-273 274 0
-90 -205 275 0
90 -275 0
205 -275 0
-195 -276 -275 0
-276 195 275 0
276 195 -275 0
-195 276 275 0
-277 -276 -274 0
274 -277 276 0
276 -274 277 0
274 -276 277 0
278 -276 -274 0
276 -278 0
274 -278 0
-195 279 -275 0
-279 195 0
-279 275 0
278 279 -280 0
280 -278 0
-279 280 0
281 -98 -205 0
98 -281 0
-281 205 0
-281 -282 -201 0
201 281 -282 0
-281 201 282 0
282 281 -201 0
-283 -282 -280 0
-283 280 282 0
283 -280 282 0
283 -282 280 0
-282 284 -280 0
-284 282 0
280 -284 0
-281 285 -201 0
201 -285 0
281 -285 0
-286 284 285 0
286 -284 0
-285 286 0
-205 -106 287 0
-287 106 0
205 -287 0
-204 -288 -287 0
-288 204 287 0
288 204 -287 0
288 -204 287 0
-286 -288 -289 0
288 286 -289 0
288 -286 289 0
-288 286 289 0
-286 -288 290 0
288 -290 0
-290 286 0
-204 291 -287 0
204 -291 0
287 -291 0
290 291 -292 0
292 -290 0
292 -291 0
-1 -293 294 0
-294 1 0
-294 293 0
-211 -295 -294 0
-295 294 211 0
295 -294 211 0
-211 295 294 0
-211 -294 296 0
-296 211 0
-296 294 0
-4 -293 297 0
4 -297 0
-297 293 0
-298 -297 -217 0
-298 297 217 0
298 -297 217 0
297 298 -217 0
-296 -298 -299 0
296 -299 298 0
-296 299 298 0
-298 299 296 0
-296 -298 300 0
-300 298 0
-300 296 0
301 -297 -217 0
-301 217 0
-301 297 0
300 301 -302 0
-300 302 0
-301 302 0
-293 -10 303 0
-303 10 0
-303 293 0
-303 -223 -304 0
303 -304 223 0
-303 304 223 0
304 303 -223 0
-305 -304 -302 0
-305 304 302 0
304 305 -302 0
305 -304 302 0
306 -304 -302 0
304 -306 0
-306 302 0
-303 307 -223 0
-307 223 0
303 -307 0
306 307 -308 0
308 -306 0
308 -307 0
-18 -293 309 0
-309 18 0
-309 293 0
-309 -310 -229 0
229 -310 309 0
-309 229 310 0
310 -229 309 0
-311 -310 -308 0
-311 308 310 0
311 -308 310 0
311 -310 308 0
-310 -308 312 0
-312 310 0
-312 308 0
-309 -229 313 0
229 -313 0
-313 309 0
-314 312 313 0
-312 314 0
-313 314 0
315 -293 -26 0
26 -315 0
-315 293 0
-235 -315 -316 0
235 315 -316 0
235 316 -315 0
-235 316 315 0
-314 -316 -317 0
316 -317 314 0
317 -314 316 0
317 -316 314 0
-314 318 -316 0
-318 316 0
-318 314 0
319 -235 -315 0
235 -319 0
-319 315 0
319 318 -320 0
-318 320 0
-319 320 0
-293 321 -34 0
-321 34 0
-321 293 0
-321 -322 -241 0
-322 321 241 0
-321 322 241 0
322 -241 321 0
-322 -323 -320 0
320 -323 322 0
323 322 -320 0
-322 323 320 0
324 -322 -320 0
-324 322 0
-324 320 0
-321 325 -241 0
-325 241 0
-325 321 0
324 325 -326 0
-324 326 0
-325 326 0
-293 -42 327 0
42 -327 0
293 -327 0
-328 -247 -327 0
-328 247 327 0
328 247 -327 0
-247 328 327 0
-328 -329 -326 0
-329 328 326 0
329 328 -326 0
-328 329 326 0
-328 -326 330 0
-330 328 0
-330 326 0
-247 331 -327 0
-331 247 0
-331 327 0
-332 331 330 0
-330 332 0
332 -331 0
-50 -293 333 0
50 -333 0
-333 293 0
-253 -334 -333 0
-334 333 253 0
-333 334 253 0
-253 333 334 0
-332 -334 -335 0
332 334 -335 0
-332 335 334 0
332 -334 335 0
-332 -334 336 0
334 -336 0
332 -336 0
-253 -333 337 0
253 -337 0
333 -337 0
336 337 -338 0
338 -336 0
-337 338 0
-58 -293 339 0
-339 58 0
-339 293 0
-259 -340 -339 0
339 -340 259 0
-339 340 259 0
-259 339 340 0
-341 -340 -338 0
-341 340 338 0
341 340 -338 0
-340 341 338 0
342 -340 -338 0
340 -342 0
-342 338 0
-259 -339 343 0
-343 259 0
339 -343 0
343 342 -344 0
344 -342 0
-343 344 0
-66 -293 345 0
66 -345 0
293 -345 0
-265 -346 -345 0
265 345 -346 0
346 265 -345 0
-265 346 345 0
-347 -346 -344 0
-347 346 344 0
346 347 -344 0
344 -346 347 0
-346 348 -344 0
346 -348 0
344 -348 0
-265 349 -345 0
-349 265 0
-349 345 0
349 -350 348 0
-348 350 0
-349 350 0
-293 -74 351 0
-351 74 0
-351 293 0
-271 -352 -351 0
271 351 -352 0
-351 271 352 0
-271 351 352 0
-350 -353 -352 0
-353 352 350 0
-350 352 353 0
350 353 -352 0
-350 354 -352 0
-354 352 0
-354 350 0
-271 355 -351 0
-355 271 0
-355 351 0
355 354 -356 0
-354 356 0
-355 356 0
-82 357 -293 0
-357 82 0
293 -357 0
-277 -358 -357 0
357 277 -358 0
277 -357 358 0
357 -277 358 0
-359 -356 -358 0
-359 356 358 0
359 -356 358 0
359 356 -358 0
360 -356 -358 0
-360 358 0
356 -360 0
361 -277 -357 0
-361 277 0
-361 357 0
360 361 -362 0
362 -360 0
-361 362 0
-90 -293 363 0
-363 90 0
-363 293 0
-283 -363 -364 0
283 363 -364 0
283 364 -363 0
364 -283 363 0
-365 -364 -362 0
364 -365 362 0
364 365 -362 0
365 362 -364 0
366 -364 -362 0
364 -366 0
-366 362 0
-283 -363 367 0
283 -367 0
363 -367 0
366 -368 367 0
-366 368 0
368 -367 0
369 -293 -98 0
98 -369 0
-369 293 0
-370 -369 -289 0
369 -370 289 0
289 -369 370 0
369 -289 370 0
-370 -371 -368 0
-371 368 370 0
371 370 -368 0
-370 368 371 0
-370 372 -368 0
-372 370 0
368 -372 0
373 -369 -289 0
-373 289 0
369 -373 0
373 -374 372 0
-372 374 0
-373 374 0
-293 375 -106 0
-375 106 0
-375 293 0
-375 -376 -292 0
-376 292 375 0
-375 292 376 0
376 375 -292 0
-377 -376 -374 0
-377 376 374 0
376 377 -374 0
-376 377 374 0
378 -376 -374 0
376 -378 0
-378 374 0
-375 379 -292 0
-379 292 0
-379 375 0
-380 379 378 0
380 -378 0
-379 380 0
-1 382 -381 0
-382 1 0
381 -382 0
-383 -382 -299 0
-383 299 382 0
-382 299 383 0
383 -299 382 0
-382 -299 384 0
-384 299 0
-384 382 0
-4 385 -381 0
-385 4 0
-385 381 0
-386 -305 -385 0
-386 305 385 0
-385 305 386 0
-305 385 386 0
-386 -384 -387 0
384 386 -387 0
-384 387 386 0
-386 387 384 0
-386 -384 388 0
-388 386 0
-388 384 0
-305 389 -385 0
-389 305 0
-389 385 0
389 388 -390 0
-388 390 0
-389 390 0
-10 391 -381 0
-391 10 0
-391 381 0
-391 -311 -392 0
311 391 -392 0
311 -391 392 0
392 -311 391 0
-390 -393 -392 0
-393 392 390 0
392 393 -390 0
390 393 -392 0
-390 394 -392 0
-394 392 0
-394 390 0
-391 395 -311 0
311 -395 0
-395 391 0
394 -396 395 0
-394 396 0
396 -395 0
-18 397 -381 0
-397 18 0
381 -397 0
-398 -397 -317 0
317 -398 397 0
317 398 -397 0
398 -317 397 0
-398 -396 -399 0
398 396 -399 0
398 399 -396 0
-398 396 399 0
-398 -396 400 0
398 -400 0
396 -400 0
-397 -317 401 0
317 -401 0
-401 397 0
401 400 -402 0
402 -400 0
-401 402 0
-26 403 -381 0
-403 26 0
-403 381 0
-403 -323 -404 0
323 -404 403 0
-403 323 404 0
-323 404 403 0
-405 -404 -402 0
-405 402 404 0
-402 405 404 0
402 405 -404 0
406 -404 -402 0
-406 404 0
-406 402 0
-403 407 -323 0
323 -407 0
-407 403 0
406 407 -408 0
408 -406 0
408 -407 0
409 -381 -34 0
-409 34 0
-409 381 0
-329 -409 -410 0
-410 409 329 0
-409 329 410 0
-329 409 410 0
-410 -411 -408 0
408 -411 410 0
411 -408 410 0
-410 408 411 0
-410 412 -408 0
-412 410 0
408 -412 0
413 -329 -409 0
-413 329 0
-413 409 0
413 412 -414 0
-412 414 0
414 -413 0
415 -42 -381 0
-415 42 0
-415 381 0
-415 -416 -335 0
-416 335 415 0
-415 416 335 0
416 -335 415 0
-416 -417 -414 0
416 414 -417 0
417 416 -414 0
417 -416 414 0
418 -416 -414 0
416 -418 0
414 -418 0
419 -415 -335 0
-419 335 0
-419 415 0
419 -420 418 0
-418 420 0
-419 420 0
-50 421 -381 0
50 -421 0
-421 381 0
-341 -421 -422 0
-422 341 421 0
-421 341 422 0
-341 421 422 0
-420 -422 -423 0
422 420 -423 0
-420 422 423 0
-422 420 423 0
-420 -422 424 0
422 -424 0
-424 420 0
-341 -421 425 0
341 -425 0
421 -425 0
425 424 -426 0
-424 426 0
426 -425 0
-58 427 -381 0
58 -427 0
381 -427 0
-428 -347 -427 0
427 -428 347 0
428 347 -427 0
-347 428 427 0
-429 -428 -426 0
-429 426 428 0
429 -426 428 0
429 -428 426 0
-428 430 -426 0
-430 428 0
-430 426 0
-347 431 -427 0
-431 347 0
-431 427 0
-432 430 431 0
-430 432 0
432 -431 0
-66 433 -381 0
66 -433 0
381 -433 0
-434 -353 -433 0
-434 433 353 0
434 -433 353 0
434 -353 433 0
-434 -432 -435 0
434 432 -435 0
435 434 -432 0
435 -434 432 0
-434 436 -432 0
434 -436 0
-436 432 0
-353 -433 437 0
-437 353 0
433 -437 0
-438 436 437 0
-436 438 0
438 -437 0
439 -74 -381 0
74 -439 0
381 -439 0
-359 -440 -439 0
359 -440 439 0
359 440 -439 0
-359 440 439 0
-441 -438 -440 0
-441 438 440 0
441 -438 440 0
441 -440 438 0
442 -438 -440 0
-442 440 0
438 -442 0
-359 443 -439 0
359 -443 0
-443 439 0
-444 442 443 0
444 -442 0
444 -443 0
-82 445 -381 0
-445 82 0
-445 381 0
-445 -365 -446 0
365 -446 445 0
-445 365 446 0
-365 446 445 0
-444 -447 -446 0
444 -447 446 0
-444 447 446 0
444 447 -446 0
-444 448 -446 0
-448 446 0
444 -448 0
-445 449 -365 0
-449 365 0
-449 445 0
448 449 -450 0
-448 450 0
-449 450 0
-90 451 -381 0
90 -451 0
381 -451 0
-452 -371 -451 0
451 -452 371 0
371 452 -451 0
-371 451 452 0
-452 -453 -450 0
-453 450 452 0
453 -450 452 0
453 -452 450 0
454 -452 -450 0
-454 452 0
-454 450 0
-371 455 -451 0
371 -455 0
451 -455 0
-456 454 455 0
456 -454 0
456 -455 0
457 -98 -381 0
98 -457 0
-457 381 0
-457 -458 -377 0
457 377 -458 0
-457 377 458 0
458 457 -377 0
-456 -458 -459 0
458 456 -459 0
459 458 -456 0
459 456 -458 0
-456 -458 460 0
458 -460 0
456 -460 0
-457 461 -377 0
-461 377 0
457 -461 0
461 -462 460 0
462 -460 0
462 -461 0
463 -106 -381 0
-463 106 0
381 -463 0
-464 -380 -463 0
380 463 -464 0
380 464 -463 0
464 463 -380 0
-465 -464 -462 0
464 462 -465 0
465 464 -462 0
465 462 -464 0
-464 -462 466 0
464 -466 0
462 -466 0
467 -380 -463 0
380 -467 0
463 -467 0
467 -468 466 0
468 -466 0
468 -467 0
-1 470 -469 0
-470 1 0
-470 469 0
-470 -471 -387 0
470 387 -471 0
-470 387 471 0
470 471 -387 0
472 -470 -387 0
-472 387 0
-472 470 0
-4 473 -469 0
-473 4 0
-473 469 0
-473 -393 -474 0
473 393 -474 0
-473 474 393 0
-393 474 473 0
-474 -475 -472 0
472 -475 474 0
475 -472 474 0
472 -474 475 0
476 -474 -472 0
-476 474 0
472 -476 0
-473 -393 477 0
-477 393 0
-477 473 0
-478 476 477 0
-476 478 0
-477 478 0
-469 -10 479 0
-479 10 0
-479 469 0
-480 -479 -399 0
-480 399 479 0
399 -479 480 0
480 479 -399 0
-480 -478 -481 0
-481 478 480 0
-478 481 480 0
-480 481 478 0
-480 -478 482 0
-482 480 0
-482 478 0
-479 483 -399 0
399 -483 0
479 -483 0
-484 483 482 0
-482 484 0
484 -483 0
-18 -469 485 0
-485 18 0
469 -485 0
-405 -486 -485 0
-486 405 485 0
486 -485 405 0
-405 486 485 0
-486 -487 -484 0
486 -487 484 0
487 486 -484 0
-486 484 487 0
-486 488 -484 0
486 -488 0
484 -488 0
-405 -485 489 0
-489 405 0
-489 485 0
-490 488 489 0
490 -488 0
490 -489 0
-469 -26 491 0
26 -491 0
469 -491 0
-492 -411 -491 0
411 -492 491 0
411 -491 492 0
-411 492 491 0
-490 -492 -493 0
490 -493 492 0
493 -490 492 0
490 493 -492 0
-490 -492 494 0
-494 492 0
490 -494 0
495 -411 -491 0
411 -495 0
-495 491 0
-496 495 494 0
496 -494 0
496 -495 0
497 -469 -34 0
-497 34 0
469 -497 0
-498 -497 -417 0
417 -498 497 0
417 -497 498 0
-417 498 497 0
-496 -499 -498 0
-499 496 498 0
-496 499 498 0
499 -498 496 0
-496 500 -498 0
-500 498 0
-500 496 0
-497 -417 501 0
417 -501 0
-501 497 0
500 -502 501 0
-500 502 0
-501 502 0
-469 -42 503 0
42 -503 0
469 -503 0
-504 -423 -503 0
-504 503 423 0
-503 504 423 0
504 503 -423 0
-504 -502 -505 0
-505 504 502 0
-502 504 505 0
-504 505 502 0
-504 -502 506 0
504 -506 0
-506 502 0
507 -423 -503 0
-507 423 0
503 -507 0
506 507 -508 0
508 -506 0
508 -507 0
-50 -469 509 0
50 -509 0
469 -509 0
-510 -429 -509 0
429 509 -510 0
429 510 -509 0
-429 510 509 0
-510 -511 -508 0
508 510 -511 0
511 510 -508 0
-510 508 511 0
-510 512 -508 0
510 -512 0
508 -512 0
-429 513 -509 0
429 -513 0
509 -513 0
-514 513 512 0
-512 514 0
514 -513 0
-469 -58 515 0
58 -515 0
469 -515 0
-435 -516 -515 0
515 435 -516 0
435 516 -515 0
515 516 -435 0
-514 -517 -516 0
516 -517 514 0
517 -514 516 0
517 514 -516 0
-514 518 -516 0
516 -518 0
514 -518 0
519 -435 -515 0
435 -519 0
515 -519 0
519 -520 518 0
520 -518 0
520 -519 0
-66 -469 521 0
-521 66 0
-521 469 0
-441 -521 -522 0
441 -522 521 0
-521 441 522 0
-441 521 522 0
-523 -522 -520 0
520 -523 522 0
523 -520 522 0
523 520 -522 0
524 -522 -520 0
-524 522 0
520 -524 0
-441 -521 525 0
-525 441 0
-525 521 0
524 525 -526 0
526 -524 0
-525 526 0
-469 -74 527 0
-527 74 0
-527 469 0
-527 -447 -528 0
447 527 -528 0
447 528 -527 0
528 527 -447 0
-529 -526 -528 0
528 -529 526 0
528 529 -526 0
526 529 -528 0
530 -526 -528 0
528 -530 0
526 -530 0
531 -527 -447 0
-531 447 0
-531 527 0
531 -532 530 0
532 -530 0
-531 532 0
-82 533 -469 0
-533 82 0
-533 469 0
-533 -453 -534 0
453 533 -534 0
453 534 -533 0
534 533 -453 0
-532 -534 -535 0
534 532 -535 0
534 535 -532 0
532 535 -534 0
-532 -534 536 0
534 -536 0
532 -536 0
-533 537 -453 0
453 -537 0
533 -537 0
537 -538 536 0
-536 538 0
538 -537 0
539 -90 -469 0
-539 90 0
-539 469 0
-540 -539 -459 0
539 459 -540 0
-539 459 540 0
539 540 -459 0
-538 -540 -541 0
540 538 -541 0
-538 540 541 0
541 -540 538 0
-538 -540 542 0
540 -542 0
538 -542 0
543 -539 -459 0
459 -543 0
539 -543 0
543 -544 542 0
544 -542 0
544 -543 0
-469 -98 545 0
98 -545 0
469 -545 0
-465 -545 -546 0
465 -546 545 0
465 546 -545 0
-465 546 545 0
-547 -544 -546 0
544 -547 546 0
547 -544 546 0
547 544 -546 0
-544 -546 548 0
-548 546 0
544 -548 0
-465 -545 549 0
-549 465 0
-549 545 0
-550 549 548 0
550 -548 0
550 -549 0
-469 551 -106 0
-551 106 0
469 -551 0
-552 -468 -551 0
551 -552 468 0
552 468 -551 0
551 -468 552 0
-552 -553 -550 0
550 552 -553 0
553 552 -550 0
550 -552 553 0
554 -552 -550 0
552 -554 0
550 -554 0
-468 555 -551 0
-555 468 0
551 -555 0
554 -556 555 0
556 -554 0
-555 556 0
558 -1 -557 0
-558 1 0
557 -558 0
-559 -558 -475 0
-559 475 558 0
559 475 -558 0
559 -475 558 0
-558 -475 560 0
475 -560 0
-560 558 0
-4 -557 561 0
4 -561 0
557 -561 0
-481 -561 -562 0
481 561 -562 0
481 -561 562 0
-481 561 562 0
-560 -563 -562 0
-563 560 562 0
-560 563 562 0
560 563 -562 0
-560 -562 564 0
562 -564 0
560 -564 0
-481 -561 565 0
481 -565 0
561 -565 0
565 -566 564 0
566 -564 0
566 -565 0
-557 -10 567 0
-567 10 0
557 -567 0
-567 -487 -568 0
567 487 -568 0
-567 568 487 0
567 -487 568 0
-569 -566 -568 0
-569 568 566 0
568 569 -566 0
569 566 -568 0
570 -566 -568 0
-570 568 0
-570 566 0
-567 -487 571 0
-571 487 0
-571 567 0
570 -572 571 0
-570 572 0
-571 572 0
-18 -557 573 0
-573 18 0
557 -573 0
-573 -574 -493 0
493 -574 573 0
493 574 -573 0
574 573 -493 0
-575 -572 -574 0
574 572 -575 0
574 575 -572 0
575 572 -574 0
-572 -574 576 0
574 -576 0
-576 572 0
577 -573 -493 0
493 -577 0
-577 573 0
576 -578 577 0
-576 578 0
-577 578 0
579 -557 -26 0
26 -579 0
557 -579 0
-499 -579 -580 0
579 499 -580 0
-579 499 580 0
-499 579 580 0
-581 -580 -578 0
-581 578 580 0
-578 580 581 0
-580 578 581 0
582 -580 -578 0
-582 580 0
-582 578 0
583 -499 -579 0
-583 499 0
-583 579 0
583 582 -584 0
-582 584 0
-583 584 0
585 -557 -34 0
-585 34 0
557 -585 0
-585 -586 -505 0
585 -586 505 0
-585 586 505 0
585 586 -505 0
-586 -587 -584 0
-587 586 584 0
587 586 -584 0
587 -586 584 0
-586 588 -584 0
-588 586 0
-588 584 0
-585 589 -505 0
-589 505 0
585 -589 0
-590 589 588 0
590 -588 0
590 -589 0
591 -557 -42 0
42 -591 0
557 -591 0
-592 -511 -591 0
-592 511 591 0
511 592 -591 0
591 -511 592 0
-592 -593 -590 0
590 -593 592 0
-590 592 593 0
-592 590 593 0
-592 594 -590 0
-594 592 0
590 -594 0
595 -511 -591 0
511 -595 0
591 -595 0
595 594 -596 0
596 -594 0
596 -595 0
-50 -557 597 0
50 -597 0
557 -597 0
-517 -597 -598 0
517 597 -598 0
517 598 -597 0
598 597 -517 0
-599 -596 -598 0
596 598 -599 0
598 599 -596 0
596 599 -598 0
600 -596 -598 0
-600 598 0
-600 596 0
-517 -597 601 0
517 -601 0
597 -601 0
-602 600 601 0
-600 602 0
602 -601 0
-58 -557 603 0
58 -603 0
557 -603 0
-523 -604 -603 0
523 -604 603 0
523 604 -603 0
-523 604 603 0
-602 -604 -605 0
602 604 -605 0
-602 604 605 0
602 605 -604 0
-602 606 -604 0
-606 604 0
602 -606 0
607 -523 -603 0
-607 523 0
-607 603 0
-608 606 607 0
-606 608 0
-607 608 0
-66 -557 609 0
-609 66 0
557 -609 0
-609 -529 -610 0
529 -610 609 0
-609 529 610 0
610 -529 609 0
-611 -608 -610 0
610 608 -611 0
610 611 -608 0
611 608 -610 0
-608 -610 612 0
610 -612 0
608 -612 0
-609 -529 613 0
529 -613 0
-613 609 0
-614 613 612 0
614 -612 0
-613 614 0
-557 -74 615 0
74 -615 0
557 -615 0
-616 -615 -535 0
-616 535 615 0
535 -615 616 0
615 616 -535 0
-614 -616 -617 0
-617 616 614 0
-614 616 617 0
-616 617 614 0
-614 -616 618 0
616 -618 0
-618 614 0
-615 619 -535 0
-619 535 0
-619 615 0
-620 619 618 0
620 -618 0
620 -619 0
-82 -557 621 0
-621 82 0
557 -621 0
-621 -622 -541 0
-622 621 541 0
-621 622 541 0
622 621 -541 0
-620 -622 -623 0
620 622 -623 0
622 -620 623 0
620 -622 623 0
-620 -622 624 0
622 -624 0
620 -624 0
-621 625 -541 0
-625 541 0
621 -625 0
624 -626 625 0
-624 626 0
-625 626 0
627 -90 -557 0
-627 90 0
557 -627 0
-627 -547 -628 0
547 627 -628 0
547 628 -627 0
627 -547 628 0
-629 -626 -628 0
628 -629 626 0
629 628 -626 0
626 629 -628 0
630 -626 -628 0
-630 628 0
-630 626 0
-627 -547 631 0
547 -631 0
627 -631 0
-632 630 631 0
-630 632 0
632 -631 0
633 -557 -98 0
98 -633 0
557 -633 0
-633 -634 -553 0
553 633 -634 0
553 -633 634 0
633 634 -553 0
-634 -632 -635 0
634 -635 632 0
-632 634 635 0
-634 632 635 0
-634 -632 636 0
634 -636 0
-636 632 0
-633 -553 637 0
553 -637 0
633 -637 0
-638 636 637 0
638 -636 0
-637 638 0
-557 -106 639 0
-639 106 0
557 -639 0
-556 -640 -639 0
-640 639 556 0
-639 640 556 0
-556 640 639 0
-641 -640 -638 0
-641 640 638 0
640 641 -638 0
-640 641 638 0
-640 642 -638 0
-642 640 0
-642 638 0
-556 643 -639 0
-643 556 0
639 -643 0
643 642 -644 0
-642 644 0
644 -643 0
-1 646 -645 0
1 -646 0
645 -646 0
-647 -563 -646 0
-647 563 646 0
563 647 -646 0
647 -563 646 0
-563 648 -646 0
563 -648 0
-648 646 0
-4 649 -645 0
4 -649 0
645 -649 0
-569 -650 -649 0
-650 569 649 0
650 569 -649 0
650 -569 649 0
-650 -648 -651 0
650 648 -651 0
650 651 -648 0
-650 651 648 0
652 -650 -648 0
650 -652 0
648 -652 0
-569 653 -649 0
-653 569 0
-653 649 0
652 653 -654 0
654 -652 0
-653 654 0
-10 655 -645 0
-655 10 0
-655 645 0
-655 -656 -575 0
575 -656 655 0
575 656 -655 0
-575 656 655 0
-656 -657 -654 0
-657 656 654 0
657 656 -654 0
-656 657 654 0
658 -656 -654 0
656 -658 0
-658 654 0
-655 659 -575 0
575 -659 0
-659 655 0
658 659 -660 0
-658 660 0
-659 660 0
-18 661 -645 0
18 -661 0
645 -661 0
-581 -662 -661 0
-662 661 581 0
662 -661 581 0
-581 662 661 0
-663 -662 -660 0
-663 662 660 0
662 -660 663 0
-662 663 660 0
-662 -660 664 0
662 -664 0
-664 660 0
-581 665 -661 0
-665 581 0
-665 661 0
-666 665 664 0
666 -664 0
-665 666 0
667 -26 -645 0
26 -667 0
645 -667 0
-667 -668 -587 0
587 -668 667 0
587 -667 668 0
667 -587 668 0
-668 -666 -669 0
-669 666 668 0
-666 669 668 0
-668 669 666 0
-668 -666 670 0
668 -670 0
666 -670 0
-667 671 -587 0
587 -671 0
-671 667 0
671 670 -672 0
672 -670 0
-671 672 0
673 -645 -34 0
34 -673 0
645 -673 0
-593 -674 -673 0
673 -674 593 0
674 593 -673 0
-593 673 674 0
-674 -675 -672 0
-675 672 674 0
675 674 -672 0
672 -674 675 0
676 -674 -672 0
-676 674 0
672 -676 0
-593 677 -673 0
-677 593 0
-677 673 0
676 -678 677 0
-676 678 0
-677 678 0
679 -42 -645 0
42 -679 0
645 -679 0
-599 -680 -679 0
-680 679 599 0
599 -679 680 0
-599 679 680 0
-678 -680 -681 0
-681 680 678 0
-678 681 680 0
681 -680 678 0
-678 -680 682 0
680 -682 0
-682 678 0
-599 683 -679 0
599 -683 0
679 -683 0
-684 683 682 0
684 -682 0
684 -683 0
-50 685 -645 0
50 -685 0
-685 645 0
-685 -686 -605 0
685 605 -686 0
-685 605 686 0
685 686 -605 0
-684 -686 -687 0
684 686 -687 0
-684 687 686 0
687 684 -686 0
-684 688 -686 0
-688 686 0
-688 684 0
-685 689 -605 0
-689 605 0
-689 685 0
-690 688 689 0
-688 690 0
-689 690 0
-58 691 -645 0
-691 58 0
645 -691 0
-692 -691 -611 0
-692 611 691 0
-691 611 692 0
691 -611 692 0
-693 -692 -690 0
-693 692 690 0
693 692 -690 0
693 -692 690 0
694 -692 -690 0
-694 692 0
-694 690 0
-691 695 -611 0
611 -695 0
691 -695 0
694 -696 695 0
-694 696 0
696 -695 0
-66 697 -645 0
66 -697 0
645 -697 0
-617 -698 -697 0
-698 697 617 0
698 617 -697 0
698 -617 697 0
-698 -699 -696 0
698 -699 696 0
698 -696 699 0
-698 699 696 0
700 -698 -696 0
-700 698 0
-700 696 0
-617 701 -697 0
-701 617 0
697 -701 0
-702 700 701 0
-700 702 0
702 -701 0
703 -74 -645 0
74 -703 0
645 -703 0
-704 -703 -623 0
-704 703 623 0
704 -703 623 0
704 703 -623 0
-704 -702 -705 0
704 702 -705 0
-702 704 705 0
-704 702 705 0
-704 -702 706 0
-706 704 0
-706 702 0
-703 -623 707 0
-707 623 0
703 -707 0
-708 706 707 0
-706 708 0
708 -707 0
709 -82 -645 0
-709 82 0
645 -709 0
-709 -629 -710 0
709 629 -710 0
-709 629 710 0
709 -629 710 0
-708 -710 -711 0
708 710 -711 0
-708 710 711 0
711 708 -710 0
-708 712 -710 0
-712 710 0
-712 708 0
713 -709 -629 0
-713 629 0
-713 709 0
713 -714 712 0
714 -712 0
-713 714 0
-90 715 -645 0
90 -715 0
645 -715 0
-635 -716 -715 0
-716 715 635 0
716 -715 635 0
716 -635 715 0
-714 -716 -717 0
714 716 -717 0
717 716 -714 0
714 717 -716 0
718 -714 -716 0
716 -718 0
714 -718 0
-635 719 -715 0
-719 635 0
715 -719 0
718 719 -720 0
720 -718 0
720 -719 0
-98 721 -645 0
98 -721 0
-721 645 0
-721 -641 -722 0
-722 641 721 0
-721 641 722 0
-641 722 721 0
-722 -723 -720 0
720 -723 722 0
723 722 -720 0
-722 720 723 0
-722 724 -720 0
-724 722 0
720 -724 0
-721 -641 725 0
641 -725 0
-725 721 0
725 724 -726 0
726 -724 0
726 -725 0
727 -106 -645 0
-727 106 0
645 -727 0
-728 -727 -644 0
-728 644 727 0
644 -727 728 0
-644 727 728 0
-728 -729 -726 0
726 728 -729 0
728 729 -726 0
-728 726 729 0
-728 730 -726 0
-730 728 0
-730 726 0
-727 -644 731 0
644 -731 0
727 -731 0
730 731 -732 0
-730 732 0
732 -731 0
-733 -1 734 0
-734 1 0
-734 733 0
-734 -735 -651 0
-735 651 734 0
-734 651 735 0
735 734 -651 0
-734 -651 736 0
651 -736 0
734 -736 0
-733 -4 737 0
4 -737 0
-737 733 0
-738 -737 -657 0
-738 657 737 0
738 657 -737 0
738 737 -657 0
-738 -739 -736 0
738 -739 736 0
738 739 -736 0
-738 739 736 0
-738 740 -736 0
738 -740 0
-740 736 0
741 -737 -657 0
657 -741 0
737 -741 0
-742 740 741 0
-740 742 0
742 -741 0
-733 -10 743 0
-743 10 0
-743 733 0
-663 -743 -744 0
-744 743 663 0
744 -743 663 0
-663 743 744 0
-744 -742 -745 0
744 -745 742 0
744 -742 745 0
-744 745 742 0
-744 -742 746 0
744 -746 0
-746 742 0
-663 747 -743 0
-747 663 0
-747 743 0
746 747 -748 0
748 -746 0
748 -747 0
-18 749 -733 0
-749 18 0
-749 733 0
-749 -669 -750 0
749 669 -750 0
-749 669 750 0
749 -669 750 0
-751 -750 -748 0
748 750 -751 0
751 750 -748 0
748 -750 751 0
752 -750 -748 0
750 -752 0
748 -752 0
-749 -669 753 0
-753 669 0
749 -753 0
752 -754 753 0
754 -752 0
-753 754 0
-733 -26 755 0
26 -755 0
-755 733 0
-756 -675 -755 0
-756 675 755 0
675 -755 756 0
-675 755 756 0
-754 -756 -757 0
-757 754 756 0
-754 757 756 0
-756 754 757 0
-754 -756 758 0
-758 756 0
754 -758 0
-675 759 -755 0
675 -759 0
-759 755 0
758 -760 759 0
760 -758 0
760 -759 0
-733 761 -34 0
-761 34 0
-761 733 0
-762 -761 -681 0
-762 761 681 0
-761 681 762 0
761 762 -681 0
-762 -763 -760 0
-763 760 762 0
763 762 -760 0
-762 763 760 0
-762 -760 764 0
762 -764 0
760 -764 0
-761 -681 765 0
681 -765 0
761 -765 0
764 765 -766 0
766 -764 0
766 -765 0
-733 -42 767 0
-767 42 0
-767 733 0
-767 -768 -687 0
687 -768 767 0
687 -767 768 0
768 767 -687 0
-769 -766 -768 0
768 -769 766 0
768 -766 769 0
769 766 -768 0
-766 770 -768 0
768 -770 0
766 -770 0
-767 771 -687 0
687 -771 0
-771 767 0
-772 770 771 0
-770 772 0
-771 772 0
-50 773 -733 0
50 -773 0
-773 733 0
-693 -774 -773 0
693 -774 773 0
693 774 -773 0
-693 774 773 0
-772 -775 -774 0
774 772 -775 0
774 775 -772 0
775 772 -774 0
-772 776 -774 0
774 -776 0
772 -776 0
-693 777 -773 0
693 -777 0
-777 773 0
-778 777 776 0
778 -776 0
778 -777 0
-733 -58 779 0
-779 58 0
-779 733 0
-779 -699 -780 0
699 779 -780 0
780 699 -779 0
780 779 -699 0
-778 -781 -780 0
780 778 -781 0
-778 780 781 0
781 778 -780 0
-778 782 -780 0
-782 780 0
-782 778 0
783 -779 -699 0
-783 699 0
-783 779 0
783 782 -784 0
-782 784 0
-783 784 0
-66 785 -733 0
-785 66 0
-785 733 0
-786 -785 -705 0
785 -786 705 0
786 -785 705 0
785 786 -705 0
-786 -787 -784 0
786 -787 784 0
787 786 -784 0
787 -786 784 0
-786 788 -784 0
-788 786 0
-788 784 0
789 -785 -705 0
-789 705 0
-789 785 0
-790 788 789 0
-788 790 0
-789 790 0
-733 -74 791 0
74 -791 0
-791 733 0
-792 -791 -711 0
711 791 -792 0
711 -791 792 0
792 791 -711 0
-790 -793 -792 0
790 792 -793 0
-790 793 792 0
793 790 -792 0
-790 -792 794 0
792 -794 0
790 -794 0
795 -791 -711 0
711 -795 0
791 -795 0
795 -796 794 0
796 -794 0
796 -795 0
-733 -82 797 0
-797 82 0
-797 733 0
-798 -797 -717 0
-798 797 717 0
-797 717 798 0
797 -717 798 0
-798 -799 -796 0
-799 796 798 0
799 -796 798 0
-798 799 796 0
-798 800 -796 0
-800 798 0
-800 796 0
-797 801 -717 0
717 -801 0
797 -801 0
800 -802 801 0
-800 802 0
802 -801 0
-733 -90 803 0
-803 90 0
-803 733 0
-803 -723 -804 0
803 -804 723 0
-803 804 723 0
803 -723 804 0
-805 -802 -804 0
-805 804 802 0
804 -802 805 0
802 805 -804 0
806 -802 -804 0
804 -806 0
-806 802 0
-803 -723 807 0
-807 723 0
-807 803 0
806 -808 807 0
808 -806 0
808 -807 0
-733 809 -98 0
98 -809 0
-809 733 0
-809 -729 -810 0
809 -810 729 0
810 -809 729 0
810 809 -729 0
-811 -808 -810 0
810 808 -811 0
810 -808 811 0
808 811 -810 0
-808 812 -810 0
810 -812 0
808 -812 0
-809 813 -729 0
-813 729 0
809 -813 0
-814 813 812 0
-812 814 0
-813 814 0
-733 -106 815 0
-815 106 0
-815 733 0
-815 -732 -816 0
732 815 -816 0
-815 732 816 0
815 816 -732 0
-814 -817 -816 0
-817 816 814 0
-814 817 816 0
817 814 -816 0
-814 818 -816 0
816 -818 0
814 -818 0
-815 -732 819 0
732 -819 0
-819 815 0
819 818 -820 0
-818 820 0
-819 820 0
-821 -1 822 0
1 -822 0
-822 821 0
-739 -822 -823 0
739 822 -823 0
823 739 -822 0
823 822 -739 0
-739 -822 824 0
739 -824 0
822 -824 0
-821 -4 825 0
4 -825 0
-825 821 0
-826 -745 -825 0
745 -826 825 0
745 -825 826 0
-745 826 825 0
-824 -826 -827 0
824 -827 826 0
827 -824 826 0
827 -826 824 0
-824 828 -826 0
-828 826 0
-828 824 0
-745 -825 829 0
745 -829 0
-829 825 0
828 -830 829 0
-828 830 0
-829 830 0
-821 831 -10 0
-831 10 0
-831 821 0
-751 -831 -832 0
831 751 -832 0
-831 832 751 0
-751 831 832 0
-830 -833 -832 0
-833 832 830 0
832 833 -830 0
830 833 -832 0
834 -830 -832 0
832 -834 0
830 -834 0
-751 -831 835 0
-835 751 0
831 -835 0
-836 835 834 0
836 -834 0
-835 836 0
-18 -821 837 0
-837 18 0
-837 821 0
-757 -838 -837 0
-838 837 757 0
-837 838 757 0
838 -757 837 0
-836 -838 -839 0
838 836 -839 0
-836 838 839 0
-838 839 836 0
-836 -838 840 0
-840 838 0
-840 836 0
-757 841 -837 0
-841 757 0
-841 837 0
841 -842 840 0
-840 842 0
842 -841 0
-821 -26 843 0
26 -843 0
-843 821 0
-763 -843 -844 0
763 -844 843 0
763 -843 844 0
-763 844 843 0
-844 -845 -842 0
842 -845 844 0
845 844 -842 0
-844 842 845 0
-844 846 -842 0
-846 844 0
-846 842 0
-763 -843 847 0
763 -847 0
-847 843 0
-848 846 847 0
-846 848 0
848 -847 0
-821 849 -34 0
34 -849 0
-849 821 0
-769 -849 -850 0
769 849 -850 0
769 -849 850 0
-769 849 850 0
-848 -851 -850 0
848 -851 850 0
851 -848 850 0
851 848 -850 0
-848 852 -850 0
-852 850 0
848 -852 0
-769 -849 853 0
769 -853 0
849 -853 0
852 -854 853 0
854 -852 0
854 -853 0
-821 -42 855 0
-855 42 0
-855 821 0
-855 -775 -856 0
775 855 -856 0
856 -855 775 0
856 -775 855 0
-857 -854 -856 0
856 -857 854 0
856 857 -854 0
854 857 -856 0
858 -854 -856 0
856 -858 0
-858 854 0
-855 -775 859 0
-859 775 0
-859 855 0
859 -860 858 0
-858 860 0
-859 860 0
-50 -821 861 0
50 -861 0
-861 821 0
-861 -862 -781 0
861 -862 781 0
-861 862 781 0
861 -781 862 0
-863 -862 -860 0
-863 860 862 0
863 -860 862 0
863 -862 860 0
864 -862 -860 0
-864 862 0
-864 860 0
865 -861 -781 0
-865 781 0
861 -865 0
-866 864 865 0
866 -864 0
866 -865 0
-821 -58 867 0
-867 58 0
-867 821 0
-868 -867 -787 0
-868 787 867 0
868 787 -867 0
868 867 -787 0
-868 -866 -869 0
866 868 -869 0
-866 868 869 0
866 -868 869 0
-868 870 -866 0
-870 868 0
866 -870 0
-867 -787 871 0
-871 787 0
-871 867 0
-872 870 871 0
-870 872 0
-871 872 0
-66 -821 873 0
-873 66 0
-873 821 0
-874 -873 -793 0
873 793 -874 0
793 874 -873 0
874 873 -793 0
-874 -872 -875 0
874 872 -875 0
874 875 -872 0
-874 875 872 0
-874 876 -872 0
874 -876 0
-876 872 0
877 -873 -793 0
793 -877 0
873 -877 0
877 -878 876 0
878 -876 0
-877 878 0
-821 -74 879 0
74 -879 0
-879 821 0
-799 -879 -880 0
799 879 -880 0
799 880 -879 0
879 880 -799 0
-878 -881 -880 0
878 880 -881 0
-878 880 881 0
878 881 -880 0
-878 882 -880 0
-882 880 0
-882 878 0
883 -799 -879 0
799 -883 0
879 -883 0
-884 883 882 0
-882 884 0
-883 884 0
-821 -82 885 0
-885 82 0
-885 821 0
-805 -885 -886 0
805 885 -886 0
-885 805 886 0
-805 886 885 0
-884 -887 -886 0
-887 886 884 0
-884 886 887 0
887 884 -886 0
-884 888 -886 0
-888 886 0
-888 884 0
-805 -885 889 0
-889 805 0
-889 885 0
888 -890 889 0
-888 890 0
-889 890 0
-821 -90 891 0
-891 90 0
-891 821 0
-811 -892 -891 0
-892 891 811 0
-891 892 811 0
-811 891 892 0
-892 -893 -890 0
-893 892 890 0
893 -890 892 0
-892 893 890 0
-892 -890 894 0
892 -894 0
-894 890 0
-811 -891 895 0
-895 811 0
891 -895 0
-896 895 894 0
896 -894 0
896 -895 0
897 -821 -98 0
98 -897 0
-897 821 0
-898 -817 -897 0
897 817 -898 0
817 898 -897 0
897 898 -817 0
-896 -898 -899 0
896 898 -899 0
-896 898 899 0
-898 896 899 0
-896 -898 900 0
898 -900 0
896 -900 0
901 -817 -897 0
817 -901 0
897 -901 0
901 900 -902 0
902 -900 0
-901 902 0
-821 903 -106 0
-903 106 0
-903 821 0
-904 -820 -903 0
-904 903 820 0
904 -903 820 0
904 -820 903 0
-904 -905 -902 0
904 902 -905 0
905 904 -902 0
-904 905 902 0
-904 906 -902 0
904 -906 0
-906 902 0
907 -820 -903 0
-907 820 0
-907 903 0
907 906 -908 0
-906 908 0
-907 908 0
-909 -1 910 0
-910 1 0
909 -910 0
-911 -910 -827 0
910 -911 827 0
911 -910 827 0
911 910 -827 0
912 -910 -827 0
-912 827 0
910 -912 0
-909 -4 913 0
-913 4 0
-913 909 0
-913 -833 -914 0
913 833 -914 0
-913 914 833 0
913 914 -833 0
-915 -914 -912 0
912 914 -915 0
915 914 -912 0
912 915 -914 0
916 -914 -912 0
914 -916 0
912 -916 0
-913 -833 917 0
833 -917 0
913 -917 0
917 916 -918 0
918 -916 0
918 -917 0
-909 919 -10 0
-919 10 0
-919 909 0
-919 -920 -839 0
-920 919 839 0
-919 920 839 0
919 920 -839 0
-920 -921 -918 0
918 -921 920 0
921 920 -918 0
-920 921 918 0
-920 -918 922 0
920 -922 0
918 -922 0
-919 923 -839 0
839 -923 0
919 -923 0
-924 922 923 0
924 -922 0
924 -923 0
-18 925 -909 0
-925 18 0
909 -925 0
-926 -845 -925 0
-926 845 925 0
926 845 -925 0
926 -845 925 0
-926 -924 -927 0
926 -927 924 0
926 927 -924 0
-926 927 924 0
-926 928 -924 0
926 -928 0
-928 924 0
929 -845 -925 0
845 -929 0
925 -929 0
929 928 -930 0
-928 930 0
930 -929 0
-909 931 -26 0
26 -931 0
909 -931 0
-932 -931 -851 0
931 851 -932 0
851 932 -931 0
931 932 -851 0
-933 -932 -930 0
-933 930 932 0
933 932 -930 0
930 933 -932 0
-932 -930 934 0
932 -934 0
930 -934 0
935 -931 -851 0
851 -935 0
931 -935 0
935 -936 934 0
936 -934 0
936 -935 0
-909 937 -34 0
34 -937 0
909 -937 0
-857 -938 -937 0
-938 937 857 0
938 857 -937 0
-857 937 938 0
-936 -938 -939 0
936 938 -939 0
-936 938 939 0
-938 936 939 0
940 -936 -938 0
-940 938 0
-940 936 0
-857 941 -937 0
857 -941 0
937 -941 0
940 941 -942 0
-940 942 0
942 -941 0
-909 -42 943 0
-943 42 0
909 -943 0
-863 -944 -943 0
-944 863 943 0
863 -943 944 0
-863 944 943 0
-944 -942 -945 0
942 -945 944 0
-942 944 945 0
-944 942 945 0
-944 -942 946 0
-946 944 0
942 -946 0
-863 947 -943 0
-947 863 0
-947 943 0
947 946 -948 0
948 -946 0
-947 948 0
-50 949 -909 0
50 -949 0
909 -949 0
-949 -950 -869 0
869 949 -950 0
950 869 -949 0
950 949 -869 0
-950 -948 -951 0
950 948 -951 0
950 951 -948 0
948 951 -950 0
-950 -948 952 0
950 -952 0
948 -952 0
-949 953 -869 0
869 -953 0
949 -953 0
-954 953 952 0
954 -952 0
-953 954 0
-909 -58 955 0
58 -955 0
909 -955 0
-956 -875 -955 0
-956 955 875 0
875 956 -955 0
955 956 -875 0
-956 -954 -957 0
-957 956 954 0
957 -954 956 0
-956 957 954 0
-956 -954 958 0
-958 956 0
-958 954 0
959 -875 -955 0
-959 875 0
955 -959 0
958 -960 959 0
-958 960 0
-959 960 0
-66 -909 961 0
66 -961 0
909 -961 0
-881 -961 -962 0
881 -962 961 0
881 -961 962 0
-881 962 961 0
-962 -963 -960 0
-963 960 962 0
-960 962 963 0
-962 960 963 0
-962 -960 964 0
-964 962 0
-964 960 0
-881 -961 965 0
881 -965 0
-965 961 0
-966 965 964 0
-964 966 0
966 -965 0
-909 967 -74 0
74 -967 0
909 -967 0
-967 -968 -887 0
967 -968 887 0
-967 968 887 0
967 968 -887 0
-969 -968 -966 0
-969 968 966 0
969 968 -966 0
969 966 -968 0
970 -968 -966 0
-970 968 0
-970 966 0
971 -967 -887 0
-971 887 0
-971 967 0
-972 971 970 0
-970 972 0
-971 972 0
-909 -82 973 0
-973 82 0
-973 909 0
-973 -893 -974 0
893 973 -974 0
-973 893 974 0
974 -893 973 0
-972 -975 -974 0
974 972 -975 0
974 -972 975 0
972 -974 975 0
-972 -974 976 0
974 -976 0
972 -976 0
-973 -893 977 0
-977 893 0
-977 973 0
977 -978 976 0
978 -976 0
-977 978 0
-909 -90 979 0
-979 90 0
909 -979 0
-979 -980 -899 0
-980 899 979 0
-979 980 899 0
980 -899 979 0
-981 -980 -978 0
978 980 -981 0
981 980 -978 0
981 978 -980 0
982 -980 -978 0
-982 980 0
978 -982 0
-979 983 -899 0
899 -983 0
-983 979 0
982 -984 983 0
-982 984 0
-983 984 0
-909 -98 985 0
98 -985 0
-985 909 0
-985 -986 -905 0
905 -986 985 0
905 -985 986 0
985 986 -905 0
-987 -986 -984 0
986 -987 984 0
986 -984 987 0
-986 987 984 0
988 -986 -984 0
986 -988 0
984 -988 0
-985 -905 989 0
905 -989 0
-989 985 0
988 -990 989 0
990 -988 0
-989 990 0
-909 991 -106 0
-991 106 0
909 -991 0
-991 -992 -908 0
991 908 -992 0
992 908 -991 0
992 991 -908 0
-990 -992 -993 0
992 990 -993 0
992 993 -990 0
990 993 -992 0
-990 -992 994 0
992 -994 0
990 -994 0
-991 995 -908 0
-995 908 0
-995 991 0
995 -996 994 0
996 -994 0
-995 996 0
998 -1 -997 0
-998 1 0
997 -998 0
-915 -999 -998 0
915 -999 998 0
915 -998 999 0
-915 998 999 0
-915 1000 -998 0
915 -1000 0
-1000 998 0
-4 1001 -997 0
-1001 4 0
997 -1001 0
-1001 -921 -1002 0
921 1001 -1002 0
-1001 921 1002 0
1001 -921 1002 0
-1000 -1003 -1002 0
1000 1002 -1003 0
-1000 1002 1003 0
1000 1003 -1002 0
-1000 1004 -1002 0
-1004 1002 0
1000 -1004 0
1005 -1001 -921 0
921 -1005 0
1001 -1005 0
1005 1004 -1006 0
1006 -1004 0
1006 -1005 0
1007 -10 -997 0
-1007 10 0
-1007 997 0
-1007 -927 -1008 0
1007 927 -1008 0
-1007 1008 927 0
1007 -927 1008 0
-1008 -1009 -1006 0
1008 1006 -1009 0
1009 1008 -1006 0
1009 1006 -1008 0
1010 -1008 -1006 0
-1010 1008 0
-1010 1006 0
-1007 -927 1011 0
-1011 927 0
1007 -1011 0
1010 1011 -1012 0
-1010 1012 0
-1011 1012 0
-18 1013 -997 0
-1013 18 0
-1013 997 0
-1014 -1013 -933 0
1013 933 -1014 0
-1013 933 1014 0
1013 -933 1014 0
-1014 -1012 -1015 0
1014 -1015 1012 0
1014 -1012 1015 0
-1014 1015 1012 0
-1014 -1012 1016 0
1014 -1016 0
-1016 1012 0
1017 -1013 -933 0
933 -1017 0
1013 -1017 0
1016 -1018 1017 0
1018 -1016 0
-1017 1018 0
-26 1019 -997 0
26 -1019 0
997 -1019 0
-1019 -1020 -939 0
1019 -1020 939 0
1020 -1019 939 0
1020 1019 -939 0
-1021 -1018 -1020 0
-1021 1020 1018 0
1021 1020 -1018 0
1021 1018 -1020 0
1022 -1018 -1020 0
1020 -1022 0
1018 -1022 0
1023 -1019 -939 0
-1023 939 0
-1023 1019 0
1023 -1024 1022 0
1024 -1022 0
-1023 1024 0
1025 -997 -34 0
34 -1025 0
997 -1025 0
-1026 -945 -1025 0
-1026 1025 945 0
1026 -1025 945 0
-945 1026 1025 0
-1026 -1027 -1024 0
1026 -1027 1024 0
1027 1026 -1024 0
-1026 1027 1024 0
-1026 1028 -1024 0
-1028 1026 0
-1028 1024 0
1029 -945 -1025 0
-1029 945 0
-1029 1025 0
1028 1029 -1030 0
-1028 1030 0
1030 -1029 0
1031 -42 -997 0
42 -1031 0
997 -1031 0
-1031 -951 -1032 0
1031 951 -1032 0
951 1032 -1031 0
1031 1032 -951 0
-1030 -1033 -1032 0
1030 1032 -1033 0
-1030 1032 1033 0
1030 1033 -1032 0
1034 -1030 -1032 0
1032 -1034 0
1030 -1034 0
-1031 1035 -951 0
-1035 951 0
-1035 1031 0
1034 1035 -1036 0
1036 -1034 0
1036 -1035 0
-50 -997 1037 0
50 -1037 0
997 -1037 0
-1037 -957 -1038 0
957 1037 -1038 0
957 -1037 1038 0
1038 -957 1037 0
-1039 -1036 -1038 0
1036 1038 -1039 0
1039 1038 -1036 0
1036 1039 -1038 0
-1036 1040 -1038 0
1038 -1040 0
1036 -1040 0
1041 -1037 -957 0
957 -1041 0
-1041 1037 0
1041 -1042 1040 0
1042 -1040 0
-1041 1042 0
1043 -58 -997 0
58 -1043 0
997 -1043 0
-1044 -963 -1043 0
-1044 1043 963 0
-1043 1044 963 0
1043 1044 -963 0
-1042 -1044 -1045 0
1044 -1045 1042 0
-1042 1044 1045 0
1045 -1044 1042 0
-1042 -1044 1046 0
-1046 1044 0
-1046 1042 0
1047 -963 -1043 0
-1047 963 0
-1047 1043 0
1046 -1048 1047 0
1048 -1046 0
-1047 1048 0
-66 1049 -997 0
-1049 66 0
-1049 997 0
-969 -1049 -1050 0
969 1049 -1050 0
-1049 969 1050 0
-969 1049 1050 0
-1048 -1051 -1050 0
1048 1050 -1051 0
-1048 1051 1050 0
1048 1051 -1050 0
-1048 1052 -1050 0
1050 -1052 0
1048 -1052 0
-969 -1049 1053 0
969 -1053 0
1049 -1053 0
1052 1053 -1054 0
1054 -1052 0
1054 -1053 0
-74 1055 -997 0
74 -1055 0
997 -1055 0
-1056 -975 -1055 0
-1056 1055 975 0
-1055 1056 975 0
1055 -975 1056 0
-1057 -1056 -1054 0
1054 -1057 1056 0
1057 1056 -1054 0
1054 -1056 1057 0
1058 -1056 -1054 0
-1058 1056 0
1054 -1058 0
1059 -975 -1055 0
-1059 975 0
-1059 1055 0
1058 -1060 1059 0
1060 -1058 0
-1059 1060 0
-82 -997 1061 0
-1061 82 0
997 -1061 0
-981 -1061 -1062 0
981 -1062 1061 0
981 1062 -1061 0
1062 -981 1061 0
-1060 -1062 -1063 0
1060 1062 -1063 0
1063 1062 -1060 0
1060 1063 -1062 0
-1060 -1062 1064 0
1062 -1064 0
1060 -1064 0
1065 -981 -1061 0
981 -1065 0
-1065 1061 0
1065 1064 -1066 0
1066 -1064 0
-1065 1066 0
-90 1067 -997 0
90 -1067 0
997 -1067 0
-1068 -1067 -987 0
-1068 1067 987 0
1068 -1067 987 0
1068 1067 -987 0
-1068 -1066 -1069 0
1068 -1069 1066 0
1068 -1066 1069 0
1069 -1068 1066 0
1070 -1068 -1066 0
1068 -1070 0
-1070 1066 0
-1067 -987 1071 0
-1071 987 0
-1071 1067 0
1070 -1072 1071 0
-1070 1072 0
-1071 1072 0
1073 -98 -997 0
98 -1073 0
-1073 997 0
-1073 -1074 -993 0
1073 -1074 993 0
-1073 993 1074 0
1073 1074 -993 0
-1074 -1075 -1072 0
1072 -1075 1074 0
1075 1074 -1072 0
-1074 1075 1072 0
-1074 1076 -1072 0
-1076 1074 0
-1076 1072 0
-1073 1077 -993 0
-1077 993 0
-1077 1073 0
1076 -1078 1077 0
1078 -1076 0
-1077 1078 0
1079 -997 -106 0
-1079 106 0
997 -1079 0
-1080 -996 -1079 0
-1080 996 1079 0
1080 996 -1079 0
1080 -996 1079 0
-1080 -1081 -1078 0
1078 1080 -1081 0
1080 -1078 1081 0
1078 -1080 1081 0
-1080 1082 -1078 0
1080 -1082 0
1078 -1082 0
1083 -996 -1079 0
996 -1083 0
1079 -1083 0
1083 1082 -1084 0
1084 -1082 0
1084 -1083 0
-1085 -1 1086 0
1 -1086 0
1085 -1086 0
-1087 -1086 -1003 0
1086 -1087 1003 0
-1086 1087 1003 0
1087 1086 -1003 0
1088 -1086 -1003 0
-1088 1003 0
-1088 1086 0
-1085 -4 1089 0
4 -1089 0
-1089 1085 0
-1089 -1090 -1009 0
1089 1009 -1090 0
1009 1090 -1089 0
1089 1090 -1009 0
-1090 -1088 -1091 0
1090 1088 -1091 0
1091 1090 -1088 0
1091 1088 -1090 0
1092 -1090 -1088 0
-1092 1090 0
-1092 1088 0
1093 -1089 -1009 0
1009 -1093 0
1089 -1093 0
1092 -1094 1093 0
-1092 1094 0
1094 -1093 0
-1085 -10 1095 0
-1095 10 0
-1095 1085 0
-1095 -1096 -1015 0
1095 -1096 1015 0
1096 -1095 1015 0
1096 1095 -1015 0
-1097 -1094 -1096 0
1096 -1097 1094 0
1096 -1094 1097 0
1097 1094 -1096 0
-1094 1098 -1096 0
1096 -1098 0
1094 -1098 0
-1095 1099 -1015 0
-1099 1015 0
-1099 1095 0
1099 1098 -1100 0
1100 -1098 0
-1099 1100 0
-18 1101 -1085 0
-1101 18 0
-1101 1085 0
-1102 -1021 -1101 0
1021 -1102 1101 0
1102 1021 -1101 0
1102 -1021 1101 0
-1102 -1100 -1103 0
1102 1100 -1103 0
1102 1103 -1100 0
1100 -1102 1103 0
-1102 -1100 1104 0
1102 -1104 0
-1104 1100 0
-1021 -1101 1105 0
-1105 1021 0
-1105 1101 0
-1106 1105 1104 0
-1104 1106 0
-1105 1106 0
-1085 1107 -26 0
26 -1107 0
-1107 1085 0
-1107 -1108 -1027 0
1107 1027 -1108 0
1108 1027 -1107 0
1107 1108 -1027 0
-1106 -1108 -1109 0
1108 1106 -1109 0
-1106 1108 1109 0
1109 1106 -1108 0
-1106 -1108 1110 0
1108 -1110 0
1106 -1110 0
-1107 1111 -1027 0
1027 -1111 0
1107 -1111 0
1111 1110 -1112 0
1112 -1110 0
1112 -1111 0
-1085 1113 -34 0
34 -1113 0
1085 -1113 0
-1114 -1113 -1033 0
1113 -1114 1033 0
1114 -1113 1033 0
1113 -1033 1114 0
-1114 -1112 -1115 0
1112 1114 -1115 0
1114 1115 -1112 0
1112 1115 -1114 0
1116 -1114 -1112 0
-1116 1114 0
1112 -1116 0
1117 -1113 -1033 0
-1117 1033 0
1113 -1117 0
1117 1116 -1118 0
-1116 1118 0
-1117 1118 0
-1085 1119 -42 0
-1119 42 0
-1119 1085 0
-1119 -1120 -1039 0
1119 1039 -1120 0
1039 -1119 1120 0
1119 1120 -1039 0
-1121 -1120 -1118 0
-1121 1120 1118 0
1121 1120 -1118 0
1121 -1120 1118 0
1122 -1120 -1118 0
-1122 1120 0
-1122 1118 0
1123 -1119 -1039 0
1039 -1123 0
1119 -1123 0
1123 1122 -1124 0
1124 -1122 0
1124 -1123 0
-50 1125 -1085 0
50 -1125 0
1085 -1125 0
-1126 -1045 -1125 0
1045 -1126 1125 0
1045 1126 -1125 0
1126 -1045 1125 0
-1127 -1126 -1124 0
-1127 1126 1124 0
1127 1126 -1124 0
1127 1124 -1126 0
-1126 -1124 1128 0
1126 -1128 0
1124 -1128 0
1129 -1045 -1125 0
1045 -1129 0
-1129 1125 0
1129 -1130 1128 0
1130 -1128 0
-1129 1130 0
-1085 1131 -58 0
58 -1131 0
1085 -1131 0
-1132 -1051 -1131 0
1131 1051 -1132 0
1051 1132 -1131 0
1131 1132 -1051 0
-1130 -1133 -1132 0
1130 1132 -1133 0
-1130 1132 1133 0
1130 1133 -1132 0
-1130 1134 -1132 0
-1134 1132 0
1130 -1134 0
1135 -1051 -1131 0
1051 -1135 0
1131 -1135 0
-1136 1134 1135 0
-1134 1136 0
1136 -1135 0
-66 1137 -1085 0
66 -1137 0
1085 -1137 0
-1057 -1138 -1137 0
1137 -1138 1057 0
1138 -1137 1057 0
1137 -1057 1138 0
-1136 -1138 -1139 0
1136 1138 -1139 0
1139 -1136 1138 0
1139 1136 -1138 0
-1136 1140 -1138 0
1138 -1140 0
1136 -1140 0
-1057 1141 -1137 0
-1141 1057 0
1137 -1141 0
-1142 1140 1141 0
1142 -1140 0
1142 -1141 0
-1085 1143 -74 0
74 -1143 0
-1143 1085 0
-1143 -1144 -1063 0
1063 1143 -1144 0
1063 -1143 1144 0
1143 1144 -1063 0
-1142 -1144 -1145 0
1142 1144 -1145 0
-1142 1144 1145 0
1145 1142 -1144 0
-1142 -1144 1146 0
1144 -1146 0
1142 -1146 0
1147 -1143 -1063 0
1063 -1147 0
-1147 1143 0
-1148 1147 1146 0
1148 -1146 0
1148 -1147 0
-1085 -82 1149 0
-1149 82 0
1085 -1149 0
-1150 -1149 -1069 0
1149 -1150 1069 0
1150 -1149 1069 0
1149 1150 -1069 0
-1148 -1150 -1151 0
1148 1150 -1151 0
-1148 1150 1151 0
1148 -1150 1151 0
-1148 -1150 1152 0
1150 -1152 0
1148 -1152 0
1153 -1149 -1069 0
-1153 1069 0
1149 -1153 0
-1154 1153 1152 0
1154 -1152 0
1154 -1153 0
-1085 -90 1155 0
-1155 90 0
-1155 1085 0
-1156 -1155 -1075 0
-1156 1075 1155 0
-1155 1075 1156 0
1156 -1075 1155 0
-1156 -1157 -1154 0
1154 1156 -1157 0
1156 1157 -1154 0
-1156 1154 1157 0
-1156 -1154 1158 0
1156 -1158 0
1154 -1158 0
-1155 -1075 1159 0
1075 -1159 0
1155 -1159 0
1159 -1160 1158 0
1160 -1158 0
1160 -1159 0
-1085 -98 1161 0
98 -1161 0
1085 -1161 0
-1081 -1161 -1162 0
-1162 1081 1161 0
1162 -1161 1081 0
1162 -1081 1161 0
-1163 -1160 -1162 0
-1163 1162 1160 0
1163 1162 -1160 0
1163 1160 -1162 0
1164 -1160 -1162 0
1162 -1164 0
1160 -1164 0
-1081 1165 -1161 0
-1165 1081 0
-1165 1161 0
-1166 1165 1164 0
-1164 1166 0
-1165 1166 0
-1085 -106 1167 0
-1167 106 0
1085 -1167 0
-1168 -1167 -1084 0
-1168 1084 1167 0
1084 -1167 1168 0
1168 1167 -1084 0
-1168 -1166 -1169 0
-1169 1166 1168 0
-1166 1169 1168 0
-1168 1166 1169 0
-1168 -1166 1170 0
-1170 1168 0
1166 -1170 0
1171 -1167 -1084 0
1084 -1171 0
-1171 1167 0
1171 1170 -1172 0
1172 -1170 0
-1171 1172 0
1174 -1 -1173 0
-1174 1 0
-1174 1173 0
-1174 -1175 -1091 0
1174 1091 -1175 0
1091 -1174 1175 0
1174 1175 -1091 0
-1174 1176 -1091 0
-1176 1091 0
1174 -1176 0
1177 -4 -1173 0
4 -1177 0
-1177 1173 0
-1097 -1177 -1178 0
1177 1097 -1178 0
-1177 1097 1178 0
1177 -1097 1178 0
-1176 -1179 -1178 0
1176 -1179 1178 0
1179 -1176 1178 0
1176 1179 -1178 0
-1176 1180 -1178 0
-1180 1178 0
1176 -1180 0
-1097 -1177 1181 0
1097 -1181 0
1177 -1181 0
-1182 1181 1180 0
-1180 1182 0
-1181 1182 0
-1173 1183 -10 0
10 -1183 0
1173 -1183 0
-1184 -1183 -1103 0
1103 -1184 1183 0
1103 1184 -1183 0
1183 1184 -1103 0
-1184 -1182 -1185 0
1184 -1185 1182 0
1185 -1182 1184 0
1185 -1184 1182 0
-1184 -1182 1186 0
1184 -1186 0
-1186 1182 0
1187 -1183 -1103 0
1103 -1187 0
1183 -1187 0
1187 -1188 1186 0
1188 -1186 0
-1187 1188 0
-18 -1173 1189 0
-1189 18 0
-1189 1173 0
-1190 -1189 -1109 0
1109 1189 -1190 0
1109 -1189 1190 0
1190 -1109 1189 0
-1188 -1190 -1191 0
1190 -1191 1188 0
-1188 1190 1191 0
-1190 1188 1191 0
-1188 -1190 1192 0
-1192 1190 0
-1192 1188 0
-1189 1193 -1109 0
1109 -1193 0
1189 -1193 0
1192 1193 -1194 0
1194 -1192 0
1194 -1193 0
-1173 1195 -26 0
26 -1195 0
1173 -1195 0
-1195 -1196 -1115 0
-1196 1115 1195 0
1115 1196 -1195 0
1196 1195 -1115 0
-1197 -1196 -1194 0
1194 1196 -1197 0
1196 1197 -1194 0
1194 -1196 1197 0
-1196 1198 -1194 0
1196 -1198 0
1194 -1198 0
-1195 -1115 1199 0
1115 -1199 0
-1199 1195 0
-1200 1198 1199 0
1200 -1198 0
-1199 1200 0
1201 -1173 -34 0
-1201 34 0
-1201 1173 0
-1121 -1201 -1202 0
1201 1121 -1202 0
-1201 1121 1202 0
1201 -1121 1202 0
-1203 -1200 -1202 0
1202 1200 -1203 0
-1200 1203 1202 0
1203 1200 -1202 0
-1200 1204 -1202 0
-1204 1202 0
-1204 1200 0
-1121 -1201 1205 0
-1205 1121 0
1201 -1205 0
-1206 1204 1205 0
-1204 1206 0
-1205 1206 0
1207 -1173 -42 0
42 -1207 0
1173 -1207 0
-1127 -1208 -1207 0
1207 1127 -1208 0
1208 1127 -1207 0
-1127 1207 1208 0
-1209 -1208 -1206 0
1208 -1209 1206 0
1208 -1206 1209 0
1209 -1208 1206 0
1210 -1208 -1206 0
1208 -1210 0
-1210 1206 0
-1127 1211 -1207 0
1127 -1211 0
1207 -1211 0
1211 1210 -1212 0
-1210 1212 0
1212 -1211 0
-50 -1173 1213 0
50 -1213 0
-1213 1173 0
-1213 -1214 -1133 0
-1214 1133 1213 0
-1213 1133 1214 0
-1133 1213 1214 0
-1214 -1215 -1212 0
-1215 1212 1214 0
-1212 1215 1214 0
-1214 1215 1212 0
-1214 1216 -1212 0
-1216 1214 0
-1216 1212 0
-1213 -1133 1217 0
-1217 1133 0
-1217 1213 0
-1218 1216 1217 0
-1216 1218 0
-1217 1218 0
1219 -58 -1173 0
58 -1219 0
1173 -1219 0
-1220 -1219 -1139 0
1219 1139 -1220 0
1139 1220 -1219 0
1219 1220 -1139 0
-1218 -1221 -1220 0
-1221 1220 1218 0
-1218 1220 1221 0
1221 -1220 1218 0
-1218 -1220 1222 0
-1222 1220 0
-1222 1218 0
1223 -1219 -1139 0
1139 -1223 0
1219 -1223 0
1223 -1224 1222 0
1224 -1222 0
1224 -1223 0
-66 -1173 1225 0
66 -1225 0
1173 -1225 0
-1145 -1226 -1225 0
1145 1225 -1226 0
1145 1226 -1225 0
1226 -1145 1225 0
-1227 -1226 -1224 0
1224 1226 -1227 0
1226 1227 -1224 0
1224 -1226 1227 0
-1226 1228 -1224 0
1226 -1228 0
1224 -1228 0
-1145 1229 -1225 0
1145 -1229 0
-1229 1225 0
-1230 1228 1229 0
1230 -1228 0
-1229 1230 0
-1173 -74 1231 0
74 -1231 0
1173 -1231 0
-1232 -1231 -1151 0
1231 -1232 1151 0
-1231 1232 1151 0
1231 1232 -1151 0
-1233 -1232 -1230 0
-1233 1232 1230 0
-1230 1233 1232 0
-1232 1233 1230 0
-1232 -1230 1234 0
1232 -1234 0
-1234 1230 0
1235 -1231 -1151 0
-1235 1151 0
-1235 1231 0
1235 -1236 1234 0
1236 -1234 0
1236 -1235 0
-82 -1173 1237 0
-1237 82 0
-1237 1173 0
-1237 -1157 -1238 0
1237 1157 -1238 0
-1237 1157 1238 0
1237 -1157 1238 0
-1236 -1238 -1239 0
1236 1238 -1239 0
-1236 1239 1238 0
1236 1239 -1238 0
-1236 -1238 1240 0
1238 -1240 0
1236 -1240 0
-1237 -1157 1241 0
-1241 1157 0
1237 -1241 0
-1242 1240 1241 0
1242 -1240 0
-1241 1242 0
-90 -1173 1243 0
-1243 90 0
-1243 1173 0
-1163 -1243 -1244 0
1163 1243 -1244 0
1163 -1243 1244 0
-1163 1243 1244 0
-1242 -1245 -1244 0
-1245 1242 1244 0
-1242 1245 1244 0
1242 1245 -1244 0
-1242 1246 -1244 0
-1246 1244 0
-1246 1242 0
-1163 -1243 1247 0
1163 -1247 0
1243 -1247 0
1246 -1248 1247 0
-1246 1248 0
1248 -1247 0
1249 -1173 -98 0
98 -1249 0
-1249 1173 0
-1249 -1169 -1250 0
1249 -1250 1169 0
-1249 1169 1250 0
1249 -1169 1250 0
-1248 -1250 -1251 0
-1251 1248 1250 0
-1248 1251 1250 0
-1250 1248 1251 0
-1248 -1250 1252 0
-1252 1250 0
-1252 1248 0
-1249 -1169 1253 0
1169 -1253 0
1249 -1253 0
1252 1253 -1254 0
1254 -1252 0
1254 -1253 0
-1173 -106 1255 0
-1255 106 0
1173 -1255 0
-1256 -1172 -1255 0
-1256 1172 1255 0
1256 1172 -1255 0
1256 -1172 1255 0
-1256 -1257 -1254 0
1254 1256 -1257 0
1256 1257 -1254 0
-1256 1257 1254 0
-1256 1258 -1254 0
-1258 1256 0
1254 -1258 0
-1172 1259 -1255 0
-1259 1172 0
-1259 1255 0
-1260 1258 1259 0
-1258 1260 0
-1259 1260 0
3 0
-8 0
-119 0
-207 0
295 0
-383 0
-471 0
-559 0
647 0
-735 0
-823 0
911 0
999 0
-1087 0
-1175 0
1179 0
-1185 0
-1191 0
-1197 0
1203 0
-1209 0
1215 0
-1221 0
-1227 0
-1233 0
-1239 0
-1245 0
-1251 0
1257 0
-1260 0
