p cnf 1226 3993
-4 5 0
4 -5 0
4 -6 0
6 -4 0
4 -7 0
7 -4 0
-4 9 0
4 -9 0
4 -9 0
11 -10 0
10 -11 0
-4 12 0
4 -12 0
4 -12 0
-13 -4 -11 0
4 11 -13 0
11 -4 13 0
4 -11 13 0
-14 -13 -4 0
4 -14 13 0
14 -4 13 0
4 14 -13 0
-13 -4 15 0
-15 13 0
4 -15 0
-4 16 -11 0
-16 11 0
-16 4 0
-17 16 15 0
17 -15 0
-16 17 0
-18 19 0
18 -19 0
20 -4 -11 0
11 -20 0
4 -20 0
-20 -18 -21 0
20 -21 18 0
21 -20 18 0
20 21 -18 0
-22 -17 -21 0
17 21 -22 0
21 -17 22 0
17 22 -21 0
23 -21 -17 0
21 -23 0
17 -23 0
-20 -18 24 0
18 -24 0
20 -24 0
23 24 -25 0
25 -23 0
25 -24 0
27 -26 0
26 -27 0
-18 28 -4 0
-28 18 0
4 -28 0
-28 -29 -27 0
27 28 -29 0
27 -28 29 0
28 -27 29 0
-30 -29 -25 0
25 -30 29 0
29 30 -25 0
25 30 -29 0
-29 31 -25 0
29 -31 0
25 -31 0
32 -28 -27 0
27 -32 0
-32 28 0
32 31 -33 0
33 -31 0
-32 33 0
35 -34 0
-35 34 0
36 -4 -27 0
27 -36 0
4 -36 0
-35 -36 -37 0
36 35 -37 0
35 -36 37 0
36 -35 37 0
-38 -37 -33 0
33 -38 37 0
38 37 -33 0
33 -37 38 0
39 -37 -33 0
-39 37 0
33 -39 0
-35 -36 40 0
35 -40 0
36 -40 0
39 40 -41 0
41 -39 0
-40 41 0
-42 43 0
42 -43 0
-35 44 -4 0
35 -44 0
4 -44 0
-42 -44 -45 0
42 44 -45 0
45 42 -44 0
45 44 -42 0
-46 -41 -45 0
45 41 -46 0
45 46 -41 0
46 41 -45 0
47 -41 -45 0
45 -47 0
-47 41 0
-42 -44 48 0
42 -48 0
44 -48 0
-49 47 48 0
-47 49 0
49 -48 0
-50 51 0
50 -51 0
52 -42 -4 0
42 -52 0
4 -52 0
-50 -52 -53 0
52 50 -53 0
-52 50 53 0
-50 52 53 0
-49 -54 -53 0
49 -54 53 0
54 -49 53 0
54 49 -53 0
55 -49 -53 0
53 -55 0
49 -55 0
56 -50 -52 0
-56 50 0
-56 52 0
56 55 -57 0
-55 57 0
-56 57 0
59 -58 0
-59 58 0
-50 60 -4 0
-60 50 0
4 -60 0
-59 -61 -60 0
60 59 -61 0
61 -60 59 0
-59 60 61 0
-61 -62 -57 0
61 -62 57 0
61 62 -57 0
-61 62 57 0
-61 63 -57 0
61 -63 0
-63 57 0
-59 64 -60 0
-64 59 0
60 -64 0
64 63 -65 0
65 -63 0
65 -64 0
67 -66 0
66 -67 0
-59 68 -4 0
-68 59 0
4 -68 0
-68 -69 -67 0
68 -69 67 0
-68 67 69 0
68 69 -67 0
-69 -65 -70 0
65 69 -70 0
69 -65 70 0
65 -69 70 0
-69 71 -65 0
69 -71 0
65 -71 0
-68 72 -67 0
67 -72 0
68 -72 0
72 -73 71 0
73 -71 0
73 -72 0
75 -74 0
-75 74 0
76 -4 -67 0
-76 67 0
4 -76 0
-75 -76 -77 0
76 -77 75 0
-76 75 77 0
-75 76 77 0
-78 -73 -77 0
73 77 -78 0
77 -73 78 0
73 -77 78 0
79 -73 -77 0
-79 77 0
73 -79 0
-75 -76 80 0
-80 75 0
76 -80 0
79 -81 80 0
-79 81 0
-80 81 0
83 -82 0
82 -83 0
-75 -4 84 0
-84 75 0
4 -84 0
-84 -83 -85 0
83 -85 84 0
83 -84 85 0
-83 85 84 0
-86 -85 -81 0
-86 85 81 0
86 85 -81 0
86 81 -85 0
87 -85 -81 0
-87 85 0
-87 81 0
-84 -83 88 0
83 -88 0
-88 84 0
87 88 -89 0
-87 89 0
-88 89 0
-90 91 0
-91 90 0
92 -4 -83 0
83 -92 0
4 -92 0
-92 -90 -93 0
92 -93 90 0
-92 93 90 0
-90 93 92 0
-93 -94 -89 0
89 -94 93 0
94 93 -89 0
94 89 -93 0
-93 95 -89 0
-95 93 0
-95 89 0
-92 96 -90 0
90 -96 0
92 -96 0
-97 96 95 0
-95 97 0
97 -96 0
-98 99 0
-99 98 0
-90 -4 100 0
-100 90 0
4 -100 0
-101 -100 -98 0
-101 98 100 0
-100 101 98 0
-98 101 100 0
-101 -97 -102 0
97 -102 101 0
-97 101 102 0
-101 97 102 0
-101 -97 103 0
101 -103 0
97 -103 0
-100 -98 104 0
98 -104 0
-104 100 0
103 -105 104 0
105 -103 0
105 -104 0
-106 107 0
106 -107 0
108 -98 -4 0
-108 98 0
4 -108 0
-108 -109 -106 0
108 106 -109 0
106 -108 109 0
108 109 -106 0
-105 -109 -110 0
109 105 -110 0
109 -105 110 0
105 110 -109 0
111 -105 -109 0
109 -111 0
105 -111 0
-108 -106 112 0
106 -112 0
108 -112 0
111 -113 112 0
113 -111 0
113 -112 0
114 -106 -4 0
106 -114 0
4 -114 0
-114 -113 -115 0
113 114 -115 0
113 -114 115 0
114 -113 115 0
-114 116 -113 0
113 -116 0
114 -116 0
-14 117 0
-117 14 0
14 -118 0
118 -14 0
14 -120 0
120 -14 0
120 -14 0
-14 121 -4 0
4 -121 0
14 -121 0
-22 -121 -122 0
22 -122 121 0
22 -121 122 0
-22 122 121 0
-206 -122 -14 0
14 122 -206 0
122 206 -14 0
-122 14 206 0
-122 -14 124 0
122 -124 0
14 -124 0
-22 -121 125 0
22 -125 0
-125 121 0
125 124 -126 0
126 -124 0
126 -125 0
127 -14 -11 0
11 -127 0
14 -127 0
-30 -127 -128 0
30 127 -128 0
30 -127 128 0
-30 127 128 0
-129 -128 -126 0
126 -129 128 0
128 129 -126 0
126 -128 129 0
-128 130 -126 0
128 -130 0
126 -130 0
131 -30 -127 0
-131 30 0
-131 127 0
131 -132 130 0
132 -130 0
-131 132 0
-18 133 -14 0
-133 18 0
-133 14 0
-133 -38 -134 0
-134 38 133 0
-133 134 38 0
134 -38 133 0
-134 -132 -135 0
134 132 -135 0
135 134 -132 0
135 132 -134 0
-134 -132 136 0
134 -136 0
132 -136 0
-133 137 -38 0
-137 38 0
133 -137 0
137 136 -138 0
138 -136 0
138 -137 0
139 -14 -27 0
27 -139 0
-139 14 0
-139 -140 -46 0
46 139 -140 0
-139 46 140 0
140 139 -46 0
-140 -141 -138 0
138 140 -141 0
140 141 -138 0
138 -140 141 0
-138 -140 142 0
140 -142 0
138 -142 0
-139 143 -46 0
-143 46 0
-143 139 0
-144 143 142 0
-142 144 0
-143 144 0
-35 145 -14 0
-145 35 0
14 -145 0
-145 -54 -146 0
54 145 -146 0
54 -145 146 0
145 -54 146 0
-144 -146 -147 0
144 146 -147 0
-144 147 146 0
147 144 -146 0
-144 148 -146 0
-148 146 0
-148 144 0
-145 149 -54 0
54 -149 0
-149 145 0
-150 149 148 0
-148 150 0
-149 150 0
151 -42 -14 0
42 -151 0
14 -151 0
-152 -62 -151 0
62 151 -152 0
62 152 -151 0
152 151 -62 0
-150 -153 -152 0
152 -153 150 0
-150 152 153 0
153 -152 150 0
-150 -152 154 0
-154 152 0
-154 150 0
155 -62 -151 0
62 -155 0
-155 151 0
155 154 -156 0
-154 156 0
-155 156 0
157 -14 -50 0
50 -157 0
14 -157 0
-158 -70 -157 0
-158 157 70 0
158 70 -157 0
157 158 -70 0
-158 -159 -156 0
158 -159 156 0
159 158 -156 0
-158 159 156 0
-158 160 -156 0
158 -160 0
156 -160 0
-70 161 -157 0
70 -161 0
157 -161 0
160 -162 161 0
162 -160 0
162 -161 0
-59 -14 163 0
-163 59 0
14 -163 0
-78 -164 -163 0
-164 163 78 0
-163 164 78 0
-78 163 164 0
-165 -164 -162 0
-165 162 164 0
165 -162 164 0
162 165 -164 0
166 -164 -162 0
-166 164 0
-166 162 0
-78 167 -163 0
-167 78 0
163 -167 0
167 166 -168 0
-166 168 0
168 -167 0
-14 169 -67 0
67 -169 0
14 -169 0
-86 -169 -170 0
86 -170 169 0
86 170 -169 0
-86 170 169 0
-170 -171 -168 0
168 170 -171 0
171 170 -168 0
171 168 -170 0
-170 172 -168 0
170 -172 0
168 -172 0
173 -86 -169 0
86 -173 0
-173 169 0
173 172 -174 0
-172 174 0
-173 174 0
-75 -14 175 0
-175 75 0
14 -175 0
-175 -94 -176 0
94 -176 175 0
94 -175 176 0
-94 176 175 0
-177 -176 -174 0
-177 176 174 0
177 176 -174 0
177 174 -176 0
-176 178 -174 0
-178 176 0
-178 174 0
-175 179 -94 0
94 -179 0
-179 175 0
-180 179 178 0
-178 180 0
-179 180 0
181 -14 -83 0
83 -181 0
14 -181 0
-102 -182 -181 0
181 -182 102 0
182 102 -181 0
181 -102 182 0
-180 -182 -183 0
182 180 -183 0
183 182 -180 0
183 -182 180 0
-180 -182 184 0
182 -184 0
-184 180 0
-102 185 -181 0
-185 102 0
181 -185 0
184 -186 185 0
-184 186 0
186 -185 0
187 -90 -14 0
-187 90 0
14 -187 0
-188 -187 -110 0
187 110 -188 0
110 188 -187 0
187 188 -110 0
-188 -186 -189 0
188 -189 186 0
188 -186 189 0
-188 189 186 0
190 -188 -186 0
188 -190 0
186 -190 0
191 -187 -110 0
110 -191 0
187 -191 0
190 -192 191 0
-190 192 0
192 -191 0
-98 -14 193 0
98 -193 0
14 -193 0
-115 -194 -193 0
-194 193 115 0
115 194 -193 0
-115 193 194 0
-194 -192 -195 0
194 -195 192 0
194 -192 195 0
-194 195 192 0
-194 -192 196 0
-196 194 0
-196 192 0
-115 197 -193 0
-197 115 0
193 -197 0
197 196 -198 0
-196 198 0
-197 198 0
199 -106 -14 0
106 -199 0
14 -199 0
-116 -200 -199 0
116 199 -200 0
116 -199 200 0
199 -116 200 0
-201 -200 -198 0
-201 200 198 0
-198 201 200 0
-200 201 198 0
-200 202 -198 0
-202 200 0
-202 198 0
-116 203 -199 0
116 -203 0
199 -203 0
203 202 -204 0
-202 204 0
204 -203 0
206 -205 0
-206 205 0
-206 123 0
206 -123 0
-206 208 0
206 -208 0
206 -208 0
-206 209 -4 0
4 -209 0
206 -209 0
-129 -210 -209 0
209 129 -210 0
210 129 -209 0
-129 209 210 0
-206 -211 -210 0
-211 206 210 0
-206 210 211 0
206 211 -210 0
212 -206 -210 0
210 -212 0
206 -212 0
-129 -209 213 0
-213 129 0
209 -213 0
212 -214 213 0
-212 214 0
-213 214 0
-206 -11 215 0
11 -215 0
-215 206 0
-135 -216 -215 0
-216 135 215 0
135 -215 216 0
215 -135 216 0
-216 -217 -214 0
216 -217 214 0
217 -214 216 0
-216 217 214 0
-216 -214 218 0
-218 216 0
-218 214 0
-215 219 -135 0
135 -219 0
-219 215 0
219 -220 218 0
-218 220 0
220 -219 0
-206 -18 221 0
18 -221 0
206 -221 0
-221 -141 -222 0
221 141 -222 0
141 -221 222 0
-141 221 222 0
-223 -220 -222 0
220 -223 222 0
-220 223 222 0
220 223 -222 0
224 -220 -222 0
222 -224 0
220 -224 0
225 -221 -141 0
-225 141 0
-225 221 0
225 224 -226 0
226 -224 0
226 -225 0
-206 -27 227 0
27 -227 0
-227 206 0
-227 -228 -147 0
-228 147 227 0
-227 147 228 0
-147 227 228 0
-228 -229 -226 0
226 -229 228 0
-226 229 228 0
226 -228 229 0
-228 -226 230 0
-230 228 0
226 -230 0
-227 231 -147 0
-231 147 0
-231 227 0
-232 230 231 0
232 -230 0
-231 232 0
-206 -35 233 0
35 -233 0
206 -233 0
-234 -153 -233 0
-234 153 233 0
234 153 -233 0
234 -153 233 0
-232 -234 -235 0
234 232 -235 0
234 -232 235 0
-234 235 232 0
-232 -234 236 0
234 -236 0
-236 232 0
-153 237 -233 0
153 -237 0
233 -237 0
-238 237 236 0
-236 238 0
238 -237 0
-206 239 -42 0
42 -239 0
206 -239 0
-159 -239 -240 0
159 239 -240 0
159 -239 240 0
-159 239 240 0
-238 -240 -241 0
240 238 -241 0
-238 241 240 0
-240 241 238 0
-238 242 -240 0
240 -242 0
238 -242 0
-159 -239 243 0
159 -243 0
239 -243 0
242 243 -244 0
244 -242 0
244 -243 0
245 -50 -206 0
-245 50 0
-245 206 0
-165 -245 -246 0
245 165 -246 0
-245 165 246 0
-165 245 246 0
-247 -246 -244 0
244 -247 246 0
246 247 -244 0
244 -246 247 0
248 -246 -244 0
-248 246 0
244 -248 0
-165 249 -245 0
165 -249 0
245 -249 0
-250 248 249 0
-248 250 0
250 -249 0
-59 -206 251 0
-251 59 0
-251 206 0
-251 -171 -252 0
-252 171 251 0
-251 171 252 0
252 251 -171 0
-252 -250 -253 0
252 -253 250 0
252 -250 253 0
-252 253 250 0
-252 -250 254 0
252 -254 0
250 -254 0
-251 255 -171 0
171 -255 0
-255 251 0
255 254 -256 0
-254 256 0
-255 256 0
257 -206 -67 0
-257 67 0
-257 206 0
-177 -257 -258 0
257 177 -258 0
-257 177 258 0
-177 257 258 0
-259 -256 -258 0
-259 258 256 0
259 -256 258 0
259 -258 256 0
-256 260 -258 0
-260 258 0
-260 256 0
-177 -257 261 0
-261 177 0
257 -261 0
-262 260 261 0
-260 262 0
-261 262 0
-75 -206 263 0
-263 75 0
-263 206 0
-263 -264 -183 0
183 -264 263 0
-263 183 264 0
264 263 -183 0
-262 -264 -265 0
264 262 -265 0
-262 264 265 0
262 -264 265 0
266 -264 -262 0
-266 264 0
-266 262 0
-263 267 -183 0
183 -267 0
-267 263 0
-268 266 267 0
-266 268 0
-267 268 0
269 -206 -83 0
-269 83 0
-269 206 0
-269 -189 -270 0
269 -270 189 0
-269 270 189 0
269 270 -189 0
-268 -270 -271 0
270 268 -271 0
-268 271 270 0
271 268 -270 0
-268 -270 272 0
-272 270 0
-272 268 0
-269 273 -189 0
-273 189 0
269 -273 0
273 272 -274 0
274 -272 0
-273 274 0
-206 -90 275 0
-275 90 0
-275 206 0
-275 -195 -276 0
-276 195 275 0
-275 276 195 0
276 -195 275 0
-274 -276 -277 0
274 276 -277 0
-274 277 276 0
277 -276 274 0
-274 -276 278 0
276 -278 0
274 -278 0
-275 279 -195 0
195 -279 0
275 -279 0
-280 279 278 0
280 -278 0
280 -279 0
281 -206 -98 0
-281 98 0
-281 206 0
-281 -201 -282 0
281 201 -282 0
-281 282 201 0
281 -201 282 0
-280 -283 -282 0
282 280 -283 0
282 -280 283 0
-282 280 283 0
284 -280 -282 0
282 -284 0
-284 280 0
-281 -201 285 0
201 -285 0
281 -285 0
284 -286 285 0
-284 286 0
286 -285 0
-206 287 -106 0
106 -287 0
206 -287 0
-204 -287 -288 0
287 204 -288 0
288 204 -287 0
287 288 -204 0
-286 -289 -288 0
286 288 -289 0
-286 288 289 0
286 289 -288 0
-286 290 -288 0
-290 288 0
286 -290 0
291 -204 -287 0
-291 204 0
-291 287 0
290 291 -292 0
292 -290 0
292 -291 0
-293 294 0
-294 293 0
-211 -293 0
293 211 0
-296 211 0
293 -296 0
-4 -293 297 0
4 -297 0
293 -297 0
-217 -297 -298 0
217 297 -298 0
217 298 -297 0
-217 298 297 0
-381 -296 -298 0
-381 298 296 0
381 298 -296 0
381 -298 296 0
-296 300 -298 0
-300 298 0
-300 296 0
-217 -297 301 0
217 -301 0
-301 297 0
-302 300 301 0
302 -300 0
302 -301 0
303 -293 -11 0
11 -303 0
293 -303 0
-223 -303 -304 0
303 223 -304 0
304 -303 223 0
304 -223 303 0
-305 -302 -304 0
-305 304 302 0
304 -302 305 0
-304 302 305 0
306 -302 -304 0
304 -306 0
302 -306 0
-223 -303 307 0
223 -307 0
303 -307 0
306 -308 307 0
308 -306 0
308 -307 0
-18 309 -293 0
-309 18 0
293 -309 0
-310 -309 -229 0
-310 309 229 0
310 -309 229 0
-229 310 309 0
-310 -308 -311 0
308 310 -311 0
-308 310 311 0
-310 311 308 0
-310 -308 312 0
310 -312 0
308 -312 0
-309 -229 313 0
229 -313 0
309 -313 0
312 -314 313 0
-312 314 0
314 -313 0
315 -293 -27 0
27 -315 0
293 -315 0
-315 -235 -316 0
315 235 -316 0
-315 316 235 0
315 -235 316 0
-314 -317 -316 0
316 -317 314 0
317 316 -314 0
317 314 -316 0
318 -314 -316 0
-318 316 0
-318 314 0
319 -315 -235 0
-319 235 0
-319 315 0
318 -320 319 0
-318 320 0
-319 320 0
321 -35 -293 0
35 -321 0
293 -321 0
-241 -322 -321 0
321 241 -322 0
241 322 -321 0
321 322 -241 0
-320 -322 -323 0
320 322 -323 0
-320 323 322 0
320 323 -322 0
-320 324 -322 0
-324 322 0
320 -324 0
-241 325 -321 0
241 -325 0
321 -325 0
-326 324 325 0
326 -324 0
326 -325 0
327 -42 -293 0
42 -327 0
293 -327 0
-328 -247 -327 0
-328 327 247 0
328 247 -327 0
-247 327 328 0
-328 -329 -326 0
326 328 -329 0
-326 328 329 0
-328 326 329 0
-328 330 -326 0
328 -330 0
326 -330 0
-247 331 -327 0
-331 247 0
327 -331 0
330 331 -332 0
-330 332 0
332 -331 0
-50 -293 333 0
50 -333 0
293 -333 0
-253 -334 -333 0
253 -334 333 0
253 334 -333 0
-253 334 333 0
-335 -334 -332 0
-335 332 334 0
335 -332 334 0
335 332 -334 0
336 -334 -332 0
-336 334 0
332 -336 0
-253 -333 337 0
253 -337 0
-337 333 0
336 -338 337 0
338 -336 0
338 -337 0
-59 -293 339 0
-339 59 0
293 -339 0
-259 -340 -339 0
259 -340 339 0
259 340 -339 0
-259 340 339 0
-338 -340 -341 0
340 338 -341 0
340 -338 341 0
338 -340 341 0
-338 -340 342 0
340 -342 0
338 -342 0
-259 343 -339 0
259 -343 0
-343 339 0
343 -344 342 0
-342 344 0
344 -343 0
-293 345 -67 0
67 -345 0
293 -345 0
-265 -346 -345 0
345 265 -346 0
346 265 -345 0
346 345 -265 0
-344 -346 -347 0
346 344 -347 0
346 347 -344 0
347 -346 344 0
-344 348 -346 0
346 -348 0
344 -348 0
349 -265 -345 0
-349 265 0
-349 345 0
349 348 -350 0
350 -348 0
350 -349 0
351 -293 -75 0
-351 75 0
-351 293 0
-351 -271 -352 0
351 271 -352 0
-351 271 352 0
351 352 -271 0
-353 -350 -352 0
350 -353 352 0
353 -350 352 0
350 353 -352 0
-350 354 -352 0
352 -354 0
350 -354 0
-351 355 -271 0
271 -355 0
351 -355 0
355 354 -356 0
356 -354 0
-355 356 0
357 -293 -83 0
-357 83 0
293 -357 0
-357 -358 -277 0
277 357 -358 0
-357 277 358 0
357 358 -277 0
-359 -358 -356 0
-359 356 358 0
359 358 -356 0
359 356 -358 0
360 -358 -356 0
-360 358 0
-360 356 0
-357 361 -277 0
277 -361 0
357 -361 0
-362 360 361 0
-360 362 0
-361 362 0
363 -90 -293 0
90 -363 0
293 -363 0
-364 -283 -363 0
-364 363 283 0
-363 283 364 0
363 -283 364 0
-364 -362 -365 0
364 -365 362 0
-362 365 364 0
-364 365 362 0
-364 -362 366 0
364 -366 0
362 -366 0
367 -283 -363 0
-367 283 0
363 -367 0
367 -368 366 0
-366 368 0
-367 368 0
-98 369 -293 0
-369 98 0
293 -369 0
-369 -370 -289 0
369 -370 289 0
-369 370 289 0
370 369 -289 0
-368 -370 -371 0
368 370 -371 0
371 -368 370 0
371 -370 368 0
-368 -370 372 0
370 -372 0
-372 368 0
-369 373 -289 0
-373 289 0
369 -373 0
372 373 -374 0
-372 374 0
-373 374 0
375 -106 -293 0
106 -375 0
293 -375 0
-375 -376 -292 0
292 375 -376 0
292 -375 376 0
375 -292 376 0
-376 -374 -377 0
-377 374 376 0
-374 377 376 0
-376 377 374 0
-376 378 -374 0
-378 376 0
374 -378 0
379 -375 -292 0
292 -379 0
-379 375 0
379 -380 378 0
-378 380 0
-379 380 0
381 -384 0
384 -381 0
-381 299 0
-299 381 0
-381 382 0
-382 381 0
-382 381 0
385 -381 -4 0
4 -385 0
381 -385 0
-305 -385 -386 0
-386 385 305 0
386 -385 305 0
-305 385 386 0
-386 -381 -469 0
386 -469 381 0
469 386 -381 0
-386 381 469 0
-386 -381 388 0
386 -388 0
381 -388 0
-305 -385 389 0
305 -389 0
385 -389 0
388 -390 389 0
-388 390 0
-389 390 0
-381 -11 391 0
11 -391 0
381 -391 0
-392 -391 -311 0
-392 311 391 0
311 -391 392 0
391 -311 392 0
-392 -393 -390 0
-393 392 390 0
-390 392 393 0
-392 390 393 0
-392 394 -390 0
-394 392 0
-394 390 0
-391 -311 395 0
311 -395 0
391 -395 0
394 -396 395 0
-394 396 0
-395 396 0
397 -381 -18 0
-397 18 0
-397 381 0
-397 -317 -398 0
317 397 -398 0
-397 317 398 0
397 -317 398 0
-399 -398 -396 0
-399 398 396 0
398 -396 399 0
396 -398 399 0
-398 400 -396 0
-400 398 0
-400 396 0
-397 401 -317 0
317 -401 0
397 -401 0
401 400 -402 0
-400 402 0
-401 402 0
-381 403 -27 0
27 -403 0
381 -403 0
-404 -403 -323 0
-404 323 403 0
404 323 -403 0
404 403 -323 0
-404 -405 -402 0
404 -405 402 0
404 405 -402 0
-404 405 402 0
-404 406 -402 0
404 -406 0
-406 402 0
407 -403 -323 0
-407 323 0
-407 403 0
-408 407 406 0
-406 408 0
-407 408 0
-381 -35 409 0
35 -409 0
381 -409 0
-329 -410 -409 0
329 -410 409 0
410 329 -409 0
410 -329 409 0
-408 -411 -410 0
410 -411 408 0
410 -408 411 0
411 408 -410 0
-408 412 -410 0
410 -412 0
-412 408 0
-329 413 -409 0
-413 329 0
-413 409 0
413 412 -414 0
414 -412 0
414 -413 0
-381 -42 415 0
42 -415 0
381 -415 0
-415 -335 -416 0
335 415 -416 0
335 416 -415 0
-335 415 416 0
-416 -417 -414 0
414 -417 416 0
417 416 -414 0
414 417 -416 0
-416 418 -414 0
-418 416 0
414 -418 0
-335 419 -415 0
335 -419 0
-419 415 0
418 419 -420 0
420 -418 0
420 -419 0
-50 -381 421 0
-421 50 0
-421 381 0
-421 -422 -341 0
-422 421 341 0
-421 422 341 0
422 421 -341 0
-423 -422 -420 0
420 422 -423 0
422 -420 423 0
420 -422 423 0
-422 -420 424 0
422 -424 0
420 -424 0
-421 -341 425 0
341 -425 0
421 -425 0
-426 424 425 0
-424 426 0
426 -425 0
427 -381 -59 0
-427 59 0
381 -427 0
-347 -427 -428 0
427 347 -428 0
428 347 -427 0
427 428 -347 0
-429 -426 -428 0
-429 428 426 0
428 429 -426 0
429 426 -428 0
-426 430 -428 0
428 -430 0
-430 426 0
431 -427 -347 0
-431 347 0
427 -431 0
430 431 -432 0
-430 432 0
-431 432 0
-381 433 -67 0
-433 67 0
-433 381 0
-433 -353 -434 0
433 -434 353 0
-433 353 434 0
433 434 -353 0
-434 -432 -435 0
432 434 -435 0
435 434 -432 0
435 432 -434 0
-434 436 -432 0
434 -436 0
432 -436 0
-433 437 -353 0
-437 353 0
-437 433 0
-438 437 436 0
438 -436 0
438 -437 0
-75 -381 439 0
-439 75 0
-439 381 0
-439 -359 -440 0
359 439 -440 0
359 -439 440 0
-359 440 439 0
-438 -441 -440 0
438 440 -441 0
-438 441 440 0
438 441 -440 0
-438 442 -440 0
440 -442 0
438 -442 0
-439 443 -359 0
359 -443 0
-443 439 0
442 -444 443 0
444 -442 0
-443 444 0
-381 445 -83 0
-445 83 0
-445 381 0
-446 -445 -365 0
-446 445 365 0
-445 446 365 0
-365 446 445 0
-446 -444 -447 0
444 446 -447 0
446 -444 447 0
-446 444 447 0
-446 -444 448 0
446 -448 0
444 -448 0
449 -445 -365 0
365 -449 0
445 -449 0
449 -450 448 0
450 -448 0
450 -449 0
-381 -90 451 0
-451 90 0
381 -451 0
-452 -451 -371 0
371 -452 451 0
371 452 -451 0
452 451 -371 0
-452 -450 -453 0
452 450 -453 0
452 -450 453 0
-452 450 453 0
-452 454 -450 0
452 -454 0
450 -454 0
455 -451 -371 0
371 -455 0
451 -455 0
455 454 -456 0
-454 456 0
-455 456 0
457 -381 -98 0
-457 98 0
-457 381 0
-457 -377 -458 0
457 377 -458 0
-457 377 458 0
457 -377 458 0
-459 -458 -456 0
-459 456 458 0
459 458 -456 0
459 -458 456 0
-458 460 -456 0
-460 458 0
-460 456 0
-457 461 -377 0
377 -461 0
457 -461 0
461 460 -462 0
-460 462 0
-461 462 0
463 -381 -106 0
106 -463 0
381 -463 0
-380 -464 -463 0
463 -464 380 0
380 464 -463 0
-380 463 464 0
-464 -465 -462 0
-465 464 462 0
465 -462 464 0
-464 465 462 0
466 -464 -462 0
464 -466 0
462 -466 0
-380 467 -463 0
-467 380 0
-467 463 0
466 467 -468 0
468 -466 0
-467 468 0
-469 470 0
469 -470 0
-469 387 0
469 -387 0
-469 472 0
469 -472 0
469 -472 0
473 -469 -4 0
-473 4 0
469 -473 0
-473 -393 -474 0
473 -474 393 0
-473 474 393 0
474 473 -393 0
-469 -557 -474 0
474 -557 469 0
474 557 -469 0
469 557 -474 0
-474 476 -469 0
474 -476 0
469 -476 0
-473 -393 477 0
-477 393 0
473 -477 0
476 -478 477 0
-476 478 0
478 -477 0
479 -469 -11 0
11 -479 0
469 -479 0
-399 -479 -480 0
479 -480 399 0
-479 480 399 0
-399 479 480 0
-481 -478 -480 0
478 -481 480 0
480 481 -478 0
478 481 -480 0
482 -478 -480 0
-482 480 0
478 -482 0
-399 -479 483 0
-483 399 0
-483 479 0
-484 482 483 0
-482 484 0
-483 484 0
-18 -469 485 0
-485 18 0
469 -485 0
-485 -405 -486 0
485 405 -486 0
-485 405 486 0
-405 485 486 0
-484 -487 -486 0
-487 484 486 0
-484 487 486 0
487 -486 484 0
-484 488 -486 0
486 -488 0
484 -488 0
489 -485 -405 0
-489 405 0
-489 485 0
489 488 -490 0
490 -488 0
490 -489 0
491 -469 -27 0
-491 27 0
469 -491 0
-491 -492 -411 0
411 -492 491 0
-491 411 492 0
492 -411 491 0
-492 -493 -490 0
490 492 -493 0
492 493 -490 0
490 -492 493 0
-492 494 -490 0
492 -494 0
490 -494 0
-491 -411 495 0
411 -495 0
-495 491 0
-496 494 495 0
-494 496 0
-495 496 0
497 -35 -469 0
35 -497 0
469 -497 0
-417 -498 -497 0
497 417 -498 0
498 417 -497 0
498 497 -417 0
-499 -496 -498 0
498 496 -499 0
498 -496 499 0
-498 499 496 0
-496 500 -498 0
498 -500 0
-500 496 0
501 -417 -497 0
417 -501 0
497 -501 0
501 -502 500 0
502 -500 0
502 -501 0
503 -42 -469 0
42 -503 0
469 -503 0
-423 -504 -503 0
-504 503 423 0
-503 504 423 0
-423 503 504 0
-502 -505 -504 0
502 -505 504 0
-502 505 504 0
502 -504 505 0
-502 506 -504 0
-506 504 0
-506 502 0
-423 507 -503 0
-507 423 0
-507 503 0
507 506 -508 0
-506 508 0
-507 508 0
509 -469 -50 0
50 -509 0
469 -509 0
-429 -510 -509 0
509 429 -510 0
510 429 -509 0
-429 509 510 0
-511 -510 -508 0
510 508 -511 0
510 511 -508 0
511 -510 508 0
512 -510 -508 0
510 -512 0
508 -512 0
-429 513 -509 0
-513 429 0
-513 509 0
-514 512 513 0
-512 514 0
-513 514 0
-59 -469 515 0
-515 59 0
469 -515 0
-515 -516 -435 0
435 -516 515 0
435 -515 516 0
516 515 -435 0
-514 -516 -517 0
516 -517 514 0
-514 516 517 0
517 -516 514 0
-514 518 -516 0
516 -518 0
-518 514 0
-515 519 -435 0
435 -519 0
515 -519 0
518 519 -520 0
-518 520 0
-519 520 0
521 -469 -67 0
67 -521 0
469 -521 0
-522 -441 -521 0
-522 441 521 0
441 -521 522 0
-441 521 522 0
-522 -523 -520 0
-523 520 522 0
522 523 -520 0
-522 520 523 0
-522 524 -520 0
522 -524 0
520 -524 0
525 -441 -521 0
-525 441 0
-525 521 0
525 -526 524 0
-524 526 0
-525 526 0
-75 -469 527 0
-527 75 0
469 -527 0
-527 -447 -528 0
447 527 -528 0
-527 447 528 0
-447 527 528 0
-529 -526 -528 0
-529 528 526 0
529 -526 528 0
529 -528 526 0
530 -526 -528 0
-530 528 0
-530 526 0
-527 -447 531 0
-531 447 0
-531 527 0
530 531 -532 0
-530 532 0
-531 532 0
-469 533 -83 0
83 -533 0
469 -533 0
-534 -453 -533 0
-534 533 453 0
534 -533 453 0
534 -453 533 0
-535 -534 -532 0
534 532 -535 0
534 -532 535 0
-534 532 535 0
-534 -532 536 0
534 -536 0
-536 532 0
537 -453 -533 0
-537 453 0
533 -537 0
537 536 -538 0
538 -536 0
538 -537 0
-90 -469 539 0
-539 90 0
469 -539 0
-459 -539 -540 0
459 539 -540 0
459 -539 540 0
-459 540 539 0
-540 -541 -538 0
-541 538 540 0
540 541 -538 0
-540 538 541 0
-540 542 -538 0
540 -542 0
538 -542 0
-459 -539 543 0
459 -543 0
539 -543 0
-544 543 542 0
544 -542 0
544 -543 0
-98 -469 545 0
98 -545 0
469 -545 0
-465 -546 -545 0
465 -546 545 0
465 -545 546 0
-465 546 545 0
-544 -546 -547 0
544 -547 546 0
-544 546 547 0
544 547 -546 0
-544 548 -546 0
546 -548 0
544 -548 0
-465 -545 549 0
-549 465 0
-549 545 0
548 549 -550 0
550 -548 0
-549 550 0
551 -469 -106 0
106 -551 0
469 -551 0
-468 -551 -552 0
551 468 -552 0
552 468 -551 0
551 552 -468 0
-553 -550 -552 0
-553 552 550 0
552 -550 553 0
-552 550 553 0
554 -550 -552 0
552 -554 0
550 -554 0
555 -468 -551 0
468 -555 0
551 -555 0
-556 555 554 0
556 -554 0
556 -555 0
-557 558 0
557 -558 0
-557 475 0
557 -475 0
-557 560 0
557 -560 0
557 -560 0
-557 561 -4 0
4 -561 0
557 -561 0
-562 -481 -561 0
-562 481 561 0
481 -561 562 0
-481 561 562 0
-562 -563 -557 0
557 562 -563 0
563 -557 562 0
563 -562 557 0
-562 564 -557 0
-564 562 0
557 -564 0
-481 -561 565 0
-565 481 0
-565 561 0
564 565 -566 0
-564 566 0
-565 566 0
-557 -11 567 0
-567 11 0
-567 557 0
-567 -568 -487 0
487 -568 567 0
487 -567 568 0
-487 568 567 0
-566 -569 -568 0
-569 566 568 0
569 568 -566 0
569 -568 566 0
570 -568 -566 0
-570 568 0
566 -570 0
-567 -487 571 0
487 -571 0
-571 567 0
570 -572 571 0
572 -570 0
572 -571 0
-18 -557 573 0
-573 18 0
-573 557 0
-573 -493 -574 0
493 573 -574 0
-573 493 574 0
-493 573 574 0
-572 -574 -575 0
572 574 -575 0
575 -572 574 0
575 572 -574 0
576 -572 -574 0
574 -576 0
572 -576 0
-573 577 -493 0
-577 493 0
-577 573 0
576 577 -578 0
-576 578 0
-577 578 0
-557 -27 579 0
27 -579 0
557 -579 0
-499 -579 -580 0
-580 499 579 0
580 -579 499 0
-499 580 579 0
-581 -580 -578 0
-581 580 578 0
580 581 -578 0
-580 581 578 0
-580 582 -578 0
580 -582 0
-582 578 0
-499 583 -579 0
-583 499 0
-583 579 0
-584 583 582 0
-582 584 0
-583 584 0
-557 -35 585 0
-585 35 0
-585 557 0
-585 -586 -505 0
-586 505 585 0
-585 586 505 0
586 -505 585 0
-584 -586 -587 0
-587 586 584 0
-584 587 586 0
-586 587 584 0
-584 -586 588 0
586 -588 0
-588 584 0
-585 -505 589 0
505 -589 0
-589 585 0
-590 589 588 0
-588 590 0
-589 590 0
-557 -42 591 0
42 -591 0
-591 557 0
-591 -592 -511 0
511 -592 591 0
592 -591 511 0
592 -511 591 0
-590 -592 -593 0
592 590 -593 0
592 -590 593 0
590 593 -592 0
-590 594 -592 0
592 -594 0
-594 590 0
-591 595 -511 0
511 -595 0
591 -595 0
594 595 -596 0
596 -594 0
596 -595 0
-50 -557 597 0
-597 50 0
557 -597 0
-598 -597 -517 0
-598 517 597 0
517 -597 598 0
-517 598 597 0
-598 -599 -596 0
596 598 -599 0
599 598 -596 0
-598 596 599 0
-598 600 -596 0
-600 598 0
596 -600 0
-597 -517 601 0
517 -601 0
-601 597 0
-602 601 600 0
602 -600 0
602 -601 0
-59 -557 603 0
59 -603 0
557 -603 0
-523 -603 -604 0
-604 603 523 0
604 523 -603 0
-523 604 603 0
-602 -604 -605 0
602 604 -605 0
605 -602 604 0
602 -604 605 0
-602 -604 606 0
604 -606 0
602 -606 0
-523 607 -603 0
-607 523 0
603 -607 0
-608 607 606 0
608 -606 0
608 -607 0
-557 609 -67 0
-609 67 0
-609 557 0
-529 -609 -610 0
529 609 -610 0
529 -609 610 0
610 -529 609 0
-608 -611 -610 0
610 608 -611 0
610 -608 611 0
608 611 -610 0
-608 612 -610 0
610 -612 0
608 -612 0
-529 613 -609 0
529 -613 0
609 -613 0
613 612 -614 0
614 -612 0
614 -613 0
-75 -557 615 0
-615 75 0
557 -615 0
-535 -615 -616 0
-616 615 535 0
616 -615 535 0
-535 615 616 0
-616 -617 -614 0
616 614 -617 0
616 617 -614 0
-616 614 617 0
-616 618 -614 0
616 -618 0
614 -618 0
-535 -615 619 0
-619 535 0
-619 615 0
618 -620 619 0
-618 620 0
-619 620 0
-557 -83 621 0
-621 83 0
-621 557 0
-541 -621 -622 0
-622 541 621 0
-621 622 541 0
-541 622 621 0
-622 -623 -620 0
-623 622 620 0
622 -620 623 0
-622 623 620 0
-622 624 -620 0
622 -624 0
-624 620 0
-541 -621 625 0
-625 541 0
-625 621 0
624 625 -626 0
626 -624 0
626 -625 0
-90 -557 627 0
-627 90 0
557 -627 0
-628 -627 -547 0
-628 627 547 0
-627 628 547 0
627 -547 628 0
-626 -628 -629 0
626 -629 628 0
-626 629 628 0
626 -628 629 0
-626 -628 630 0
-630 628 0
626 -630 0
-627 -547 631 0
-631 547 0
-631 627 0
-632 630 631 0
-630 632 0
-631 632 0
-557 -98 633 0
98 -633 0
557 -633 0
-553 -634 -633 0
-634 633 553 0
634 -633 553 0
-553 634 633 0
-632 -634 -635 0
-635 634 632 0
-632 634 635 0
-634 632 635 0
-632 -634 636 0
634 -636 0
632 -636 0
-553 -633 637 0
-637 553 0
-637 633 0
-638 636 637 0
-636 638 0
-637 638 0
-557 -106 639 0
106 -639 0
557 -639 0
-556 -639 -640 0
-640 556 639 0
556 640 -639 0
-556 640 639 0
-640 -638 -641 0
-641 640 638 0
-638 640 641 0
-640 638 641 0
-640 -638 642 0
-642 640 0
-642 638 0
-556 -639 643 0
-643 556 0
-643 639 0
-644 643 642 0
-642 644 0
-643 644 0
-645 646 0
-646 645 0
-645 -563 0
563 645 0
563 -648 0
-648 645 0
649 -645 -4 0
4 -649 0
-649 645 0
-650 -649 -569 0
649 569 -650 0
569 650 -649 0
649 650 -569 0
-648 -650 -651 0
-651 650 648 0
-648 651 650 0
-650 648 651 0
-648 -650 652 0
650 -652 0
-652 648 0
-649 -569 653 0
569 -653 0
649 -653 0
652 -654 653 0
654 -652 0
-653 654 0
-645 655 -11 0
11 -655 0
645 -655 0
-656 -655 -575 0
575 -656 655 0
575 656 -655 0
655 656 -575 0
-656 -657 -654 0
-657 654 656 0
-654 656 657 0
-656 654 657 0
-656 658 -654 0
-658 656 0
654 -658 0
659 -655 -575 0
575 -659 0
-659 655 0
-660 659 658 0
-658 660 0
-659 660 0
661 -18 -645 0
-661 18 0
-661 645 0
-581 -661 -662 0
661 581 -662 0
662 -661 581 0
-581 661 662 0
-660 -663 -662 0
662 -663 660 0
662 -660 663 0
663 660 -662 0
-660 664 -662 0
662 -664 0
660 -664 0
-581 665 -661 0
-665 581 0
661 -665 0
664 665 -666 0
666 -664 0
666 -665 0
667 -645 -27 0
27 -667 0
-667 645 0
-587 -667 -668 0
667 587 -668 0
587 -667 668 0
667 -587 668 0
-669 -666 -668 0
666 -669 668 0
668 -666 669 0
666 669 -668 0
-666 670 -668 0
668 -670 0
666 -670 0
-587 -667 671 0
587 -671 0
667 -671 0
670 -672 671 0
672 -670 0
672 -671 0
-645 673 -35 0
-673 35 0
-673 645 0
-673 -674 -593 0
-674 593 673 0
-673 593 674 0
-593 673 674 0
-672 -674 -675 0
672 674 -675 0
-672 675 674 0
672 -674 675 0
-672 -674 676 0
-676 674 0
672 -676 0
-673 677 -593 0
-677 593 0
-677 673 0
677 -678 676 0
678 -676 0
678 -677 0
-645 -42 679 0
42 -679 0
-679 645 0
-679 -680 -599 0
599 -680 679 0
680 -679 599 0
680 -599 679 0
-678 -681 -680 0
678 -681 680 0
681 680 -678 0
681 678 -680 0
682 -678 -680 0
680 -682 0
678 -682 0
683 -679 -599 0
599 -683 0
-683 679 0
682 -684 683 0
-682 684 0
-683 684 0
-50 -645 685 0
-685 50 0
-685 645 0
-685 -686 -605 0
605 685 -686 0
605 -685 686 0
685 686 -605 0
-687 -686 -684 0
-687 686 684 0
687 -684 686 0
-686 687 684 0
-686 -684 688 0
-688 686 0
-688 684 0
689 -685 -605 0
605 -689 0
685 -689 0
689 -690 688 0
-688 690 0
-689 690 0
-59 691 -645 0
-691 59 0
-691 645 0
-611 -691 -692 0
691 -692 611 0
692 -691 611 0
692 691 -611 0
-690 -693 -692 0
692 -693 690 0
692 -690 693 0
-692 690 693 0
-690 694 -692 0
692 -694 0
690 -694 0
-691 -611 695 0
-695 611 0
-695 691 0
-696 694 695 0
-694 696 0
-695 696 0
697 -645 -67 0
67 -697 0
645 -697 0
-698 -617 -697 0
697 -698 617 0
698 -697 617 0
697 698 -617 0
-699 -696 -698 0
-699 698 696 0
-696 698 699 0
-698 699 696 0
-696 -698 700 0
698 -700 0
696 -700 0
701 -617 -697 0
-701 617 0
697 -701 0
701 700 -702 0
702 -700 0
702 -701 0
-75 703 -645 0
-703 75 0
-703 645 0
-623 -704 -703 0
-704 703 623 0
704 -703 623 0
-623 703 704 0
-704 -705 -702 0
702 704 -705 0
704 705 -702 0
702 -704 705 0
-704 706 -702 0
704 -706 0
702 -706 0
-623 -703 707 0
-707 623 0
703 -707 0
706 707 -708 0
708 -706 0
708 -707 0
-645 709 -83 0
83 -709 0
-709 645 0
-629 -709 -710 0
629 709 -710 0
629 -709 710 0
-629 709 710 0
-711 -710 -708 0
708 -711 710 0
711 710 -708 0
711 708 -710 0
712 -710 -708 0
710 -712 0
708 -712 0
-629 -709 713 0
-713 629 0
-713 709 0
713 712 -714 0
714 -712 0
-713 714 0
715 -645 -90 0
-715 90 0
-715 645 0
-635 -716 -715 0
715 -716 635 0
-715 635 716 0
715 -635 716 0
-717 -716 -714 0
-717 714 716 0
716 -714 717 0
-716 714 717 0
-716 -714 718 0
-718 716 0
-718 714 0
-635 719 -715 0
-719 635 0
715 -719 0
719 -720 718 0
-718 720 0
-719 720 0
-645 -98 721 0
98 -721 0
645 -721 0
-641 -721 -722 0
-722 721 641 0
722 -721 641 0
-641 722 721 0
-722 -720 -723 0
722 -723 720 0
723 722 -720 0
723 -722 720 0
-722 724 -720 0
-724 722 0
-724 720 0
-641 725 -721 0
-725 641 0
721 -725 0
725 724 -726 0
-724 726 0
726 -725 0
727 -645 -106 0
106 -727 0
-727 645 0
-727 -644 -728 0
727 -728 644 0
-727 728 644 0
727 -644 728 0
-729 -728 -726 0
-729 726 728 0
728 -726 729 0
726 -728 729 0
730 -728 -726 0
-730 728 0
726 -730 0
731 -727 -644 0
-731 644 0
727 -731 0
730 -732 731 0
-730 732 0
-731 732 0
651 -736 0
736 -651 0
-651 734 0
651 -734 0
-651 733 0
651 -733 0
651 -733 0
-651 -4 737 0
4 -737 0
651 -737 0
-738 -737 -657 0
-738 737 657 0
738 657 -737 0
738 -657 737 0
-821 -738 -651 0
-821 738 651 0
738 -651 821 0
651 -738 821 0
740 -738 -651 0
738 -740 0
651 -740 0
741 -657 -737 0
-741 657 0
737 -741 0
741 -742 740 0
742 -740 0
-741 742 0
-651 743 -11 0
11 -743 0
651 -743 0
-663 -744 -743 0
-744 663 743 0
663 -743 744 0
-663 744 743 0
-742 -744 -745 0
744 -745 742 0
-742 745 744 0
-744 745 742 0
-742 -744 746 0
744 -746 0
742 -746 0
-663 747 -743 0
663 -747 0
743 -747 0
747 -748 746 0
748 -746 0
-747 748 0
-18 -651 749 0
-749 18 0
651 -749 0
-669 -749 -750 0
749 669 -750 0
-749 669 750 0
-669 749 750 0
-748 -750 -751 0
750 748 -751 0
750 -748 751 0
748 751 -750 0
752 -748 -750 0
750 -752 0
-752 748 0
-669 -749 753 0
-753 669 0
749 -753 0
752 753 -754 0
754 -752 0
754 -753 0
755 -651 -27 0
-755 27 0
-755 651 0
-755 -756 -675 0
755 675 -756 0
-755 675 756 0
755 756 -675 0
-756 -757 -754 0
754 756 -757 0
756 757 -754 0
754 757 -756 0
758 -756 -754 0
756 -758 0
754 -758 0
-755 759 -675 0
-759 675 0
755 -759 0
758 -760 759 0
-758 760 0
-759 760 0
761 -35 -651 0
35 -761 0
651 -761 0
-762 -681 -761 0
681 -762 761 0
681 762 -761 0
761 762 -681 0
-763 -762 -760 0
-763 762 760 0
-760 762 763 0
-762 760 763 0
-762 -760 764 0
762 -764 0
760 -764 0
-681 765 -761 0
681 -765 0
761 -765 0
-766 765 764 0
766 -764 0
-765 766 0
-651 -42 767 0
42 -767 0
-767 651 0
-687 -767 -768 0
-768 687 767 0
-767 687 768 0
-687 768 767 0
-766 -768 -769 0
768 766 -769 0
769 768 -766 0
769 -768 766 0
-766 -768 770 0
-770 768 0
-770 766 0
-687 -767 771 0
-771 687 0
-771 767 0
-772 771 770 0
-770 772 0
772 -771 0
-50 -651 773 0
50 -773 0
651 -773 0
-774 -693 -773 0
-774 773 693 0
693 774 -773 0
-693 774 773 0
-774 -775 -772 0
772 -775 774 0
-772 775 774 0
-774 772 775 0
-774 -772 776 0
774 -776 0
772 -776 0
777 -693 -773 0
-777 693 0
-777 773 0
777 776 -778 0
-776 778 0
-777 778 0
779 -59 -651 0
-779 59 0
-779 651 0
-699 -779 -780 0
779 699 -780 0
-779 780 699 0
-699 780 779 0
-778 -781 -780 0
-781 780 778 0
-778 780 781 0
-780 778 781 0
-778 782 -780 0
780 -782 0
-782 778 0
-699 -779 783 0
-783 699 0
779 -783 0
782 783 -784 0
784 -782 0
-783 784 0
-651 785 -67 0
-785 67 0
-785 651 0
-785 -705 -786 0
705 -786 785 0
-785 786 705 0
786 -705 785 0
-784 -786 -787 0
784 786 -787 0
786 -784 787 0
784 787 -786 0
788 -784 -786 0
786 -788 0
784 -788 0
-785 -705 789 0
-789 705 0
-789 785 0
789 788 -790 0
790 -788 0
790 -789 0
-75 791 -651 0
-791 75 0
-791 651 0
-791 -711 -792 0
711 791 -792 0
711 792 -791 0
-711 791 792 0
-792 -790 -793 0
790 792 -793 0
792 -790 793 0
790 -792 793 0
794 -792 -790 0
-794 792 0
790 -794 0
-791 -711 795 0
711 -795 0
791 -795 0
-796 794 795 0
-794 796 0
796 -795 0
-651 -83 797 0
-797 83 0
-797 651 0
-797 -717 -798 0
-798 717 797 0
-797 798 717 0
798 -717 797 0
-796 -798 -799 0
798 -799 796 0
798 -796 799 0
799 -798 796 0
-796 -798 800 0
798 -800 0
796 -800 0
-797 -717 801 0
-801 717 0
-801 797 0
801 -802 800 0
-800 802 0
-801 802 0
803 -651 -90 0
-803 90 0
651 -803 0
-803 -804 -723 0
723 803 -804 0
723 -803 804 0
803 -723 804 0
-802 -804 -805 0
804 -805 802 0
804 -802 805 0
-804 802 805 0
-802 -804 806 0
804 -806 0
802 -806 0
807 -803 -723 0
723 -807 0
803 -807 0
807 -808 806 0
808 -806 0
-807 808 0
-651 -98 809 0
98 -809 0
651 -809 0
-729 -810 -809 0
-810 729 809 0
-809 729 810 0
-729 810 809 0
-811 -808 -810 0
-811 808 810 0
-808 811 810 0
-810 808 811 0
812 -808 -810 0
-812 810 0
-812 808 0
-729 -809 813 0
-813 729 0
-813 809 0
812 813 -814 0
-812 814 0
-813 814 0
815 -651 -106 0
106 -815 0
651 -815 0
-732 -815 -816 0
815 -816 732 0
816 -815 732 0
815 816 -732 0
-817 -814 -816 0
816 -817 814 0
817 816 -814 0
817 -816 814 0
-816 -814 818 0
816 -818 0
814 -818 0
819 -732 -815 0
-819 732 0
-819 815 0
819 -820 818 0
820 -818 0
-819 820 0
-821 822 0
-822 821 0
-821 739 0
-739 821 0
-821 824 0
-824 821 0
-824 821 0
-821 -4 825 0
4 -825 0
-825 821 0
-825 -826 -745 0
745 -826 825 0
-825 745 826 0
826 -745 825 0
-821 -826 -827 0
826 821 -827 0
-821 826 827 0
827 -826 821 0
-821 828 -826 0
-828 826 0
-828 821 0
-825 829 -745 0
745 -829 0
-829 825 0
828 829 -830 0
-828 830 0
-829 830 0
-821 831 -11 0
11 -831 0
-831 821 0
-832 -831 -751 0
-832 831 751 0
-831 751 832 0
831 832 -751 0
-833 -832 -830 0
-833 832 830 0
-830 833 832 0
-832 833 830 0
-832 -830 834 0
832 -834 0
-834 830 0
835 -831 -751 0
751 -835 0
831 -835 0
835 -836 834 0
836 -834 0
836 -835 0
-821 837 -18 0
-837 18 0
-837 821 0
-757 -837 -838 0
837 757 -838 0
-837 757 838 0
837 -757 838 0
-839 -836 -838 0
836 -839 838 0
839 -836 838 0
836 839 -838 0
840 -836 -838 0
-840 838 0
836 -840 0
-837 -757 841 0
-841 757 0
837 -841 0
-842 840 841 0
-840 842 0
-841 842 0
-821 -27 843 0
27 -843 0
-843 821 0
-763 -843 -844 0
763 -844 843 0
844 -843 763 0
-763 844 843 0
-842 -845 -844 0
844 842 -845 0
845 -842 844 0
845 842 -844 0
-842 846 -844 0
-846 844 0
-846 842 0
-763 847 -843 0
-847 763 0
-847 843 0
-848 846 847 0
848 -846 0
848 -847 0
-821 849 -35 0
35 -849 0
821 -849 0
-850 -849 -769 0
769 849 -850 0
769 -849 850 0
-769 849 850 0
-848 -850 -851 0
848 850 -851 0
851 -848 850 0
851 848 -850 0
-848 -850 852 0
-852 850 0
848 -852 0
-849 853 -769 0
769 -853 0
849 -853 0
852 853 -854 0
854 -852 0
854 -853 0
-821 -42 855 0
42 -855 0
-855 821 0
-855 -775 -856 0
-856 775 855 0
-855 775 856 0
-775 856 855 0
-857 -856 -854 0
-857 854 856 0
857 856 -854 0
857 854 -856 0
-856 858 -854 0
-858 856 0
-858 854 0
-855 -775 859 0
775 -859 0
-859 855 0
-860 858 859 0
860 -858 0
860 -859 0
-821 -50 861 0
-861 50 0
-861 821 0
-781 -861 -862 0
781 -862 861 0
-861 862 781 0
-781 862 861 0
-863 -860 -862 0
860 -863 862 0
862 -860 863 0
860 863 -862 0
-860 864 -862 0
862 -864 0
860 -864 0
-781 -861 865 0
-865 781 0
-865 861 0
865 864 -866 0
866 -864 0
-865 866 0
-821 -59 867 0
-867 59 0
-867 821 0
-867 -787 -868 0
-868 787 867 0
-867 787 868 0
868 -787 867 0
-868 -866 -869 0
868 866 -869 0
-866 868 869 0
-868 869 866 0
-868 870 -866 0
868 -870 0
-870 866 0
-867 -787 871 0
-871 787 0
-871 867 0
-872 870 871 0
872 -870 0
-871 872 0
-821 873 -67 0
67 -873 0
-873 821 0
-874 -873 -793 0
-874 873 793 0
874 -873 793 0
874 873 -793 0
-872 -874 -875 0
874 872 -875 0
-872 874 875 0
-874 872 875 0
-872 876 -874 0
874 -876 0
-876 872 0
-873 -793 877 0
-877 793 0
873 -877 0
876 -878 877 0
-876 878 0
-877 878 0
-821 879 -75 0
-879 75 0
-879 821 0
-799 -879 -880 0
799 879 -880 0
799 -879 880 0
880 -799 879 0
-881 -878 -880 0
880 -881 878 0
880 -878 881 0
-880 881 878 0
-878 882 -880 0
880 -882 0
-882 878 0
-799 -879 883 0
799 -883 0
879 -883 0
-884 882 883 0
884 -882 0
884 -883 0
-821 885 -83 0
83 -885 0
821 -885 0
-886 -885 -805 0
885 -886 805 0
805 -885 886 0
885 -805 886 0
-884 -887 -886 0
-887 884 886 0
-884 887 886 0
887 884 -886 0
-884 -886 888 0
-888 886 0
884 -888 0
889 -805 -885 0
-889 805 0
885 -889 0
889 888 -890 0
-888 890 0
-889 890 0
-821 -90 891 0
-891 90 0
-891 821 0
-811 -891 -892 0
-892 811 891 0
811 892 -891 0
-811 892 891 0
-892 -893 -890 0
-893 892 890 0
893 892 -890 0
-892 893 890 0
-892 -890 894 0
892 -894 0
890 -894 0
-891 -811 895 0
-895 811 0
-895 891 0
894 895 -896 0
896 -894 0
896 -895 0
-821 -98 897 0
-897 98 0
-897 821 0
-897 -817 -898 0
817 -898 897 0
-897 817 898 0
-817 898 897 0
-899 -898 -896 0
896 898 -899 0
898 899 -896 0
896 -898 899 0
900 -898 -896 0
-900 898 0
-900 896 0
-897 -817 901 0
817 -901 0
-901 897 0
901 -902 900 0
-900 902 0
902 -901 0
-821 -106 903 0
106 -903 0
-903 821 0
-820 -904 -903 0
-904 820 903 0
820 -903 904 0
-820 903 904 0
-904 -902 -905 0
-905 902 904 0
-902 904 905 0
-904 902 905 0
-904 -902 906 0
-906 904 0
902 -906 0
-820 907 -903 0
820 -907 0
903 -907 0
907 -908 906 0
908 -906 0
908 -907 0
910 -909 0
909 -910 0
-910 -827 0
910 827 0
827 -912 0
910 -912 0
-910 -4 913 0
4 -913 0
910 -913 0
-833 -913 -914 0
833 913 -914 0
914 -913 833 0
-833 914 913 0
-915 -912 -914 0
912 914 -915 0
914 915 -912 0
912 915 -914 0
916 -912 -914 0
-916 914 0
912 -916 0
-833 917 -913 0
-917 833 0
-917 913 0
-918 916 917 0
-916 918 0
-917 918 0
-910 919 -11 0
11 -919 0
910 -919 0
-839 -919 -920 0
839 919 -920 0
839 920 -919 0
-839 920 919 0
-918 -921 -920 0
918 920 -921 0
-918 921 920 0
918 921 -920 0
-918 -920 922 0
920 -922 0
918 -922 0
923 -839 -919 0
839 -923 0
-923 919 0
923 -924 922 0
-922 924 0
-923 924 0
-910 -18 925 0
18 -925 0
910 -925 0
-845 -926 -925 0
845 925 -926 0
845 -925 926 0
926 925 -845 0
-927 -924 -926 0
926 -927 924 0
926 -924 927 0
924 927 -926 0
-926 -924 928 0
926 -928 0
924 -928 0
929 -845 -925 0
845 -929 0
-929 925 0
-930 929 928 0
930 -928 0
930 -929 0
-910 -27 931 0
27 -931 0
910 -931 0
-932 -931 -851 0
851 -932 931 0
851 -931 932 0
-851 932 931 0
-932 -930 -933 0
930 932 -933 0
933 -930 932 0
-932 930 933 0
-932 -930 934 0
932 -934 0
930 -934 0
935 -931 -851 0
851 -935 0
-935 931 0
934 -936 935 0
936 -934 0
936 -935 0
-910 -35 937 0
-937 35 0
910 -937 0
-937 -857 -938 0
857 -938 937 0
-937 857 938 0
-857 938 937 0
-939 -936 -938 0
-939 938 936 0
938 -936 939 0
-938 936 939 0
-936 -938 940 0
938 -940 0
936 -940 0
-937 -857 941 0
857 -941 0
-941 937 0
-942 941 940 0
942 -940 0
942 -941 0
-910 -42 943 0
42 -943 0
910 -943 0
-863 -944 -943 0
-944 863 943 0
863 944 -943 0
-863 943 944 0
-942 -945 -944 0
942 -945 944 0
-942 945 944 0
942 -944 945 0
-942 946 -944 0
-946 944 0
942 -946 0
-863 947 -943 0
-947 863 0
-947 943 0
-948 946 947 0
948 -946 0
948 -947 0
-50 -910 949 0
-949 50 0
910 -949 0
-949 -950 -869 0
-950 869 949 0
-949 950 869 0
950 949 -869 0
-948 -950 -951 0
948 950 -951 0
-948 951 950 0
948 -950 951 0
-948 -950 952 0
950 -952 0
948 -952 0
-949 -869 953 0
869 -953 0
-953 949 0
953 -954 952 0
954 -952 0
954 -953 0
-59 -910 955 0
59 -955 0
910 -955 0
-955 -875 -956 0
875 955 -956 0
875 -955 956 0
955 -875 956 0
-954 -957 -956 0
954 -957 956 0
957 -954 956 0
954 957 -956 0
-954 958 -956 0
-958 956 0
954 -958 0
959 -875 -955 0
-959 875 0
-959 955 0
959 958 -960 0
-958 960 0
-959 960 0
-910 961 -67 0
67 -961 0
910 -961 0
-881 -961 -962 0
961 881 -962 0
962 -961 881 0
-881 961 962 0
-963 -960 -962 0
962 960 -963 0
962 -960 963 0
-962 960 963 0
964 -960 -962 0
962 -964 0
960 -964 0
-881 -961 965 0
-965 881 0
961 -965 0
965 964 -966 0
966 -964 0
966 -965 0
-75 -910 967 0
75 -967 0
910 -967 0
-887 -968 -967 0
887 967 -968 0
887 968 -967 0
-887 967 968 0
-968 -969 -966 0
966 -969 968 0
968 -966 969 0
-968 966 969 0
-968 970 -966 0
-970 968 0
-970 966 0
-887 971 -967 0
887 -971 0
-971 967 0
971 970 -972 0
-970 972 0
-971 972 0
973 -910 -83 0
83 -973 0
910 -973 0
-893 -973 -974 0
973 893 -974 0
974 893 -973 0
974 973 -893 0
-975 -972 -974 0
974 -975 972 0
974 975 -972 0
975 972 -974 0
-972 976 -974 0
974 -976 0
-976 972 0
-893 977 -973 0
893 -977 0
973 -977 0
-978 977 976 0
-976 978 0
-977 978 0
979 -910 -90 0
-979 90 0
910 -979 0
-980 -979 -899 0
979 -980 899 0
980 -979 899 0
979 980 -899 0
-978 -980 -981 0
980 -981 978 0
-978 981 980 0
-980 981 978 0
-978 -980 982 0
980 -982 0
978 -982 0
983 -979 -899 0
-983 899 0
979 -983 0
983 982 -984 0
-982 984 0
-983 984 0
-910 -98 985 0
98 -985 0
910 -985 0
-905 -986 -985 0
985 -986 905 0
986 905 -985 0
986 -905 985 0
-987 -986 -984 0
986 -987 984 0
986 987 -984 0
987 -986 984 0
-986 -984 988 0
986 -988 0
-988 984 0
-905 989 -985 0
-989 905 0
985 -989 0
-990 989 988 0
-988 990 0
990 -989 0
-910 991 -106 0
106 -991 0
910 -991 0
-908 -991 -992 0
908 991 -992 0
908 -991 992 0
-908 991 992 0
-990 -993 -992 0
990 -993 992 0
993 -990 992 0
993 990 -992 0
-990 994 -992 0
992 -994 0
990 -994 0
-908 -991 995 0
-995 908 0
-995 991 0
-996 994 995 0
996 -994 0
-995 996 0
-997 998 0
-998 997 0
-997 -915 0
915 997 0
915 -1000 0
-1000 997 0
1001 -997 -4 0
-1001 4 0
-1001 997 0
-1001 -921 -1002 0
921 1001 -1002 0
-1001 921 1002 0
1001 -921 1002 0
-1085 -1002 -1000 0
-1085 1000 1002 0
1085 -1000 1002 0
1085 1000 -1002 0
1004 -1002 -1000 0
-1004 1002 0
-1004 1000 0
-1001 1005 -921 0
-1005 921 0
-1005 1001 0
1005 1004 -1006 0
1006 -1004 0
-1005 1006 0
-997 1007 -11 0
-1007 11 0
-1007 997 0
-1007 -927 -1008 0
-1008 1007 927 0
-1007 1008 927 0
-927 1008 1007 0
-1008 -1009 -1006 0
1006 1008 -1009 0
1008 -1006 1009 0
1006 -1008 1009 0
-1006 -1008 1010 0
1008 -1010 0
1006 -1010 0
-1007 -927 1011 0
927 -1011 0
1007 -1011 0
-1012 1011 1010 0
1012 -1010 0
1012 -1011 0
-997 -18 1013 0
18 -1013 0
997 -1013 0
-1014 -933 -1013 0
933 -1014 1013 0
933 -1013 1014 0
1013 -933 1014 0
-1012 -1014 -1015 0
-1015 1012 1014 0
-1012 1015 1014 0
-1014 1012 1015 0
-1012 -1014 1016 0
-1016 1014 0
-1016 1012 0
1017 -933 -1013 0
933 -1017 0
1013 -1017 0
1017 1016 -1018 0
-1016 1018 0
1018 -1017 0
1019 -997 -27 0
-1019 27 0
-1019 997 0
-939 -1019 -1020 0
1019 939 -1020 0
-1019 1020 939 0
-939 1019 1020 0
-1021 -1020 -1018 0
1020 -1021 1018 0
1020 -1018 1021 0
1018 -1020 1021 0
1022 -1020 -1018 0
1020 -1022 0
1018 -1022 0
-939 1023 -1019 0
939 -1023 0
1019 -1023 0
1022 1023 -1024 0
1024 -1022 0
1024 -1023 0
-997 -35 1025 0
-1025 35 0
-1025 997 0
-1025 -945 -1026 0
1025 945 -1026 0
-1025 945 1026 0
1025 -945 1026 0
-1026 -1024 -1027 0
1024 -1027 1026 0
-1024 1027 1026 0
1024 -1026 1027 0
1028 -1026 -1024 0
-1028 1026 0
1024 -1028 0
-1025 -945 1029 0
945 -1029 0
1025 -1029 0
1028 -1030 1029 0
-1028 1030 0
-1029 1030 0
-997 -42 1031 0
42 -1031 0
-1031 997 0
-951 -1031 -1032 0
-1032 951 1031 0
-1031 951 1032 0
-951 1032 1031 0
-1032 -1030 -1033 0
1032 -1033 1030 0
1033 1032 -1030 0
-1032 1033 1030 0
-1032 1034 -1030 0
1032 -1034 0
1030 -1034 0
-951 -1031 1035 0
951 -1035 0
-1035 1031 0
1035 1034 -1036 0
1036 -1034 0
1036 -1035 0
-50 -997 1037 0
-1037 50 0
-1037 997 0
-1037 -1038 -957 0
957 -1038 1037 0
957 -1037 1038 0
1038 -957 1037 0
-1039 -1038 -1036 0
1038 1036 -1039 0
1038 1039 -1036 0
-1038 1036 1039 0
1040 -1038 -1036 0
1038 -1040 0
1036 -1040 0
-1037 -957 1041 0
957 -1041 0
1037 -1041 0
-1042 1040 1041 0
-1040 1042 0
1042 -1041 0
-59 1043 -997 0
-1043 59 0
997 -1043 0
-963 -1044 -1043 0
1043 -1044 963 0
1044 -1043 963 0
-963 1043 1044 0
-1042 -1044 -1045 0
1044 -1045 1042 0
-1042 1044 1045 0
1045 -1044 1042 0
-1042 1046 -1044 0
-1046 1044 0
-1046 1042 0
-963 -1043 1047 0
963 -1047 0
1043 -1047 0
-1048 1046 1047 0
-1046 1048 0
1048 -1047 0
-997 1049 -67 0
67 -1049 0
997 -1049 0
-1049 -969 -1050 0
1049 969 -1050 0
1050 969 -1049 0
-969 1049 1050 0
-1048 -1050 -1051 0
1050 1048 -1051 0
1051 -1048 1050 0
1051 1048 -1050 0
-1048 1052 -1050 0
1050 -1052 0
1048 -1052 0
-969 1053 -1049 0
-1053 969 0
1049 -1053 0
-1054 1052 1053 0
1054 -1052 0
-1053 1054 0
-75 -997 1055 0
-1055 75 0
-1055 997 0
-1055 -975 -1056 0
1055 975 -1056 0
-1055 975 1056 0
1055 -975 1056 0
-1054 -1057 -1056 0
1056 -1057 1054 0
-1054 1056 1057 0
1057 -1056 1054 0
-1054 1058 -1056 0
1056 -1058 0
1054 -1058 0
-1055 -975 1059 0
-1059 975 0
-1059 1055 0
-1060 1058 1059 0
1060 -1058 0
-1059 1060 0
-997 1061 -83 0
83 -1061 0
-1061 997 0
-1062 -1061 -981 0
-1062 981 1061 0
981 -1061 1062 0
1061 -981 1062 0
-1063 -1062 -1060 0
1060 -1063 1062 0
-1060 1063 1062 0
1060 -1062 1063 0
-1062 1064 -1060 0
-1064 1062 0
1060 -1064 0
-1061 -981 1065 0
-1065 981 0
-1065 1061 0
-1066 1064 1065 0
1066 -1064 0
-1065 1066 0
-997 1067 -90 0
90 -1067 0
997 -1067 0
-987 -1067 -1068 0
987 1067 -1068 0
987 -1067 1068 0
1067 -987 1068 0
-1069 -1066 -1068 0
1066 -1069 1068 0
-1066 1069 1068 0
1066 1069 -1068 0
-1066 1070 -1068 0
1068 -1070 0
1066 -1070 0
1071 -987 -1067 0
-1071 987 0
-1071 1067 0
1071 1070 -1072 0
1072 -1070 0
1072 -1071 0
-997 -98 1073 0
-1073 98 0
-1073 997 0
-1073 -993 -1074 0
993 1073 -1074 0
993 -1073 1074 0
1073 -993 1074 0
-1074 -1072 -1075 0
1072 1074 -1075 0
1075 -1072 1074 0
1072 1075 -1074 0
-1074 -1072 1076 0
1074 -1076 0
1072 -1076 0
-1073 -993 1077 0
993 -1077 0
1073 -1077 0
-1078 1077 1076 0
1078 -1076 0
1078 -1077 0
-997 -106 1079 0
106 -1079 0
-1079 997 0
-1079 -996 -1080 0
996 1079 -1080 0
-1079 996 1080 0
-996 1079 1080 0
-1078 -1080 -1081 0
1080 1078 -1081 0
-1078 1081 1080 0
1081 -1080 1078 0
-1078 -1080 1082 0
1080 -1082 0
1078 -1082 0
-1079 -996 1083 0
-1083 996 0
-1083 1079 0
1083 -1084 1082 0
1084 -1082 0
-1083 1084 0
-1085 1086 0
1085 -1086 0
-1085 1003 0
1085 -1003 0
-1085 1088 0
1085 -1088 0
1085 -1088 0
-1085 -4 1089 0
4 -1089 0
1085 -1089 0
-1089 -1009 -1090 0
1089 -1090 1009 0
1090 -1089 1009 0
1090 -1009 1089 0
-1085 -1173 -1090 0
1085 1090 -1173 0
-1085 1090 1173 0
1085 1173 -1090 0
-1085 -1090 1092 0
1090 -1092 0
1085 -1092 0
-1009 1093 -1089 0
-1093 1009 0
-1093 1089 0
1093 -1094 1092 0
-1092 1094 0
1094 -1093 0
-1085 1095 -11 0
11 -1095 0
1085 -1095 0
-1015 -1096 -1095 0
-1096 1015 1095 0
1015 1096 -1095 0
-1015 1095 1096 0
-1096 -1097 -1094 0
-1097 1096 1094 0
1097 1096 -1094 0
1097 -1096 1094 0
-1096 -1094 1098 0
-1098 1096 0
-1098 1094 0
-1015 1099 -1095 0
-1099 1015 0
-1099 1095 0
-1100 1098 1099 0
-1098 1100 0
-1099 1100 0
-1085 -18 1101 0
18 -1101 0
1085 -1101 0
-1102 -1021 -1101 0
-1102 1101 1021 0
1102 1021 -1101 0
1102 1101 -1021 0
-1100 -1102 -1103 0
1102 1100 -1103 0
1102 -1100 1103 0
-1102 1100 1103 0
-1100 -1102 1104 0
1102 -1104 0
1100 -1104 0
-1021 1105 -1101 0
-1105 1021 0
-1105 1101 0
-1106 1104 1105 0
1106 -1104 0
1106 -1105 0
-1085 1107 -27 0
27 -1107 0
1085 -1107 0
-1027 -1107 -1108 0
1027 1107 -1108 0
1108 -1107 1027 0
1108 -1027 1107 0
-1106 -1108 -1109 0
1108 1106 -1109 0
1109 1108 -1106 0
1109 1106 -1108 0
-1106 1110 -1108 0
1108 -1110 0
1106 -1110 0
-1027 1111 -1107 0
-1111 1027 0
-1111 1107 0
-1112 1111 1110 0
1112 -1110 0
-1111 1112 0
-1085 -35 1113 0
-1113 35 0
1085 -1113 0
-1113 -1114 -1033 0
-1114 1033 1113 0
-1113 1114 1033 0
1114 -1033 1113 0
-1114 -1112 -1115 0
1114 1112 -1115 0
-1112 1114 1115 0
-1114 1115 1112 0
-1114 -1112 1116 0
-1116 1114 0
-1116 1112 0
-1113 1117 -1033 0
-1117 1033 0
-1117 1113 0
1116 1117 -1118 0
-1116 1118 0
-1117 1118 0
-1085 1119 -42 0
42 -1119 0
1085 -1119 0
-1039 -1119 -1120 0
1119 1039 -1120 0
1039 -1119 1120 0
-1039 1119 1120 0
-1121 -1118 -1120 0
-1121 1120 1118 0
1120 -1118 1121 0
-1120 1121 1118 0
1122 -1118 -1120 0
-1122 1120 0
-1122 1118 0
-1039 1123 -1119 0
1039 -1123 0
1119 -1123 0
1122 1123 -1124 0
1124 -1122 0
1124 -1123 0
-1085 -50 1125 0
-1125 50 0
1085 -1125 0
-1125 -1045 -1126 0
1045 1125 -1126 0
-1125 1045 1126 0
1125 -1045 1126 0
-1126 -1124 -1127 0
1124 1126 -1127 0
1127 -1124 1126 0
1124 1127 -1126 0
-1126 1128 -1124 0
-1128 1126 0
1124 -1128 0
-1125 1129 -1045 0
1045 -1129 0
1125 -1129 0
1129 -1130 1128 0
-1128 1130 0
-1129 1130 0
-1085 -59 1131 0
-1131 59 0
1085 -1131 0
-1131 -1051 -1132 0
1051 1131 -1132 0
1051 -1131 1132 0
-1051 1131 1132 0
-1133 -1130 -1132 0
-1133 1130 1132 0
1133 -1130 1132 0
1133 1130 -1132 0
1134 -1130 -1132 0
-1134 1132 0
-1134 1130 0
-1131 -1051 1135 0
1051 -1135 0
1131 -1135 0
1134 -1136 1135 0
1136 -1134 0
1136 -1135 0
-1085 1137 -67 0
67 -1137 0
1085 -1137 0
-1057 -1138 -1137 0
-1138 1057 1137 0
1057 1138 -1137 0
1138 -1057 1137 0
-1139 -1136 -1138 0
1136 -1139 1138 0
-1136 1138 1139 0
1136 -1138 1139 0
-1136 1140 -1138 0
1138 -1140 0
1136 -1140 0
-1057 -1137 1141 0
1057 -1141 0
1137 -1141 0
-1142 1140 1141 0
-1140 1142 0
1142 -1141 0
-1085 -75 1143 0
75 -1143 0
1085 -1143 0
-1063 -1144 -1143 0
-1144 1063 1143 0
1063 1144 -1143 0
-1063 1144 1143 0
-1144 -1142 -1145 0
-1145 1144 1142 0
1145 -1142 1144 0
-1144 1142 1145 0
-1144 -1142 1146 0
1144 -1146 0
-1146 1142 0
-1063 1147 -1143 0
-1147 1063 0
-1147 1143 0
1146 -1148 1147 0
-1146 1148 0
-1147 1148 0
-1085 1149 -83 0
83 -1149 0
1085 -1149 0
-1069 -1150 -1149 0
-1150 1149 1069 0
1150 -1149 1069 0
-1069 1150 1149 0
-1150 -1148 -1151 0
1150 1148 -1151 0
1150 1151 -1148 0
1151 -1150 1148 0
-1150 -1148 1152 0
1150 -1152 0
-1152 1148 0
-1069 -1149 1153 0
-1153 1069 0
-1153 1149 0
1153 -1154 1152 0
-1152 1154 0
-1153 1154 0
-1085 1155 -90 0
90 -1155 0
1085 -1155 0
-1075 -1155 -1156 0
1075 1155 -1156 0
1075 -1155 1156 0
-1075 1155 1156 0
-1156 -1154 -1157 0
1156 -1157 1154 0
1157 -1154 1156 0
1157 -1156 1154 0
1158 -1154 -1156 0
1156 -1158 0
1154 -1158 0
-1075 1159 -1155 0
-1159 1075 0
-1159 1155 0
1158 1159 -1160 0
1160 -1158 0
1160 -1159 0
-1085 1161 -98 0
98 -1161 0
1085 -1161 0
-1161 -1162 -1081 0
1081 1161 -1162 0
1162 1081 -1161 0
1162 1161 -1081 0
-1163 -1160 -1162 0
1162 -1163 1160 0
1162 -1160 1163 0
1160 -1162 1163 0
-1160 -1162 1164 0
1162 -1164 0
1160 -1164 0
1165 -1161 -1081 0
-1165 1081 0
-1165 1161 0
1165 1164 -1166 0
1166 -1164 0
-1165 1166 0
-1085 -106 1167 0
106 -1167 0
1085 -1167 0
-1168 -1084 -1167 0
-1168 1084 1167 0
1168 -1167 1084 0
1168 -1084 1167 0
-1169 -1168 -1166 0
-1169 1166 1168 0
1168 1169 -1166 0
-1168 1166 1169 0
-1168 -1166 1170 0
1168 -1170 0
1166 -1170 0
-1084 -1167 1171 0
-1171 1084 0
-1171 1167 0
1171 -1172 1170 0
1172 -1170 0
-1171 1172 0
-1173 1174 0
-1174 1173 0
-1173 1091 0
1173 -1091 0
-1173 1176 0
1173 -1176 0
1173 -1176 0
-1173 -4 1177 0
4 -1177 0
1173 -1177 0
-1097 -1178 -1177 0
1097 -1178 1177 0
1097 1178 -1177 0
-1097 1178 1177 0
-1173 -1178 0
1173 1178 0
1178 -1180 0
1173 -1180 0
1181 -1097 -1177 0
1097 -1181 0
1177 -1181 0
1181 1180 -1186 0
-1180 1186 0
1186 -1181 0
-1173 1183 -11 0
-1183 11 0
-1183 1173 0
-1183 -1186 -1103 0
1183 -1186 1103 0
-1183 1103 1186 0
1183 -1103 1186 0
1186 -1184 0
1184 -1186 0
-1186 1182 0
-1182 1186 0
-1182 1186 0
-1183 -1103 1187 0
1103 -1187 0
1183 -1187 0
-1190 1187 1186 0
1190 -1186 0
1190 -1187 0
-1173 1189 -18 0
18 -1189 0
1173 -1189 0
-1190 -1189 -1109 0
1109 1189 -1190 0
1109 1190 -1189 0
1189 1190 -1109 0
1190 -1188 0
-1190 1188 0
-1190 1192 0
-1192 1190 0
-1192 1190 0
1193 -1189 -1109 0
1109 -1193 0
1189 -1193 0
-1194 1190 1193 0
-1190 1194 0
-1193 1194 0
-1173 -27 1195 0
27 -1195 0
1173 -1195 0
-1194 -1115 -1195 0
1115 -1194 1195 0
1115 -1195 1194 0
1195 -1115 1194 0
-1194 1196 0
-1196 1194 0
-1194 1198 0
-1198 1194 0
-1198 1194 0
-1115 1199 -1195 0
1115 -1199 0
-1199 1195 0
1199 -1200 1194 0
-1194 1200 0
-1199 1200 0
-1173 -35 1201 0
35 -1201 0
1173 -1201 0
-1121 -1201 -1202 0
1121 1201 -1202 0
1202 1121 -1201 0
1202 -1121 1201 0
-1200 -1202 0
1202 1200 0
1202 -1204 0
-1204 1200 0
-1121 -1201 1205 0
-1205 1121 0
-1205 1201 0
1205 -1208 1204 0
1208 -1204 0
-1205 1208 0
-1173 -42 1207 0
42 -1207 0
-1207 1173 0
-1207 -1208 -1127 0
-1208 1127 1207 0
-1207 1208 1127 0
1208 1207 -1127 0
1208 -1206 0
-1208 1206 0
-1208 1210 0
1208 -1210 0
1208 -1210 0
-1207 1211 -1127 0
1127 -1211 0
1207 -1211 0
1211 1208 -1212 0
1212 -1208 0
1212 -1211 0
-1173 -50 1213 0
-1213 50 0
1173 -1213 0
-1214 -1133 -1213 0
-1214 1213 1133 0
1214 1133 -1213 0
1214 -1133 1213 0
-1214 -1212 0
1214 1212 0
1214 -1216 0
-1216 1212 0
-1133 -1213 1217 0
-1217 1133 0
-1217 1213 0
-1218 1216 1217 0
-1216 1218 0
-1217 1218 0
-1173 -59 1219 0
-1219 59 0
1173 -1219 0
-1139 -1218 -1219 0
-1218 1219 1139 0
1218 -1219 1139 0
-1139 1218 1219 0
-1218 1220 0
-1220 1218 0
-1218 1222 0
1218 -1222 0
1218 -1222 0
1223 -1139 -1219 0
-1223 1139 0
1219 -1223 0
1223 1218 -1228 0
1228 -1218 0
1228 -1223 0
-1173 1225 -67 0
67 -1225 0
1173 -1225 0
-1145 -1225 -1228 0
1145 1225 -1228 0
1145 1228 -1225 0
-1145 1228 1225 0
1228 -1224 0
1224 -1228 0
1228 -1226 0
1226 -1228 0
-1228 1226 0
-1145 1229 -1225 0
1145 -1229 0
1225 -1229 0
-1234 1228 1229 0
1234 -1228 0
-1229 1234 0
-1173 1231 -75 0
-1231 75 0
1173 -1231 0
-1234 -1231 -1151 0
-1234 1151 1231 0
1151 -1231 1234 0
1231 1234 -1151 0
1234 -1232 0
-1234 1232 0
-1234 1230 0
-1230 1234 0
-1230 1234 0
-1231 1235 -1151 0
1151 -1235 0
1231 -1235 0
-1240 1234 1235 0
-1234 1240 0
1240 -1235 0
-1173 1237 -83 0
83 -1237 0
1173 -1237 0
-1240 -1237 -1157 0
1157 -1240 1237 0
1157 -1237 1240 0
1240 1237 -1157 0
1240 -1236 0
-1240 1236 0
1240 -1238 0
1238 -1240 0
-1240 1238 0
1241 -1237 -1157 0
-1241 1157 0
-1241 1237 0
1240 1241 -1244 0
-1240 1244 0
-1241 1244 0
-1173 -90 1243 0
-1243 90 0
1173 -1243 0
-1163 -1243 -1244 0
1163 -1244 1243 0
1244 -1243 1163 0
1244 -1163 1243 0
1244 -1242 0
1242 -1244 0
-1244 1246 0
1244 -1246 0
1244 -1246 0
1247 -1163 -1243 0
-1247 1163 0
-1247 1243 0
1247 1244 -1248 0
1248 -1244 0
1248 -1247 0
-1173 -98 1249 0
98 -1249 0
1173 -1249 0
-1169 -1249 -1248 0
-1248 1169 1249 0
1248 1169 -1249 0
-1169 1248 1249 0
-1248 1250 0
-1250 1248 0
-1248 1252 0
1248 -1252 0
1248 -1252 0
-1169 1253 -1249 0
1169 -1253 0
-1253 1249 0
-1254 1248 1253 0
-1248 1254 0
1254 -1253 0
-1173 -106 1255 0
106 -1255 0
1173 -1255 0
-1256 1172 1255 0
1256 -1255 1172 0
1256 -1172 1255 0
-1254 -1256 0
1256 1254 0
-1254 -1256 0
-1255 -1172 0
