p cnf 106 325
-4 5 0
4 -5 0
7 -6 0
6 -7 0
-4 -7 0
4 7 0
4 -9 0
7 -9 0
11 -10 0
10 -11 0
4 -12 0
7 -12 0
-13 -11 -12 0
11 -13 12 0
-12 11 13 0
12 -11 13 0
-38 -13 -9 0
-38 9 13 0
13 38 -9 0
-13 38 9 0
-13 -9 15 0
-15 13 0
-15 9 0
16 -11 -12 0
-16 11 0
-16 12 0
-17 16 15 0
17 -15 0
-16 17 0
-18 19 0
18 -19 0
20 -7 -11 0
11 -20 0
-20 7 0
-20 -18 -21 0
20 -21 18 0
21 -20 18 0
20 21 -18 0
-22 -17 -21 0
17 21 -22 0
21 -17 22 0
17 22 -21 0
23 -21 -17 0
21 -23 0
17 -23 0
-20 -18 24 0
18 -24 0
20 -24 0
23 24 -25 0
25 -23 0
25 -24 0
27 -26 0
26 -27 0
-18 28 -7 0
-28 18 0
-28 7 0
-28 -29 -27 0
27 28 -29 0
27 -28 29 0
28 -27 29 0
-30 -29 -25 0
25 -30 29 0
29 30 -25 0
25 30 -29 0
-29 31 -25 0
29 -31 0
25 -31 0
32 -28 -27 0
27 -32 0
-32 28 0
32 31 -33 0
33 -31 0
-32 33 0
-7 -27 34 0
27 -34 0
7 -34 0
-35 -34 -33 0
33 34 -35 0
33 -34 35 0
35 34 -33 0
36 -34 -33 0
33 -36 0
-36 34 0
38 -14 0
14 -38 0
-38 40 0
-40 38 0
-38 37 0
-37 38 0
-37 38 0
-38 41 -4 0
4 -41 0
38 -41 0
-22 -42 -41 0
22 -42 41 0
22 42 -41 0
-22 41 42 0
-68 -38 -42 0
42 -68 38 0
42 68 -38 0
68 -42 38 0
-38 44 -42 0
42 -44 0
-44 38 0
-22 45 -41 0
22 -45 0
41 -45 0
45 44 -46 0
46 -44 0
46 -45 0
-38 47 -11 0
11 -47 0
-47 38 0
-48 -47 -30 0
30 47 -48 0
-47 30 48 0
-30 47 48 0
-49 -48 -46 0
46 -49 48 0
49 -46 48 0
46 49 -48 0
-48 50 -46 0
-50 48 0
-50 46 0
51 -47 -30 0
30 -51 0
47 -51 0
50 -52 51 0
-50 52 0
52 -51 0
-18 -38 53 0
18 -53 0
38 -53 0
-35 -54 -53 0
35 -54 53 0
54 35 -53 0
54 -35 53 0
-52 -54 -55 0
54 52 -55 0
54 55 -52 0
55 52 -54 0
56 -52 -54 0
54 -56 0
-56 52 0
-35 57 -53 0
35 -57 0
53 -57 0
56 57 -58 0
58 -56 0
58 -57 0
-27 -38 59 0
-59 27 0
-59 38 0
-59 -36 -60 0
36 -60 59 0
-59 36 60 0
60 -36 59 0
-61 -60 -58 0
60 58 -61 0
60 61 -58 0
61 -60 58 0
62 -60 -58 0
60 -62 0
58 -62 0
-59 -36 63 0
36 -63 0
-63 59 0
62 -64 63 0
64 -62 0
-63 64 0
-68 43 0
-43 68 0
68 -66 0
-68 66 0
68 -65 0
65 -68 0
65 -68 0
-68 69 -4 0
4 -69 0
68 -69 0
-49 -69 -70 0
69 49 -70 0
49 -69 70 0
69 -49 70 0
-68 -98 -70 0
68 -98 70 0
-68 98 70 0
68 98 -70 0
-68 72 -70 0
-72 70 0
68 -72 0
73 -49 -69 0
-73 49 0
69 -73 0
73 72 -74 0
-72 74 0
-73 74 0
-68 -11 75 0
-75 11 0
-75 68 0
-75 -76 -55 0
55 75 -76 0
-75 55 76 0
76 -55 75 0
-76 -77 -74 0
76 -77 74 0
-74 76 77 0
-76 74 77 0
-74 -76 78 0
-78 76 0
-78 74 0
-75 79 -55 0
55 -79 0
-79 75 0
79 -80 78 0
-78 80 0
-79 80 0
-68 -18 81 0
18 -81 0
68 -81 0
-61 -82 -81 0
81 61 -82 0
61 82 -81 0
-61 82 81 0
-80 -82 -83 0
82 -83 80 0
83 82 -80 0
83 -82 80 0
-80 -82 84 0
82 -84 0
-84 80 0
-61 85 -81 0
61 -85 0
81 -85 0
-86 85 84 0
-84 86 0
86 -85 0
-68 87 -27 0
-87 27 0
-87 68 0
-87 -64 -88 0
64 87 -88 0
-87 64 88 0
-64 87 88 0
-86 -88 -89 0
88 86 -89 0
-86 88 89 0
-88 86 89 0
-86 -88 90 0
88 -90 0
86 -90 0
-87 -64 91 0
64 -91 0
87 -91 0
-92 91 90 0
-90 92 0
-91 92 0
98 -93 0
-98 93 0
-98 71 0
-71 98 0
98 -94 0
94 -98 0
94 -98 0
97 -98 -4 0
4 -97 0
-97 98 0
-97 -77 0
97 -98 77 0
97 98 -77 0
98 -96 0
-98 96 0
-98 100 0
-100 98 0
-100 98 0
-101 77 0
-101 97 0
-102 101 98 0
-98 102 0
-101 102 0
103 -98 -11 0
11 -103 0
98 -103 0
-103 -104 -83 0
103 83 -104 0
83 -103 104 0
103 -83 104 0
-102 -104 0
102 104 0
-106 104 0
-106 102 0
-83 -103 107 0
83 -107 0
103 -107 0
106 -112 107 0
112 -106 0
112 -107 0
109 -18 -98 0
18 -109 0
-109 98 0
-112 -109 -89 0
109 -112 89 0
112 -109 89 0
112 109 -89 0
112 -108 0
108 -112 0
112 -110 0
110 -112 0
110 -112 0
113 -109 -89 0
-113 89 0
109 -113 0
113 112 -114 0
114 -112 0
114 -113 0
-98 -27 115 0
27 -115 0
-115 98 0
-116 92 115 0
-115 116 92 0
-92 116 115 0
-116 -114 0
116 114 0
-114 -116 0
-115 -92 0
