c Type 3: circular XOR (permuted), n=60, t=5, s=3
p cnf 60 320
-17 -18 -10 -59 40 0
-9 -12 -35 56 -54 0
-13 34 -15 43 -11 0
16 -32 -38 27 58 0
-28 36 -3 5 53 0
-13 -34 15 43 -11 0
8 48 21 23 55 0
-59 40 22 -28 36 0
-19 -41 -39 13 34 0
-59 40 22 28 -36 0
-52 -6 42 9 12 0
23 -55 51 17 -18 0
37 -50 31 -19 41 0
-2 30 25 -29 4 0
-13 -34 -15 -43 -11 0
23 -55 -51 -17 -18 0
-26 -24 -20 -2 30 0
2 -30 -25 -29 -4 0
-5 53 47 -45 -44 0
27 58 -60 -8 -48 0
-23 -55 -51 17 -18 0
-27 -58 -60 8 48 0
2 30 25 -29 -4 0
2 30 -25 29 -4 0
9 12 35 56 54 0
59 40 -22 -28 36 0
-5 -53 -47 -45 -44 0
37 50 -31 19 -41 0
26 -24 20 2 -30 0
43 -11 -7 -52 -6 0
-8 48 -21 23 55 0
29 -4 33 -49 -14 0
-45 -44 46 -26 24 0
19 41 -39 -13 -34 0
28 -36 3 5 -53 0
29 4 33 -49 14 0
-37 -50 31 19 41 0
19 -41 39 13 34 0
-5 -53 47 -45 44 0
27 58 60 -8 48 0
16 32 38 -27 -58 0
-37 50 31 -19 41 0
-9 12 -35 56 54 0
-29 -4 33 49 -14 0
26 24 20 2 30 0
8 48 -21 23 -55 0
-43 -11 7 52 6 0
-16 -32 -38 27 -58 0
-23 55 -51 -17 -18 0
28 36 -3 -5 53 0
-8 -48 -21 23 -55 0
-43 11 7 -52 6 0
43 -11 7 52 -6 0
19 41 39 -13 34 0
56 -54 -1 -16 32 0
28 -36 -3 5 53 0
-49 14 -57 37 50 0
9 -12 -35 -56 -54 0
52 6 -42 9 -12 0
52 -6 42 9 -12 0
49 -14 -57 37 50 0
49 14 -57 -37 50 0
2 -30 -25 29 4 0
-27 -58 60 -8 48 0
8 48 21 -23 -55 0
-16 -32 -38 -27 58 0
-56 -54 -1 16 32 0
-13 34 -15 -43 11 0
-26 -24 -20 2 -30 0
-26 -24 20 2 30 0
-9 12 35 56 -54 0
13 -34 15 -43 -11 0
-52 -6 42 -9 -12 0
26 -24 -20 2 30 0
-56 54 1 -16 -32 0
43 11 7 52 6 0
-8 -48 21 -23 -55 0
-28 -36 3 -5 -53 0
49 14 57 37 50 0
-52 -6 -42 9 -12 0
9 12 -35 -56 54 0
-43 -11 7 -52 -6 0
-23 55 51 17 -18 0
29 4 -33 -49 -14 0
16 32 -38 27 -58 0
-28 -36 3 5 53 0
-29 -4 33 -49 14 0
-37 -50 -31 19 -41 0
45 -44 -46 -26 24 0
49 14 57 -37 -50 0
-49 14 57 -37 50 0
49 -14 57 37 -50 0
-59 40 -22 -28 -36 0
-5 53 47 45 44 0
-45 44 46 -26 -24 0
13 34 -15 -43 -11 0
-9 12 -35 -56 -54 0
-52 -6 -42 -9 12 0
-52 6 -42 -9 -12 0
56 54 1 -16 32 0
59 -40 -22 28 36 0
59 40 22 28 36 0
13 34 -15 43 11 0
-16 32 38 -27 58 0
-8 48 -21 -23 -55 0
-17 18 10 -59 40 0
37 -50 -31 -19 -41 0
37 50 -31 -19 41 0
27 -58 -60 -8 48 0
-29 4 -33 49 -14 0
8 -48 21 23 -55 0
-37 -50 31 -19 -41 0
17 18 10 59 40 0
-23 -55 51 17 18 0
-16 32 -38 27 58 0
2 30 -25 -29 4 0
-59 40 -22 28 36 0
-56 -54 -1 -16 -32 0
-28 36 -3 -5 -53 0
-13 34 15 -43 -11 0
-27 58 60 -8 -48 0
-27 -58 60 8 -48 0
49 -14 -57 -37 -50 0
-19 41 -39 -13 34 0
5 53 -47 45 44 0
29 4 33 49 -14 0
52 -6 42 -9 12 0
19 -41 -39 -13 34 0
-56 -54 1 16 -32 0
56 54 -1 -16 -32 0
43 11 -7 -52 6 0
-45 -44 -46 -26 -24 0
19 -41 -39 13 -34 0
16 32 -38 -27 58 0
28 -36 -3 -5 -53 0
-29 4 -33 -49 14 0
-43 -11 -7 52 -6 0
52 6 42 -9 -12 0
5 -53 -47 45 -44 0
-2 30 25 29 -4 0
-45 44 -46 -26 24 0
-9 -12 -35 -56 54 0
-52 6 -42 9 12 0
-56 -54 1 -16 32 0
-45 44 46 26 24 0
23 55 51 17 18 0
5 53 47 -45 44 0
56 -54 -1 16 -32 0
-49 -14 -57 -37 50 0
49 14 -57 37 -50 0
27 58 60 8 -48 0
-19 -41 -39 -13 -34 0
-19 41 39 13 34 0
16 32 38 27 58 0
-16 32 38 27 -58 0
-8 48 21 23 -55 0
52 6 42 9 12 0
52 6 -42 -9 12 0
-59 -40 22 28 36 0
-27 58 -60 -8 48 0
-13 -34 -15 43 11 0
17 -18 -10 -59 -40 0
13 34 15 43 -11 0
13 34 15 -43 11 0
45 44 46 26 -24 0
-56 54 -1 -16 32 0
-56 54 -1 16 -32 0
-43 -11 -7 -52 6 0
-9 -12 35 56 54 0
-19 -41 39 13 -34 0
23 -55 51 -17 18 0
-8 -48 -21 -23 55 0
-26 24 20 2 -30 0
17 18 -10 59 -40 0
-17 18 -10 -59 -40 0
-49 -14 57 -37 -50 0
-43 11 -7 52 6 0
37 50 31 19 41 0
45 -44 46 26 24 0
17 18 -10 -59 40 0
9 12 35 -56 -54 0
-27 -58 -60 -8 -48 0
26 24 20 -2 -30 0
-29 -4 -33 49 14 0
9 -12 -35 56 54 0
26 -24 20 -2 30 0
37 -50 -31 19 41 0
59 40 -22 28 -36 0
28 36 3 -5 -53 0
19 -41 39 -13 -34 0
28 36 3 5 53 0
-43 11 7 52 -6 0
-29 4 33 -49 -14 0
-52 6 42 9 -12 0
49 -14 57 -37 50 0
16 -32 38 27 -58 0
59 -40 22 28 -36 0
16 -32 38 -27 58 0
5 53 -47 -45 -44 0
-13 34 15 43 11 0
28 -36 3 -5 53 0
37 -50 31 19 -41 0
-17 -18 10 59 40 0
-8 48 21 -23 55 0
5 -53 -47 -45 44 0
-37 50 31 19 -41 0
45 44 46 -26 24 0
-56 54 1 16 32 0
-23 -55 51 -17 -18 0
13 -34 -15 43 -11 0
9 12 -35 56 -54 0
-2 -30 -25 29 -4 0
-27 58 60 8 48 0
-26 -24 20 -2 -30 0
28 36 -3 5 -53 0
29 -4 33 49 14 0
52 -6 -42 9 12 0
-5 53 -47 45 -44 0
45 44 -46 -26 -24 0
-17 18 10 59 -40 0
-28 -36 -3 5 -53 0
8 48 -21 -23 55 0
27 58 -60 8 48 0
-26 24 -20 -2 -30 0
16 -32 -38 -27 -58 0
-5 -53 -47 45 44 0
2 30 25 29 4 0
-2 -30 25 -29 -4 0
45 -44 -46 26 -24 0
56 -54 1 16 32 0
27 -58 60 -8 -48 0
-13 -34 15 -43 11 0
-17 18 -10 59 40 0
8 -48 21 -23 55 0
-45 -44 46 26 -24 0
-5 -53 47 45 -44 0
59 -40 -22 -28 -36 0
-28 36 3 5 -53 0
-16 32 -38 -27 -58 0
-2 -30 25 29 4 0
-23 55 -51 17 18 0
-37 50 -31 19 41 0
59 -40 22 -28 36 0
-17 -18 10 -59 -40 0
43 11 -7 52 -6 0
-49 -14 -57 37 -50 0
-27 58 -60 8 -48 0
-8 -48 21 23 55 0
-2 30 -25 29 4 0
-45 -44 -46 26 24 0
52 -6 -42 -9 -12 0
13 -34 15 43 11 0
9 -12 35 -56 54 0
23 55 -51 -17 18 0
-19 -41 39 -13 34 0
-19 41 39 -13 -34 0
23 -55 -51 17 18 0
-43 11 -7 -52 -6 0
-5 53 -47 -45 44 0
-28 36 3 -5 53 0
19 41 -39 13 34 0
29 -4 -33 49 -14 0
-23 -55 -51 -17 18 0
23 55 -51 17 -18 0
8 -48 -21 -23 -55 0
17 -18 -10 59 40 0
29 4 -33 49 14 0
-29 -4 -33 -49 -14 0
-45 44 -46 26 -24 0
-9 -12 35 -56 -54 0
26 24 -20 -2 30 0
43 -11 -7 52 6 0
8 -48 -21 23 55 0
59 40 22 -28 -36 0
27 -58 60 8 48 0
-16 -32 38 -27 -58 0
-2 -30 -25 -29 4 0
9 -12 35 56 -54 0
13 -34 -15 -43 11 0
56 54 1 16 -32 0
43 11 7 -52 -6 0
-26 24 -20 2 30 0
17 18 10 -59 -40 0
56 -54 1 -16 -32 0
19 41 39 13 -34 0
17 -18 10 59 -40 0
-29 4 33 49 14 0
2 -30 25 29 -4 0
45 44 -46 26 24 0
-59 -40 -22 28 -36 0
45 -44 46 -26 -24 0
-49 14 57 37 -50 0
26 -24 -20 -2 -30 0
17 -18 10 -59 40 0
56 54 -1 16 32 0
-52 6 42 -9 12 0
-28 -36 -3 -5 53 0
5 -53 47 -45 -44 0
-26 24 20 -2 30 0
-17 -18 -10 59 -40 0
29 -4 -33 -49 14 0
-49 14 -57 -37 -50 0
-49 -14 57 37 50 0
43 -11 7 -52 6 0
-37 -50 -31 -19 41 0
27 -58 -60 8 -48 0
-23 55 51 -17 18 0
-19 41 -39 13 -34 0
-59 -40 -22 -28 36 0
26 24 -20 2 -30 0
-37 50 -31 -19 -41 0
-2 30 -25 -29 -4 0
-59 -40 22 -28 -36 0
5 53 47 45 -44 0
2 -30 25 -29 4 0
23 55 51 -17 -18 0
5 -53 47 45 44 0
37 50 31 -19 -41 0
-16 -32 38 27 58 0
-9 12 35 -56 54 0
