c Type 3: circular XOR (ordered), n=30, t=3, s=2
p cnf 30 60
-1 2 -3 0
1 -2 -3 0
1 2 3 0
-1 -2 3 0
-3 4 5 0
3 -4 5 0
3 4 -5 0
-3 -4 -5 0
5 6 -7 0
-5 -6 -7 0
-5 6 7 0
5 -6 7 0
-7 8 9 0
7 -8 9 0
7 8 -9 0
-7 -8 -9 0
-9 -10 11 0
9 10 11 0
9 -10 -11 0
-9 10 -11 0
11 12 -13 0
-11 -12 -13 0
-11 12 13 0
11 -12 13 0
13 -14 -15 0
-13 14 -15 0
-13 -14 15 0
13 14 15 0
15 -16 -17 0
-15 16 -17 0
-15 -16 17 0
15 16 17 0
17 18 19 0
-17 -18 19 0
-17 18 -19 0
17 -18 -19 0
19 -20 21 0
-19 20 21 0
-19 -20 -21 0
19 20 -21 0
21 22 23 0
-21 -22 23 0
-21 22 -23 0
21 -22 -23 0
-23 24 -25 0
23 -24 -25 0
23 24 25 0
-23 -24 25 0
25 26 27 0
-25 -26 27 0
-25 26 -27 0
25 -26 -27 0
-27 28 -29 0
27 -28 -29 0
27 28 29 0
-27 -28 29 0
-29 30 1 0
29 -30 1 0
29 30 -1 0
-29 -30 -1 0
