c Type 3: circular XOR (permuted), n=90, t=5, s=3
p cnf 90 480
-53 -61 -32 11 -35 0
27 45 -64 40 1 0
-11 35 -22 -84 6 0
62 14 -56 52 -4 0
58 -72 28 -19 10 0
74 85 -21 -26 17 0
-40 1 18 -88 -31 0
11 35 -22 84 6 0
42 20 5 -67 -65 0
53 -61 -32 11 35 0
87 47 -23 -74 85 0
51 -44 -41 -15 54 0
-26 -17 -70 -13 29 0
71 37 43 -58 -72 0
-71 -37 -43 -58 72 0
27 -45 64 -40 -1 0
-53 61 32 -11 35 0
-57 -34 -25 71 37 0
-82 -69 -90 -9 86 0
-19 -10 48 62 -14 0
-57 34 25 -71 -37 0
71 -37 43 58 -72 0
-13 29 36 42 -20 0
-26 17 -70 13 29 0
-88 31 -77 82 69 0
-9 -86 66 24 73 0
-51 -44 -41 15 54 0
-15 -54 -68 -49 -7 0
80 -12 -16 -46 -81 0
-46 81 -75 -2 -83 0
82 -69 90 9 -86 0
-46 81 -75 2 83 0
26 17 -70 13 -29 0
58 72 -28 -19 10 0
-67 -65 55 63 79 0
-62 14 56 -52 4 0
-80 -12 -16 -46 81 0
-84 6 60 -27 45 0
78 -30 3 38 -59 0
-13 -29 -36 -42 20 0
-42 20 -5 -67 -65 0
88 -31 77 82 -69 0
71 37 -43 58 -72 0
58 -72 28 19 -10 0
-71 37 -43 -58 -72 0
-40 1 -18 88 -31 0
-27 -45 -64 40 1 0
53 -61 32 11 -35 0
-15 54 -68 -49 7 0
-42 -20 -5 -67 65 0
49 -7 -33 -53 61 0
38 -59 -39 -87 47 0
19 -10 -48 -62 14 0
-27 -45 64 -40 1 0
2 -83 -89 -51 -44 0
49 7 33 -53 61 0
82 69 90 9 86 0
-74 85 -21 26 17 0
13 -29 36 42 -20 0
58 72 28 -19 -10 0
-71 37 43 -58 72 0
-63 79 8 -80 12 0
82 -69 90 -9 86 0
-67 65 55 -63 79 0
-67 -65 55 -63 -79 0
63 -79 8 -80 12 0
74 -85 21 26 -17 0
9 -86 -66 -24 -73 0
87 47 -23 74 -85 0
-58 72 28 -19 10 0
80 12 -16 -46 81 0
-82 69 -90 9 86 0
26 17 70 -13 -29 0
15 -54 68 49 7 0
57 -34 25 -71 -37 0
-58 72 -28 -19 -10 0
-63 -79 -8 -80 12 0
78 30 -3 38 -59 0
-74 85 21 26 -17 0
-67 -65 -55 -63 79 0
-51 44 41 15 54 0
24 73 50 57 -34 0
-46 81 75 -2 83 0
-62 -14 56 52 4 0
26 -17 -70 -13 -29 0
57 34 -25 -71 -37 0
49 7 -33 -53 -61 0
-84 -6 -60 -27 45 0
-53 -61 32 -11 -35 0
-2 -83 -89 -51 44 0
11 35 22 -84 6 0
-19 10 48 -62 -14 0
-49 -7 -33 53 61 0
13 29 36 42 20 0
84 6 60 -27 -45 0
-46 -81 75 -2 -83 0
-24 -73 50 57 -34 0
88 31 -77 -82 69 0
-26 -17 70 -13 -29 0
74 -85 -21 -26 -17 0
-38 -59 39 -87 47 0
-42 20 5 -67 65 0
-11 -35 22 84 -6 0
9 -86 66 24 -73 0
-24 -73 -50 57 34 0
67 65 55 -63 -79 0
84 -6 60 27 -45 0
13 -29 -36 42 20 0
15 54 -68 -49 -7 0
24 -73 -50 57 -34 0
15 54 -68 49 7 0
82 69 90 -9 -86 0
-13 -29 36 -42 -20 0
2 83 -89 51 -44 0
51 44 41 -15 54 0
-27 45 -64 40 -1 0
74 85 21 -26 -17 0
67 65 -55 -63 79 0
-24 -73 50 -57 34 0
-19 -10 -48 -62 -14 0
-15 -54 68 -49 7 0
-84 -6 -60 27 -45 0
-84 6 60 27 -45 0
-87 -47 -23 74 -85 0
51 44 41 15 -54 0
62 -14 56 52 -4 0
-67 65 -55 -63 -79 0
-24 73 -50 -57 34 0
67 65 55 63 79 0
-87 47 -23 74 85 0
67 -65 55 -63 79 0
82 -69 -90 9 86 0
9 86 -66 24 -73 0
-13 -29 -36 42 -20 0
87 -47 23 74 -85 0
-53 -61 -32 -11 35 0
88 31 -77 82 -69 0
-67 -65 -55 63 -79 0
88 31 77 82 69 0
-63 79 8 80 -12 0
-40 -1 -18 -88 -31 0
58 72 -28 19 -10 0
88 -31 77 -82 69 0
49 -7 33 -53 -61 0
-84 6 -60 27 45 0
2 83 -89 -51 44 0
52 4 76 78 30 0
-11 35 -22 84 -6 0
-46 -81 -75 2 -83 0
-67 65 55 63 -79 0
-80 -12 16 46 81 0
51 44 -41 15 54 0
-82 69 90 -9 86 0
27 45 -64 -40 -1 0
49 7 -33 53 61 0
-62 14 56 52 -4 0
62 -14 56 -52 4 0
57 -34 -25 71 -37 0
71 -37 43 -58 72 0
-19 -10 48 -62 14 0
-58 -72 28 19 10 0
15 -54 -68 49 -7 0
13 29 -36 -42 20 0
38 -59 39 87 47 0
-40 1 -18 -88 31 0
-9 86 66 24 -73 0
62 14 56 52 4 0
-38 59 39 87 47 0
27 -45 -64 -40 1 0
2 83 89 -51 -44 0
-52 -4 76 -78 -30 0
-24 73 50 -57 -34 0
38 -59 -39 87 -47 0
46 81 75 2 83 0
-74 -85 21 -26 -17 0
80 12 16 46 81 0
27 -45 64 40 1 0
27 45 64 -40 1 0
-42 -20 5 67 65 0
-26 17 -70 -13 -29 0
-58 -72 -28 -19 10 0
-82 -69 90 9 86 0
46 -81 75 2 -83 0
2 -83 -89 51 44 0
9 86 66 24 73 0
19 -10 48 -62 -14 0
80 -12 -16 46 81 0
52 -4 -76 78 30 0
19 10 -48 62 14 0
-38 59 -39 87 -47 0
63 -79 8 80 -12 0
42 -20 -5 67 65 0
67 -65 -55 63 79 0
-46 81 75 2 -83 0
71 37 -43 -58 72 0
58 -72 -28 -19 -10 0
53 61 -32 11 -35 0
57 -34 -25 -71 37 0
-51 -44 41 15 -54 0
-13 29 36 -42 20 0
-78 -30 -3 38 -59 0
24 -73 -50 -57 34 0
-49 7 -33 53 -61 0
82 69 -90 -9 86 0
52 4 -76 -78 30 0
-24 -73 -50 -57 -34 0
-2 83 -89 51 44 0
49 7 33 53 -61 0
49 -7 33 53 61 0
-63 -79 8 -80 -12 0
-62 14 -56 -52 -4 0
-38 59 -39 -87 47 0
-46 -81 75 2 83 0
-58 -72 28 -19 -10 0
84 6 60 27 45 0
-27 -45 64 40 -1 0
-87 -47 -23 -74 85 0
74 85 21 26 17 0
-57 34 -25 71 -37 0
-2 83 89 -51 44 0
-67 65 -55 63 79 0
38 -59 39 -87 -47 0
40 -1 18 -88 -31 0
13 -29 36 -42 20 0
40 1 18 -88 31 0
74 85 -21 26 -17 0
78 -30 -3 -38 -59 0
-38 -59 39 87 -47 0
87 47 23 -74 -85 0
-42 -20 -5 67 -65 0
-84 6 -60 -27 -45 0
78 -30 -3 38 59 0
51 -44 41 15 54 0
9 86 -66 -24 73 0
-52 4 -76 -78 -30 0
49 -7 -33 53 -61 0
9 -86 -66 24 73 0
-88 31 77 -82 69 0
-9 -86 -66 24 -73 0
-71 37 -43 58 72 0
-40 1 18 88 31 0
-51 44 -41 -15 54 0
15 -54 68 -49 -7 0
-78 30 -3 -38 -59 0
-9 86 66 -24 73 0
-87 47 -23 -74 -85 0
-51 -44 -41 -15 -54 0
88 31 77 -82 -69 0
-71 -37 -43 58 -72 0
52 4 76 -78 -30 0
19 10 48 -62 14 0
-80 -12 16 -46 -81 0
-38 -59 -39 -87 -47 0
-2 83 89 51 -44 0
42 -20 -5 -67 -65 0
-11 -35 -22 84 6 0
15 54 68 -49 7 0
-62 -14 -56 -52 4 0
-49 7 33 53 61 0
58 72 28 19 10 0
-80 12 16 46 -81 0
-2 83 -89 -51 -44 0
-2 -83 -89 51 -44 0
-88 31 -77 -82 -69 0
11 35 -22 -84 -6 0
-15 -54 -68 49 7 0
-49 -7 33 53 -61 0
53 -61 32 -11 35 0
63 79 -8 -80 12 0
-78 30 3 38 -59 0
67 -65 -55 -63 -79 0
42 20 5 67 65 0
-13 29 -36 42 20 0
-24 73 -50 57 -34 0
38 59 -39 87 47 0
88 -31 -77 82 69 0
42 20 -5 67 -65 0
-9 86 -66 -24 -73 0
57 34 25 71 -37 0
26 -17 70 -13 29 0
24 -73 50 57 34 0
-49 7 -33 -53 61 0
-80 12 -16 -46 -81 0
-71 -37 43 -58 -72 0
62 14 56 -52 -4 0
19 -10 -48 62 -14 0
-57 34 25 71 37 0
-71 37 43 58 -72 0
-87 47 23 -74 85 0
-38 -59 -39 87 47 0
63 79 8 80 12 0
80 12 16 -46 -81 0
-11 -35 22 -84 6 0
46 -81 75 -2 83 0
62 -14 -56 -52 -4 0
-84 -6 60 27 45 0
-40 -1 18 88 -31 0
-52 -4 -76 78 -30 0
-74 -85 21 26 17 0
40 -1 -18 -88 31 0
46 81 75 -2 -83 0
-11 -35 -22 -84 -6 0
-71 -37 43 58 72 0
84 -6 60 -27 45 0
-53 61 32 11 -35 0
63 -79 -8 -80 -12 0
-19 10 -48 62 -14 0
52 -4 76 78 -30 0
-63 -79 8 80 12 0
-78 -30 3 38 59 0
-58 72 -28 19 10 0
-74 85 -21 -26 -17 0
-11 35 22 84 6 0
27 -45 -64 40 -1 0
57 -34 25 71 37 0
88 -31 -77 -82 -69 0
11 -35 22 -84 -6 0
-11 35 22 -84 -6 0
80 -12 16 -46 81 0
-26 -17 -70 13 -29 0
-42 -20 5 -67 -65 0
67 -65 55 63 -79 0
2 83 89 51 44 0
87 47 23 74 85 0
-88 31 77 82 -69 0
-26 -17 70 13 29 0
-51 44 41 -15 -54 0
53 61 -32 -11 35 0
-74 -85 -21 26 -17 0
-40 -1 18 -88 31 0
87 -47 -23 74 85 0
-15 -54 68 49 -7 0
84 -6 -60 -27 -45 0
52 -4 -76 -78 -30 0
51 -44 -41 15 -54 0
78 30 3 38 59 0
-51 -44 41 -15 54 0
-80 12 16 -46 81 0
62 14 -56 -52 4 0
42 20 -5 -67 65 0
11 -35 22 84 6 0
-27 45 -64 -40 1 0
74 -85 21 -26 17 0
24 73 50 -57 34 0
63 -79 -8 80 12 0
-19 10 -48 -62 14 0
-19 10 48 62 14 0
51 -44 41 -15 -54 0
26 -17 70 13 -29 0
-88 -31 77 82 69 0
9 86 66 -24 -73 0
26 17 -70 -13 29 0
-13 -29 36 42 20 0
40 1 -18 -88 -31 0
84 6 -60 27 -45 0
-63 -79 -8 80 -12 0
87 -47 23 -74 85 0
-52 4 76 -78 30 0
-52 -4 76 78 30 0
-53 61 -32 11 35 0
53 -61 -32 -11 -35 0
9 -86 66 -24 73 0
-87 -47 23 -74 -85 0
-58 72 28 19 -10 0
24 73 -50 57 34 0
-78 -30 3 -38 -59 0
62 -14 -56 52 4 0
15 -54 -68 -49 7 0
-62 -14 -56 52 -4 0
42 -20 5 67 -65 0
-82 69 -90 -9 -86 0
-88 -31 -77 82 -69 0
15 54 68 49 -7 0
63 79 8 -80 -12 0
-78 30 -3 38 59 0
71 -37 -43 -58 -72 0
26 17 70 13 29 0
-2 -83 89 -51 -44 0
-13 29 -36 -42 -20 0
40 -1 -18 88 -31 0
-27 45 64 40 1 0
82 -69 -90 -9 -86 0
40 1 -18 88 31 0
-49 -7 -33 -53 -61 0
57 34 25 -71 37 0
-88 -31 -77 -82 69 0
38 59 39 -87 47 0
82 69 -90 9 -86 0
38 59 39 87 -47 0
-9 -86 -66 -24 73 0
-82 69 90 9 -86 0
71 -37 -43 58 72 0
-82 -69 -90 9 -86 0
52 -4 76 -78 30 0
84 6 -60 -27 45 0
63 79 -8 80 -12 0
-74 -85 -21 -26 17 0
-26 17 70 -13 29 0
-49 7 33 -53 -61 0
-38 59 39 -87 -47 0
-24 73 50 57 34 0
-62 -14 56 -52 -4 0
-49 -7 33 -53 61 0
-2 -83 89 51 44 0
40 1 18 88 -31 0
-62 14 -56 52 4 0
11 -35 -22 84 -6 0
87 -47 -23 -74 -85 0
-27 -45 -64 -40 -1 0
57 34 -25 71 37 0
-78 30 3 -38 59 0
38 59 -39 -87 -47 0
2 -83 89 -51 44 0
-52 -4 -76 -78 30 0
-15 54 -68 49 -7 0
-52 4 -76 78 30 0
40 -1 18 88 31 0
80 12 -16 46 -81 0
-19 -10 -48 62 14 0
58 -72 -28 19 10 0
19 -10 48 62 14 0
-80 12 -16 46 81 0
-42 20 5 67 -65 0
53 61 32 11 35 0
-84 -6 60 -27 -45 0
-42 20 -5 67 65 0
-57 -34 25 71 -37 0
11 -35 -22 -84 6 0
-9 -86 66 -24 -73 0
80 -12 16 46 -81 0
46 81 -75 -2 83 0
42 -20 5 -67 65 0
53 61 32 -11 -35 0
-63 79 -8 80 12 0
-87 47 23 74 -85 0
24 -73 50 -57 -34 0
84 -6 -60 27 45 0
27 45 64 40 -1 0
-78 -30 -3 -38 59 0
-74 85 21 -26 17 0
13 29 -36 42 -20 0
19 10 48 62 -14 0
-9 86 -66 24 73 0
-57 -34 25 -71 37 0
74 -85 -21 26 17 0
-57 -34 -25 -71 -37 0
51 44 -41 -15 -54 0
-80 -12 -16 46 -81 0
-15 54 68 49 7 0
-53 61 -32 -11 -35 0
-58 -72 -28 19 -10 0
52 4 -76 78 -30 0
11 35 22 84 -6 0
-52 4 76 78 -30 0
78 30 3 -38 -59 0
-51 44 -41 15 -54 0
-27 45 64 -40 -1 0
13 29 36 -42 -20 0
19 10 -48 -62 -14 0
-46 -81 -75 -2 83 0
46 -81 -75 -2 -83 0
-88 -31 77 -82 -69 0
2 -83 89 51 -44 0
-57 34 -25 -71 37 0
26 -17 -70 13 29 0
-15 54 68 -49 -7 0
-40 -1 -18 88 31 0
-63 79 -8 -80 -12 0
-82 -69 90 -9 -86 0
78 30 -3 -38 59 0
-87 -47 23 74 85 0
13 -29 -36 -42 -20 0
-26 17 70 13 -29 0
46 -81 -75 2 83 0
46 81 -75 2 -83 0
67 65 -55 63 -79 0
71 37 43 58 72 0
78 -30 3 -38 59 0
24 73 -50 -57 -34 0
-53 -61 32 11 35 0
