p cnf 540 1750
-2 3 -1 0
1 -3 0
-3 2 0
5 -4 -2 0
-5 4 0
-5 2 0
-6 7 -1 0
1 -7 0
6 -7 0
-8 -7 -5 0
-8 5 7 0
8 5 -7 0
8 -5 7 0
-7 9 -5 0
-9 5 0
-9 7 0
-10 11 -2 0
-11 10 0
-11 2 0
-6 -4 12 0
-12 4 0
-12 6 0
-12 -11 -13 0
11 -13 12 0
-12 11 13 0
-11 13 12 0
-9 -14 -13 0
-14 9 13 0
-9 14 13 0
14 9 -13 0
-9 15 -13 0
-15 13 0
9 -15 0
-12 -11 16 0
11 -16 0
-16 12 0
15 16 -17 0
-15 17 0
-16 17 0
-2 19 -18 0
-19 18 0
-19 2 0
-10 -6 20 0
10 -20 0
6 -20 0
-21 -19 -20 0
-21 19 20 0
21 19 -20 0
21 -19 20 0
-17 -21 -22 0
21 -22 17 0
21 22 -17 0
22 -21 17 0
23 -17 -21 0
21 -23 0
-23 17 0
-19 24 -20 0
-24 19 0
-24 20 0
23 24 -25 0
25 -23 0
-24 25 0
-26 27 -2 0
26 -27 0
-27 2 0
-6 28 -18 0
-28 18 0
6 -28 0
-27 -29 -28 0
27 -29 28 0
27 29 -28 0
-27 28 29 0
-30 -29 -25 0
-30 25 29 0
30 29 -25 0
-29 25 30 0
-29 31 -25 0
29 -31 0
25 -31 0
-27 32 -28 0
27 -32 0
-32 28 0
-33 32 31 0
33 -31 0
-32 33 0
35 -2 -34 0
-35 34 0
-35 2 0
-26 -6 36 0
26 -36 0
-36 6 0
-36 -37 -35 0
36 35 -37 0
-36 35 37 0
36 37 -35 0
-38 -37 -33 0
37 -38 33 0
37 -33 38 0
-37 33 38 0
39 -37 -33 0
37 -39 0
-39 33 0
40 -36 -35 0
-40 35 0
36 -40 0
40 39 -41 0
-39 41 0
-40 41 0
-42 43 -2 0
-43 42 0
-43 2 0
-6 44 -34 0
-44 34 0
-44 6 0
-45 -44 -43 0
-45 44 43 0
-44 43 45 0
44 -43 45 0
-45 -46 -41 0
-46 45 41 0
46 -41 45 0
-45 46 41 0
-45 -41 47 0
-47 45 0
-47 41 0
-44 -43 48 0
-48 43 0
44 -48 0
48 -49 47 0
49 -47 0
49 -48 0
-50 51 -2 0
-51 50 0
-51 2 0
-42 -6 52 0
-52 42 0
-52 6 0
-52 -51 -53 0
51 -53 52 0
-52 51 53 0
-51 53 52 0
-49 -53 -54 0
49 53 -54 0
-49 53 54 0
54 49 -53 0
55 -49 -53 0
53 -55 0
49 -55 0
-52 -51 56 0
51 -56 0
-56 52 0
55 -57 56 0
57 -55 0
57 -56 0
-58 59 -2 0
-59 58 0
-59 2 0
-50 -6 60 0
-60 50 0
6 -60 0
-61 -59 -60 0
-61 60 59 0
61 -60 59 0
61 -59 60 0
-62 -61 -57 0
-62 57 61 0
61 62 -57 0
57 -61 62 0
-61 63 -57 0
-63 61 0
57 -63 0
64 -59 -60 0
-64 59 0
-64 60 0
-65 64 63 0
65 -63 0
65 -64 0
-2 67 -66 0
-67 66 0
-67 2 0
-6 -58 68 0
-68 58 0
6 -68 0
-68 -67 -69 0
68 -69 67 0
-68 69 67 0
-67 69 68 0
-70 -65 -69 0
-70 65 69 0
-65 70 69 0
65 70 -69 0
-65 71 -69 0
-71 69 0
65 -71 0
72 -68 -67 0
-72 67 0
-72 68 0
72 -73 71 0
73 -71 0
73 -72 0
74 -6 -66 0
-74 66 0
-74 6 0
-75 -74 -73 0
73 74 -75 0
73 -74 75 0
75 74 -73 0
-74 -73 76 0
73 -76 0
-76 74 0
-77 78 -1 0
1 -78 0
77 -78 0
-78 -14 -79 0
14 78 -79 0
-78 79 14 0
79 -14 78 0
-78 -14 80 0
14 -80 0
78 -80 0
-77 81 -4 0
-81 4 0
77 -81 0
-81 -22 -82 0
81 22 -82 0
82 22 -81 0
82 81 -22 0
-80 -83 -82 0
82 80 -83 0
83 82 -80 0
83 80 -82 0
-80 84 -82 0
82 -84 0
-84 80 0
85 -81 -22 0
22 -85 0
81 -85 0
85 -86 84 0
-84 86 0
-85 86 0
-10 -77 87 0
-87 10 0
77 -87 0
-30 -87 -88 0
-88 30 87 0
-87 88 30 0
-30 88 87 0
-89 -86 -88 0
-89 88 86 0
89 88 -86 0
89 86 -88 0
90 -86 -88 0
-90 88 0
-90 86 0
-30 -87 91 0
30 -91 0
-91 87 0
-92 91 90 0
-90 92 0
92 -91 0
93 -77 -18 0
-93 18 0
77 -93 0
-93 -38 -94 0
93 38 -94 0
94 -93 38 0
93 -38 94 0
-92 -95 -94 0
94 92 -95 0
94 -92 95 0
92 -94 95 0
-92 96 -94 0
94 -96 0
92 -96 0
-93 -38 97 0
-97 38 0
93 -97 0
96 -98 97 0
98 -96 0
-97 98 0
99 -26 -77 0
26 -99 0
77 -99 0
-100 -46 -99 0
99 -100 46 0
100 -99 46 0
99 100 -46 0
-101 -100 -98 0
98 100 -101 0
100 101 -98 0
98 -100 101 0
-100 -98 102 0
-102 100 0
-102 98 0
-46 -99 103 0
46 -103 0
99 -103 0
-104 103 102 0
-102 104 0
104 -103 0
-77 105 -34 0
-105 34 0
77 -105 0
-106 -105 -54 0
54 -106 105 0
54 -105 106 0
106 105 -54 0
-104 -106 -107 0
106 104 -107 0
106 107 -104 0
107 -106 104 0
-104 108 -106 0
106 -108 0
104 -108 0
109 -105 -54 0
54 -109 0
-109 105 0
109 108 -110 0
110 -108 0
-109 110 0
-42 -77 111 0
-111 42 0
77 -111 0
-112 -111 -62 0
-112 111 62 0
112 -111 62 0
112 111 -62 0
-112 -110 -113 0
112 -113 110 0
112 113 -110 0
-112 113 110 0
-112 114 -110 0
112 -114 0
-114 110 0
-111 -62 115 0
62 -115 0
111 -115 0
-116 114 115 0
-114 116 0
116 -115 0
-50 117 -77 0
-117 50 0
-117 77 0
-70 -118 -117 0
-118 70 117 0
-117 70 118 0
-70 118 117 0
-118 -116 -119 0
116 -119 118 0
-116 119 118 0
-118 119 116 0
-118 -116 120 0
-120 118 0
-120 116 0
-70 121 -117 0
-121 70 0
-121 117 0
-122 120 121 0
-120 122 0
-121 122 0
-77 -58 123 0
-123 58 0
77 -123 0
-75 -123 -124 0
-124 75 123 0
124 75 -123 0
-75 124 123 0
-124 -125 -122 0
124 122 -125 0
124 125 -122 0
-124 125 122 0
-124 126 -122 0
124 -126 0
-126 122 0
-75 127 -123 0
-127 75 0
-127 123 0
-128 127 126 0
-126 128 0
-127 128 0
-77 129 -66 0
-129 66 0
77 -129 0
-76 -129 -130 0
-130 76 129 0
130 76 -129 0
-76 130 129 0
-130 -131 -128 0
130 -131 128 0
130 131 -128 0
-130 131 128 0
-130 -128 132 0
130 -132 0
-132 128 0
-76 -129 133 0
-133 76 0
-133 129 0
132 133 -134 0
-132 134 0
-133 134 0
-135 136 -1 0
1 -136 0
-136 135 0
-136 -137 -83 0
83 -137 136 0
83 137 -136 0
137 -83 136 0
138 -136 -83 0
83 -138 0
-138 136 0
139 -135 -4 0
-139 4 0
-139 135 0
-89 -139 -140 0
89 139 -140 0
89 140 -139 0
-89 139 140 0
-138 -141 -140 0
138 -141 140 0
-138 140 141 0
138 141 -140 0
142 -138 -140 0
140 -142 0
138 -142 0
-89 -139 143 0
89 -143 0
139 -143 0
142 -144 143 0
-142 144 0
144 -143 0
-10 -135 145 0
10 -145 0
-145 135 0
-146 -95 -145 0
-146 145 95 0
146 -145 95 0
145 146 -95 0
-146 -147 -144 0
146 -147 144 0
146 147 -144 0
-146 147 144 0
-146 148 -144 0
146 -148 0
-148 144 0
149 -95 -145 0
-149 95 0
145 -149 0
-150 148 149 0
-148 150 0
150 -149 0
-135 151 -18 0
-151 18 0
-151 135 0
-151 -152 -101 0
-152 101 151 0
-151 101 152 0
-101 151 152 0
-150 -152 -153 0
-153 150 152 0
-150 153 152 0
153 -152 150 0
-150 -152 154 0
152 -154 0
150 -154 0
-151 -101 155 0
-155 101 0
-155 151 0
-156 154 155 0
156 -154 0
-155 156 0
-26 -135 157 0
26 -157 0
-157 135 0
-157 -158 -107 0
107 -158 157 0
-157 107 158 0
157 -107 158 0
-156 -158 -159 0
156 158 -159 0
-156 159 158 0
-158 156 159 0
160 -156 -158 0
-160 158 0
156 -160 0
-157 -107 161 0
107 -161 0
157 -161 0
-162 160 161 0
162 -160 0
162 -161 0
-135 163 -34 0
-163 34 0
135 -163 0
-164 -113 -163 0
-164 113 163 0
113 164 -163 0
-113 164 163 0
-164 -165 -162 0
162 -165 164 0
-162 165 164 0
-164 165 162 0
-164 166 -162 0
-166 164 0
162 -166 0
167 -113 -163 0
113 -167 0
-167 163 0
166 -168 167 0
-166 168 0
-167 168 0
-42 -135 169 0
-169 42 0
-169 135 0
-119 -170 -169 0
119 169 -170 0
119 -169 170 0
-119 169 170 0
-170 -168 -171 0
168 -171 170 0
-168 171 170 0
-170 168 171 0
-170 -168 172 0
-172 170 0
168 -172 0
-119 -169 173 0
119 -173 0
169 -173 0
-174 173 172 0
174 -172 0
174 -173 0
-50 -135 175 0
-175 50 0
-175 135 0
-175 -176 -125 0
175 125 -176 0
-175 125 176 0
175 176 -125 0
-174 -177 -176 0
174 176 -177 0
-174 176 177 0
177 174 -176 0
-174 178 -176 0
-178 176 0
-178 174 0
-175 179 -125 0
125 -179 0
175 -179 0
-180 178 179 0
180 -178 0
180 -179 0
-58 181 -135 0
-181 58 0
-181 135 0
-131 -182 -181 0
131 -182 181 0
131 182 -181 0
-131 181 182 0
-180 -183 -182 0
-183 180 182 0
-180 183 182 0
183 180 -182 0
-180 -182 184 0
182 -184 0
180 -184 0
-131 185 -181 0
131 -185 0
181 -185 0
185 -186 184 0
186 -184 0
-185 186 0
187 -135 -66 0
-187 66 0
-187 135 0
-187 -188 -134 0
187 -188 134 0
-187 188 134 0
188 187 -134 0
-188 -186 -189 0
188 186 -189 0
188 -186 189 0
-188 186 189 0
190 -188 -186 0
188 -190 0
186 -190 0
-187 -134 191 0
134 -191 0
187 -191 0
190 191 -192 0
192 -190 0
192 -191 0
194 -193 -1 0
1 -194 0
193 -194 0
-141 -195 -194 0
141 194 -195 0
141 195 -194 0
195 -141 194 0
196 -141 -194 0
141 -196 0
194 -196 0
197 -193 -4 0
-197 4 0
193 -197 0
-197 -147 -198 0
197 147 -198 0
-197 147 198 0
-147 197 198 0
-199 -198 -196 0
196 -199 198 0
199 -196 198 0
-198 199 196 0
200 -198 -196 0
-200 198 0
-200 196 0
201 -197 -147 0
147 -201 0
197 -201 0
200 201 -202 0
-200 202 0
202 -201 0
203 -10 -193 0
-203 10 0
193 -203 0
-153 -204 -203 0
153 -204 203 0
153 204 -203 0
203 204 -153 0
-204 -205 -202 0
204 -205 202 0
205 204 -202 0
205 -204 202 0
-204 206 -202 0
204 -206 0
-206 202 0
207 -153 -203 0
153 -207 0
203 -207 0
207 -208 206 0
208 -206 0
208 -207 0
209 -193 -18 0
-209 18 0
-209 193 0
-209 -210 -159 0
209 -210 159 0
-209 159 210 0
209 210 -159 0
-211 -210 -208 0
-211 208 210 0
211 -208 210 0
211 208 -210 0
212 -210 -208 0
-212 210 0
208 -212 0
-209 213 -159 0
-213 159 0
209 -213 0
212 -214 213 0
214 -212 0
-213 214 0
-26 215 -193 0
26 -215 0
-215 193 0
-215 -165 -216 0
165 215 -216 0
-215 165 216 0
-165 215 216 0
-214 -216 -217 0
214 -217 216 0
217 -214 216 0
217 -216 214 0
-214 -216 218 0
-218 216 0
-218 214 0
-215 -165 219 0
165 -219 0
215 -219 0
219 -220 218 0
220 -218 0
-219 220 0
221 -193 -34 0
-221 34 0
193 -221 0
-222 -221 -171 0
-222 221 171 0
222 -221 171 0
222 221 -171 0
-222 -223 -220 0
222 -223 220 0
222 223 -220 0
-222 220 223 0
-222 -220 224 0
222 -224 0
220 -224 0
225 -221 -171 0
171 -225 0
221 -225 0
225 -226 224 0
226 -224 0
226 -225 0
-42 227 -193 0
-227 42 0
193 -227 0
-227 -228 -177 0
-228 227 177 0
-227 228 177 0
228 227 -177 0
-229 -226 -228 0
-229 226 228 0
229 -226 228 0
226 -228 229 0
-226 -228 230 0
228 -230 0
226 -230 0
231 -227 -177 0
-231 177 0
-231 227 0
231 -232 230 0
232 -230 0
232 -231 0
-50 -193 233 0
-233 50 0
193 -233 0
-234 -183 -233 0
183 -234 233 0
183 -233 234 0
-183 234 233 0
-234 -235 -232 0
232 234 -235 0
234 235 -232 0
232 -234 235 0
-234 -232 236 0
-236 234 0
232 -236 0
-183 237 -233 0
183 -237 0
-237 233 0
-238 237 236 0
-236 238 0
238 -237 0
-58 -193 239 0
-239 58 0
193 -239 0
-240 -239 -189 0
-240 239 189 0
-239 240 189 0
239 240 -189 0
-238 -240 -241 0
238 240 -241 0
-238 241 240 0
238 -240 241 0
-238 -240 242 0
240 -242 0
238 -242 0
-239 243 -189 0
-243 189 0
239 -243 0
-244 243 242 0
244 -242 0
244 -243 0
245 -193 -66 0
-245 66 0
193 -245 0
-192 -246 -245 0
-246 245 192 0
246 192 -245 0
-192 245 246 0
-246 -244 -247 0
246 244 -247 0
247 246 -244 0
-246 247 244 0
-246 -244 248 0
246 -248 0
244 -248 0
-192 -245 249 0
192 -249 0
245 -249 0
248 -250 249 0
250 -248 0
-249 250 0
-251 252 -1 0
1 -252 0
251 -252 0
-199 -253 -252 0
-253 252 199 0
253 -252 199 0
-199 253 252 0
-199 254 -252 0
-254 199 0
-254 252 0
-251 255 -4 0
-255 4 0
-255 251 0
-255 -205 -256 0
205 255 -256 0
205 -255 256 0
-205 255 256 0
-257 -254 -256 0
-257 254 256 0
257 -254 256 0
257 254 -256 0
258 -254 -256 0
-258 256 0
-258 254 0
-255 -205 259 0
-259 205 0
-259 255 0
-260 258 259 0
-258 260 0
-259 260 0
-10 -251 261 0
-261 10 0
251 -261 0
-211 -261 -262 0
211 261 -262 0
211 262 -261 0
-211 262 261 0
-263 -260 -262 0
260 262 -263 0
262 -260 263 0
260 -262 263 0
264 -260 -262 0
262 -264 0
260 -264 0
-211 265 -261 0
211 -265 0
-265 261 0
265 264 -266 0
-264 266 0
-265 266 0
267 -251 -18 0
-267 18 0
251 -267 0
-217 -268 -267 0
217 267 -268 0
217 268 -267 0
-217 267 268 0
-266 -269 -268 0
268 -269 266 0
268 269 -266 0
269 266 -268 0
270 -266 -268 0
-270 268 0
-270 266 0
-217 271 -267 0
217 -271 0
267 -271 0
-272 270 271 0
-270 272 0
272 -271 0
-26 -251 273 0
26 -273 0
251 -273 0
-223 -274 -273 0
273 223 -274 0
223 274 -273 0
-223 273 274 0
-275 -274 -272 0
-275 272 274 0
-272 275 274 0
-274 272 275 0
-274 -272 276 0
-276 274 0
272 -276 0
-223 277 -273 0
-277 223 0
273 -277 0
-278 277 276 0
278 -276 0
-277 278 0
-251 279 -34 0
-279 34 0
-279 251 0
-229 -280 -279 0
229 -280 279 0
-279 229 280 0
-229 280 279 0
-278 -280 -281 0
280 278 -281 0
281 -278 280 0
281 278 -280 0
-278 -280 282 0
-282 280 0
-282 278 0
-229 283 -279 0
229 -283 0
-283 279 0
-284 283 282 0
-282 284 0
284 -283 0
-42 -251 285 0
-285 42 0
251 -285 0
-235 -285 -286 0
285 235 -286 0
235 -285 286 0
-235 285 286 0
-284 -287 -286 0
-287 284 286 0
-284 287 286 0
284 287 -286 0
288 -284 -286 0
-288 286 0
284 -288 0
289 -235 -285 0
-289 235 0
-289 285 0
288 289 -290 0
290 -288 0
-289 290 0
-50 -251 291 0
-291 50 0
251 -291 0
-291 -241 -292 0
291 241 -292 0
292 -291 241 0
292 291 -241 0
-293 -290 -292 0
-293 292 290 0
292 293 -290 0
290 293 -292 0
294 -290 -292 0
292 -294 0
290 -294 0
-291 -241 295 0
241 -295 0
291 -295 0
294 -296 295 0
-294 296 0
296 -295 0
-58 -251 297 0
58 -297 0
251 -297 0
-298 -247 -297 0
247 -298 297 0
247 298 -297 0
298 -247 297 0
-298 -299 -296 0
298 -299 296 0
299 298 -296 0
-298 299 296 0
-298 300 -296 0
-300 298 0
-300 296 0
301 -247 -297 0
247 -301 0
-301 297 0
-302 300 301 0
-300 302 0
302 -301 0
-251 303 -66 0
-303 66 0
251 -303 0
-304 -303 -250 0
-304 303 250 0
-303 304 250 0
-250 304 303 0
-302 -304 -305 0
-305 302 304 0
-302 305 304 0
305 -304 302 0
-302 -304 306 0
304 -306 0
302 -306 0
-303 307 -250 0
-307 250 0
-307 303 0
-308 307 306 0
308 -306 0
-307 308 0
310 -309 -1 0
1 -310 0
309 -310 0
-257 -310 -311 0
310 257 -311 0
-310 257 311 0
-257 310 311 0
-257 -310 312 0
257 -312 0
310 -312 0
313 -309 -4 0
-313 4 0
309 -313 0
-314 -313 -263 0
-314 313 263 0
-313 263 314 0
313 -263 314 0
-314 -312 -315 0
312 -315 314 0
-312 315 314 0
-314 315 312 0
-314 -312 316 0
-316 314 0
-316 312 0
317 -313 -263 0
263 -317 0
313 -317 0
317 -318 316 0
-316 318 0
318 -317 0
-10 319 -309 0
-319 10 0
309 -319 0
-320 -319 -269 0
319 -320 269 0
320 269 -319 0
320 319 -269 0
-321 -320 -318 0
-321 318 320 0
321 320 -318 0
318 -320 321 0
322 -320 -318 0
320 -322 0
318 -322 0
323 -319 -269 0
269 -323 0
319 -323 0
323 322 -324 0
-322 324 0
324 -323 0
325 -309 -18 0
-325 18 0
309 -325 0
-325 -275 -326 0
-326 275 325 0
326 -325 275 0
326 -275 325 0
-327 -324 -326 0
326 324 -327 0
327 326 -324 0
324 327 -326 0
328 -324 -326 0
-328 326 0
-328 324 0
-325 -275 329 0
-329 275 0
-329 325 0
328 -330 329 0
330 -328 0
-329 330 0
-26 331 -309 0
26 -331 0
309 -331 0
-331 -332 -281 0
281 331 -332 0
281 332 -331 0
332 331 -281 0
-333 -330 -332 0
332 330 -333 0
-330 332 333 0
330 -332 333 0
-330 334 -332 0
-334 332 0
-334 330 0
335 -331 -281 0
281 -335 0
-335 331 0
335 334 -336 0
-334 336 0
336 -335 0
337 -309 -34 0
-337 34 0
309 -337 0
-337 -287 -338 0
-338 337 287 0
-337 287 338 0
-287 337 338 0
-338 -339 -336 0
336 -339 338 0
339 -336 338 0
336 -338 339 0
-338 340 -336 0
-340 338 0
336 -340 0
-337 -287 341 0
-341 287 0
-341 337 0
-342 341 340 0
342 -340 0
-341 342 0
-42 -309 343 0
-343 42 0
309 -343 0
-293 -343 -344 0
-344 293 343 0
344 -343 293 0
-293 344 343 0
-342 -345 -344 0
-345 342 344 0
-342 345 344 0
345 342 -344 0
346 -342 -344 0
-346 344 0
-346 342 0
-293 -343 347 0
-347 293 0
-347 343 0
346 -348 347 0
-346 348 0
-347 348 0
-50 349 -309 0
-349 50 0
309 -349 0
-299 -349 -350 0
299 349 -350 0
299 350 -349 0
350 -299 349 0
-350 -351 -348 0
350 -351 348 0
351 350 -348 0
351 -350 348 0
-350 -348 352 0
-352 350 0
-352 348 0
353 -299 -349 0
299 -353 0
349 -353 0
-354 353 352 0
-352 354 0
-353 354 0
-58 355 -309 0
-355 58 0
309 -355 0
-305 -355 -356 0
305 355 -356 0
305 -355 356 0
355 -305 356 0
-354 -356 -357 0
356 354 -357 0
357 -354 356 0
357 354 -356 0
-354 358 -356 0
356 -358 0
354 -358 0
359 -305 -355 0
305 -359 0
-359 355 0
359 358 -360 0
360 -358 0
360 -359 0
361 -309 -66 0
-361 66 0
309 -361 0
-308 -362 -361 0
-362 308 361 0
362 308 -361 0
-308 362 361 0
-360 -362 -363 0
360 -363 362 0
-360 362 363 0
360 -362 363 0
-360 -362 364 0
-364 362 0
360 -364 0
365 -308 -361 0
308 -365 0
-365 361 0
364 365 -366 0
366 -364 0
366 -365 0
368 -367 -1 0
1 -368 0
367 -368 0
-368 -369 -315 0
315 368 -369 0
-368 315 369 0
369 368 -315 0
-368 -315 370 0
315 -370 0
-370 368 0
-367 371 -4 0
-371 4 0
367 -371 0
-321 -372 -371 0
-372 371 321 0
-371 372 321 0
-321 372 371 0
-372 -370 -373 0
372 370 -373 0
372 -370 373 0
-372 373 370 0
374 -372 -370 0
372 -374 0
-374 370 0
-321 375 -371 0
321 -375 0
371 -375 0
374 375 -376 0
376 -374 0
376 -375 0
-10 -367 377 0
-377 10 0
367 -377 0
-377 -378 -327 0
-378 377 327 0
-377 378 327 0
378 377 -327 0
-378 -376 -379 0
376 378 -379 0
378 379 -376 0
376 -378 379 0
380 -378 -376 0
378 -380 0
376 -380 0
-377 381 -327 0
-381 327 0
-381 377 0
380 381 -382 0
382 -380 0
382 -381 0
-367 383 -18 0
-383 18 0
367 -383 0
-333 -384 -383 0
333 383 -384 0
333 384 -383 0
-333 383 384 0
-382 -385 -384 0
382 -385 384 0
-382 385 384 0
382 385 -384 0
-382 386 -384 0
-386 384 0
382 -386 0
-333 387 -383 0
333 -387 0
-387 383 0
386 387 -388 0
-386 388 0
388 -387 0
-26 -367 389 0
26 -389 0
367 -389 0
-390 -339 -389 0
-390 339 389 0
390 339 -389 0
390 -339 389 0
-391 -390 -388 0
390 388 -391 0
391 390 -388 0
388 -390 391 0
392 -390 -388 0
-392 390 0
-392 388 0
393 -339 -389 0
-393 339 0
-393 389 0
392 393 -394 0
-392 394 0
-393 394 0
-367 395 -34 0
-395 34 0
367 -395 0
-395 -345 -396 0
345 395 -396 0
-395 345 396 0
-345 395 396 0
-396 -397 -394 0
394 396 -397 0
397 396 -394 0
397 394 -396 0
-396 398 -394 0
-398 396 0
-398 394 0
-395 -345 399 0
345 -399 0
-399 395 0
399 -400 398 0
-398 400 0
-399 400 0
-42 401 -367 0
-401 42 0
367 -401 0
-402 -351 -401 0
-402 351 401 0
351 402 -401 0
402 401 -351 0
-402 -400 -403 0
402 -403 400 0
402 -400 403 0
-402 403 400 0
-402 404 -400 0
402 -404 0
-404 400 0
-351 405 -401 0
351 -405 0
401 -405 0
404 -406 405 0
-404 406 0
406 -405 0
-50 -367 407 0
-407 50 0
367 -407 0
-408 -407 -357 0
-408 357 407 0
-407 408 357 0
408 407 -357 0
-408 -406 -409 0
-409 408 406 0
-406 408 409 0
409 -408 406 0
-408 -406 410 0
408 -410 0
406 -410 0
411 -407 -357 0
357 -411 0
407 -411 0
410 -412 411 0
412 -410 0
-411 412 0
-58 -367 413 0
-413 58 0
367 -413 0
-363 -414 -413 0
413 -414 363 0
414 -413 363 0
-363 413 414 0
-415 -412 -414 0
412 -415 414 0
415 -412 414 0
415 -414 412 0
416 -412 -414 0
-416 414 0
-416 412 0
-363 417 -413 0
-417 363 0
-417 413 0
416 417 -418 0
418 -416 0
-417 418 0
419 -367 -66 0
-419 66 0
367 -419 0
-366 -420 -419 0
366 -420 419 0
420 366 -419 0
-366 420 419 0
-421 -420 -418 0
418 420 -421 0
421 420 -418 0
418 -420 421 0
422 -420 -418 0
420 -422 0
418 -422 0
-366 423 -419 0
366 -423 0
-423 419 0
422 423 -424 0
424 -422 0
424 -423 0
426 -425 -1 0
1 -426 0
425 -426 0
-427 -426 -373 0
426 373 -427 0
373 -426 427 0
427 426 -373 0
428 -426 -373 0
373 -428 0
426 -428 0
-425 429 -4 0
-429 4 0
425 -429 0
-430 -379 -429 0
379 -430 429 0
430 379 -429 0
430 429 -379 0
-431 -430 -428 0
430 -431 428 0
430 431 -428 0
428 -430 431 0
432 -430 -428 0
430 -432 0
428 -432 0
433 -379 -429 0
379 -433 0
-433 429 0
432 -434 433 0
434 -432 0
434 -433 0
-10 435 -425 0
-435 10 0
425 -435 0
-435 -385 -436 0
385 435 -436 0
-435 385 436 0
436 -385 435 0
-434 -437 -436 0
436 -437 434 0
436 -434 437 0
434 -436 437 0
-434 438 -436 0
436 -438 0
-438 434 0
-435 -385 439 0
-439 385 0
-439 435 0
-440 438 439 0
-438 440 0
-439 440 0
-425 441 -18 0
-441 18 0
425 -441 0
-441 -391 -442 0
-442 391 441 0
-441 442 391 0
-391 442 441 0
-440 -442 -443 0
442 440 -443 0
-440 442 443 0
443 -442 440 0
-440 444 -442 0
-444 442 0
-444 440 0
-441 -391 445 0
-445 391 0
-445 441 0
-446 444 445 0
-444 446 0
-445 446 0
-26 -425 447 0
26 -447 0
425 -447 0
-447 -448 -397 0
397 -448 447 0
-447 397 448 0
447 448 -397 0
-448 -446 -449 0
-449 448 446 0
-446 448 449 0
-448 449 446 0
450 -448 -446 0
448 -450 0
-450 446 0
-447 451 -397 0
-451 397 0
-451 447 0
450 451 -452 0
452 -450 0
-451 452 0
453 -425 -34 0
-453 34 0
425 -453 0
-454 -453 -403 0
-454 453 403 0
-453 403 454 0
453 -403 454 0
-454 -455 -452 0
-455 454 452 0
455 -452 454 0
-454 455 452 0
-454 -452 456 0
454 -456 0
-456 452 0
-453 -403 457 0
-457 403 0
-457 453 0
-458 457 456 0
458 -456 0
-457 458 0
-42 -425 459 0
-459 42 0
425 -459 0
-459 -409 -460 0
409 -460 459 0
409 460 -459 0
459 460 -409 0
-458 -461 -460 0
458 460 -461 0
461 -458 460 0
461 458 -460 0
462 -458 -460 0
460 -462 0
458 -462 0
-459 463 -409 0
409 -463 0
459 -463 0
463 462 -464 0
464 -462 0
-463 464 0
465 -50 -425 0
-465 50 0
425 -465 0
-415 -465 -466 0
-466 415 465 0
415 -465 466 0
-415 466 465 0
-466 -467 -464 0
466 464 -467 0
466 467 -464 0
-466 467 464 0
-466 468 -464 0
466 -468 0
-468 464 0
-415 -465 469 0
415 -469 0
465 -469 0
469 468 -470 0
470 -468 0
470 -469 0
-58 -425 471 0
-471 58 0
425 -471 0
-471 -472 -421 0
-472 471 421 0
-471 472 421 0
472 471 -421 0
-472 -470 -473 0
472 470 -473 0
472 -470 473 0
-472 470 473 0
-472 -470 474 0
472 -474 0
-474 470 0
-471 475 -421 0
-475 421 0
-475 471 0
-476 474 475 0
-474 476 0
-475 476 0
-425 477 -66 0
-477 66 0
425 -477 0
-478 -477 -424 0
424 -478 477 0
424 478 -477 0
478 477 -424 0
-478 -476 -479 0
478 476 -479 0
478 -476 479 0
-478 476 479 0
-478 -476 480 0
478 -480 0
-480 476 0
481 -477 -424 0
424 -481 0
-481 477 0
480 -482 481 0
-480 482 0
-481 482 0
-483 484 -1 0
1 -484 0
-484 483 0
-485 -431 -484 0
-485 431 484 0
-484 431 485 0
-431 485 484 0
486 -431 -484 0
-486 431 0
-486 484 0
-483 -4 487 0
-487 4 0
-487 483 0
-437 -488 -487 0
-488 437 487 0
488 -487 437 0
488 -437 487 0
-486 -489 -488 0
488 -489 486 0
488 -486 489 0
486 489 -488 0
-486 490 -488 0
488 -490 0
-490 486 0
-437 491 -487 0
-491 437 0
-491 487 0
-492 491 490 0
492 -490 0
492 -491 0
-10 -483 493 0
10 -493 0
483 -493 0
-493 -494 -443 0
443 -494 493 0
443 494 -493 0
494 493 -443 0
-492 -495 -494 0
492 -495 494 0
-492 494 495 0
495 492 -494 0
-492 496 -494 0
494 -496 0
492 -496 0
497 -493 -443 0
443 -497 0
-497 493 0
-498 496 497 0
-496 498 0
-497 498 0
-483 499 -18 0
-499 18 0
483 -499 0
-500 -449 -499 0
499 -500 449 0
500 -499 449 0
499 500 -449 0
-500 -501 -498 0
500 498 -501 0
500 501 -498 0
-500 498 501 0
-500 502 -498 0
500 -502 0
-502 498 0
503 -449 -499 0
-503 449 0
499 -503 0
503 -504 502 0
-502 504 0
504 -503 0
505 -26 -483 0
26 -505 0
-505 483 0
-506 -455 -505 0
505 -506 455 0
455 -505 506 0
505 -455 506 0
-506 -504 -507 0
506 504 -507 0
506 -504 507 0
-506 507 504 0
-506 -504 508 0
506 -508 0
504 -508 0
509 -455 -505 0
-509 455 0
505 -509 0
509 -510 508 0
510 -508 0
-509 510 0
-483 511 -34 0
-511 34 0
-511 483 0
-511 -461 -512 0
461 511 -512 0
461 -511 512 0
511 -461 512 0
-513 -510 -512 0
-513 510 512 0
-510 513 512 0
510 513 -512 0
-510 514 -512 0
-514 512 0
510 -514 0
515 -511 -461 0
461 -515 0
511 -515 0
515 514 -516 0
516 -514 0
516 -515 0
-42 -483 517 0
-517 42 0
-517 483 0
-517 -467 -518 0
-518 467 517 0
-517 518 467 0
518 -467 517 0
-519 -518 -516 0
516 518 -519 0
518 519 -516 0
516 -518 519 0
520 -518 -516 0
518 -520 0
516 -520 0
-517 -467 521 0
467 -521 0
-521 517 0
520 521 -522 0
522 -520 0
522 -521 0
-50 -483 523 0
-523 50 0
-523 483 0
-524 -523 -473 0
523 -524 473 0
-523 473 524 0
523 -473 524 0
-522 -524 -525 0
522 -525 524 0
525 -522 524 0
522 525 -524 0
-522 526 -524 0
524 -526 0
522 -526 0
527 -523 -473 0
-527 473 0
523 -527 0
527 526 -528 0
528 -526 0
-527 528 0
-483 -58 529 0
-529 58 0
-529 483 0
-530 -529 -479 0
-530 479 529 0
-529 530 479 0
529 530 -479 0
-530 -528 -531 0
528 530 -531 0
-528 531 530 0
-530 531 528 0
-530 -528 532 0
-532 530 0
-532 528 0
-529 533 -479 0
-533 479 0
-533 529 0
-534 533 532 0
-532 534 0
-533 534 0
535 -483 -66 0
-535 66 0
-535 483 0
-482 -536 -535 0
535 -536 482 0
536 -535 482 0
535 -482 536 0
-534 -536 -537 0
536 534 -537 0
-534 537 536 0
537 -536 534 0
538 -534 -536 0
536 -538 0
-538 534 0
539 -482 -535 0
-539 482 0
535 -539 0
539 538 -540 0
540 -538 0
-539 540 0
3 0
-8 0
79 0
137 0
-195 0
253 0
311 0
369 0
427 0
-485 0
-489 0
-495 0
-501 0
-507 0
-513 0
-519 0
-525 0
-531 0
-537 0
-540 0
