p cnf 540 1750
-2 -1 3 0
1 -3 0
-3 2 0
5 -2 -4 0
-5 4 0
-5 2 0
-6 7 -1 0
1 -7 0
6 -7 0
-8 -5 -7 0
-8 5 7 0
5 8 -7 0
7 -5 8 0
9 -5 -7 0
5 -9 0
7 -9 0
-2 -10 11 0
10 -11 0
2 -11 0
-4 -6 12 0
-12 4 0
6 -12 0
-13 -12 -11 0
-13 12 11 0
13 -12 11 0
13 12 -11 0
-13 -9 -14 0
9 13 -14 0
14 -9 13 0
14 -13 9 0
15 -13 -9 0
13 -15 0
9 -15 0
16 -12 -11 0
-16 11 0
-16 12 0
15 16 -17 0
17 -15 0
17 -16 0
-2 -18 19 0
18 -19 0
-19 2 0
-6 -10 20 0
10 -20 0
-20 6 0
-19 -20 -21 0
-21 20 19 0
21 -20 19 0
-19 21 20 0
-22 -21 -17 0
21 17 -22 0
22 21 -17 0
22 17 -21 0
-21 23 -17 0
21 -23 0
17 -23 0
24 -19 -20 0
-24 19 0
20 -24 0
24 -25 23 0
25 -23 0
25 -24 0
-26 -2 27 0
-27 26 0
-27 2 0
-6 -18 28 0
18 -28 0
-28 6 0
-28 -29 -27 0
28 -29 27 0
-28 29 27 0
28 -27 29 0
-29 -25 -30 0
29 25 -30 0
30 29 -25 0
30 25 -29 0
31 -29 -25 0
-31 29 0
-31 25 0
-28 -27 32 0
-32 27 0
-32 28 0
31 32 -33 0
-31 33 0
33 -32 0
-2 35 -34 0
34 -35 0
2 -35 0
36 -26 -6 0
-36 26 0
6 -36 0
-37 -36 -35 0
36 35 -37 0
37 35 -36 0
36 37 -35 0
-38 -33 -37 0
33 -38 37 0
38 -33 37 0
38 33 -37 0
39 -33 -37 0
-39 37 0
-39 33 0
40 -36 -35 0
35 -40 0
36 -40 0
39 40 -41 0
-39 41 0
41 -40 0
-2 43 -42 0
-43 42 0
-43 2 0
-6 44 -34 0
34 -44 0
-44 6 0
-43 -44 -45 0
43 44 -45 0
43 -44 45 0
-43 44 45 0
-46 -41 -45 0
41 -46 45 0
46 -41 45 0
46 41 -45 0
47 -41 -45 0
-47 45 0
41 -47 0
-43 -44 48 0
-48 43 0
-48 44 0
-49 47 48 0
49 -47 0
-48 49 0
-2 51 -50 0
-51 50 0
-51 2 0
52 -6 -42 0
42 -52 0
6 -52 0
-51 -52 -53 0
52 51 -53 0
51 53 -52 0
52 -51 53 0
-53 -49 -54 0
49 53 -54 0
53 -49 54 0
-53 49 54 0
55 -53 -49 0
53 -55 0
49 -55 0
-51 56 -52 0
51 -56 0
52 -56 0
55 56 -57 0
-55 57 0
57 -56 0
59 -2 -58 0
-59 58 0
-59 2 0
60 -6 -50 0
-60 50 0
-60 6 0
-59 -60 -61 0
59 -61 60 0
59 61 -60 0
-59 61 60 0
-62 -61 -57 0
-62 61 57 0
62 61 -57 0
62 -61 57 0
63 -61 -57 0
61 -63 0
57 -63 0
-59 -60 64 0
59 -64 0
60 -64 0
64 63 -65 0
65 -63 0
65 -64 0
-2 67 -66 0
-67 66 0
-67 2 0
-6 68 -58 0
58 -68 0
6 -68 0
-67 -69 -68 0
68 -69 67 0
67 -68 69 0
-67 68 69 0
-69 -65 -70 0
-70 65 69 0
-65 70 69 0
65 -69 70 0
71 -69 -65 0
-71 69 0
65 -71 0
-67 72 -68 0
-72 67 0
-72 68 0
71 72 -73 0
-71 73 0
73 -72 0
74 -6 -66 0
-74 66 0
6 -74 0
-74 -73 -75 0
74 73 -75 0
75 73 -74 0
74 -73 75 0
76 -74 -73 0
-76 73 0
74 -76 0
-77 78 -1 0
1 -78 0
-78 77 0
-79 -14 -78 0
14 -79 78 0
14 79 -78 0
79 78 -14 0
80 -14 -78 0
14 -80 0
78 -80 0
-77 81 -4 0
-81 4 0
-81 77 0
-81 -22 -82 0
22 81 -82 0
22 82 -81 0
81 82 -22 0
-83 -82 -80 0
-83 82 80 0
82 -80 83 0
80 -82 83 0
-82 -80 84 0
-84 82 0
-84 80 0
-81 -22 85 0
22 -85 0
81 -85 0
-86 85 84 0
-84 86 0
86 -85 0
-77 -10 87 0
10 -87 0
-87 77 0
-88 -87 -30 0
-88 30 87 0
30 -87 88 0
88 87 -30 0
-88 -86 -89 0
88 -89 86 0
-86 88 89 0
-88 86 89 0
-88 -86 90 0
88 -90 0
-90 86 0
91 -87 -30 0
-91 30 0
-91 87 0
90 91 -92 0
-90 92 0
-91 92 0
-77 93 -18 0
18 -93 0
-93 77 0
-94 -93 -38 0
38 93 -94 0
38 -93 94 0
93 94 -38 0
-94 -95 -92 0
-95 94 92 0
95 94 -92 0
-94 95 92 0
-94 96 -92 0
94 -96 0
92 -96 0
-93 -38 97 0
38 -97 0
93 -97 0
96 -98 97 0
98 -96 0
-97 98 0
-77 -26 99 0
-99 26 0
-99 77 0
-99 -46 -100 0
99 -100 46 0
-99 100 46 0
99 -46 100 0
-101 -98 -100 0
-101 98 100 0
101 -98 100 0
101 98 -100 0
-98 -100 102 0
-102 100 0
98 -102 0
-99 -46 103 0
-103 46 0
99 -103 0
-104 103 102 0
104 -102 0
104 -103 0
-77 105 -34 0
34 -105 0
-105 77 0
-54 -105 -106 0
105 -106 54 0
106 -105 54 0
106 -54 105 0
-104 -107 -106 0
106 -107 104 0
-104 106 107 0
107 104 -106 0
108 -104 -106 0
106 -108 0
104 -108 0
-54 -105 109 0
54 -109 0
105 -109 0
108 -110 109 0
-108 110 0
110 -109 0
-77 111 -42 0
42 -111 0
-111 77 0
-62 -112 -111 0
62 111 -112 0
62 112 -111 0
-62 111 112 0
-110 -113 -112 0
112 -113 110 0
-110 112 113 0
110 113 -112 0
-110 114 -112 0
112 -114 0
-114 110 0
-62 115 -111 0
62 -115 0
111 -115 0
-116 115 114 0
-114 116 0
116 -115 0
-77 117 -50 0
50 -117 0
-117 77 0
-118 -117 -70 0
-118 117 70 0
118 70 -117 0
117 118 -70 0
-116 -119 -118 0
116 -119 118 0
-116 119 118 0
116 119 -118 0
-116 -118 120 0
118 -120 0
116 -120 0
121 -117 -70 0
-121 70 0
-121 117 0
120 121 -122 0
122 -120 0
-121 122 0
-77 123 -58 0
-123 58 0
-123 77 0
-123 -124 -75 0
-124 75 123 0
-123 124 75 0
123 124 -75 0
-124 -125 -122 0
124 -125 122 0
125 124 -122 0
125 -124 122 0
126 -124 -122 0
124 -126 0
122 -126 0
-123 127 -75 0
75 -127 0
-127 123 0
126 127 -128 0
128 -126 0
128 -127 0
-77 129 -66 0
-129 66 0
-129 77 0
-130 -129 -76 0
-130 76 129 0
76 -129 130 0
130 -76 129 0
-130 -131 -128 0
130 128 -131 0
130 131 -128 0
-130 128 131 0
-130 132 -128 0
130 -132 0
128 -132 0
-129 -76 133 0
76 -133 0
-133 129 0
132 -134 133 0
134 -132 0
134 -133 0
-135 -1 136 0
1 -136 0
-136 135 0
-136 -83 -137 0
136 -137 83 0
-136 137 83 0
-83 137 136 0
-136 -83 138 0
-138 83 0
136 -138 0
-135 -4 139 0
4 -139 0
-139 135 0
-89 -140 -139 0
-140 89 139 0
89 140 -139 0
-89 140 139 0
-138 -140 -141 0
-141 140 138 0
-138 140 141 0
-140 138 141 0
-138 -140 142 0
-142 140 0
-142 138 0
-89 143 -139 0
-143 89 0
-143 139 0
142 143 -144 0
144 -142 0
-143 144 0
145 -135 -10 0
10 -145 0
-145 135 0
-145 -146 -95 0
-146 145 95 0
-145 95 146 0
145 -95 146 0
-147 -146 -144 0
-147 144 146 0
147 -144 146 0
-146 144 147 0
-146 148 -144 0
-148 146 0
144 -148 0
-145 149 -95 0
-149 95 0
145 -149 0
-150 149 148 0
150 -148 0
-149 150 0
151 -135 -18 0
18 -151 0
135 -151 0
-101 -152 -151 0
151 101 -152 0
101 152 -151 0
151 -101 152 0
-153 -152 -150 0
-153 150 152 0
153 -150 152 0
153 -152 150 0
-152 154 -150 0
-154 152 0
-154 150 0
-101 155 -151 0
-155 101 0
151 -155 0
-156 154 155 0
-154 156 0
-155 156 0
157 -26 -135 0
-157 26 0
-157 135 0
-157 -158 -107 0
157 -158 107 0
-157 158 107 0
157 -107 158 0
-158 -159 -156 0
-159 156 158 0
159 -156 158 0
159 -158 156 0
-158 -156 160 0
-160 158 0
156 -160 0
-157 161 -107 0
-161 107 0
157 -161 0
161 160 -162 0
162 -160 0
162 -161 0
163 -135 -34 0
34 -163 0
-163 135 0
-113 -163 -164 0
-164 113 163 0
-163 164 113 0
-113 164 163 0
-164 -165 -162 0
164 162 -165 0
164 165 -162 0
-164 162 165 0
-164 166 -162 0
164 -166 0
162 -166 0
-113 -163 167 0
113 -167 0
-167 163 0
-168 166 167 0
168 -166 0
168 -167 0
-135 169 -42 0
42 -169 0
-169 135 0
-170 -169 -119 0
-170 169 119 0
170 -169 119 0
170 169 -119 0
-168 -170 -171 0
168 170 -171 0
-168 170 171 0
-170 168 171 0
-168 -170 172 0
170 -172 0
168 -172 0
173 -169 -119 0
-173 119 0
-173 169 0
172 173 -174 0
174 -172 0
-173 174 0
-135 -50 175 0
-175 50 0
-175 135 0
-175 -125 -176 0
125 175 -176 0
125 -175 176 0
176 175 -125 0
-177 -176 -174 0
176 -177 174 0
176 177 -174 0
177 174 -176 0
178 -176 -174 0
176 -178 0
-178 174 0
179 -175 -125 0
125 -179 0
175 -179 0
179 -180 178 0
180 -178 0
180 -179 0
181 -135 -58 0
58 -181 0
135 -181 0
-131 -182 -181 0
181 -182 131 0
182 131 -181 0
181 -131 182 0
-180 -182 -183 0
180 182 -183 0
-180 183 182 0
180 183 -182 0
-180 -182 184 0
182 -184 0
180 -184 0
-131 185 -181 0
131 -185 0
181 -185 0
185 184 -186 0
186 -184 0
186 -185 0
-135 187 -66 0
-187 66 0
-187 135 0
-187 -188 -134 0
-188 134 187 0
-187 134 188 0
188 187 -134 0
-188 -189 -186 0
186 188 -189 0
189 188 -186 0
-188 186 189 0
-188 -186 190 0
-190 188 0
-190 186 0
-187 -134 191 0
-191 134 0
-191 187 0
190 -192 191 0
-190 192 0
-191 192 0
-193 194 -1 0
1 -194 0
-194 193 0
-195 -194 -141 0
194 -195 141 0
195 -194 141 0
194 -141 195 0
-194 -141 196 0
141 -196 0
194 -196 0
197 -193 -4 0
4 -197 0
193 -197 0
-147 -198 -197 0
-198 197 147 0
-197 198 147 0
-147 197 198 0
-198 -199 -196 0
196 -199 198 0
199 -196 198 0
-198 196 199 0
-198 200 -196 0
-200 198 0
196 -200 0
-147 201 -197 0
-201 147 0
197 -201 0
200 201 -202 0
202 -200 0
202 -201 0
-193 203 -10 0
10 -203 0
193 -203 0
-153 -204 -203 0
153 203 -204 0
153 204 -203 0
-153 203 204 0
-205 -202 -204 0
202 -205 204 0
205 -202 204 0
202 205 -204 0
206 -202 -204 0
-206 204 0
202 -206 0
-153 207 -203 0
153 -207 0
203 -207 0
206 207 -208 0
-206 208 0
208 -207 0
-193 -18 209 0
18 -209 0
-209 193 0
-209 -159 -210 0
159 209 -210 0
159 210 -209 0
210 -159 209 0
-211 -210 -208 0
208 210 -211 0
211 210 -208 0
211 208 -210 0
212 -210 -208 0
-212 210 0
-212 208 0
213 -209 -159 0
159 -213 0
-213 209 0
213 212 -214 0
-212 214 0
-213 214 0
-26 -193 215 0
-215 26 0
193 -215 0
-216 -165 -215 0
-216 165 215 0
216 165 -215 0
216 -165 215 0
-216 -214 -217 0
214 216 -217 0
217 216 -214 0
217 -216 214 0
-216 218 -214 0
-218 216 0
-218 214 0
219 -165 -215 0
165 -219 0
-219 215 0
218 219 -220 0
-218 220 0
220 -219 0
-193 221 -34 0
34 -221 0
-221 193 0
-221 -222 -171 0
-222 221 171 0
-221 171 222 0
221 -171 222 0
-223 -222 -220 0
-223 220 222 0
-220 222 223 0
220 -222 223 0
-222 224 -220 0
222 -224 0
220 -224 0
-221 225 -171 0
-225 171 0
-225 221 0
-226 224 225 0
226 -224 0
-225 226 0
-193 227 -42 0
-227 42 0
-227 193 0
-177 -227 -228 0
-228 177 227 0
-227 228 177 0
-177 228 227 0
-226 -228 -229 0
228 -229 226 0
-226 228 229 0
-228 229 226 0
-226 -228 230 0
228 -230 0
-230 226 0
-177 -227 231 0
-231 177 0
-231 227 0
230 -232 231 0
232 -230 0
-231 232 0
-193 233 -50 0
-233 50 0
193 -233 0
-233 -234 -183 0
183 233 -234 0
183 234 -233 0
234 233 -183 0
-235 -234 -232 0
232 -235 234 0
235 234 -232 0
235 232 -234 0
236 -234 -232 0
-236 234 0
-236 232 0
-233 237 -183 0
183 -237 0
233 -237 0
-238 236 237 0
-236 238 0
238 -237 0
-193 239 -58 0
-239 58 0
-239 193 0
-240 -189 -239 0
-240 189 239 0
-239 240 189 0
-189 240 239 0
-240 -238 -241 0
240 238 -241 0
240 -238 241 0
-240 238 241 0
-240 -238 242 0
-242 240 0
-242 238 0
-189 -239 243 0
189 -243 0
239 -243 0
-244 243 242 0
-242 244 0
244 -243 0
-193 245 -66 0
-245 66 0
193 -245 0
-246 -192 -245 0
-246 245 192 0
246 -245 192 0
-192 245 246 0
-246 -244 -247 0
244 -247 246 0
247 -244 246 0
-246 247 244 0
-246 -244 248 0
-248 246 0
-248 244 0
-192 -245 249 0
-249 192 0
-249 245 0
-250 248 249 0
-248 250 0
-249 250 0
-251 -1 252 0
1 -252 0
251 -252 0
-253 -252 -199 0
199 -253 252 0
199 -252 253 0
253 252 -199 0
254 -252 -199 0
199 -254 0
-254 252 0
-251 255 -4 0
4 -255 0
251 -255 0
-255 -205 -256 0
255 205 -256 0
205 -255 256 0
255 -205 256 0
-257 -254 -256 0
254 -257 256 0
257 -254 256 0
257 254 -256 0
258 -254 -256 0
-258 256 0
254 -258 0
-255 259 -205 0
205 -259 0
255 -259 0
259 -260 258 0
260 -258 0
260 -259 0
-251 -10 261 0
10 -261 0
251 -261 0
-262 -261 -211 0
211 -262 261 0
211 262 -261 0
262 -211 261 0
-262 -260 -263 0
260 262 -263 0
263 262 -260 0
263 -262 260 0
-262 -260 264 0
-264 262 0
-264 260 0
-261 -211 265 0
211 -265 0
-265 261 0
-266 265 264 0
-264 266 0
-265 266 0
-251 267 -18 0
18 -267 0
251 -267 0
-268 -217 -267 0
267 217 -268 0
217 268 -267 0
267 -217 268 0
-266 -268 -269 0
-269 268 266 0
-266 268 269 0
269 -268 266 0
-266 270 -268 0
-270 268 0
-270 266 0
-217 271 -267 0
217 -271 0
267 -271 0
270 -272 271 0
272 -270 0
272 -271 0
-251 -26 273 0
-273 26 0
251 -273 0
-223 -274 -273 0
273 -274 223 0
274 223 -273 0
-223 274 273 0
-272 -274 -275 0
274 272 -275 0
274 275 -272 0
272 275 -274 0
276 -272 -274 0
274 -276 0
272 -276 0
-223 277 -273 0
-277 223 0
-277 273 0
-278 277 276 0
278 -276 0
278 -277 0
-251 279 -34 0
34 -279 0
251 -279 0
-280 -279 -229 0
-280 279 229 0
-279 229 280 0
279 -229 280 0
-280 -278 -281 0
278 280 -281 0
281 -278 280 0
-280 281 278 0
-280 282 -278 0
-282 280 0
-282 278 0
283 -279 -229 0
229 -283 0
279 -283 0
282 283 -284 0
284 -282 0
284 -283 0
-251 -42 285 0
42 -285 0
251 -285 0
-235 -285 -286 0
235 -286 285 0
235 -285 286 0
-235 286 285 0
-287 -286 -284 0
284 -287 286 0
287 286 -284 0
287 284 -286 0
288 -286 -284 0
286 -288 0
284 -288 0
-235 -285 289 0
235 -289 0
-289 285 0
288 -290 289 0
290 -288 0
290 -289 0
-251 291 -50 0
-291 50 0
251 -291 0
-291 -292 -241 0
291 241 -292 0
292 -291 241 0
292 291 -241 0
-290 -292 -293 0
292 290 -293 0
292 293 -290 0
290 293 -292 0
294 -290 -292 0
292 -294 0
-294 290 0
295 -291 -241 0
241 -295 0
291 -295 0
295 294 -296 0
296 -294 0
296 -295 0
-251 297 -58 0
-297 58 0
-297 251 0
-297 -298 -247 0
-298 247 297 0
-297 247 298 0
-247 297 298 0
-298 -299 -296 0
-299 296 298 0
299 -296 298 0
-298 296 299 0
-298 300 -296 0
-300 298 0
296 -300 0
-297 301 -247 0
247 -301 0
-301 297 0
300 301 -302 0
302 -300 0
302 -301 0
-251 303 -66 0
-303 66 0
-303 251 0
-250 -303 -304 0
303 -304 250 0
-303 304 250 0
303 -250 304 0
-305 -304 -302 0
302 -305 304 0
305 -302 304 0
305 302 -304 0
306 -304 -302 0
-306 304 0
-306 302 0
-250 -303 307 0
-307 250 0
303 -307 0
306 -308 307 0
-306 308 0
-307 308 0
-1 310 -309 0
1 -310 0
309 -310 0
-257 -311 -310 0
257 -311 310 0
257 311 -310 0
311 -257 310 0
312 -257 -310 0
257 -312 0
-312 310 0
313 -4 -309 0
-313 4 0
-313 309 0
-313 -314 -263 0
263 313 -314 0
263 -313 314 0
314 313 -263 0
-315 -314 -312 0
312 314 -315 0
314 -312 315 0
312 -314 315 0
316 -314 -312 0
-316 314 0
312 -316 0
-313 317 -263 0
263 -317 0
313 -317 0
316 -318 317 0
318 -316 0
318 -317 0
319 -10 -309 0
10 -319 0
-319 309 0
-319 -320 -269 0
-320 319 269 0
-319 320 269 0
320 -269 319 0
-320 -321 -318 0
318 -321 320 0
321 320 -318 0
318 -320 321 0
-320 322 -318 0
320 -322 0
318 -322 0
-319 323 -269 0
-323 269 0
-323 319 0
-324 323 322 0
324 -322 0
-323 324 0
-18 325 -309 0
18 -325 0
-325 309 0
-326 -325 -275 0
275 -326 325 0
275 326 -325 0
325 326 -275 0
-324 -327 -326 0
326 324 -327 0
-324 326 327 0
324 -326 327 0
-324 -326 328 0
326 -328 0
324 -328 0
329 -325 -275 0
-329 275 0
-329 325 0
329 -330 328 0
-328 330 0
-329 330 0
-26 331 -309 0
-331 26 0
309 -331 0
-332 -331 -281 0
281 331 -332 0
281 332 -331 0
331 332 -281 0
-332 -333 -330 0
332 330 -333 0
333 -330 332 0
333 -332 330 0
334 -332 -330 0
-334 332 0
-334 330 0
335 -331 -281 0
281 -335 0
331 -335 0
334 -336 335 0
336 -334 0
336 -335 0
337 -34 -309 0
34 -337 0
309 -337 0
-287 -338 -337 0
287 337 -338 0
287 338 -337 0
338 -287 337 0
-336 -339 -338 0
336 338 -339 0
339 338 -336 0
336 -338 339 0
-336 -338 340 0
-340 338 0
336 -340 0
341 -287 -337 0
287 -341 0
337 -341 0
341 -342 340 0
-340 342 0
-341 342 0
343 -42 -309 0
-343 42 0
-343 309 0
-343 -344 -293 0
343 293 -344 0
-343 293 344 0
343 344 -293 0
-345 -342 -344 0
-345 342 344 0
345 -342 344 0
345 342 -344 0
346 -342 -344 0
-346 344 0
-346 342 0
-343 347 -293 0
-347 293 0
343 -347 0
347 -348 346 0
-346 348 0
348 -347 0
349 -50 -309 0
-349 50 0
-349 309 0
-349 -299 -350 0
349 299 -350 0
-349 299 350 0
-299 349 350 0
-348 -350 -351 0
348 350 -351 0
351 350 -348 0
351 348 -350 0
-348 -350 352 0
-352 350 0
348 -352 0
-349 -299 353 0
-353 299 0
-353 349 0
353 -354 352 0
354 -352 0
354 -353 0
-309 355 -58 0
-355 58 0
-355 309 0
-355 -305 -356 0
305 -356 355 0
305 -355 356 0
356 -305 355 0
-357 -356 -354 0
356 -357 354 0
356 357 -354 0
354 -356 357 0
-356 358 -354 0
356 -358 0
-358 354 0
-355 -305 359 0
305 -359 0
-359 355 0
359 358 -360 0
-358 360 0
-359 360 0
361 -309 -66 0
-361 66 0
-361 309 0
-361 -362 -308 0
361 308 -362 0
362 308 -361 0
362 361 -308 0
-363 -362 -360 0
-363 362 360 0
363 362 -360 0
-362 363 360 0
-362 364 -360 0
-364 362 0
-364 360 0
-361 -308 365 0
-365 308 0
-365 361 0
-366 364 365 0
366 -364 0
-365 366 0
-1 368 -367 0
1 -368 0
367 -368 0
-369 -315 -368 0
-369 368 315 0
-368 369 315 0
369 -315 368 0
370 -315 -368 0
-370 315 0
-370 368 0
371 -4 -367 0
4 -371 0
367 -371 0
-372 -321 -371 0
-372 371 321 0
372 321 -371 0
372 371 -321 0
-370 -372 -373 0
372 370 -373 0
-370 372 373 0
-372 370 373 0
-370 -372 374 0
372 -374 0
370 -374 0
-321 375 -371 0
-375 321 0
-375 371 0
374 -376 375 0
376 -374 0
-375 376 0
377 -10 -367 0
10 -377 0
-377 367 0
-377 -327 -378 0
-378 377 327 0
-377 378 327 0
377 -327 378 0
-378 -376 -379 0
378 -379 376 0
-376 378 379 0
-378 376 379 0
-378 -376 380 0
378 -380 0
376 -380 0
-377 -327 381 0
327 -381 0
377 -381 0
-382 381 380 0
-380 382 0
382 -381 0
-18 383 -367 0
18 -383 0
367 -383 0
-333 -383 -384 0
333 383 -384 0
333 384 -383 0
384 -333 383 0
-385 -382 -384 0
-385 384 382 0
385 -382 384 0
385 382 -384 0
386 -382 -384 0
-386 384 0
-386 382 0
-333 -383 387 0
333 -387 0
383 -387 0
-388 386 387 0
388 -386 0
388 -387 0
389 -26 -367 0
-389 26 0
367 -389 0
-389 -339 -390 0
339 -390 389 0
339 -389 390 0
389 390 -339 0
-388 -390 -391 0
388 390 -391 0
390 -388 391 0
388 -390 391 0
-388 -390 392 0
390 -392 0
388 -392 0
-389 -339 393 0
339 -393 0
389 -393 0
-394 393 392 0
-392 394 0
-393 394 0
395 -34 -367 0
34 -395 0
367 -395 0
-395 -345 -396 0
395 345 -396 0
345 -395 396 0
395 -345 396 0
-397 -394 -396 0
-397 396 394 0
397 -394 396 0
397 -396 394 0
398 -394 -396 0
396 -398 0
-398 394 0
-395 -345 399 0
-399 345 0
-399 395 0
398 -400 399 0
400 -398 0
-399 400 0
401 -42 -367 0
42 -401 0
367 -401 0
-402 -351 -401 0
351 401 -402 0
351 402 -401 0
402 401 -351 0
-402 -403 -400 0
402 -403 400 0
403 402 -400 0
-402 400 403 0
-402 404 -400 0
402 -404 0
400 -404 0
405 -351 -401 0
351 -405 0
401 -405 0
405 404 -406 0
406 -404 0
406 -405 0
407 -50 -367 0
-407 50 0
-407 367 0
-407 -357 -408 0
407 357 -408 0
-407 408 357 0
-357 407 408 0
-409 -408 -406 0
406 408 -409 0
409 408 -406 0
409 406 -408 0
410 -408 -406 0
408 -410 0
406 -410 0
-407 -357 411 0
357 -411 0
407 -411 0
-412 410 411 0
-410 412 0
-411 412 0
-367 413 -58 0
-413 58 0
367 -413 0
-363 -414 -413 0
-414 363 413 0
414 363 -413 0
-363 414 413 0
-412 -414 -415 0
414 -415 412 0
-412 414 415 0
-414 415 412 0
-412 -414 416 0
414 -416 0
-416 412 0
-363 -413 417 0
-417 363 0
-417 413 0
-418 416 417 0
-416 418 0
-417 418 0
-367 419 -66 0
-419 66 0
367 -419 0
-419 -420 -366 0
366 -420 419 0
366 -419 420 0
419 -366 420 0
-418 -420 -421 0
418 -421 420 0
-418 421 420 0
-420 418 421 0
422 -418 -420 0
-422 420 0
-422 418 0
-419 -366 423 0
366 -423 0
419 -423 0
422 423 -424 0
-422 424 0
424 -423 0
-1 426 -425 0
1 -426 0
425 -426 0
-427 -373 -426 0
-427 373 426 0
427 373 -426 0
-373 427 426 0
-373 -426 428 0
-428 373 0
-428 426 0
-4 429 -425 0
4 -429 0
425 -429 0
-430 -379 -429 0
379 -430 429 0
430 379 -429 0
430 -379 429 0
-428 -431 -430 0
430 -431 428 0
-428 430 431 0
431 -430 428 0
-428 432 -430 0
-432 430 0
-432 428 0
433 -379 -429 0
-433 379 0
-433 429 0
432 -434 433 0
-432 434 0
434 -433 0
-10 435 -425 0
10 -435 0
425 -435 0
-435 -436 -385 0
385 -436 435 0
385 -435 436 0
436 435 -385 0
-434 -436 -437 0
434 436 -437 0
-434 437 436 0
434 437 -436 0
438 -434 -436 0
-438 436 0
434 -438 0
439 -435 -385 0
385 -439 0
-439 435 0
438 -440 439 0
440 -438 0
440 -439 0
441 -18 -425 0
18 -441 0
425 -441 0
-442 -391 -441 0
-442 441 391 0
442 391 -441 0
442 441 -391 0
-440 -442 -443 0
-443 440 442 0
-440 442 443 0
-442 440 443 0
-440 -442 444 0
442 -444 0
440 -444 0
445 -391 -441 0
-445 391 0
-445 441 0
445 -446 444 0
-444 446 0
-445 446 0
-26 447 -425 0
-447 26 0
425 -447 0
-447 -397 -448 0
397 447 -448 0
397 -447 448 0
-397 447 448 0
-449 -446 -448 0
-449 446 448 0
449 -446 448 0
449 446 -448 0
-446 450 -448 0
-450 448 0
-450 446 0
-447 -397 451 0
-451 397 0
-451 447 0
450 451 -452 0
-450 452 0
-451 452 0
453 -34 -425 0
34 -453 0
425 -453 0
-454 -453 -403 0
453 -454 403 0
454 -453 403 0
454 453 -403 0
-454 -455 -452 0
454 -455 452 0
454 455 -452 0
-454 455 452 0
456 -454 -452 0
454 -456 0
-456 452 0
457 -453 -403 0
-457 403 0
453 -457 0
456 457 -458 0
-456 458 0
-457 458 0
459 -42 -425 0
-459 42 0
425 -459 0
-459 -409 -460 0
409 -460 459 0
409 -459 460 0
460 -409 459 0
-461 -460 -458 0
460 458 -461 0
460 461 -458 0
458 461 -460 0
462 -460 -458 0
-462 460 0
-462 458 0
-459 463 -409 0
409 -463 0
-463 459 0
462 463 -464 0
-462 464 0
464 -463 0
465 -50 -425 0
-465 50 0
425 -465 0
-465 -415 -466 0
465 -466 415 0
-465 466 415 0
465 466 -415 0
-467 -464 -466 0
-467 464 466 0
467 466 -464 0
467 464 -466 0
-464 -466 468 0
-468 466 0
-468 464 0
-465 -415 469 0
-469 415 0
465 -469 0
-470 469 468 0
-468 470 0
-469 470 0
471 -425 -58 0
58 -471 0
425 -471 0
-471 -472 -421 0
471 -472 421 0
472 421 -471 0
471 472 -421 0
-473 -472 -470 0
472 -473 470 0
472 -470 473 0
-472 470 473 0
-472 -470 474 0
472 -474 0
-474 470 0
475 -471 -421 0
421 -475 0
471 -475 0
475 474 -476 0
476 -474 0
476 -475 0
-425 477 -66 0
-477 66 0
425 -477 0
-477 -478 -424 0
-478 424 477 0
424 -477 478 0
-424 478 477 0
-476 -478 -479 0
476 478 -479 0
-476 479 478 0
476 479 -478 0
-476 -478 480 0
-480 478 0
476 -480 0
-477 -424 481 0
-481 424 0
-481 477 0
481 480 -482 0
-480 482 0
-481 482 0
-1 484 -483 0
1 -484 0
483 -484 0
-431 -485 -484 0
431 484 -485 0
431 485 -484 0
485 -431 484 0
-431 486 -484 0
431 -486 0
484 -486 0
487 -4 -483 0
-487 4 0
483 -487 0
-487 -488 -437 0
487 437 -488 0
437 -487 488 0
487 488 -437 0
-489 -488 -486 0
-489 488 486 0
489 488 -486 0
489 -488 486 0
490 -488 -486 0
-490 488 0
-490 486 0
491 -487 -437 0
437 -491 0
487 -491 0
-492 491 490 0
-490 492 0
492 -491 0
493 -10 -483 0
10 -493 0
483 -493 0
-493 -443 -494 0
493 443 -494 0
-493 443 494 0
493 -443 494 0
-492 -495 -494 0
492 -495 494 0
-492 495 494 0
492 495 -494 0
-492 496 -494 0
-496 494 0
-496 492 0
-493 -443 497 0
-497 443 0
493 -497 0
496 497 -498 0
-496 498 0
498 -497 0
499 -18 -483 0
18 -499 0
483 -499 0
-449 -499 -500 0
499 -500 449 0
-499 500 449 0
499 -449 500 0
-500 -501 -498 0
-501 498 500 0
-498 500 501 0
-500 498 501 0
-500 502 -498 0
500 -502 0
498 -502 0
-449 -499 503 0
-503 449 0
499 -503 0
502 -504 503 0
504 -502 0
504 -503 0
-26 505 -483 0
-505 26 0
483 -505 0
-505 -455 -506 0
505 455 -506 0
506 -505 455 0
506 505 -455 0
-507 -504 -506 0
506 -507 504 0
506 507 -504 0
507 504 -506 0
508 -504 -506 0
506 -508 0
504 -508 0
509 -505 -455 0
-509 455 0
-509 505 0
509 508 -510 0
510 -508 0
-509 510 0
511 -34 -483 0
34 -511 0
483 -511 0
-512 -461 -511 0
-512 461 511 0
461 -511 512 0
-461 511 512 0
-512 -513 -510 0
510 -513 512 0
513 -510 512 0
-512 513 510 0
-512 514 -510 0
-514 512 0
-514 510 0
515 -461 -511 0
461 -515 0
-515 511 0
515 -516 514 0
516 -514 0
516 -515 0
517 -42 -483 0
42 -517 0
483 -517 0
-467 -518 -517 0
467 517 -518 0
467 -517 518 0
-467 517 518 0
-516 -518 -519 0
-519 516 518 0
-516 519 518 0
519 -518 516 0
-516 -518 520 0
-520 518 0
-520 516 0
-467 521 -517 0
467 -521 0
517 -521 0
521 520 -522 0
522 -520 0
522 -521 0
523 -50 -483 0
-523 50 0
483 -523 0
-473 -523 -524 0
523 -524 473 0
-523 524 473 0
-473 524 523 0
-525 -524 -522 0
-525 522 524 0
525 524 -522 0
525 522 -524 0
526 -524 -522 0
524 -526 0
522 -526 0
-473 -523 527 0
-527 473 0
-527 523 0
526 527 -528 0
528 -526 0
528 -527 0
529 -483 -58 0
58 -529 0
483 -529 0
-479 -530 -529 0
529 479 -530 0
479 530 -529 0
-479 530 529 0
-528 -531 -530 0
528 530 -531 0
-528 530 531 0
528 -530 531 0
-528 -530 532 0
-532 530 0
-532 528 0
-479 533 -529 0
479 -533 0
529 -533 0
533 -534 532 0
-532 534 0
534 -533 0
-483 535 -66 0
-535 66 0
483 -535 0
-535 -536 -482 0
482 -536 535 0
482 536 -535 0
536 -482 535 0
-537 -534 -536 0
536 534 -537 0
536 -534 537 0
534 537 -536 0
-534 -536 538 0
536 -538 0
-538 534 0
-535 539 -482 0
482 -539 0
-539 535 0
-540 539 538 0
540 -538 0
540 -539 0
3 0
8 0
-79 0
137 0
-195 0
253 0
311 0
-369 0
427 0
485 0
489 0
495 0
-501 0
-507 0
-513 0
-519 0
525 0
-531 0
-537 0
540 0
