p cnf 792 2580
-2 3 -1 0
1 -3 0
-3 2 0
5 -4 -2 0
-5 4 0
-5 2 0
-6 7 -1 0
1 -7 0
6 -7 0
-8 -7 -5 0
-8 5 7 0
8 5 -7 0
8 -5 7 0
-7 9 -5 0
-9 5 0
-9 7 0
-10 11 -2 0
-11 10 0
-11 2 0
-6 -4 12 0
-12 4 0
-12 6 0
-12 -11 -13 0
11 -13 12 0
-12 11 13 0
-11 13 12 0
-9 -14 -13 0
-14 9 13 0
-9 14 13 0
14 9 -13 0
-9 15 -13 0
-15 13 0
9 -15 0
-12 -11 16 0
11 -16 0
-16 12 0
15 16 -17 0
-15 17 0
-16 17 0
-2 19 -18 0
-19 18 0
-19 2 0
-10 -6 20 0
10 -20 0
6 -20 0
-21 -19 -20 0
-21 19 20 0
21 19 -20 0
21 -19 20 0
-17 -21 -22 0
21 -22 17 0
21 22 -17 0
22 -21 17 0
23 -17 -21 0
21 -23 0
-23 17 0
-19 24 -20 0
-24 19 0
-24 20 0
23 24 -25 0
25 -23 0
-24 25 0
-26 27 -2 0
26 -27 0
-27 2 0
-6 28 -18 0
-28 18 0
6 -28 0
-27 -29 -28 0
27 -29 28 0
27 29 -28 0
-27 28 29 0
-30 -29 -25 0
-30 25 29 0
30 29 -25 0
-29 25 30 0
-29 31 -25 0
29 -31 0
25 -31 0
-27 32 -28 0
27 -32 0
-32 28 0
-33 32 31 0
33 -31 0
-32 33 0
35 -2 -34 0
-35 34 0
-35 2 0
-26 -6 36 0
26 -36 0
-36 6 0
-36 -37 -35 0
36 35 -37 0
-36 35 37 0
36 37 -35 0
-38 -37 -33 0
37 -38 33 0
37 -33 38 0
-37 33 38 0
39 -37 -33 0
37 -39 0
-39 33 0
40 -36 -35 0
-40 35 0
36 -40 0
40 39 -41 0
-39 41 0
-40 41 0
-42 43 -2 0
-43 42 0
-43 2 0
-6 44 -34 0
-44 34 0
-44 6 0
-45 -44 -43 0
-45 44 43 0
-44 43 45 0
44 -43 45 0
-45 -46 -41 0
-46 45 41 0
46 -41 45 0
-45 46 41 0
-45 -41 47 0
-47 45 0
-47 41 0
-44 -43 48 0
-48 43 0
44 -48 0
48 -49 47 0
49 -47 0
49 -48 0
-50 51 -2 0
-51 50 0
-51 2 0
-42 -6 52 0
-52 42 0
-52 6 0
-52 -51 -53 0
51 -53 52 0
-52 51 53 0
-51 53 52 0
-49 -53 -54 0
49 53 -54 0
-49 53 54 0
54 49 -53 0
55 -49 -53 0
53 -55 0
49 -55 0
-52 -51 56 0
51 -56 0
-56 52 0
55 -57 56 0
57 -55 0
57 -56 0
-58 59 -2 0
-59 58 0
-59 2 0
-50 -6 60 0
-60 50 0
6 -60 0
-61 -59 -60 0
-61 60 59 0
61 -60 59 0
61 -59 60 0
-62 -61 -57 0
-62 57 61 0
61 62 -57 0
57 -61 62 0
-61 63 -57 0
-63 61 0
57 -63 0
64 -59 -60 0
-64 59 0
-64 60 0
-65 64 63 0
65 -63 0
65 -64 0
-2 67 -66 0
-67 66 0
-67 2 0
-6 -58 68 0
-68 58 0
6 -68 0
-68 -67 -69 0
68 -69 67 0
-68 69 67 0
-67 69 68 0
-70 -65 -69 0
-70 65 69 0
-65 70 69 0
65 70 -69 0
-65 71 -69 0
-71 69 0
65 -71 0
72 -68 -67 0
-72 67 0
-72 68 0
72 -73 71 0
73 -71 0
73 -72 0
-74 75 -2 0
-75 74 0
-75 2 0
-6 76 -66 0
-76 66 0
-76 6 0
-75 -77 -76 0
-77 75 76 0
-76 77 75 0
-75 77 76 0
-77 -73 -78 0
73 77 -78 0
77 -73 78 0
73 -77 78 0
-77 -73 79 0
77 -79 0
73 -79 0
-75 -76 80 0
75 -80 0
76 -80 0
79 80 -81 0
81 -79 0
81 -80 0
83 -2 -82 0
82 -83 0
-83 2 0
-74 -6 84 0
74 -84 0
6 -84 0
-84 -83 -85 0
83 -85 84 0
83 85 -84 0
85 -83 84 0
-81 -85 -86 0
81 85 -86 0
85 -81 86 0
81 -85 86 0
-81 -85 87 0
85 -87 0
81 -87 0
-84 -83 88 0
83 -88 0
84 -88 0
-89 88 87 0
89 -87 0
89 -88 0
-6 90 -82 0
-90 82 0
-90 6 0
-89 -90 -91 0
89 90 -91 0
-90 89 91 0
-89 91 90 0
-89 92 -90 0
-92 89 0
-92 90 0
94 -93 -1 0
1 -94 0
93 -94 0
-14 -95 -94 0
94 14 -95 0
14 -94 95 0
94 -14 95 0
96 -14 -94 0
-96 14 0
94 -96 0
-93 97 -4 0
-97 4 0
93 -97 0
-97 -98 -22 0
-98 22 97 0
-97 98 22 0
98 97 -22 0
-96 -99 -98 0
96 98 -99 0
99 98 -96 0
96 99 -98 0
100 -96 -98 0
98 -100 0
96 -100 0
-97 101 -22 0
22 -101 0
-101 97 0
-102 100 101 0
-100 102 0
-101 102 0
-10 -93 103 0
10 -103 0
93 -103 0
-104 -30 -103 0
-104 30 103 0
104 30 -103 0
-30 103 104 0
-104 -102 -105 0
104 -105 102 0
-102 104 105 0
-104 105 102 0
-104 -102 106 0
104 -106 0
-106 102 0
107 -30 -103 0
30 -107 0
103 -107 0
106 107 -108 0
108 -106 0
108 -107 0
109 -93 -18 0
-109 18 0
93 -109 0
-38 -109 -110 0
109 -110 38 0
-109 38 110 0
109 -38 110 0
-111 -110 -108 0
108 -111 110 0
111 -108 110 0
108 111 -110 0
112 -110 -108 0
-112 110 0
108 -112 0
113 -38 -109 0
38 -113 0
109 -113 0
112 113 -114 0
-112 114 0
114 -113 0
-26 -93 115 0
26 -115 0
93 -115 0
-116 -46 -115 0
-116 115 46 0
-115 116 46 0
116 -46 115 0
-117 -116 -114 0
-117 114 116 0
-114 116 117 0
-116 114 117 0
-116 -114 118 0
-118 116 0
-118 114 0
119 -46 -115 0
-119 46 0
-119 115 0
119 -120 118 0
-118 120 0
-119 120 0
-93 121 -34 0
-121 34 0
93 -121 0
-122 -121 -54 0
54 121 -122 0
54 -121 122 0
122 121 -54 0
-122 -123 -120 0
120 122 -123 0
-120 123 122 0
-122 120 123 0
-122 124 -120 0
-124 122 0
-124 120 0
-121 125 -54 0
54 -125 0
121 -125 0
124 -126 125 0
-124 126 0
126 -125 0
-42 127 -93 0
-127 42 0
93 -127 0
-128 -127 -62 0
-128 127 62 0
-127 62 128 0
127 -62 128 0
-128 -126 -129 0
126 -129 128 0
-126 129 128 0
-128 129 126 0
-128 -126 130 0
-130 128 0
-130 126 0
-127 -62 131 0
-131 62 0
127 -131 0
130 131 -132 0
-130 132 0
-131 132 0
-50 -93 133 0
-133 50 0
93 -133 0
-70 -134 -133 0
70 133 -134 0
-133 70 134 0
-70 134 133 0
-132 -135 -134 0
-135 132 134 0
-132 134 135 0
135 -134 132 0
-132 -134 136 0
-136 134 0
-136 132 0
-70 137 -133 0
-137 70 0
-137 133 0
137 -138 136 0
138 -136 0
138 -137 0
-93 -58 139 0
-139 58 0
93 -139 0
-78 -140 -139 0
139 -140 78 0
-139 140 78 0
-78 139 140 0
-138 -141 -140 0
138 -141 140 0
-138 140 141 0
138 141 -140 0
142 -138 -140 0
140 -142 0
138 -142 0
-78 143 -139 0
-143 78 0
139 -143 0
142 -144 143 0
-142 144 0
144 -143 0
-93 145 -66 0
-145 66 0
93 -145 0
-146 -86 -145 0
-146 145 86 0
146 -145 86 0
145 146 -86 0
-146 -147 -144 0
146 -147 144 0
146 147 -144 0
-146 147 144 0
-146 148 -144 0
146 -148 0
-148 144 0
149 -86 -145 0
-149 86 0
145 -149 0
-150 148 149 0
-148 150 0
150 -149 0
-74 -93 151 0
-151 74 0
93 -151 0
-151 -152 -91 0
91 151 -152 0
-151 91 152 0
152 151 -91 0
-150 -152 -153 0
-153 150 152 0
-150 153 152 0
153 -152 150 0
-150 -152 154 0
152 -154 0
150 -154 0
-151 -91 155 0
-155 91 0
-155 151 0
-156 154 155 0
156 -154 0
-155 156 0
157 -93 -82 0
-157 82 0
93 -157 0
-92 -157 -158 0
92 -158 157 0
-157 92 158 0
-92 157 158 0
-156 -158 -159 0
156 158 -159 0
-156 159 158 0
-158 156 159 0
160 -156 -158 0
-160 158 0
156 -160 0
-92 -157 161 0
92 -161 0
157 -161 0
-162 160 161 0
162 -160 0
162 -161 0
-163 164 -1 0
1 -164 0
-164 163 0
-164 -165 -99 0
99 -165 164 0
99 -164 165 0
165 -99 164 0
-164 166 -99 0
99 -166 0
-166 164 0
167 -4 -163 0
-167 4 0
-167 163 0
-167 -105 -168 0
-168 105 167 0
-167 168 105 0
-105 168 167 0
-169 -168 -166 0
166 -169 168 0
169 -166 168 0
169 166 -168 0
-168 -166 170 0
-170 168 0
166 -170 0
-167 -105 171 0
-171 105 0
-171 167 0
-172 171 170 0
-170 172 0
172 -171 0
-10 173 -163 0
-173 10 0
-173 163 0
-174 -111 -173 0
-174 111 173 0
174 111 -173 0
174 -111 173 0
-174 -175 -172 0
-175 174 172 0
175 174 -172 0
-174 175 172 0
-174 176 -172 0
174 -176 0
172 -176 0
-111 -173 177 0
111 -177 0
173 -177 0
-178 176 177 0
178 -176 0
178 -177 0
179 -163 -18 0
-179 18 0
-179 163 0
-117 -179 -180 0
-180 179 117 0
-179 180 117 0
-117 180 179 0
-180 -178 -181 0
178 180 -181 0
181 180 -178 0
-180 178 181 0
-180 -178 182 0
180 -182 0
178 -182 0
-117 183 -179 0
-183 117 0
-183 179 0
183 182 -184 0
-182 184 0
-183 184 0
-26 185 -163 0
26 -185 0
-185 163 0
-123 -186 -185 0
185 -186 123 0
186 123 -185 0
185 -123 186 0
-187 -186 -184 0
-187 186 184 0
187 186 -184 0
187 -186 184 0
188 -186 -184 0
-188 186 0
-188 184 0
-123 -185 189 0
123 -189 0
185 -189 0
188 -190 189 0
190 -188 0
190 -189 0
191 -163 -34 0
-191 34 0
-191 163 0
-192 -129 -191 0
-192 191 129 0
-191 192 129 0
192 -129 191 0
-192 -193 -190 0
190 192 -193 0
193 192 -190 0
-192 193 190 0
-192 194 -190 0
192 -194 0
190 -194 0
195 -129 -191 0
129 -195 0
191 -195 0
195 194 -196 0
196 -194 0
196 -195 0
-42 197 -163 0
-197 42 0
-197 163 0
-197 -135 -198 0
-198 197 135 0
-197 135 198 0
-135 197 198 0
-199 -198 -196 0
196 -199 198 0
199 -196 198 0
-198 199 196 0
200 -198 -196 0
-200 198 0
-200 196 0
-197 201 -135 0
135 -201 0
197 -201 0
200 201 -202 0
-200 202 0
202 -201 0
203 -50 -163 0
-203 50 0
-203 163 0
-141 -204 -203 0
203 141 -204 0
204 141 -203 0
203 204 -141 0
-204 -205 -202 0
204 -205 202 0
205 204 -202 0
205 -204 202 0
-204 206 -202 0
204 -206 0
-206 202 0
207 -141 -203 0
141 -207 0
203 -207 0
207 -208 206 0
208 -206 0
208 -207 0
209 -58 -163 0
-209 58 0
-209 163 0
-209 -147 -210 0
209 -210 147 0
-209 147 210 0
209 -147 210 0
-211 -210 -208 0
-211 208 210 0
211 -208 210 0
211 208 -210 0
212 -210 -208 0
-212 210 0
208 -212 0
-209 -147 213 0
-213 147 0
209 -213 0
212 -214 213 0
214 -212 0
-213 214 0
215 -163 -66 0
-215 66 0
-215 163 0
-215 -216 -153 0
153 215 -216 0
153 -215 216 0
215 -153 216 0
-214 -216 -217 0
214 -217 216 0
217 -214 216 0
217 -216 214 0
-214 -216 218 0
-218 216 0
-218 214 0
-215 -153 219 0
153 -219 0
215 -219 0
219 -220 218 0
220 -218 0
-219 220 0
-74 221 -163 0
74 -221 0
-221 163 0
-222 -221 -159 0
-222 221 159 0
222 -221 159 0
222 221 -159 0
-222 -223 -220 0
222 -223 220 0
222 223 -220 0
-222 220 223 0
-222 -220 224 0
222 -224 0
220 -224 0
225 -221 -159 0
159 -225 0
221 -225 0
225 -226 224 0
226 -224 0
226 -225 0
227 -163 -82 0
82 -227 0
-227 163 0
-162 -227 -228 0
162 227 -228 0
162 -227 228 0
-162 228 227 0
-229 -226 -228 0
-229 226 228 0
229 -226 228 0
226 -228 229 0
-226 -228 230 0
228 -230 0
226 -230 0
-162 -227 231 0
162 -231 0
-231 227 0
231 -232 230 0
232 -230 0
232 -231 0
-233 234 -1 0
1 -234 0
-234 233 0
-234 -235 -169 0
169 -235 234 0
-234 169 235 0
234 -169 235 0
-234 -169 236 0
-236 169 0
-236 234 0
-233 -4 237 0
-237 4 0
-237 233 0
-238 -175 -237 0
-238 175 237 0
238 175 -237 0
238 -175 237 0
-238 -239 -236 0
238 -239 236 0
238 239 -236 0
-238 239 236 0
-238 240 -236 0
238 -240 0
-240 236 0
-175 241 -237 0
175 -241 0
-241 237 0
241 240 -242 0
-240 242 0
-241 242 0
-10 -233 243 0
10 -243 0
-243 233 0
-243 -244 -181 0
-244 181 243 0
181 244 -243 0
244 243 -181 0
-244 -245 -242 0
-245 244 242 0
245 244 -242 0
245 -244 242 0
246 -244 -242 0
-246 244 0
-246 242 0
-243 247 -181 0
181 -247 0
243 -247 0
247 246 -248 0
-246 248 0
248 -247 0
-233 249 -18 0
-249 18 0
-249 233 0
-187 -249 -250 0
187 -250 249 0
187 -249 250 0
-187 250 249 0
-251 -250 -248 0
-251 248 250 0
251 -248 250 0
251 248 -250 0
-250 252 -248 0
-252 250 0
248 -252 0
-187 253 -249 0
187 -253 0
-253 249 0
253 -254 252 0
254 -252 0
-253 254 0
-26 -233 255 0
26 -255 0
-255 233 0
-255 -193 -256 0
193 255 -256 0
193 -255 256 0
-193 256 255 0
-257 -254 -256 0
-257 254 256 0
257 -254 256 0
257 254 -256 0
258 -254 -256 0
-258 256 0
-258 254 0
-255 -193 259 0
-259 193 0
-259 255 0
-260 258 259 0
-258 260 0
-259 260 0
-233 261 -34 0
-261 34 0
-261 233 0
-199 -261 -262 0
261 -262 199 0
262 -261 199 0
-199 262 261 0
-263 -260 -262 0
260 262 -263 0
262 -260 263 0
260 -262 263 0
264 -260 -262 0
262 -264 0
260 -264 0
265 -199 -261 0
-265 199 0
-265 261 0
265 264 -266 0
-264 266 0
-265 266 0
-42 267 -233 0
42 -267 0
-267 233 0
-205 -268 -267 0
267 205 -268 0
205 268 -267 0
267 -205 268 0
-266 -269 -268 0
268 -269 266 0
268 269 -266 0
269 266 -268 0
270 -266 -268 0
-270 268 0
-270 266 0
-205 271 -267 0
205 -271 0
267 -271 0
-272 270 271 0
-270 272 0
272 -271 0
-50 -233 273 0
50 -273 0
-273 233 0
-211 -274 -273 0
211 273 -274 0
211 274 -273 0
-211 273 274 0
-275 -274 -272 0
-275 272 274 0
-272 275 274 0
-274 272 275 0
-274 -272 276 0
-276 274 0
272 -276 0
-211 277 -273 0
211 -277 0
273 -277 0
-278 277 276 0
278 -276 0
-277 278 0
-58 279 -233 0
-279 58 0
-279 233 0
-279 -217 -280 0
217 -280 279 0
217 280 -279 0
-217 280 279 0
-278 -280 -281 0
280 278 -281 0
281 -278 280 0
281 278 -280 0
-278 -280 282 0
-282 280 0
-282 278 0
-279 -217 283 0
217 -283 0
-283 279 0
-284 283 282 0
-282 284 0
284 -283 0
-233 285 -66 0
-285 66 0
-285 233 0
-223 -285 -286 0
223 285 -286 0
223 -285 286 0
-223 285 286 0
-284 -287 -286 0
-287 284 286 0
-284 287 286 0
284 287 -286 0
288 -284 -286 0
-288 286 0
284 -288 0
-223 289 -285 0
-289 223 0
-289 285 0
288 289 -290 0
290 -288 0
-289 290 0
-74 -233 291 0
74 -291 0
-291 233 0
-229 -291 -292 0
229 291 -292 0
229 292 -291 0
-229 292 291 0
-293 -290 -292 0
-293 292 290 0
292 293 -290 0
290 293 -292 0
294 -290 -292 0
292 -294 0
290 -294 0
-229 -291 295 0
229 -295 0
291 -295 0
294 -296 295 0
-294 296 0
296 -295 0
297 -233 -82 0
82 -297 0
-297 233 0
-298 -232 -297 0
232 -298 297 0
232 298 -297 0
298 -232 297 0
-298 -299 -296 0
298 -299 296 0
299 298 -296 0
-298 299 296 0
-298 300 -296 0
-300 298 0
-300 296 0
301 -232 -297 0
232 -301 0
-301 297 0
-302 300 301 0
-300 302 0
302 -301 0
-303 304 -1 0
1 -304 0
-304 303 0
-239 -304 -305 0
239 -305 304 0
305 239 -304 0
305 -239 304 0
-239 -304 306 0
239 -306 0
304 -306 0
-303 307 -4 0
-307 4 0
-307 303 0
-307 -308 -245 0
245 -308 307 0
-307 245 308 0
-245 307 308 0
-308 -309 -306 0
-309 308 306 0
309 308 -306 0
309 -308 306 0
310 -308 -306 0
-310 308 0
-310 306 0
-307 311 -245 0
245 -311 0
307 -311 0
310 311 -312 0
-310 312 0
312 -311 0
-10 313 -303 0
-313 10 0
-313 303 0
-314 -251 -313 0
-314 313 251 0
-313 251 314 0
313 -251 314 0
-314 -312 -315 0
312 -315 314 0
-312 315 314 0
-314 315 312 0
-314 -312 316 0
-316 314 0
-316 312 0
317 -251 -313 0
251 -317 0
313 -317 0
317 -318 316 0
-316 318 0
318 -317 0
-303 319 -18 0
-319 18 0
-319 303 0
-257 -320 -319 0
-320 257 319 0
257 -319 320 0
-257 320 319 0
-321 -320 -318 0
-321 318 320 0
321 320 -318 0
318 -320 321 0
322 -320 -318 0
320 -322 0
318 -322 0
-257 323 -319 0
257 -323 0
319 -323 0
323 322 -324 0
-322 324 0
324 -323 0
-26 -303 325 0
26 -325 0
-325 303 0
-263 -325 -326 0
-326 263 325 0
326 -325 263 0
326 -263 325 0
-327 -324 -326 0
326 324 -327 0
327 326 -324 0
324 327 -326 0
328 -324 -326 0
-328 326 0
-328 324 0
-263 -325 329 0
-329 263 0
-329 325 0
328 -330 329 0
330 -328 0
-329 330 0
-303 331 -34 0
-331 34 0
-331 303 0
-332 -331 -269 0
269 331 -332 0
332 -331 269 0
332 331 -269 0
-333 -330 -332 0
332 330 -333 0
-330 332 333 0
330 -332 333 0
-330 334 -332 0
-334 332 0
-334 330 0
335 -331 -269 0
-335 269 0
-335 331 0
335 334 -336 0
-334 336 0
336 -335 0
-42 -303 337 0
-337 42 0
-337 303 0
-337 -338 -275 0
-338 337 275 0
-337 275 338 0
337 -275 338 0
-338 -339 -336 0
336 -339 338 0
339 -336 338 0
336 -338 339 0
-338 340 -336 0
-340 338 0
336 -340 0
-337 341 -275 0
-341 275 0
-341 337 0
-342 341 340 0
342 -340 0
-341 342 0
-50 -303 343 0
-343 50 0
-343 303 0
-344 -343 -281 0
281 -344 343 0
281 -343 344 0
343 344 -281 0
-342 -345 -344 0
-345 342 344 0
-342 345 344 0
345 342 -344 0
346 -342 -344 0
-346 344 0
-346 342 0
-343 347 -281 0
281 -347 0
-347 343 0
346 -348 347 0
-346 348 0
-347 348 0
-58 -303 349 0
-349 58 0
-349 303 0
-287 -350 -349 0
349 -350 287 0
350 -349 287 0
-287 350 349 0
-350 -351 -348 0
350 -351 348 0
351 350 -348 0
351 -350 348 0
-350 -348 352 0
-352 350 0
-352 348 0
-287 353 -349 0
-353 287 0
349 -353 0
-354 353 352 0
-352 354 0
-353 354 0
-303 355 -66 0
-355 66 0
-355 303 0
-293 -355 -356 0
355 293 -356 0
-355 293 356 0
-293 355 356 0
-354 -356 -357 0
356 354 -357 0
357 -354 356 0
357 354 -356 0
-354 358 -356 0
356 -358 0
354 -358 0
-293 359 -355 0
-359 293 0
-359 355 0
359 358 -360 0
360 -358 0
360 -359 0
-74 -303 361 0
74 -361 0
-361 303 0
-299 -361 -362 0
299 -362 361 0
299 362 -361 0
-299 362 361 0
-360 -362 -363 0
360 -363 362 0
-360 362 363 0
360 -362 363 0
-360 -362 364 0
-364 362 0
360 -364 0
365 -299 -361 0
299 -365 0
-365 361 0
364 365 -366 0
366 -364 0
366 -365 0
367 -303 -82 0
82 -367 0
-367 303 0
-302 -368 -367 0
367 -368 302 0
368 302 -367 0
-302 367 368 0
-366 -368 -369 0
366 368 -369 0
-366 369 368 0
-368 366 369 0
-366 -368 370 0
-370 368 0
366 -370 0
-302 -367 371 0
302 -371 0
367 -371 0
-372 371 370 0
372 -370 0
372 -371 0
374 -373 -1 0
1 -374 0
373 -374 0
-374 -309 -375 0
309 374 -375 0
309 375 -374 0
374 375 -309 0
376 -374 -309 0
309 -376 0
374 -376 0
377 -4 -373 0
-377 4 0
-377 373 0
-377 -378 -315 0
315 -378 377 0
-377 315 378 0
378 377 -315 0
-378 -376 -379 0
376 378 -379 0
378 379 -376 0
376 -378 379 0
380 -378 -376 0
378 -380 0
376 -380 0
-377 381 -315 0
-381 315 0
-381 377 0
380 381 -382 0
382 -380 0
382 -381 0
-10 383 -373 0
10 -383 0
373 -383 0
-321 -384 -383 0
-384 383 321 0
384 321 -383 0
-321 383 384 0
-382 -385 -384 0
382 -385 384 0
-382 385 384 0
382 385 -384 0
-382 386 -384 0
-386 384 0
382 -386 0
-321 387 -383 0
-387 321 0
-387 383 0
386 387 -388 0
-386 388 0
388 -387 0
-373 389 -18 0
-389 18 0
373 -389 0
-390 -389 -327 0
-390 389 327 0
390 -389 327 0
390 389 -327 0
-391 -390 -388 0
390 388 -391 0
391 390 -388 0
388 -390 391 0
392 -390 -388 0
-392 390 0
-392 388 0
393 -389 -327 0
-393 327 0
-393 389 0
392 393 -394 0
-392 394 0
-393 394 0
-26 395 -373 0
26 -395 0
-395 373 0
-395 -333 -396 0
333 395 -396 0
-395 333 396 0
-333 395 396 0
-396 -397 -394 0
394 396 -397 0
397 396 -394 0
397 394 -396 0
-396 398 -394 0
-398 396 0
-398 394 0
-395 -333 399 0
333 -399 0
-399 395 0
399 -400 398 0
-398 400 0
-399 400 0
401 -373 -34 0
-401 34 0
373 -401 0
-402 -339 -401 0
-402 339 401 0
402 339 -401 0
402 -339 401 0
-402 -400 -403 0
402 -403 400 0
402 -400 403 0
-402 403 400 0
-402 404 -400 0
402 -404 0
-404 400 0
-339 405 -401 0
339 -405 0
401 -405 0
404 -406 405 0
-404 406 0
406 -405 0
-42 407 -373 0
-407 42 0
373 -407 0
-408 -345 -407 0
-408 345 407 0
345 408 -407 0
-345 408 407 0
-408 -406 -409 0
-409 408 406 0
-406 408 409 0
409 -408 406 0
-408 -406 410 0
408 -410 0
406 -410 0
-345 -407 411 0
345 -411 0
407 -411 0
410 -412 411 0
412 -410 0
-411 412 0
-50 413 -373 0
50 -413 0
373 -413 0
-414 -351 -413 0
351 413 -414 0
351 -413 414 0
413 -351 414 0
-415 -412 -414 0
412 -415 414 0
415 -412 414 0
415 -414 412 0
416 -412 -414 0
-416 414 0
-416 412 0
-351 -413 417 0
351 -417 0
-417 413 0
416 417 -418 0
418 -416 0
-417 418 0
-58 419 -373 0
-419 58 0
373 -419 0
-420 -419 -357 0
-420 357 419 0
420 -419 357 0
419 420 -357 0
-421 -420 -418 0
418 420 -421 0
421 420 -418 0
418 -420 421 0
422 -420 -418 0
420 -422 0
418 -422 0
423 -419 -357 0
-423 357 0
-423 419 0
422 423 -424 0
424 -422 0
424 -423 0
425 -373 -66 0
-425 66 0
373 -425 0
-363 -425 -426 0
425 -426 363 0
426 -425 363 0
-363 426 425 0
-424 -427 -426 0
424 426 -427 0
426 -424 427 0
424 -426 427 0
-424 428 -426 0
426 -428 0
424 -428 0
-363 -425 429 0
-429 363 0
425 -429 0
428 -430 429 0
430 -428 0
430 -429 0
-74 431 -373 0
74 -431 0
-431 373 0
-431 -369 -432 0
369 431 -432 0
432 -431 369 0
432 431 -369 0
-430 -433 -432 0
430 432 -433 0
432 -430 433 0
430 433 -432 0
434 -430 -432 0
432 -434 0
430 -434 0
-431 435 -369 0
-435 369 0
-435 431 0
434 435 -436 0
436 -434 0
-435 436 0
-373 437 -82 0
82 -437 0
-437 373 0
-372 -437 -438 0
-438 372 437 0
-437 372 438 0
-372 438 437 0
-439 -438 -436 0
436 438 -439 0
438 -436 439 0
436 -438 439 0
-438 -436 440 0
-440 438 0
436 -440 0
-372 -437 441 0
-441 372 0
-441 437 0
-442 441 440 0
-440 442 0
-441 442 0
-443 444 -1 0
1 -444 0
-444 443 0
-444 -445 -379 0
-445 379 444 0
-444 379 445 0
445 444 -379 0
-444 -379 446 0
379 -446 0
-446 444 0
447 -4 -443 0
-447 4 0
-447 443 0
-447 -385 -448 0
385 -448 447 0
-447 385 448 0
-385 448 447 0
-448 -446 -449 0
-449 448 446 0
-446 448 449 0
-448 449 446 0
450 -448 -446 0
448 -450 0
-450 446 0
-447 -385 451 0
-451 385 0
-451 447 0
450 451 -452 0
452 -450 0
-451 452 0
-10 453 -443 0
-453 10 0
443 -453 0
-454 -391 -453 0
-454 453 391 0
391 -453 454 0
-391 453 454 0
-454 -455 -452 0
-455 454 452 0
455 -452 454 0
-454 455 452 0
-454 -452 456 0
454 -456 0
-456 452 0
-391 -453 457 0
-457 391 0
-457 453 0
-458 457 456 0
458 -456 0
-457 458 0
459 -443 -18 0
-459 18 0
-459 443 0
-459 -460 -397 0
459 397 -460 0
-459 397 460 0
459 460 -397 0
-458 -461 -460 0
458 460 -461 0
461 -458 460 0
461 458 -460 0
462 -458 -460 0
460 -462 0
458 -462 0
-459 463 -397 0
397 -463 0
459 -463 0
463 462 -464 0
464 -462 0
-463 464 0
-26 465 -443 0
26 -465 0
443 -465 0
-466 -465 -403 0
-466 465 403 0
466 -465 403 0
466 465 -403 0
-466 -467 -464 0
466 464 -467 0
466 467 -464 0
-466 467 464 0
-466 468 -464 0
466 -468 0
-468 464 0
469 -465 -403 0
403 -469 0
465 -469 0
469 468 -470 0
470 -468 0
470 -469 0
-443 471 -34 0
-471 34 0
-471 443 0
-471 -472 -409 0
409 -472 471 0
409 472 -471 0
472 -409 471 0
-472 -470 -473 0
472 470 -473 0
472 -470 473 0
-472 470 473 0
-472 -470 474 0
472 -474 0
-474 470 0
-471 -409 475 0
409 -475 0
-475 471 0
-476 474 475 0
-474 476 0
-475 476 0
-42 477 -443 0
-477 42 0
443 -477 0
-415 -477 -478 0
-478 415 477 0
478 415 -477 0
478 -415 477 0
-478 -476 -479 0
478 476 -479 0
478 -476 479 0
-478 476 479 0
-478 -476 480 0
478 -480 0
-480 476 0
-415 481 -477 0
-481 415 0
-481 477 0
480 -482 481 0
-480 482 0
-481 482 0
-50 483 -443 0
-483 50 0
-483 443 0
-483 -484 -421 0
-484 483 421 0
-483 484 421 0
484 483 -421 0
-485 -484 -482 0
-485 484 482 0
-482 485 484 0
-484 485 482 0
-484 486 -482 0
-486 484 0
-486 482 0
-483 487 -421 0
-487 421 0
-487 483 0
-488 486 487 0
488 -486 0
488 -487 0
-58 489 -443 0
-489 58 0
443 -489 0
-427 -490 -489 0
489 -490 427 0
490 -489 427 0
-427 489 490 0
-490 -488 -491 0
488 -491 490 0
491 490 -488 0
488 491 -490 0
492 -490 -488 0
-492 490 0
488 -492 0
-427 493 -489 0
-493 427 0
489 -493 0
492 -494 493 0
-492 494 0
494 -493 0
495 -443 -66 0
-495 66 0
-495 443 0
-495 -496 -433 0
495 -496 433 0
-495 496 433 0
495 496 -433 0
-496 -497 -494 0
494 -497 496 0
496 -494 497 0
494 -496 497 0
498 -496 -494 0
496 -498 0
494 -498 0
-495 499 -433 0
433 -499 0
495 -499 0
499 -500 498 0
500 -498 0
500 -499 0
-74 501 -443 0
74 -501 0
443 -501 0
-439 -502 -501 0
-502 501 439 0
502 -501 439 0
-439 501 502 0
-500 -502 -503 0
500 -503 502 0
-500 503 502 0
-502 503 500 0
-500 -502 504 0
-504 502 0
500 -504 0
-439 -501 505 0
-505 439 0
-505 501 0
505 -506 504 0
506 -504 0
-505 506 0
-443 507 -82 0
82 -507 0
443 -507 0
-508 -442 -507 0
442 507 -508 0
442 508 -507 0
508 507 -442 0
-506 -509 -508 0
-509 506 508 0
509 -506 508 0
509 506 -508 0
-506 510 -508 0
-510 508 0
506 -510 0
511 -442 -507 0
442 -511 0
-511 507 0
511 510 -512 0
-510 512 0
-511 512 0
-513 514 -1 0
1 -514 0
513 -514 0
-515 -449 -514 0
-515 514 449 0
515 -514 449 0
515 -449 514 0
516 -449 -514 0
-516 449 0
514 -516 0
-513 517 -4 0
-517 4 0
-517 513 0
-517 -455 -518 0
455 517 -518 0
-517 455 518 0
518 -455 517 0
-519 -518 -516 0
516 518 -519 0
518 519 -516 0
516 -518 519 0
520 -518 -516 0
518 -520 0
516 -520 0
-517 -455 521 0
455 -521 0
-521 517 0
520 521 -522 0
522 -520 0
522 -521 0
-10 -513 523 0
-523 10 0
-523 513 0
-524 -523 -461 0
461 523 -524 0
461 -523 524 0
523 -461 524 0
-522 -524 -525 0
522 -525 524 0
525 -522 524 0
522 525 -524 0
-522 526 -524 0
524 -526 0
522 -526 0
527 -523 -461 0
461 -527 0
523 -527 0
527 526 -528 0
528 -526 0
-527 528 0
-513 529 -18 0
-529 18 0
-529 513 0
-530 -529 -467 0
-530 467 529 0
-529 467 530 0
-467 530 529 0
-530 -528 -531 0
528 530 -531 0
-528 531 530 0
-530 531 528 0
-530 -528 532 0
-532 530 0
-532 528 0
-529 -467 533 0
467 -533 0
-533 529 0
-534 533 532 0
-532 534 0
-533 534 0
535 -26 -513 0
26 -535 0
513 -535 0
-536 -535 -473 0
535 -536 473 0
536 -535 473 0
535 536 -473 0
-534 -536 -537 0
536 534 -537 0
-534 537 536 0
537 -536 534 0
538 -534 -536 0
536 -538 0
-538 534 0
539 -535 -473 0
-539 473 0
535 -539 0
539 538 -540 0
540 -538 0
-539 540 0
541 -513 -34 0
-541 34 0
-541 513 0
-541 -542 -479 0
541 -542 479 0
542 -541 479 0
542 541 -479 0
-543 -542 -540 0
542 -543 540 0
542 543 -540 0
-542 543 540 0
544 -542 -540 0
542 -544 0
540 -544 0
545 -541 -479 0
479 -545 0
541 -545 0
545 544 -546 0
546 -544 0
546 -545 0
-42 -513 547 0
-547 42 0
513 -547 0
-485 -548 -547 0
-548 547 485 0
485 -547 548 0
-485 547 548 0
-548 -549 -546 0
546 -549 548 0
549 -546 548 0
546 -548 549 0
-548 -546 550 0
-550 548 0
546 -550 0
-485 551 -547 0
485 -551 0
547 -551 0
551 -552 550 0
-550 552 0
552 -551 0
-50 -513 553 0
50 -553 0
513 -553 0
-554 -491 -553 0
491 553 -554 0
554 491 -553 0
554 -491 553 0
-555 -552 -554 0
-555 552 554 0
554 555 -552 0
552 555 -554 0
556 -552 -554 0
554 -556 0
552 -556 0
557 -491 -553 0
-557 491 0
-557 553 0
557 -558 556 0
558 -556 0
-557 558 0
-58 -513 559 0
-559 58 0
-559 513 0
-497 -559 -560 0
559 -560 497 0
560 -559 497 0
560 -497 559 0
-561 -558 -560 0
560 558 -561 0
560 -558 561 0
558 561 -560 0
562 -558 -560 0
560 -562 0
558 -562 0
-497 -559 563 0
-563 497 0
-563 559 0
-564 563 562 0
564 -562 0
564 -563 0
565 -513 -66 0
-565 66 0
513 -565 0
-565 -503 -566 0
565 503 -566 0
566 503 -565 0
565 -503 566 0
-564 -567 -566 0
564 566 -567 0
-564 566 567 0
564 567 -566 0
-564 568 -566 0
566 -568 0
564 -568 0
-565 569 -503 0
503 -569 0
565 -569 0
569 568 -570 0
-568 570 0
570 -569 0
-74 -513 571 0
74 -571 0
513 -571 0
-509 -572 -571 0
509 -572 571 0
509 572 -571 0
-509 571 572 0
-573 -572 -570 0
570 572 -573 0
-570 572 573 0
570 -572 573 0
574 -572 -570 0
-574 572 0
570 -574 0
-509 575 -571 0
509 -575 0
-575 571 0
-576 574 575 0
-574 576 0
-575 576 0
-513 577 -82 0
-577 82 0
-577 513 0
-577 -578 -512 0
-578 577 512 0
-577 578 512 0
578 577 -512 0
-578 -576 -579 0
578 576 -579 0
-576 579 578 0
-578 579 576 0
-578 -576 580 0
-580 578 0
-580 576 0
-577 581 -512 0
-581 512 0
-581 577 0
580 581 -582 0
-580 582 0
582 -581 0
-583 584 -1 0
1 -584 0
583 -584 0
-519 -585 -584 0
-585 584 519 0
585 -584 519 0
585 -519 584 0
-519 586 -584 0
-586 519 0
584 -586 0
587 -4 -583 0
-587 4 0
583 -587 0
-587 -525 -588 0
525 -588 587 0
-587 525 588 0
-525 588 587 0
-589 -588 -586 0
-589 586 588 0
589 588 -586 0
586 -588 589 0
590 -588 -586 0
588 -590 0
586 -590 0
-587 -525 591 0
525 -591 0
-591 587 0
-592 591 590 0
592 -590 0
-591 592 0
-10 593 -583 0
10 -593 0
583 -593 0
-594 -531 -593 0
-594 531 593 0
594 531 -593 0
594 593 -531 0
-592 -595 -594 0
594 -595 592 0
594 595 -592 0
592 595 -594 0
-592 -594 596 0
594 -596 0
592 -596 0
597 -531 -593 0
-597 531 0
-597 593 0
597 -598 596 0
598 -596 0
-597 598 0
599 -583 -18 0
-599 18 0
583 -599 0
-600 -537 -599 0
599 -600 537 0
537 600 -599 0
599 -537 600 0
-600 -601 -598 0
598 -601 600 0
601 -598 600 0
601 -600 598 0
602 -600 -598 0
-602 600 0
598 -602 0
603 -537 -599 0
537 -603 0
599 -603 0
602 -604 603 0
-602 604 0
-603 604 0
-26 605 -583 0
26 -605 0
583 -605 0
-543 -605 -606 0
-606 543 605 0
-605 543 606 0
-543 606 605 0
-606 -607 -604 0
-607 604 606 0
607 -604 606 0
-606 607 604 0
-606 -604 608 0
606 -608 0
604 -608 0
-543 -605 609 0
543 -609 0
605 -609 0
609 608 -610 0
610 -608 0
610 -609 0
-583 611 -34 0
-611 34 0
583 -611 0
-611 -612 -549 0
549 611 -612 0
-611 549 612 0
-549 611 612 0
-612 -613 -610 0
-613 610 612 0
613 612 -610 0
-612 613 610 0
-612 614 -610 0
612 -614 0
610 -614 0
-611 615 -549 0
-615 549 0
-615 611 0
615 614 -616 0
616 -614 0
-615 616 0
-42 617 -583 0
42 -617 0
583 -617 0
-555 -618 -617 0
617 555 -618 0
618 555 -617 0
-555 618 617 0
-619 -616 -618 0
618 616 -619 0
618 619 -616 0
619 616 -618 0
620 -616 -618 0
618 -620 0
616 -620 0
-555 621 -617 0
555 -621 0
617 -621 0
621 620 -622 0
622 -620 0
622 -621 0
623 -50 -583 0
-623 50 0
583 -623 0
-623 -561 -624 0
623 -624 561 0
-623 624 561 0
623 624 -561 0
-625 -622 -624 0
622 624 -625 0
624 -622 625 0
622 625 -624 0
626 -622 -624 0
624 -626 0
622 -626 0
-623 627 -561 0
-627 561 0
623 -627 0
626 -628 627 0
628 -626 0
-627 628 0
-58 629 -583 0
-629 58 0
583 -629 0
-630 -629 -567 0
-630 567 629 0
567 630 -629 0
630 629 -567 0
-630 -628 -631 0
628 630 -631 0
631 -628 630 0
-630 628 631 0
-630 -628 632 0
-632 630 0
628 -632 0
-629 633 -567 0
567 -633 0
-633 629 0
-634 633 632 0
-632 634 0
-633 634 0
-583 635 -66 0
-635 66 0
583 -635 0
-635 -636 -573 0
-636 635 573 0
-635 636 573 0
-573 635 636 0
-636 -634 -637 0
-637 636 634 0
-634 637 636 0
-636 637 634 0
-636 -634 638 0
636 -638 0
-638 634 0
-635 -573 639 0
573 -639 0
635 -639 0
639 -640 638 0
640 -638 0
640 -639 0
-74 641 -583 0
74 -641 0
583 -641 0
-642 -641 -579 0
-642 579 641 0
642 579 -641 0
642 641 -579 0
-642 -640 -643 0
642 640 -643 0
642 -640 643 0
-642 640 643 0
-642 -640 644 0
642 -644 0
640 -644 0
645 -641 -579 0
579 -645 0
641 -645 0
645 644 -646 0
646 -644 0
646 -645 0
-583 647 -82 0
82 -647 0
583 -647 0
-648 -647 -582 0
-648 582 647 0
582 -647 648 0
647 648 -582 0
-648 -646 -649 0
646 648 -649 0
-646 648 649 0
-648 646 649 0
650 -648 -646 0
648 -650 0
646 -650 0
-647 651 -582 0
-651 582 0
-651 647 0
650 -652 651 0
652 -650 0
-651 652 0
654 -653 -1 0
1 -654 0
-654 653 0
-589 -655 -654 0
654 -655 589 0
655 -654 589 0
-589 654 655 0
-589 -654 656 0
-656 589 0
654 -656 0
-653 657 -4 0
-657 4 0
-657 653 0
-657 -595 -658 0
657 595 -658 0
-657 595 658 0
658 657 -595 0
-659 -656 -658 0
658 656 -659 0
658 -656 659 0
656 659 -658 0
-656 660 -658 0
658 -660 0
-660 656 0
-657 661 -595 0
-661 595 0
-661 657 0
-662 661 660 0
-660 662 0
-661 662 0
663 -10 -653 0
-663 10 0
-663 653 0
-663 -664 -601 0
663 601 -664 0
-663 601 664 0
663 664 -601 0
-662 -664 -665 0
664 662 -665 0
664 -662 665 0
662 -664 665 0
-662 -664 666 0
664 -666 0
662 -666 0
-663 667 -601 0
601 -667 0
663 -667 0
666 667 -668 0
668 -666 0
668 -667 0
-653 669 -18 0
-669 18 0
-669 653 0
-669 -607 -670 0
607 669 -670 0
-669 670 607 0
670 -607 669 0
-670 -668 -671 0
670 668 -671 0
670 -668 671 0
668 -670 671 0
672 -670 -668 0
670 -672 0
668 -672 0
-669 -607 673 0
-673 607 0
-673 669 0
672 -674 673 0
-672 674 0
-673 674 0
-26 -653 675 0
26 -675 0
-675 653 0
-676 -675 -613 0
675 613 -676 0
-675 613 676 0
676 675 -613 0
-674 -676 -677 0
-677 676 674 0
-674 677 676 0
-676 677 674 0
-674 -676 678 0
-678 676 0
-678 674 0
679 -675 -613 0
613 -679 0
675 -679 0
679 678 -680 0
-678 680 0
680 -679 0
681 -653 -34 0
-681 34 0
-681 653 0
-619 -682 -681 0
681 619 -682 0
619 -681 682 0
-619 681 682 0
-682 -680 -683 0
-683 680 682 0
683 -680 682 0
-682 683 680 0
-682 684 -680 0
-684 682 0
-684 680 0
-619 -681 685 0
619 -685 0
681 -685 0
-686 684 685 0
-684 686 0
-685 686 0
-42 -653 687 0
-687 42 0
-687 653 0
-687 -688 -625 0
687 -688 625 0
-687 688 625 0
687 688 -625 0
-686 -688 -689 0
688 686 -689 0
-686 688 689 0
689 -688 686 0
-686 -688 690 0
688 -690 0
686 -690 0
-687 691 -625 0
625 -691 0
687 -691 0
-692 691 690 0
-690 692 0
-691 692 0
-50 -653 693 0
-693 50 0
-693 653 0
-693 -694 -631 0
631 693 -694 0
631 -693 694 0
693 694 -631 0
-692 -694 -695 0
-695 694 692 0
-692 695 694 0
-694 695 692 0
-692 696 -694 0
694 -696 0
-696 692 0
-693 697 -631 0
631 -697 0
693 -697 0
-698 696 697 0
-696 698 0
-697 698 0
699 -58 -653 0
-699 58 0
653 -699 0
-700 -637 -699 0
699 -700 637 0
700 637 -699 0
700 699 -637 0
-698 -700 -701 0
700 -701 698 0
-698 701 700 0
701 -700 698 0
-698 -700 702 0
-702 700 0
-702 698 0
-637 703 -699 0
637 -703 0
699 -703 0
702 -704 703 0
-702 704 0
704 -703 0
705 -653 -66 0
-705 66 0
653 -705 0
-706 -643 -705 0
-706 643 705 0
706 -705 643 0
706 -643 705 0
-707 -704 -706 0
704 706 -707 0
706 -704 707 0
704 707 -706 0
708 -704 -706 0
706 -708 0
704 -708 0
709 -643 -705 0
643 -709 0
-709 705 0
-710 708 709 0
-708 710 0
710 -709 0
711 -74 -653 0
74 -711 0
-711 653 0
-649 -711 -712 0
711 -712 649 0
712 -711 649 0
711 -649 712 0
-710 -712 -713 0
712 -713 710 0
712 -710 713 0
713 -712 710 0
714 -710 -712 0
712 -714 0
-714 710 0
715 -649 -711 0
-715 649 0
711 -715 0
715 714 -716 0
-714 716 0
-715 716 0
717 -653 -82 0
82 -717 0
653 -717 0
-652 -718 -717 0
717 652 -718 0
718 652 -717 0
717 -652 718 0
-719 -716 -718 0
-719 718 716 0
718 -716 719 0
719 -718 716 0
720 -716 -718 0
-720 718 0
-720 716 0
721 -652 -717 0
652 -721 0
717 -721 0
720 721 -722 0
-720 722 0
722 -721 0
-723 724 -1 0
1 -724 0
723 -724 0
-659 -724 -725 0
-725 659 724 0
-724 725 659 0
-659 725 724 0
-659 -724 726 0
-726 659 0
-726 724 0
727 -4 -723 0
-727 4 0
723 -727 0
-728 -665 -727 0
727 -728 665 0
728 665 -727 0
727 728 -665 0
-726 -729 -728 0
-729 728 726 0
-726 729 728 0
729 -728 726 0
-726 -728 730 0
728 -730 0
-730 726 0
731 -665 -727 0
665 -731 0
727 -731 0
731 730 -732 0
-730 732 0
732 -731 0
-10 733 -723 0
10 -733 0
723 -733 0
-734 -671 -733 0
733 671 -734 0
-733 671 734 0
733 -671 734 0
-734 -735 -732 0
-735 734 732 0
735 734 -732 0
735 -734 732 0
736 -734 -732 0
-736 734 0
-736 732 0
-671 -733 737 0
-737 671 0
-737 733 0
736 -738 737 0
738 -736 0
-737 738 0
739 -723 -18 0
-739 18 0
723 -739 0
-739 -740 -677 0
677 739 -740 0
677 740 -739 0
739 740 -677 0
-741 -738 -740 0
-741 738 740 0
741 740 -738 0
738 741 -740 0
-738 742 -740 0
-742 740 0
738 -742 0
743 -739 -677 0
677 -743 0
739 -743 0
743 -744 742 0
744 -742 0
744 -743 0
745 -26 -723 0
26 -745 0
723 -745 0
-745 -746 -683 0
745 -746 683 0
-745 683 746 0
745 746 -683 0
-744 -747 -746 0
744 -747 746 0
-744 746 747 0
744 -746 747 0
748 -744 -746 0
-748 746 0
-748 744 0
-745 749 -683 0
683 -749 0
745 -749 0
-750 748 749 0
-748 750 0
-749 750 0
751 -723 -34 0
-751 34 0
-751 723 0
-751 -752 -689 0
751 689 -752 0
-751 752 689 0
751 752 -689 0
-753 -750 -752 0
-753 752 750 0
753 -750 752 0
753 750 -752 0
754 -750 -752 0
-754 752 0
-754 750 0
-751 755 -689 0
-755 689 0
-755 751 0
755 754 -756 0
-754 756 0
-755 756 0
-42 757 -723 0
42 -757 0
723 -757 0
-758 -695 -757 0
-758 695 757 0
758 695 -757 0
758 757 -695 0
-759 -758 -756 0
758 756 -759 0
759 758 -756 0
756 -758 759 0
-758 -756 760 0
758 -760 0
-760 756 0
761 -695 -757 0
-761 695 0
-761 757 0
-762 761 760 0
-760 762 0
-761 762 0
-50 763 -723 0
-763 50 0
723 -763 0
-763 -701 -764 0
701 763 -764 0
701 -763 764 0
763 -701 764 0
-762 -765 -764 0
-765 764 762 0
-762 764 765 0
-764 765 762 0
-762 -764 766 0
-766 764 0
-766 762 0
-763 -701 767 0
701 -767 0
763 -767 0
766 767 -768 0
-766 768 0
768 -767 0
769 -58 -723 0
-769 58 0
-769 723 0
-769 -707 -770 0
769 707 -770 0
-769 770 707 0
769 770 -707 0
-771 -770 -768 0
770 -771 768 0
770 771 -768 0
-770 771 768 0
-770 772 -768 0
770 -772 0
-772 768 0
-769 -707 773 0
707 -773 0
769 -773 0
-774 773 772 0
-772 774 0
774 -773 0
-723 775 -66 0
-775 66 0
723 -775 0
-775 -713 -776 0
775 713 -776 0
776 -775 713 0
776 -713 775 0
-777 -774 -776 0
776 -777 774 0
776 777 -774 0
777 774 -776 0
778 -774 -776 0
776 -778 0
-778 774 0
-775 -713 779 0
-779 713 0
-779 775 0
-780 779 778 0
-778 780 0
780 -779 0
-74 781 -723 0
74 -781 0
723 -781 0
-719 -782 -781 0
781 719 -782 0
782 719 -781 0
-719 782 781 0
-783 -782 -780 0
782 780 -783 0
782 -780 783 0
780 -782 783 0
784 -782 -780 0
782 -784 0
780 -784 0
-719 785 -781 0
719 -785 0
781 -785 0
785 784 -786 0
786 -784 0
786 -785 0
787 -723 -82 0
82 -787 0
723 -787 0
-722 -788 -787 0
722 787 -788 0
788 722 -787 0
788 787 -722 0
-789 -788 -786 0
788 786 -789 0
788 789 -786 0
789 786 -788 0
-788 -786 790 0
788 -790 0
786 -790 0
791 -722 -787 0
722 -791 0
787 -791 0
-792 791 790 0
-790 792 0
792 -791 0
3 0
-8 0
-95 0
-165 0
-235 0
305 0
-375 0
445 0
-515 0
-585 0
655 0
725 0
-729 0
-735 0
-741 0
-747 0
-753 0
-759 0
-765 0
-771 0
-777 0
-783 0
-789 0
-792 0
