p cnf 1092 3570
-2 3 -1 0
1 -3 0
-3 2 0
5 -4 -2 0
-5 4 0
-5 2 0
-6 7 -1 0
1 -7 0
6 -7 0
-8 -7 -5 0
-8 5 7 0
8 5 -7 0
8 -5 7 0
-7 9 -5 0
-9 5 0
-9 7 0
-10 11 -2 0
-11 10 0
-11 2 0
-6 -4 12 0
-12 4 0
-12 6 0
-12 -11 -13 0
11 -13 12 0
-12 11 13 0
-11 13 12 0
-9 -14 -13 0
-14 9 13 0
-9 14 13 0
14 9 -13 0
-9 15 -13 0
-15 13 0
9 -15 0
-12 -11 16 0
11 -16 0
-16 12 0
15 16 -17 0
-15 17 0
-16 17 0
-2 19 -18 0
-19 18 0
-19 2 0
-10 -6 20 0
10 -20 0
6 -20 0
-21 -19 -20 0
-21 19 20 0
21 19 -20 0
21 -19 20 0
-17 -21 -22 0
21 -22 17 0
21 22 -17 0
22 -21 17 0
23 -17 -21 0
21 -23 0
-23 17 0
-19 24 -20 0
-24 19 0
-24 20 0
23 24 -25 0
25 -23 0
-24 25 0
-26 27 -2 0
26 -27 0
-27 2 0
-6 28 -18 0
-28 18 0
6 -28 0
-27 -29 -28 0
27 -29 28 0
27 29 -28 0
-27 28 29 0
-30 -29 -25 0
-30 25 29 0
30 29 -25 0
-29 25 30 0
-29 31 -25 0
29 -31 0
25 -31 0
-27 32 -28 0
27 -32 0
-32 28 0
-33 32 31 0
33 -31 0
-32 33 0
35 -2 -34 0
-35 34 0
-35 2 0
-26 -6 36 0
26 -36 0
-36 6 0
-36 -37 -35 0
36 35 -37 0
-36 35 37 0
36 37 -35 0
-38 -37 -33 0
37 -38 33 0
37 -33 38 0
-37 33 38 0
39 -37 -33 0
37 -39 0
-39 33 0
40 -36 -35 0
-40 35 0
36 -40 0
40 39 -41 0
-39 41 0
-40 41 0
-42 43 -2 0
-43 42 0
-43 2 0
-6 44 -34 0
-44 34 0
-44 6 0
-45 -44 -43 0
-45 44 43 0
-44 43 45 0
44 -43 45 0
-45 -46 -41 0
-46 45 41 0
46 -41 45 0
-45 46 41 0
-45 -41 47 0
-47 45 0
-47 41 0
-44 -43 48 0
-48 43 0
44 -48 0
48 -49 47 0
49 -47 0
49 -48 0
-50 51 -2 0
-51 50 0
-51 2 0
-42 -6 52 0
-52 42 0
-52 6 0
-52 -51 -53 0
51 -53 52 0
-52 51 53 0
-51 53 52 0
-49 -53 -54 0
49 53 -54 0
-49 53 54 0
54 49 -53 0
55 -49 -53 0
53 -55 0
49 -55 0
-52 -51 56 0
51 -56 0
-56 52 0
55 -57 56 0
57 -55 0
57 -56 0
-58 59 -2 0
-59 58 0
-59 2 0
-50 -6 60 0
-60 50 0
6 -60 0
-61 -59 -60 0
-61 60 59 0
61 -60 59 0
61 -59 60 0
-62 -61 -57 0
-62 57 61 0
61 62 -57 0
57 -61 62 0
-61 63 -57 0
-63 61 0
57 -63 0
64 -59 -60 0
-64 59 0
-64 60 0
-65 64 63 0
65 -63 0
65 -64 0
-2 67 -66 0
-67 66 0
-67 2 0
-6 -58 68 0
-68 58 0
6 -68 0
-68 -67 -69 0
68 -69 67 0
-68 69 67 0
-67 69 68 0
-70 -65 -69 0
-70 65 69 0
-65 70 69 0
65 70 -69 0
-65 71 -69 0
-71 69 0
65 -71 0
72 -68 -67 0
-72 67 0
-72 68 0
72 -73 71 0
73 -71 0
73 -72 0
-74 75 -2 0
-75 74 0
-75 2 0
-6 76 -66 0
-76 66 0
-76 6 0
-75 -77 -76 0
-77 75 76 0
-76 77 75 0
-75 77 76 0
-77 -73 -78 0
73 77 -78 0
77 -73 78 0
73 -77 78 0
-77 -73 79 0
77 -79 0
73 -79 0
-75 -76 80 0
75 -80 0
76 -80 0
79 80 -81 0
81 -79 0
81 -80 0
83 -2 -82 0
82 -83 0
-83 2 0
-74 -6 84 0
74 -84 0
6 -84 0
-84 -83 -85 0
83 -85 84 0
83 85 -84 0
85 -83 84 0
-81 -85 -86 0
81 85 -86 0
85 -81 86 0
81 -85 86 0
-81 -85 87 0
85 -87 0
81 -87 0
-84 -83 88 0
83 -88 0
84 -88 0
-89 88 87 0
89 -87 0
89 -88 0
-90 91 -2 0
90 -91 0
-91 2 0
-6 92 -82 0
-92 82 0
-92 6 0
-92 -93 -91 0
-93 92 91 0
-92 91 93 0
93 92 -91 0
-89 -93 -94 0
93 89 -94 0
93 94 -89 0
94 89 -93 0
-89 -93 95 0
93 -95 0
89 -95 0
-92 96 -91 0
91 -96 0
92 -96 0
96 -97 95 0
97 -95 0
-96 97 0
99 -98 -2 0
98 -99 0
-99 2 0
-90 -6 100 0
-100 90 0
-100 6 0
-101 -100 -99 0
99 100 -101 0
99 -100 101 0
100 101 -99 0
-97 -102 -101 0
-102 101 97 0
-97 101 102 0
-101 97 102 0
-97 -101 103 0
101 -103 0
97 -103 0
104 -100 -99 0
99 -104 0
-104 100 0
104 103 -105 0
105 -103 0
-104 105 0
106 -6 -98 0
98 -106 0
-106 6 0
-106 -105 -107 0
106 -107 105 0
107 -106 105 0
106 107 -105 0
108 -106 -105 0
-108 105 0
106 -108 0
-109 110 -1 0
1 -110 0
109 -110 0
-111 -14 -110 0
-111 14 110 0
111 14 -110 0
111 -14 110 0
112 -14 -110 0
-112 14 0
-112 110 0
113 -109 -4 0
-113 4 0
109 -113 0
-114 -113 -22 0
113 22 -114 0
22 -113 114 0
113 114 -22 0
-112 -114 -115 0
112 114 -115 0
-112 114 115 0
112 -114 115 0
-112 -114 116 0
-116 114 0
112 -116 0
-113 -22 117 0
-117 22 0
-117 113 0
-118 116 117 0
-116 118 0
-117 118 0
-10 119 -109 0
-119 10 0
109 -119 0
-30 -120 -119 0
119 -120 30 0
-119 30 120 0
-30 119 120 0
-118 -121 -120 0
-121 120 118 0
-118 120 121 0
121 -120 118 0
-118 -120 122 0
-122 120 0
-122 118 0
-30 123 -119 0
-123 30 0
119 -123 0
-124 123 122 0
-122 124 0
124 -123 0
-109 125 -18 0
-125 18 0
109 -125 0
-126 -38 -125 0
-126 125 38 0
38 126 -125 0
-38 125 126 0
-124 -126 -127 0
124 -127 126 0
-124 127 126 0
124 -126 127 0
-124 -126 128 0
-128 126 0
124 -128 0
-38 129 -125 0
-129 38 0
125 -129 0
-130 129 128 0
-128 130 0
130 -129 0
-26 -109 131 0
26 -131 0
109 -131 0
-132 -131 -46 0
-132 131 46 0
-131 132 46 0
131 -46 132 0
-132 -130 -133 0
130 132 -133 0
-130 132 133 0
-132 130 133 0
-132 134 -130 0
132 -134 0
130 -134 0
-131 -46 135 0
-135 46 0
131 -135 0
-136 134 135 0
-134 136 0
-135 136 0
137 -109 -34 0
-137 34 0
109 -137 0
-138 -137 -54 0
54 137 -138 0
54 138 -137 0
137 138 -54 0
-139 -138 -136 0
138 136 -139 0
138 139 -136 0
139 -138 136 0
-138 -136 140 0
138 -140 0
-140 136 0
141 -137 -54 0
54 -141 0
137 -141 0
141 140 -142 0
142 -140 0
142 -141 0
-42 -109 143 0
-143 42 0
109 -143 0
-62 -144 -143 0
62 -144 143 0
144 62 -143 0
-62 144 143 0
-145 -142 -144 0
142 144 -145 0
145 -142 144 0
142 145 -144 0
146 -142 -144 0
-146 144 0
142 -146 0
-62 147 -143 0
-147 62 0
-147 143 0
-148 146 147 0
-146 148 0
148 -147 0
-50 -109 149 0
50 -149 0
109 -149 0
-70 -149 -150 0
-150 70 149 0
150 70 -149 0
-70 150 149 0
-150 -151 -148 0
-151 150 148 0
150 -148 151 0
-150 148 151 0
-150 -148 152 0
150 -152 0
148 -152 0
-70 153 -149 0
-153 70 0
-153 149 0
153 152 -154 0
-152 154 0
-153 154 0
-58 -109 155 0
-155 58 0
109 -155 0
-78 -156 -155 0
-156 78 155 0
-155 156 78 0
-78 156 155 0
-157 -156 -154 0
-157 156 154 0
157 156 -154 0
157 -156 154 0
-156 158 -154 0
156 -158 0
-158 154 0
-78 -155 159 0
78 -159 0
155 -159 0
-160 159 158 0
160 -158 0
160 -159 0
-109 161 -66 0
66 -161 0
109 -161 0
-162 -86 -161 0
-162 161 86 0
162 -161 86 0
162 -86 161 0
-162 -160 -163 0
162 160 -163 0
162 -160 163 0
-162 160 163 0
-162 -160 164 0
162 -164 0
-164 160 0
165 -86 -161 0
-165 86 0
-165 161 0
165 -166 164 0
-164 166 0
-165 166 0
-74 -109 167 0
74 -167 0
109 -167 0
-167 -168 -94 0
94 -168 167 0
94 -167 168 0
168 -94 167 0
-169 -168 -166 0
166 -169 168 0
169 -166 168 0
169 166 -168 0
-168 -166 170 0
-170 168 0
166 -170 0
171 -167 -94 0
94 -171 0
-171 167 0
-172 171 170 0
-170 172 0
172 -171 0
-109 173 -82 0
82 -173 0
109 -173 0
-174 -102 -173 0
-174 173 102 0
174 -173 102 0
-102 174 173 0
-174 -175 -172 0
-175 174 172 0
175 174 -172 0
-174 175 172 0
-174 176 -172 0
174 -176 0
172 -176 0
-102 -173 177 0
-177 102 0
173 -177 0
-178 176 177 0
178 -176 0
178 -177 0
-90 -109 179 0
90 -179 0
109 -179 0
-179 -107 -180 0
-180 107 179 0
107 180 -179 0
180 179 -107 0
-180 -178 -181 0
178 180 -181 0
181 180 -178 0
-180 178 181 0
-180 -178 182 0
180 -182 0
178 -182 0
-179 183 -107 0
107 -183 0
-183 179 0
183 182 -184 0
-182 184 0
-183 184 0
185 -109 -98 0
98 -185 0
109 -185 0
-186 -185 -108 0
108 185 -186 0
108 -185 186 0
185 186 -108 0
-187 -186 -184 0
-187 186 184 0
187 186 -184 0
187 -186 184 0
188 -186 -184 0
-188 186 0
-188 184 0
-185 -108 189 0
108 -189 0
185 -189 0
188 -190 189 0
190 -188 0
190 -189 0
192 -191 -1 0
1 -192 0
-192 191 0
-192 -193 -115 0
-193 192 115 0
-192 193 115 0
193 192 -115 0
-192 194 -115 0
115 -194 0
192 -194 0
-191 195 -4 0
-195 4 0
191 -195 0
-121 -196 -195 0
-196 195 121 0
196 121 -195 0
-121 195 196 0
-197 -196 -194 0
-197 194 196 0
-194 197 196 0
197 194 -196 0
198 -196 -194 0
-198 196 0
-198 194 0
-121 199 -195 0
-199 121 0
-199 195 0
-200 199 198 0
200 -198 0
-199 200 0
-10 201 -191 0
10 -201 0
191 -201 0
-127 -202 -201 0
127 201 -202 0
127 202 -201 0
-127 201 202 0
-200 -203 -202 0
200 -203 202 0
-200 202 203 0
203 200 -202 0
-200 204 -202 0
-204 202 0
200 -204 0
-127 205 -201 0
127 -205 0
201 -205 0
205 204 -206 0
-204 206 0
-205 206 0
207 -191 -18 0
-207 18 0
-207 191 0
-133 -208 -207 0
207 -208 133 0
208 -207 133 0
-133 207 208 0
-209 -206 -208 0
-209 208 206 0
209 208 -206 0
209 -208 206 0
-206 -208 210 0
-210 208 0
-210 206 0
-133 211 -207 0
-211 133 0
-211 207 0
211 -212 210 0
212 -210 0
-211 212 0
-26 213 -191 0
26 -213 0
-213 191 0
-139 -213 -214 0
-214 139 213 0
-213 139 214 0
-139 213 214 0
-215 -214 -212 0
212 -215 214 0
215 214 -212 0
212 -214 215 0
-214 216 -212 0
-216 214 0
212 -216 0
217 -139 -213 0
-217 139 0
-217 213 0
217 -218 216 0
-216 218 0
-217 218 0
219 -191 -34 0
-219 34 0
-219 191 0
-219 -220 -145 0
219 145 -220 0
220 -219 145 0
220 219 -145 0
-218 -221 -220 0
220 -221 218 0
221 220 -218 0
221 -220 218 0
222 -218 -220 0
-222 220 0
-222 218 0
-219 223 -145 0
-223 145 0
-223 219 0
222 -224 223 0
-222 224 0
-223 224 0
-42 225 -191 0
42 -225 0
191 -225 0
-151 -226 -225 0
225 -226 151 0
226 151 -225 0
-151 225 226 0
-227 -226 -224 0
226 -227 224 0
226 -224 227 0
-226 227 224 0
-226 228 -224 0
226 -228 0
-228 224 0
-151 229 -225 0
-229 151 0
-229 225 0
229 228 -230 0
-228 230 0
-229 230 0
231 -50 -191 0
-231 50 0
-231 191 0
-157 -231 -232 0
231 157 -232 0
232 157 -231 0
-157 231 232 0
-233 -232 -230 0
232 -233 230 0
232 233 -230 0
230 -232 233 0
234 -232 -230 0
232 -234 0
-234 230 0
-157 -231 235 0
157 -235 0
231 -235 0
-236 234 235 0
-234 236 0
-235 236 0
-58 -191 237 0
58 -237 0
191 -237 0
-238 -237 -163 0
-238 237 163 0
238 -237 163 0
238 237 -163 0
-238 -239 -236 0
238 -239 236 0
238 239 -236 0
-238 239 236 0
-238 240 -236 0
238 -240 0
-240 236 0
-237 241 -163 0
-241 163 0
-241 237 0
241 240 -242 0
-240 242 0
-241 242 0
243 -191 -66 0
-243 66 0
191 -243 0
-244 -169 -243 0
-244 169 243 0
169 244 -243 0
-169 243 244 0
-244 -245 -242 0
-245 244 242 0
245 244 -242 0
245 -244 242 0
246 -244 -242 0
-246 244 0
-246 242 0
247 -169 -243 0
169 -247 0
243 -247 0
247 246 -248 0
-246 248 0
248 -247 0
-74 -191 249 0
74 -249 0
-249 191 0
-175 -249 -250 0
175 -250 249 0
175 -249 250 0
-175 250 249 0
-251 -250 -248 0
-251 248 250 0
251 -248 250 0
251 248 -250 0
-250 252 -248 0
-252 250 0
248 -252 0
253 -175 -249 0
175 -253 0
-253 249 0
253 -254 252 0
254 -252 0
-253 254 0
255 -191 -82 0
82 -255 0
-255 191 0
-255 -181 -256 0
181 255 -256 0
-255 181 256 0
255 -181 256 0
-257 -254 -256 0
-257 254 256 0
257 -254 256 0
257 254 -256 0
258 -254 -256 0
-258 256 0
-258 254 0
-255 -181 259 0
-259 181 0
-259 255 0
-260 258 259 0
-258 260 0
-259 260 0
-90 261 -191 0
-261 90 0
-261 191 0
-187 -261 -262 0
187 261 -262 0
187 262 -261 0
-187 262 261 0
-263 -260 -262 0
260 262 -263 0
262 -260 263 0
260 -262 263 0
264 -260 -262 0
262 -264 0
260 -264 0
-187 265 -261 0
187 -265 0
-265 261 0
265 264 -266 0
-264 266 0
-265 266 0
267 -98 -191 0
98 -267 0
191 -267 0
-267 -268 -190 0
190 267 -268 0
190 268 -267 0
267 268 -190 0
-266 -269 -268 0
268 -269 266 0
268 269 -266 0
269 266 -268 0
270 -266 -268 0
-270 268 0
-270 266 0
-267 271 -190 0
190 -271 0
267 -271 0
-272 270 271 0
-270 272 0
272 -271 0
274 -273 -1 0
1 -274 0
273 -274 0
-197 -275 -274 0
197 -275 274 0
-274 197 275 0
-197 275 274 0
-197 -274 276 0
197 -276 0
-276 274 0
277 -4 -273 0
-277 4 0
273 -277 0
-278 -277 -203 0
203 -278 277 0
203 -277 278 0
278 277 -203 0
-279 -278 -276 0
-279 278 276 0
279 278 -276 0
-278 279 276 0
-278 280 -276 0
-280 278 0
-280 276 0
281 -277 -203 0
203 -281 0
277 -281 0
281 -282 280 0
-280 282 0
282 -281 0
-10 283 -273 0
-283 10 0
273 -283 0
-209 -284 -283 0
209 -284 283 0
209 284 -283 0
-209 283 284 0
-284 -282 -285 0
284 -285 282 0
-282 284 285 0
-284 285 282 0
-284 -282 286 0
284 -286 0
-286 282 0
-209 -283 287 0
209 -287 0
-287 283 0
-288 287 286 0
288 -286 0
288 -287 0
289 -273 -18 0
-289 18 0
273 -289 0
-215 -289 -290 0
215 289 -290 0
215 -289 290 0
-215 289 290 0
-291 -290 -288 0
288 290 -291 0
291 290 -288 0
288 291 -290 0
292 -290 -288 0
290 -292 0
288 -292 0
-215 -289 293 0
-293 215 0
-293 289 0
292 -294 293 0
294 -292 0
-293 294 0
-26 295 -273 0
26 -295 0
273 -295 0
-221 -296 -295 0
221 -296 295 0
221 296 -295 0
-221 295 296 0
-294 -296 -297 0
294 296 -297 0
-294 296 297 0
294 -296 297 0
298 -294 -296 0
-298 296 0
294 -298 0
299 -221 -295 0
221 -299 0
-299 295 0
299 298 -300 0
-298 300 0
-299 300 0
301 -273 -34 0
-301 34 0
273 -301 0
-302 -227 -301 0
-302 301 227 0
302 227 -301 0
-227 302 301 0
-302 -300 -303 0
300 302 -303 0
-300 302 303 0
-302 300 303 0
-302 -300 304 0
-304 302 0
-304 300 0
-227 305 -301 0
-305 227 0
-305 301 0
305 304 -306 0
-304 306 0
-305 306 0
-42 307 -273 0
-307 42 0
-307 273 0
-307 -233 -308 0
-308 307 233 0
-307 308 233 0
-233 307 308 0
-308 -309 -306 0
-309 308 306 0
309 308 -306 0
309 -308 306 0
310 -308 -306 0
-310 308 0
-310 306 0
-307 -233 311 0
-311 233 0
307 -311 0
310 311 -312 0
-310 312 0
312 -311 0
-50 313 -273 0
-313 50 0
273 -313 0
-314 -239 -313 0
-314 313 239 0
239 -313 314 0
313 -239 314 0
-314 -312 -315 0
312 -315 314 0
-312 315 314 0
-314 315 312 0
-314 -312 316 0
-316 314 0
-316 312 0
317 -239 -313 0
239 -317 0
313 -317 0
317 -318 316 0
-316 318 0
318 -317 0
-58 319 -273 0
-319 58 0
273 -319 0
-320 -245 -319 0
245 319 -320 0
245 320 -319 0
320 -245 319 0
-321 -320 -318 0
-321 318 320 0
321 320 -318 0
318 -320 321 0
322 -320 -318 0
320 -322 0
318 -322 0
323 -245 -319 0
245 -323 0
319 -323 0
323 322 -324 0
-322 324 0
324 -323 0
325 -273 -66 0
-325 66 0
273 -325 0
-251 -325 -326 0
251 -326 325 0
326 251 -325 0
-251 326 325 0
-327 -324 -326 0
326 324 -327 0
327 326 -324 0
324 327 -326 0
328 -324 -326 0
-328 326 0
-328 324 0
-251 -325 329 0
-329 251 0
-329 325 0
328 -330 329 0
330 -328 0
-329 330 0
-74 331 -273 0
74 -331 0
273 -331 0
-257 -331 -332 0
257 331 -332 0
257 -331 332 0
-257 332 331 0
-333 -330 -332 0
332 330 -333 0
-330 332 333 0
330 -332 333 0
-330 334 -332 0
-334 332 0
-334 330 0
-257 -331 335 0
257 -335 0
-335 331 0
335 334 -336 0
-334 336 0
336 -335 0
337 -273 -82 0
-337 82 0
-337 273 0
-337 -338 -263 0
-338 337 263 0
-337 263 338 0
-263 337 338 0
-338 -339 -336 0
336 -339 338 0
339 -336 338 0
336 -338 339 0
-338 340 -336 0
-340 338 0
336 -340 0
-337 341 -263 0
-341 263 0
-341 337 0
-342 341 340 0
342 -340 0
-341 342 0
-90 343 -273 0
-343 90 0
273 -343 0
-343 -269 -344 0
-344 269 343 0
-343 269 344 0
344 -269 343 0
-342 -345 -344 0
-345 342 344 0
-342 345 344 0
345 342 -344 0
346 -342 -344 0
-346 344 0
-346 342 0
347 -343 -269 0
-347 269 0
-347 343 0
346 -348 347 0
-346 348 0
-347 348 0
349 -98 -273 0
98 -349 0
273 -349 0
-272 -350 -349 0
349 272 -350 0
350 -349 272 0
-272 349 350 0
-350 -351 -348 0
350 -351 348 0
351 350 -348 0
351 -350 348 0
-350 -348 352 0
-352 350 0
-352 348 0
-272 353 -349 0
-353 272 0
349 -353 0
-354 353 352 0
-352 354 0
-353 354 0
356 -355 -1 0
1 -356 0
355 -356 0
-279 -356 -357 0
356 279 -357 0
-356 357 279 0
-279 357 356 0
-279 358 -356 0
279 -358 0
356 -358 0
359 -355 -4 0
-359 4 0
-359 355 0
-360 -359 -285 0
359 -360 285 0
360 -359 285 0
359 -285 360 0
-360 -361 -358 0
360 358 -361 0
360 361 -358 0
-360 358 361 0
-360 362 -358 0
360 -362 0
358 -362 0
-359 -285 363 0
-363 285 0
359 -363 0
-364 362 363 0
364 -362 0
-363 364 0
-10 365 -355 0
10 -365 0
355 -365 0
-366 -291 -365 0
365 291 -366 0
291 366 -365 0
365 -291 366 0
-366 -367 -364 0
364 366 -367 0
367 366 -364 0
-366 367 364 0
-366 368 -364 0
-368 366 0
364 -368 0
-291 369 -365 0
291 -369 0
365 -369 0
-370 369 368 0
-368 370 0
-369 370 0
371 -355 -18 0
-371 18 0
355 -371 0
-372 -371 -297 0
-372 371 297 0
372 -371 297 0
372 371 -297 0
-372 -370 -373 0
372 370 -373 0
372 -370 373 0
-372 373 370 0
374 -372 -370 0
372 -374 0
-374 370 0
375 -371 -297 0
-375 297 0
371 -375 0
374 375 -376 0
376 -374 0
376 -375 0
-26 377 -355 0
26 -377 0
-377 355 0
-377 -378 -303 0
-378 377 303 0
-377 378 303 0
378 -303 377 0
-378 -376 -379 0
376 378 -379 0
378 379 -376 0
376 -378 379 0
380 -378 -376 0
378 -380 0
376 -380 0
-377 -303 381 0
-381 303 0
-381 377 0
380 381 -382 0
382 -380 0
382 -381 0
383 -355 -34 0
-383 34 0
355 -383 0
-384 -309 -383 0
309 383 -384 0
309 384 -383 0
384 383 -309 0
-382 -385 -384 0
382 -385 384 0
-382 385 384 0
382 385 -384 0
-382 386 -384 0
-386 384 0
382 -386 0
387 -309 -383 0
309 -387 0
-387 383 0
386 387 -388 0
-386 388 0
388 -387 0
-42 -355 389 0
-389 42 0
355 -389 0
-390 -389 -315 0
315 -390 389 0
390 315 -389 0
390 389 -315 0
-391 -390 -388 0
390 388 -391 0
391 390 -388 0
388 -390 391 0
392 -390 -388 0
-392 390 0
-392 388 0
393 -389 -315 0
-393 315 0
-393 389 0
392 393 -394 0
-392 394 0
-393 394 0
-50 395 -355 0
-395 50 0
-395 355 0
-321 -395 -396 0
-396 395 321 0
-395 321 396 0
-321 395 396 0
-396 -397 -394 0
394 396 -397 0
397 396 -394 0
397 394 -396 0
-396 398 -394 0
-398 396 0
-398 394 0
-321 -395 399 0
-399 321 0
-399 395 0
399 -400 398 0
-398 400 0
-399 400 0
-58 401 -355 0
-401 58 0
355 -401 0
-402 -401 -327 0
-402 401 327 0
402 -401 327 0
402 401 -327 0
-402 -400 -403 0
402 -403 400 0
402 -400 403 0
-402 403 400 0
-402 404 -400 0
402 -404 0
-404 400 0
405 -401 -327 0
327 -405 0
401 -405 0
404 -406 405 0
-404 406 0
406 -405 0
-355 407 -66 0
-407 66 0
355 -407 0
-408 -333 -407 0
-408 333 407 0
333 408 -407 0
-333 408 407 0
-408 -406 -409 0
-409 408 406 0
-406 408 409 0
409 -408 406 0
-408 -406 410 0
408 -410 0
406 -410 0
-333 -407 411 0
333 -411 0
407 -411 0
410 -412 411 0
412 -410 0
-411 412 0
-74 413 -355 0
74 -413 0
355 -413 0
-339 -414 -413 0
339 413 -414 0
339 -413 414 0
-339 413 414 0
-415 -412 -414 0
412 -415 414 0
415 -412 414 0
415 -414 412 0
416 -412 -414 0
-416 414 0
-416 412 0
-339 417 -413 0
-417 339 0
-417 413 0
416 417 -418 0
418 -416 0
-417 418 0
419 -355 -82 0
82 -419 0
355 -419 0
-345 -420 -419 0
345 -420 419 0
420 345 -419 0
-345 420 419 0
-421 -420 -418 0
418 420 -421 0
421 420 -418 0
418 -420 421 0
422 -420 -418 0
420 -422 0
418 -422 0
-345 423 -419 0
-423 345 0
-423 419 0
422 423 -424 0
424 -422 0
424 -423 0
-90 425 -355 0
-425 90 0
-425 355 0
-425 -351 -426 0
425 351 -426 0
351 426 -425 0
425 426 -351 0
-424 -427 -426 0
424 426 -427 0
426 -424 427 0
424 -426 427 0
-424 428 -426 0
426 -428 0
424 -428 0
-425 -351 429 0
351 -429 0
425 -429 0
428 -430 429 0
430 -428 0
430 -429 0
-355 431 -98 0
98 -431 0
-431 355 0
-354 -431 -432 0
431 354 -432 0
432 -431 354 0
-354 431 432 0
-430 -433 -432 0
430 432 -433 0
432 -430 433 0
430 433 -432 0
434 -430 -432 0
432 -434 0
430 -434 0
-354 -431 435 0
-435 354 0
-435 431 0
434 435 -436 0
436 -434 0
-435 436 0
438 -437 -1 0
1 -438 0
-438 437 0
-439 -438 -361 0
-439 438 361 0
-438 439 361 0
438 -361 439 0
440 -438 -361 0
-440 361 0
-440 438 0
-437 441 -4 0
-441 4 0
-441 437 0
-441 -367 -442 0
367 -442 441 0
-441 367 442 0
442 -367 441 0
-440 -442 -443 0
442 440 -443 0
-440 442 443 0
443 -442 440 0
-440 444 -442 0
-444 442 0
-444 440 0
-441 -367 445 0
367 -445 0
-445 441 0
-446 444 445 0
-444 446 0
-445 446 0
-10 -437 447 0
-447 10 0
-447 437 0
-447 -448 -373 0
373 -448 447 0
-447 373 448 0
447 448 -373 0
-448 -446 -449 0
-449 448 446 0
-446 448 449 0
-448 449 446 0
450 -448 -446 0
448 -450 0
-450 446 0
-447 451 -373 0
-451 373 0
-451 447 0
450 451 -452 0
452 -450 0
-451 452 0
-437 453 -18 0
-453 18 0
-453 437 0
-454 -453 -379 0
-454 379 453 0
379 -453 454 0
453 -379 454 0
-454 -455 -452 0
-455 454 452 0
455 -452 454 0
-454 455 452 0
-454 -452 456 0
454 -456 0
-456 452 0
-453 457 -379 0
-457 379 0
-457 453 0
-458 457 456 0
458 -456 0
-457 458 0
459 -26 -437 0
26 -459 0
-459 437 0
-459 -385 -460 0
459 385 -460 0
-459 385 460 0
459 -385 460 0
-458 -461 -460 0
458 460 -461 0
461 -458 460 0
461 458 -460 0
462 -458 -460 0
460 -462 0
458 -462 0
-459 463 -385 0
385 -463 0
459 -463 0
463 462 -464 0
464 -462 0
-463 464 0
-437 465 -34 0
-465 34 0
-465 437 0
-391 -465 -466 0
465 -466 391 0
-465 391 466 0
-391 466 465 0
-466 -467 -464 0
466 464 -467 0
466 467 -464 0
-466 467 464 0
-466 468 -464 0
466 -468 0
-468 464 0
-391 -465 469 0
391 -469 0
465 -469 0
469 468 -470 0
470 -468 0
470 -469 0
-42 -437 471 0
-471 42 0
-471 437 0
-471 -472 -397 0
-472 397 471 0
-471 397 472 0
472 471 -397 0
-472 -470 -473 0
472 470 -473 0
472 -470 473 0
-472 470 473 0
-472 -470 474 0
472 -474 0
-474 470 0
-471 475 -397 0
397 -475 0
-475 471 0
-476 474 475 0
-474 476 0
-475 476 0
-50 -437 477 0
-477 50 0
-477 437 0
-478 -477 -403 0
477 403 -478 0
478 -477 403 0
478 477 -403 0
-478 -476 -479 0
478 476 -479 0
478 -476 479 0
-478 476 479 0
-478 -476 480 0
478 -480 0
-480 476 0
481 -477 -403 0
-481 403 0
-481 477 0
480 -482 481 0
-480 482 0
-481 482 0
-58 -437 483 0
-483 58 0
-483 437 0
-483 -484 -409 0
409 -484 483 0
409 -483 484 0
484 -409 483 0
-485 -484 -482 0
-485 484 482 0
-482 485 484 0
-484 485 482 0
-484 486 -482 0
-486 484 0
-486 482 0
-483 -409 487 0
409 -487 0
-487 483 0
-488 486 487 0
488 -486 0
488 -487 0
-437 489 -66 0
-489 66 0
-489 437 0
-415 -490 -489 0
415 489 -490 0
415 490 -489 0
-415 489 490 0
-490 -488 -491 0
488 -491 490 0
491 490 -488 0
488 491 -490 0
492 -490 -488 0
-492 490 0
488 -492 0
-415 493 -489 0
415 -493 0
489 -493 0
492 -494 493 0
-492 494 0
494 -493 0
-74 495 -437 0
-495 74 0
-495 437 0
-495 -496 -421 0
495 -496 421 0
-495 496 421 0
495 496 -421 0
-496 -497 -494 0
494 -497 496 0
496 -494 497 0
494 -496 497 0
498 -496 -494 0
496 -498 0
494 -498 0
-495 499 -421 0
-499 421 0
495 -499 0
499 -500 498 0
500 -498 0
500 -499 0
-437 501 -82 0
82 -501 0
-501 437 0
-502 -427 -501 0
-502 501 427 0
502 -501 427 0
-427 501 502 0
-500 -502 -503 0
500 -503 502 0
-500 503 502 0
-502 503 500 0
-500 -502 504 0
-504 502 0
500 -504 0
505 -427 -501 0
-505 427 0
-505 501 0
505 -506 504 0
506 -504 0
-505 506 0
-90 -437 507 0
90 -507 0
437 -507 0
-508 -433 -507 0
507 433 -508 0
508 433 -507 0
508 507 -433 0
-506 -509 -508 0
-509 506 508 0
509 -506 508 0
509 506 -508 0
-506 510 -508 0
-510 508 0
506 -510 0
511 -433 -507 0
-511 433 0
-511 507 0
511 510 -512 0
-510 512 0
-511 512 0
-437 513 -98 0
98 -513 0
-513 437 0
-513 -436 -514 0
436 513 -514 0
436 -513 514 0
513 -436 514 0
-515 -514 -512 0
-515 514 512 0
515 514 -512 0
515 -514 512 0
516 -514 -512 0
514 -516 0
-516 512 0
-513 -436 517 0
436 -517 0
-517 513 0
516 -518 517 0
518 -516 0
-517 518 0
520 -519 -1 0
1 -520 0
-520 519 0
-520 -521 -443 0
520 443 -521 0
443 521 -520 0
520 521 -443 0
522 -520 -443 0
443 -522 0
520 -522 0
523 -519 -4 0
-523 4 0
-523 519 0
-524 -523 -449 0
523 -524 449 0
-523 524 449 0
523 -449 524 0
-522 -524 -525 0
522 -525 524 0
525 -522 524 0
522 525 -524 0
-522 526 -524 0
524 -526 0
522 -526 0
527 -523 -449 0
-527 449 0
523 -527 0
527 526 -528 0
528 -526 0
-527 528 0
-10 -519 529 0
-529 10 0
-529 519 0
-530 -529 -455 0
-530 455 529 0
-529 455 530 0
-455 530 529 0
-530 -528 -531 0
528 530 -531 0
-528 531 530 0
-530 531 528 0
-530 -528 532 0
-532 530 0
-532 528 0
-529 -455 533 0
455 -533 0
-533 529 0
-534 533 532 0
-532 534 0
-533 534 0
535 -519 -18 0
-535 18 0
-535 519 0
-535 -536 -461 0
461 535 -536 0
461 536 -535 0
535 536 -461 0
-534 -536 -537 0
536 534 -537 0
-534 537 536 0
537 -536 534 0
538 -534 -536 0
536 -538 0
-538 534 0
539 -535 -461 0
461 -539 0
535 -539 0
539 538 -540 0
540 -538 0
-539 540 0
541 -26 -519 0
26 -541 0
-541 519 0
-541 -467 -542 0
541 467 -542 0
542 -541 467 0
542 541 -467 0
-543 -542 -540 0
542 -543 540 0
542 543 -540 0
-542 543 540 0
544 -542 -540 0
542 -544 0
540 -544 0
545 -541 -467 0
467 -545 0
541 -545 0
545 544 -546 0
546 -544 0
546 -545 0
-519 547 -34 0
-547 34 0
-547 519 0
-548 -547 -473 0
-548 547 473 0
-547 473 548 0
547 -473 548 0
-548 -549 -546 0
546 -549 548 0
549 -546 548 0
546 -548 549 0
-548 -546 550 0
-550 548 0
546 -550 0
551 -547 -473 0
-551 473 0
547 -551 0
551 -552 550 0
-550 552 0
552 -551 0
-42 -519 553 0
42 -553 0
-553 519 0
-554 -553 -479 0
553 479 -554 0
554 479 -553 0
554 553 -479 0
-555 -552 -554 0
-555 552 554 0
554 555 -552 0
552 555 -554 0
556 -552 -554 0
554 -556 0
552 -556 0
557 -553 -479 0
-557 479 0
-557 553 0
557 -558 556 0
558 -556 0
-557 558 0
-50 -519 559 0
-559 50 0
-559 519 0
-485 -559 -560 0
485 -560 559 0
560 485 -559 0
-485 560 559 0
-561 -558 -560 0
560 558 -561 0
560 -558 561 0
558 561 -560 0
562 -558 -560 0
560 -562 0
558 -562 0
-485 -559 563 0
485 -563 0
-563 559 0
-564 563 562 0
564 -562 0
564 -563 0
565 -58 -519 0
-565 58 0
-565 519 0
-565 -491 -566 0
565 491 -566 0
566 491 -565 0
565 -491 566 0
-564 -567 -566 0
564 566 -567 0
-564 566 567 0
564 567 -566 0
-564 568 -566 0
566 -568 0
564 -568 0
-565 569 -491 0
491 -569 0
565 -569 0
569 568 -570 0
-568 570 0
570 -569 0
-519 571 -66 0
66 -571 0
-571 519 0
-497 -572 -571 0
-572 571 497 0
-571 572 497 0
-497 571 572 0
-573 -572 -570 0
570 572 -573 0
-570 572 573 0
570 -572 573 0
574 -572 -570 0
-574 572 0
570 -574 0
-497 575 -571 0
-575 497 0
-575 571 0
-576 574 575 0
-574 576 0
-575 576 0
-74 -519 577 0
-577 74 0
-577 519 0
-577 -578 -503 0
-578 503 577 0
-577 578 503 0
578 -503 577 0
-578 -576 -579 0
578 576 -579 0
-576 579 578 0
-578 579 576 0
-578 -576 580 0
-580 578 0
-580 576 0
-577 581 -503 0
-581 503 0
-581 577 0
580 581 -582 0
-580 582 0
582 -581 0
583 -519 -82 0
82 -583 0
-583 519 0
-509 -584 -583 0
509 583 -584 0
509 584 -583 0
583 -509 584 0
-585 -582 -584 0
582 584 -585 0
585 584 -582 0
582 585 -584 0
586 -582 -584 0
584 -586 0
582 -586 0
-509 587 -583 0
509 -587 0
583 -587 0
586 -588 587 0
588 -586 0
-587 588 0
-90 -519 589 0
-589 90 0
-589 519 0
-589 -515 -590 0
-590 515 589 0
-589 515 590 0
590 -515 589 0
-591 -588 -590 0
-591 588 590 0
591 -588 590 0
591 588 -590 0
-588 592 -590 0
-592 590 0
-592 588 0
-589 -515 593 0
515 -593 0
-593 589 0
-594 593 592 0
594 -592 0
594 -593 0
-519 -98 595 0
98 -595 0
-595 519 0
-595 -518 -596 0
518 595 -596 0
518 -595 596 0
595 -518 596 0
-597 -594 -596 0
-597 594 596 0
597 -594 596 0
597 594 -596 0
598 -594 -596 0
-598 596 0
594 -598 0
599 -595 -518 0
518 -599 0
595 -599 0
599 598 -600 0
600 -598 0
600 -599 0
602 -601 -1 0
1 -602 0
601 -602 0
-602 -525 -603 0
602 525 -603 0
603 525 -602 0
602 -525 603 0
-602 -525 604 0
525 -604 0
602 -604 0
605 -4 -601 0
-605 4 0
601 -605 0
-606 -605 -531 0
-606 531 605 0
-605 531 606 0
606 605 -531 0
-606 -607 -604 0
-607 604 606 0
607 -604 606 0
-606 607 604 0
-606 -604 608 0
606 -608 0
604 -608 0
609 -605 -531 0
531 -609 0
605 -609 0
609 608 -610 0
610 -608 0
610 -609 0
-10 611 -601 0
-611 10 0
-611 601 0
-611 -612 -537 0
-612 537 611 0
-611 537 612 0
611 612 -537 0
-612 -613 -610 0
-613 610 612 0
613 612 -610 0
-612 613 610 0
-612 614 -610 0
612 -614 0
610 -614 0
-611 615 -537 0
-615 537 0
-615 611 0
615 614 -616 0
616 -614 0
-615 616 0
617 -601 -18 0
-617 18 0
601 -617 0
-543 -618 -617 0
617 543 -618 0
618 543 -617 0
-543 618 617 0
-619 -616 -618 0
618 616 -619 0
618 619 -616 0
619 616 -618 0
620 -616 -618 0
618 -620 0
616 -620 0
-543 621 -617 0
543 -621 0
617 -621 0
621 620 -622 0
622 -620 0
622 -621 0
623 -26 -601 0
26 -623 0
-623 601 0
-623 -549 -624 0
623 549 -624 0
-623 549 624 0
623 624 -549 0
-625 -622 -624 0
622 624 -625 0
624 -622 625 0
622 625 -624 0
626 -622 -624 0
624 -626 0
622 -626 0
-623 -549 627 0
-627 549 0
623 -627 0
626 -628 627 0
628 -626 0
-627 628 0
-601 629 -34 0
-629 34 0
601 -629 0
-555 -629 -630 0
-630 555 629 0
555 -629 630 0
-555 630 629 0
-630 -628 -631 0
628 630 -631 0
631 -628 630 0
-630 628 631 0
-630 -628 632 0
-632 630 0
628 -632 0
-555 -629 633 0
555 -633 0
-633 629 0
-634 633 632 0
-632 634 0
-633 634 0
-42 635 -601 0
-635 42 0
-635 601 0
-635 -636 -561 0
-636 635 561 0
-635 636 561 0
635 636 -561 0
-636 -634 -637 0
-637 636 634 0
-634 637 636 0
-636 637 634 0
-636 -634 638 0
636 -638 0
-638 634 0
-635 -561 639 0
-639 561 0
635 -639 0
639 -640 638 0
640 -638 0
640 -639 0
-50 641 -601 0
50 -641 0
601 -641 0
-642 -641 -567 0
-642 567 641 0
567 642 -641 0
642 641 -567 0
-642 -640 -643 0
642 640 -643 0
642 -640 643 0
-642 640 643 0
-642 -640 644 0
642 -644 0
640 -644 0
645 -641 -567 0
567 -645 0
641 -645 0
645 644 -646 0
646 -644 0
646 -645 0
-58 647 -601 0
-647 58 0
601 -647 0
-648 -573 -647 0
-648 647 573 0
-647 648 573 0
-573 648 647 0
-648 -646 -649 0
646 648 -649 0
-646 648 649 0
-648 646 649 0
650 -648 -646 0
648 -650 0
646 -650 0
-573 -647 651 0
-651 573 0
-651 647 0
650 -652 651 0
652 -650 0
-651 652 0
-601 653 -66 0
-653 66 0
601 -653 0
-653 -654 -579 0
579 -654 653 0
654 579 -653 0
654 653 -579 0
-655 -652 -654 0
654 -655 652 0
654 -652 655 0
655 -654 652 0
-652 -654 656 0
654 -656 0
-656 652 0
-653 657 -579 0
-657 579 0
-657 653 0
656 657 -658 0
658 -656 0
-657 658 0
-74 659 -601 0
-659 74 0
-659 601 0
-659 -585 -660 0
585 659 -660 0
-659 585 660 0
-585 659 660 0
-661 -660 -658 0
658 -661 660 0
661 660 -658 0
658 661 -660 0
-660 662 -658 0
-662 660 0
658 -662 0
-659 -585 663 0
-663 585 0
-663 659 0
663 662 -664 0
664 -662 0
664 -663 0
-601 665 -82 0
82 -665 0
601 -665 0
-591 -666 -665 0
-666 591 665 0
666 591 -665 0
666 -591 665 0
-666 -664 -667 0
664 666 -667 0
666 667 -664 0
664 667 -666 0
668 -666 -664 0
666 -668 0
664 -668 0
-591 669 -665 0
-669 591 0
-669 665 0
668 -670 669 0
670 -668 0
-669 670 0
-90 671 -601 0
90 -671 0
601 -671 0
-597 -671 -672 0
597 671 -672 0
672 597 -671 0
-597 672 671 0
-673 -670 -672 0
672 670 -673 0
672 -670 673 0
670 -672 673 0
-670 -672 674 0
672 -674 0
670 -674 0
-597 675 -671 0
597 -675 0
-675 671 0
675 -676 674 0
-674 676 0
-675 676 0
677 -98 -601 0
98 -677 0
601 -677 0
-678 -600 -677 0
-678 677 600 0
678 -677 600 0
-600 678 677 0
-678 -676 -679 0
678 676 -679 0
-676 679 678 0
-678 679 676 0
-678 -676 680 0
678 -680 0
676 -680 0
681 -600 -677 0
-681 600 0
677 -681 0
681 -682 680 0
-680 682 0
-681 682 0
-683 684 -1 0
1 -684 0
-684 683 0
-684 -607 -685 0
-685 607 684 0
-684 607 685 0
-607 684 685 0
-684 -607 686 0
-686 607 0
-686 684 0
687 -4 -683 0
-687 4 0
-687 683 0
-687 -688 -613 0
687 -688 613 0
-687 688 613 0
687 688 -613 0
-686 -688 -689 0
688 686 -689 0
-686 688 689 0
689 -688 686 0
-686 -688 690 0
688 -690 0
686 -690 0
-687 691 -613 0
613 -691 0
687 -691 0
-692 691 690 0
-690 692 0
-691 692 0
-10 693 -683 0
-693 10 0
-693 683 0
-619 -693 -694 0
619 693 -694 0
619 -693 694 0
-619 693 694 0
-692 -694 -695 0
-695 694 692 0
-692 695 694 0
-694 695 692 0
-692 696 -694 0
694 -696 0
-696 692 0
-619 -693 697 0
619 -697 0
693 -697 0
-698 696 697 0
-696 698 0
-697 698 0
699 -683 -18 0
-699 18 0
683 -699 0
-700 -699 -625 0
699 -700 625 0
700 625 -699 0
700 699 -625 0
-698 -700 -701 0
700 -701 698 0
-698 701 700 0
701 -700 698 0
-698 -700 702 0
-702 700 0
-702 698 0
703 -699 -625 0
625 -703 0
699 -703 0
702 -704 703 0
-702 704 0
704 -703 0
-26 705 -683 0
26 -705 0
683 -705 0
-706 -631 -705 0
631 -706 705 0
631 706 -705 0
706 -631 705 0
-707 -704 -706 0
704 706 -707 0
706 -704 707 0
704 707 -706 0
708 -704 -706 0
706 -708 0
704 -708 0
709 -631 -705 0
631 -709 0
-709 705 0
-710 708 709 0
-708 710 0
710 -709 0
711 -683 -34 0
-711 34 0
-711 683 0
-711 -637 -712 0
711 637 -712 0
712 -711 637 0
711 712 -637 0
-710 -712 -713 0
712 -713 710 0
712 -710 713 0
713 -712 710 0
714 -710 -712 0
712 -714 0
-714 710 0
715 -711 -637 0
-715 637 0
711 -715 0
715 714 -716 0
-714 716 0
-715 716 0
-42 717 -683 0
42 -717 0
683 -717 0
-718 -643 -717 0
717 -718 643 0
718 643 -717 0
717 718 -643 0
-719 -716 -718 0
-719 718 716 0
718 -716 719 0
719 -718 716 0
720 -716 -718 0
-720 718 0
-720 716 0
721 -643 -717 0
-721 643 0
717 -721 0
720 721 -722 0
-720 722 0
722 -721 0
723 -50 -683 0
50 -723 0
683 -723 0
-724 -649 -723 0
723 -724 649 0
724 649 -723 0
723 -649 724 0
-724 -725 -722 0
722 -725 724 0
725 -722 724 0
-724 722 725 0
-724 -722 726 0
-726 724 0
-726 722 0
727 -649 -723 0
-727 649 0
723 -727 0
727 -728 726 0
-726 728 0
728 -727 0
729 -58 -683 0
-729 58 0
-729 683 0
-655 -729 -730 0
655 -730 729 0
655 -729 730 0
-655 730 729 0
-728 -730 -731 0
730 728 -731 0
731 -728 730 0
731 -730 728 0
-728 -730 732 0
730 -732 0
728 -732 0
-655 -729 733 0
655 -733 0
729 -733 0
733 -734 732 0
734 -732 0
-733 734 0
735 -683 -66 0
-735 66 0
683 -735 0
-661 -736 -735 0
661 -736 735 0
736 661 -735 0
-661 735 736 0
-737 -736 -734 0
-737 736 734 0
736 -734 737 0
-736 734 737 0
738 -736 -734 0
736 -738 0
-738 734 0
-661 739 -735 0
661 -739 0
735 -739 0
738 739 -740 0
740 -738 0
740 -739 0
-74 741 -683 0
-741 74 0
-741 683 0
-741 -742 -667 0
667 -742 741 0
-741 667 742 0
741 742 -667 0
-742 -743 -740 0
740 -743 742 0
-740 743 742 0
-742 740 743 0
744 -742 -740 0
-744 742 0
740 -744 0
-741 745 -667 0
667 -745 0
741 -745 0
745 744 -746 0
-744 746 0
-745 746 0
747 -683 -82 0
82 -747 0
-747 683 0
-673 -748 -747 0
-748 747 673 0
-747 748 673 0
-673 747 748 0
-748 -746 -749 0
-749 748 746 0
-746 748 749 0
749 -748 746 0
-748 -746 750 0
-750 748 0
-750 746 0
-673 -747 751 0
-751 673 0
-751 747 0
751 -752 750 0
-750 752 0
-751 752 0
-90 753 -683 0
-753 90 0
-753 683 0
-753 -754 -679 0
753 679 -754 0
-753 754 679 0
754 753 -679 0
-755 -754 -752 0
-755 754 752 0
755 754 -752 0
755 -754 752 0
-754 756 -752 0
754 -756 0
-756 752 0
-753 757 -679 0
679 -757 0
753 -757 0
-758 757 756 0
758 -756 0
758 -757 0
759 -98 -683 0
98 -759 0
-759 683 0
-682 -759 -760 0
759 -760 682 0
-759 760 682 0
-682 759 760 0
-761 -760 -758 0
-761 758 760 0
-758 761 760 0
758 -760 761 0
-760 -758 762 0
-762 760 0
-762 758 0
-682 -759 763 0
-763 682 0
759 -763 0
763 -764 762 0
-762 764 0
-763 764 0
-765 766 -1 0
1 -766 0
-766 765 0
-766 -767 -689 0
766 689 -767 0
767 -766 689 0
766 767 -689 0
768 -766 -689 0
689 -768 0
766 -768 0
769 -765 -4 0
-769 4 0
-769 765 0
-769 -770 -695 0
769 695 -770 0
-769 770 695 0
769 770 -695 0
-771 -770 -768 0
770 -771 768 0
770 771 -768 0
-770 771 768 0
-770 772 -768 0
770 -772 0
-772 768 0
-769 773 -695 0
695 -773 0
769 -773 0
-774 773 772 0
-772 774 0
774 -773 0
-10 -765 775 0
-775 10 0
-775 765 0
-775 -701 -776 0
701 775 -776 0
701 -775 776 0
776 -701 775 0
-777 -774 -776 0
776 -777 774 0
776 777 -774 0
777 774 -776 0
778 -774 -776 0
776 -778 0
-778 774 0
-775 -701 779 0
701 -779 0
-779 775 0
-780 779 778 0
-778 780 0
780 -779 0
-765 781 -18 0
-781 18 0
765 -781 0
-707 -782 -781 0
781 707 -782 0
782 707 -781 0
782 781 -707 0
-783 -782 -780 0
782 780 -783 0
782 -780 783 0
780 -782 783 0
784 -782 -780 0
782 -784 0
780 -784 0
785 -707 -781 0
707 -785 0
781 -785 0
785 784 -786 0
786 -784 0
786 -785 0
-26 -765 787 0
26 -787 0
765 -787 0
-713 -788 -787 0
787 -788 713 0
788 713 -787 0
788 787 -713 0
-789 -788 -786 0
788 786 -789 0
788 789 -786 0
789 786 -788 0
-788 -786 790 0
788 -790 0
786 -790 0
791 -713 -787 0
-791 713 0
787 -791 0
-792 791 790 0
-790 792 0
792 -791 0
-765 793 -34 0
-793 34 0
765 -793 0
-719 -794 -793 0
-794 719 793 0
719 794 -793 0
-719 793 794 0
-792 -794 -795 0
792 -795 794 0
-792 795 794 0
-794 795 792 0
-792 -794 796 0
794 -796 0
792 -796 0
-719 797 -793 0
-797 719 0
-797 793 0
-798 797 796 0
798 -796 0
-797 798 0
-42 -765 799 0
-799 42 0
-799 765 0
-799 -725 -800 0
799 725 -800 0
-799 725 800 0
-725 800 799 0
-801 -798 -800 0
-801 798 800 0
801 800 -798 0
798 801 -800 0
802 -798 -800 0
-802 800 0
-802 798 0
-799 -725 803 0
725 -803 0
799 -803 0
802 803 -804 0
-802 804 0
804 -803 0
-50 805 -765 0
50 -805 0
765 -805 0
-806 -805 -731 0
731 805 -806 0
806 731 -805 0
806 805 -731 0
-804 -806 -807 0
806 804 -807 0
806 -804 807 0
-806 804 807 0
808 -804 -806 0
806 -808 0
804 -808 0
809 -805 -731 0
731 -809 0
805 -809 0
809 808 -810 0
810 -808 0
810 -809 0
-765 -58 811 0
-811 58 0
-811 765 0
-811 -737 -812 0
-812 811 737 0
-811 812 737 0
812 -737 811 0
-813 -810 -812 0
-813 812 810 0
813 812 -810 0
813 810 -812 0
814 -810 -812 0
812 -814 0
810 -814 0
-811 -737 815 0
-815 737 0
-815 811 0
-816 814 815 0
816 -814 0
816 -815 0
-765 817 -66 0
-817 66 0
-817 765 0
-817 -818 -743 0
817 743 -818 0
-817 743 818 0
817 818 -743 0
-818 -819 -816 0
816 818 -819 0
-816 818 819 0
816 -818 819 0
-818 820 -816 0
-820 818 0
816 -820 0
-817 -743 821 0
743 -821 0
817 -821 0
821 -822 820 0
-820 822 0
822 -821 0
-74 -765 823 0
74 -823 0
765 -823 0
-824 -749 -823 0
-824 823 749 0
824 749 -823 0
824 823 -749 0
-825 -822 -824 0
-825 824 822 0
-822 824 825 0
-824 822 825 0
-822 -824 826 0
824 -826 0
822 -826 0
827 -749 -823 0
-827 749 0
-827 823 0
-828 827 826 0
828 -826 0
-827 828 0
-765 829 -82 0
82 -829 0
-829 765 0
-755 -830 -829 0
755 -830 829 0
755 -829 830 0
-755 829 830 0
-828 -831 -830 0
828 -831 830 0
-828 831 830 0
828 -830 831 0
-828 -830 832 0
-832 830 0
828 -832 0
833 -755 -829 0
755 -833 0
-833 829 0
833 832 -834 0
-832 834 0
-833 834 0
-90 -765 835 0
-835 90 0
-835 765 0
-835 -761 -836 0
-836 835 761 0
-835 836 761 0
-761 836 835 0
-837 -836 -834 0
-837 836 834 0
836 -834 837 0
-836 837 834 0
838 -836 -834 0
836 -838 0
-838 834 0
839 -835 -761 0
-839 761 0
-839 835 0
839 -840 838 0
840 -838 0
840 -839 0
-765 -98 841 0
-841 98 0
-841 765 0
-841 -842 -764 0
-842 764 841 0
842 -841 764 0
842 -764 841 0
-840 -842 -843 0
842 840 -843 0
842 -840 843 0
840 -842 843 0
-840 -842 844 0
842 -844 0
840 -844 0
-841 845 -764 0
-845 764 0
-845 841 0
844 845 -846 0
846 -844 0
846 -845 0
848 -847 -1 0
1 -848 0
-848 847 0
-849 -771 -848 0
-849 848 771 0
849 771 -848 0
849 848 -771 0
-771 -848 850 0
771 -850 0
848 -850 0
851 -847 -4 0
-851 4 0
847 -851 0
-852 -777 -851 0
777 851 -852 0
852 777 -851 0
852 -777 851 0
-852 -853 -850 0
852 -853 850 0
852 853 -850 0
-852 853 850 0
-852 854 -850 0
-854 852 0
-854 850 0
855 -777 -851 0
-855 777 0
-855 851 0
855 854 -856 0
-854 856 0
-855 856 0
-10 -847 857 0
-857 10 0
-857 847 0
-857 -858 -783 0
-858 857 783 0
-857 858 783 0
858 -783 857 0
-859 -858 -856 0
-859 858 856 0
858 -856 859 0
-858 859 856 0
860 -858 -856 0
-860 858 0
-860 856 0
861 -857 -783 0
-861 783 0
-861 857 0
860 -862 861 0
862 -860 0
-861 862 0
863 -847 -18 0
-863 18 0
-863 847 0
-789 -863 -864 0
-864 863 789 0
-863 789 864 0
-789 863 864 0
-864 -862 -865 0
862 864 -865 0
865 -862 864 0
862 -864 865 0
-864 -862 866 0
-866 864 0
862 -866 0
867 -789 -863 0
-867 789 0
-867 863 0
867 866 -868 0
868 -866 0
868 -867 0
-26 -847 869 0
26 -869 0
-869 847 0
-870 -869 -795 0
795 -870 869 0
870 -869 795 0
870 -795 869 0
-868 -871 -870 0
868 870 -871 0
-868 870 871 0
868 871 -870 0
-868 872 -870 0
870 -872 0
868 -872 0
-869 873 -795 0
-873 795 0
-873 869 0
-874 873 872 0
-872 874 0
-873 874 0
875 -847 -34 0
-875 34 0
847 -875 0
-801 -876 -875 0
875 801 -876 0
876 801 -875 0
-801 875 876 0
-874 -877 -876 0
-877 876 874 0
-874 876 877 0
874 -876 877 0
-874 878 -876 0
876 -878 0
874 -878 0
-801 879 -875 0
-879 801 0
-879 875 0
879 -880 878 0
880 -878 0
880 -879 0
-42 881 -847 0
-881 42 0
-881 847 0
-881 -882 -807 0
807 881 -882 0
882 807 -881 0
882 881 -807 0
-883 -880 -882 0
882 880 -883 0
882 -880 883 0
880 883 -882 0
884 -880 -882 0
882 -884 0
880 -884 0
-881 885 -807 0
807 -885 0
881 -885 0
-886 884 885 0
886 -884 0
886 -885 0
-50 887 -847 0
-887 50 0
-887 847 0
-813 -887 -888 0
813 -888 887 0
813 -887 888 0
-813 887 888 0
-886 -889 -888 0
886 -889 888 0
-886 889 888 0
886 889 -888 0
-886 -888 890 0
-890 888 0
886 -890 0
-813 -887 891 0
813 -891 0
-891 887 0
-892 890 891 0
892 -890 0
-891 892 0
-58 -847 893 0
-893 58 0
-893 847 0
-893 -819 -894 0
893 819 -894 0
894 -893 819 0
894 -819 893 0
-895 -892 -894 0
894 -895 892 0
894 -892 895 0
895 892 -894 0
-892 896 -894 0
894 -896 0
892 -896 0
897 -893 -819 0
-897 819 0
-897 893 0
897 -898 896 0
898 -896 0
898 -897 0
899 -847 -66 0
-899 66 0
-899 847 0
-825 -899 -900 0
899 -900 825 0
900 -899 825 0
-825 900 899 0
-901 -898 -900 0
900 898 -901 0
900 901 -898 0
898 901 -900 0
902 -898 -900 0
900 -902 0
898 -902 0
-825 903 -899 0
-903 825 0
-903 899 0
902 903 -904 0
-902 904 0
-903 904 0
-74 905 -847 0
-905 74 0
-905 847 0
-905 -906 -831 0
905 -906 831 0
-905 906 831 0
906 905 -831 0
-906 -907 -904 0
906 904 -907 0
906 -904 907 0
-906 907 904 0
-906 908 -904 0
906 -908 0
904 -908 0
-905 -831 909 0
-909 831 0
905 -909 0
909 908 -910 0
-908 910 0
-909 910 0
911 -847 -82 0
82 -911 0
-911 847 0
-837 -911 -912 0
-912 837 911 0
912 -911 837 0
-837 912 911 0
-910 -913 -912 0
912 -913 910 0
912 913 -910 0
913 910 -912 0
914 -910 -912 0
912 -914 0
-914 910 0
-837 -911 915 0
-915 837 0
-915 911 0
915 914 -916 0
-914 916 0
-915 916 0
-90 917 -847 0
-917 90 0
-917 847 0
-917 -918 -843 0
-918 843 917 0
-917 843 918 0
918 917 -843 0
-919 -918 -916 0
916 918 -919 0
919 918 -916 0
916 -918 919 0
920 -918 -916 0
-920 918 0
916 -920 0
-917 921 -843 0
843 -921 0
-921 917 0
-922 920 921 0
-920 922 0
-921 922 0
-847 923 -98 0
98 -923 0
-923 847 0
-924 -923 -846 0
846 -924 923 0
924 846 -923 0
924 923 -846 0
-922 -925 -924 0
924 -925 922 0
924 -922 925 0
925 -924 922 0
-922 926 -924 0
924 -926 0
-926 922 0
927 -923 -846 0
846 -927 0
923 -927 0
-928 927 926 0
928 -926 0
928 -927 0
930 -929 -1 0
1 -930 0
-930 929 0
-930 -853 -931 0
930 -931 853 0
-930 931 853 0
-853 930 931 0
932 -930 -853 0
-932 853 0
930 -932 0
933 -929 -4 0
-933 4 0
-933 929 0
-859 -934 -933 0
933 859 -934 0
859 -933 934 0
933 -859 934 0
-932 -934 -935 0
-935 932 934 0
935 -932 934 0
932 -934 935 0
936 -932 -934 0
-936 934 0
932 -936 0
-859 937 -933 0
859 -937 0
933 -937 0
936 -938 937 0
938 -936 0
938 -937 0
-10 939 -929 0
-939 10 0
-939 929 0
-939 -865 -940 0
939 865 -940 0
-939 865 940 0
940 939 -865 0
-941 -938 -940 0
938 -941 940 0
941 -938 940 0
941 938 -940 0
942 -938 -940 0
940 -942 0
938 -942 0
-939 943 -865 0
865 -943 0
939 -943 0
942 943 -944 0
944 -942 0
944 -943 0
945 -929 -18 0
-945 18 0
-945 929 0
-871 -946 -945 0
871 -946 945 0
871 946 -945 0
-871 946 945 0
-947 -946 -944 0
944 946 -947 0
947 946 -944 0
944 947 -946 0
948 -946 -944 0
-948 946 0
944 -948 0
949 -871 -945 0
871 -949 0
945 -949 0
949 -950 948 0
-948 950 0
950 -949 0
-26 -929 951 0
26 -951 0
-951 929 0
-877 -952 -951 0
-952 951 877 0
952 -951 877 0
-877 952 951 0
-952 -950 -953 0
952 950 -953 0
952 -950 953 0
-952 950 953 0
-952 -950 954 0
-954 952 0
-954 950 0
-877 -951 955 0
-955 877 0
-955 951 0
-956 954 955 0
-954 956 0
956 -955 0
957 -929 -34 0
-957 34 0
-957 929 0
-883 -957 -958 0
957 -958 883 0
-957 958 883 0
-883 958 957 0
-959 -956 -958 0
-959 956 958 0
959 -956 958 0
959 956 -958 0
-956 -958 960 0
958 -960 0
956 -960 0
-883 -957 961 0
883 -961 0
957 -961 0
-962 961 960 0
-960 962 0
-961 962 0
-42 963 -929 0
-963 42 0
-963 929 0
-889 -963 -964 0
963 889 -964 0
889 -963 964 0
963 -889 964 0
-962 -965 -964 0
-965 962 964 0
-962 965 964 0
965 -964 962 0
966 -962 -964 0
-966 964 0
-966 962 0
-889 967 -963 0
889 -967 0
963 -967 0
966 -968 967 0
-966 968 0
-967 968 0
-50 969 -929 0
50 -969 0
-969 929 0
-970 -895 -969 0
-970 969 895 0
970 -969 895 0
-895 969 970 0
-970 -971 -968 0
-971 970 968 0
971 -968 970 0
-970 971 968 0
-970 972 -968 0
970 -972 0
-972 968 0
-895 973 -969 0
-973 895 0
969 -973 0
972 973 -974 0
974 -972 0
974 -973 0
-58 -929 975 0
-975 58 0
-975 929 0
-975 -901 -976 0
901 -976 975 0
-975 901 976 0
976 -901 975 0
-977 -976 -974 0
-977 976 974 0
976 977 -974 0
974 -976 977 0
-976 978 -974 0
976 -978 0
974 -978 0
979 -975 -901 0
901 -979 0
-979 975 0
979 -980 978 0
980 -978 0
-979 980 0
981 -929 -66 0
-981 66 0
-981 929 0
-981 -907 -982 0
907 981 -982 0
-981 907 982 0
981 982 -907 0
-980 -983 -982 0
-983 980 982 0
-980 983 982 0
980 983 -982 0
-980 984 -982 0
982 -984 0
980 -984 0
985 -981 -907 0
-985 907 0
-985 981 0
985 -986 984 0
986 -984 0
-985 986 0
-74 -929 987 0
74 -987 0
-987 929 0
-988 -987 -913 0
913 -988 987 0
988 913 -987 0
988 987 -913 0
-986 -989 -988 0
988 -989 986 0
988 -986 989 0
989 986 -988 0
990 -986 -988 0
988 -990 0
-990 986 0
991 -987 -913 0
-991 913 0
-991 987 0
990 -992 991 0
-990 992 0
-991 992 0
993 -929 -82 0
82 -993 0
-993 929 0
-919 -994 -993 0
-994 993 919 0
994 -993 919 0
-919 993 994 0
-994 -992 -995 0
994 992 -995 0
-992 994 995 0
-994 992 995 0
996 -994 -992 0
-996 994 0
-996 992 0
-919 -993 997 0
-997 919 0
993 -997 0
996 997 -998 0
-996 998 0
998 -997 0
-90 999 -929 0
90 -999 0
-999 929 0
-1000 -925 -999 0
-1000 999 925 0
1000 -999 925 0
1000 -925 999 0
-998 -1001 -1000 0
1000 998 -1001 0
1000 1001 -998 0
998 1001 -1000 0
-998 1002 -1000 0
1000 -1002 0
998 -1002 0
1003 -925 -999 0
-1003 925 0
-1003 999 0
1003 -1004 1002 0
-1002 1004 0
-1003 1004 0
1005 -929 -98 0
-1005 98 0
-1005 929 0
-1005 -928 -1006 0
928 -1006 1005 0
928 -1005 1006 0
1005 -928 1006 0
-1006 -1004 -1007 0
-1007 1004 1006 0
1007 -1004 1006 0
1007 -1006 1004 0
-1006 -1004 1008 0
-1008 1006 0
-1008 1004 0
-1005 -928 1009 0
928 -1009 0
1005 -1009 0
1009 -1010 1008 0
-1008 1010 0
1010 -1009 0
1012 -1011 -1 0
1 -1012 0
-1012 1011 0
-1013 -1012 -935 0
1012 -1013 935 0
1013 -1012 935 0
1013 1012 -935 0
1014 -1012 -935 0
-1014 935 0
1012 -1014 0
1015 -1011 -4 0
-1015 4 0
-1015 1011 0
-1016 -941 -1015 0
941 -1016 1015 0
941 1016 -1015 0
1016 -941 1015 0
-1016 -1017 -1014 0
-1017 1016 1014 0
1016 -1014 1017 0
-1016 1017 1014 0
-1016 -1014 1018 0
1016 -1018 0
1014 -1018 0
1019 -941 -1015 0
941 -1019 0
-1019 1015 0
1019 1018 -1020 0
1020 -1018 0
1020 -1019 0
-10 1021 -1011 0
-1021 10 0
-1021 1011 0
-1021 -947 -1022 0
1021 947 -1022 0
1022 -1021 947 0
1022 1021 -947 0
-1023 -1022 -1020 0
1022 -1023 1020 0
1022 1023 -1020 0
1020 1023 -1022 0
1024 -1022 -1020 0
1022 -1024 0
1020 -1024 0
-1021 -947 1025 0
-1025 947 0
1021 -1025 0
1024 1025 -1026 0
-1024 1026 0
1026 -1025 0
1027 -1011 -18 0
-1027 18 0
-1027 1011 0
-1028 -953 -1027 0
1027 -1028 953 0
1028 953 -1027 0
1027 1028 -953 0
-1028 -1029 -1026 0
1026 1028 -1029 0
1028 1029 -1026 0
1026 1029 -1028 0
-1028 1030 -1026 0
1028 -1030 0
1026 -1030 0
1031 -953 -1027 0
-1031 953 0
1027 -1031 0
-1032 1031 1030 0
-1030 1032 0
-1031 1032 0
-26 -1011 1033 0
26 -1033 0
-1033 1011 0
-959 -1033 -1034 0
-1034 959 1033 0
-1033 959 1034 0
-959 1033 1034 0
-1034 -1032 -1035 0
-1035 1032 1034 0
-1032 1035 1034 0
-1034 1035 1032 0
1036 -1034 -1032 0
-1036 1034 0
-1036 1032 0
-959 -1033 1037 0
-1037 959 0
-1037 1033 0
1036 -1038 1037 0
1038 -1036 0
-1037 1038 0
-1011 1039 -34 0
-1039 34 0
-1039 1011 0
-965 -1040 -1039 0
-1040 1039 965 0
1040 965 -1039 0
-965 1039 1040 0
-1041 -1040 -1038 0
1038 -1041 1040 0
-1038 1041 1040 0
1038 -1040 1041 0
-1040 -1038 1042 0
-1042 1040 0
1038 -1042 0
1043 -965 -1039 0
-1043 965 0
-1043 1039 0
1043 -1044 1042 0
-1042 1044 0
-1043 1044 0
-42 -1011 1045 0
-1045 42 0
-1045 1011 0
-971 -1046 -1045 0
971 1045 -1046 0
971 -1045 1046 0
-971 1045 1046 0
-1047 -1044 -1046 0
1044 -1047 1046 0
1047 -1044 1046 0
1044 1047 -1046 0
1048 -1044 -1046 0
-1048 1046 0
-1048 1044 0
1049 -971 -1045 0
971 -1049 0
1045 -1049 0
1048 1049 -1050 0
-1048 1050 0
-1049 1050 0
-50 -1011 1051 0
-1051 50 0
-1051 1011 0
-977 -1052 -1051 0
-1052 977 1051 0
977 -1051 1052 0
-977 1051 1052 0
-1052 -1050 -1053 0
-1053 1052 1050 0
-1050 1052 1053 0
-1052 1053 1050 0
-1052 -1050 1054 0
1052 -1054 0
-1054 1050 0
-977 1055 -1051 0
977 -1055 0
-1055 1051 0
-1056 1054 1055 0
1056 -1054 0
1056 -1055 0
-58 -1011 1057 0
-1057 58 0
-1057 1011 0
-983 -1058 -1057 0
1057 983 -1058 0
1058 983 -1057 0
-983 1058 1057 0
-1056 -1058 -1059 0
1056 -1059 1058 0
-1056 1059 1058 0
1059 -1058 1056 0
-1056 1060 -1058 0
-1060 1058 0
1056 -1060 0
-983 1061 -1057 0
983 -1061 0
1057 -1061 0
1060 1061 -1062 0
1062 -1060 0
1062 -1061 0
1063 -1011 -66 0
-1063 66 0
-1063 1011 0
-1063 -989 -1064 0
1063 989 -1064 0
-1063 989 1064 0
1063 -989 1064 0
-1065 -1062 -1064 0
-1065 1062 1064 0
1065 -1062 1064 0
1065 1062 -1064 0
1066 -1062 -1064 0
-1066 1064 0
1062 -1066 0
-1063 1067 -989 0
-1067 989 0
-1067 1063 0
1066 1067 -1068 0
1068 -1066 0
-1067 1068 0
1069 -74 -1011 0
74 -1069 0
-1069 1011 0
-1069 -1070 -995 0
1069 -1070 995 0
-1069 1070 995 0
1069 1070 -995 0
-1070 -1068 -1071 0
1068 1070 -1071 0
-1068 1070 1071 0
-1070 1068 1071 0
1072 -1070 -1068 0
-1072 1070 0
-1072 1068 0
-1069 1073 -995 0
-1073 995 0
1069 -1073 0
1072 1073 -1074 0
-1072 1074 0
-1073 1074 0
-1011 1075 -82 0
82 -1075 0
-1075 1011 0
-1076 -1001 -1075 0
1075 1001 -1076 0
1076 1001 -1075 0
1075 1076 -1001 0
-1076 -1074 -1077 0
1076 1074 -1077 0
1077 1076 -1074 0
-1076 1074 1077 0
1078 -1076 -1074 0
-1078 1076 0
-1078 1074 0
-1001 1079 -1075 0
-1079 1001 0
-1079 1075 0
1078 -1080 1079 0
-1078 1080 0
-1079 1080 0
-90 -1011 1081 0
90 -1081 0
-1081 1011 0
-1082 -1081 -1007 0
1007 1081 -1082 0
1007 1082 -1081 0
1081 -1007 1082 0
-1080 -1082 -1083 0
1080 -1083 1082 0
-1080 1082 1083 0
1080 -1082 1083 0
1084 -1080 -1082 0
1082 -1084 0
1080 -1084 0
1085 -1081 -1007 0
1007 -1085 0
1081 -1085 0
1084 1085 -1086 0
1086 -1084 0
1086 -1085 0
1087 -1011 -98 0
98 -1087 0
-1087 1011 0
-1088 -1010 -1087 0
1087 -1088 1010 0
1088 1010 -1087 0
1087 -1010 1088 0
-1089 -1086 -1088 0
-1089 1088 1086 0
-1086 1088 1089 0
1089 -1088 1086 0
1090 -1086 -1088 0
1088 -1090 0
-1090 1086 0
1091 -1010 -1087 0
1010 -1091 0
1087 -1091 0
1090 1091 -1092 0
-1090 1092 0
1092 -1091 0
3 0
-8 0
-111 0
-193 0
275 0
-357 0
439 0
521 0
-603 0
685 0
-767 0
849 0
-931 0
1013 0
-1017 0
-1023 0
-1029 0
-1035 0
-1041 0
-1047 0
-1053 0
-1059 0
-1065 0
-1071 0
-1077 0
-1083 0
-1089 0
-1092 0
