p cnf 1440 4720
-1 -2 3 0
1 -3 0
2 -3 0
-4 -2 5 0
4 -5 0
2 -5 0
-1 -6 7 0
1 -7 0
6 -7 0
-5 -7 -8 0
5 7 -8 0
5 -7 8 0
-5 7 8 0
-5 -7 9 0
5 -9 0
7 -9 0
-10 -2 11 0
10 -11 0
2 -11 0
-4 -6 12 0
4 -12 0
6 -12 0
-11 -12 -13 0
11 12 -13 0
11 -12 13 0
-11 12 13 0
-13 -9 -14 0
13 9 -14 0
13 -9 14 0
-13 9 14 0
-13 -9 15 0
13 -15 0
9 -15 0
-11 -12 16 0
11 -16 0
12 -16 0
15 16 -17 0
-15 17 0
-16 17 0
-18 -2 19 0
18 -19 0
2 -19 0
-10 -6 20 0
10 -20 0
6 -20 0
-19 -20 -21 0
19 20 -21 0
19 -20 21 0
-19 20 21 0
-21 -17 -22 0
21 17 -22 0
21 -17 22 0
-21 17 22 0
-21 -17 23 0
21 -23 0
17 -23 0
-19 -20 24 0
19 -24 0
20 -24 0
23 24 -25 0
-23 25 0
-24 25 0
-26 -2 27 0
26 -27 0
2 -27 0
-18 -6 28 0
18 -28 0
6 -28 0
-27 -28 -29 0
27 28 -29 0
27 -28 29 0
-27 28 29 0
-29 -25 -30 0
29 25 -30 0
29 -25 30 0
-29 25 30 0
-29 -25 31 0
29 -31 0
25 -31 0
-27 -28 32 0
27 -32 0
28 -32 0
31 32 -33 0
-31 33 0
-32 33 0
-34 -2 35 0
34 -35 0
2 -35 0
-26 -6 36 0
26 -36 0
6 -36 0
-35 -36 -37 0
35 36 -37 0
35 -36 37 0
-35 36 37 0
-37 -33 -38 0
37 33 -38 0
37 -33 38 0
-37 33 38 0
-37 -33 39 0
37 -39 0
33 -39 0
-35 -36 40 0
35 -40 0
36 -40 0
39 40 -41 0
-39 41 0
-40 41 0
-42 -2 43 0
42 -43 0
2 -43 0
-34 -6 44 0
34 -44 0
6 -44 0
-43 -44 -45 0
43 44 -45 0
43 -44 45 0
-43 44 45 0
-45 -41 -46 0
45 41 -46 0
45 -41 46 0
-45 41 46 0
-45 -41 47 0
45 -47 0
41 -47 0
-43 -44 48 0
43 -48 0
44 -48 0
47 48 -49 0
-47 49 0
-48 49 0
-50 -2 51 0
50 -51 0
2 -51 0
-42 -6 52 0
42 -52 0
6 -52 0
-51 -52 -53 0
51 52 -53 0
51 -52 53 0
-51 52 53 0
-53 -49 -54 0
53 49 -54 0
53 -49 54 0
-53 49 54 0
-53 -49 55 0
53 -55 0
49 -55 0
-51 -52 56 0
51 -56 0
52 -56 0
55 56 -57 0
-55 57 0
-56 57 0
-58 -2 59 0
58 -59 0
2 -59 0
-50 -6 60 0
50 -60 0
6 -60 0
-59 -60 -61 0
59 60 -61 0
59 -60 61 0
-59 60 61 0
-61 -57 -62 0
61 57 -62 0
61 -57 62 0
-61 57 62 0
-61 -57 63 0
61 -63 0
57 -63 0
-59 -60 64 0
59 -64 0
60 -64 0
63 64 -65 0
-63 65 0
-64 65 0
-66 -2 67 0
66 -67 0
2 -67 0
-58 -6 68 0
58 -68 0
6 -68 0
-67 -68 -69 0
67 68 -69 0
67 -68 69 0
-67 68 69 0
-69 -65 -70 0
69 65 -70 0
69 -65 70 0
-69 65 70 0
-69 -65 71 0
69 -71 0
65 -71 0
-67 -68 72 0
67 -72 0
68 -72 0
71 72 -73 0
-71 73 0
-72 73 0
-74 -2 75 0
74 -75 0
2 -75 0
-66 -6 76 0
66 -76 0
6 -76 0
-75 -76 -77 0
75 76 -77 0
75 -76 77 0
-75 76 77 0
-77 -73 -78 0
77 73 -78 0
77 -73 78 0
-77 73 78 0
-77 -73 79 0
77 -79 0
73 -79 0
-75 -76 80 0
75 -80 0
76 -80 0
79 80 -81 0
-79 81 0
-80 81 0
-82 -2 83 0
82 -83 0
2 -83 0
-74 -6 84 0
74 -84 0
6 -84 0
-83 -84 -85 0
83 84 -85 0
83 -84 85 0
-83 84 85 0
-85 -81 -86 0
85 81 -86 0
85 -81 86 0
-85 81 86 0
-85 -81 87 0
85 -87 0
81 -87 0
-83 -84 88 0
83 -88 0
84 -88 0
87 88 -89 0
-87 89 0
-88 89 0
-90 -2 91 0
90 -91 0
2 -91 0
-82 -6 92 0
82 -92 0
6 -92 0
-91 -92 -93 0
91 92 -93 0
91 -92 93 0
-91 92 93 0
-93 -89 -94 0
93 89 -94 0
93 -89 94 0
-93 89 94 0
-93 -89 95 0
93 -95 0
89 -95 0
-91 -92 96 0
91 -96 0
92 -96 0
95 96 -97 0
-95 97 0
-96 97 0
-98 -2 99 0
98 -99 0
2 -99 0
-90 -6 100 0
90 -100 0
6 -100 0
-99 -100 -101 0
99 100 -101 0
99 -100 101 0
-99 100 101 0
-101 -97 -102 0
101 97 -102 0
101 -97 102 0
-101 97 102 0
-101 -97 103 0
101 -103 0
97 -103 0
-99 -100 104 0
99 -104 0
100 -104 0
103 104 -105 0
-103 105 0
-104 105 0
-106 -2 107 0
106 -107 0
2 -107 0
-98 -6 108 0
98 -108 0
6 -108 0
-107 -108 -109 0
107 108 -109 0
107 -108 109 0
-107 108 109 0
-109 -105 -110 0
109 105 -110 0
109 -105 110 0
-109 105 110 0
-109 -105 111 0
109 -111 0
105 -111 0
-107 -108 112 0
107 -112 0
108 -112 0
111 112 -113 0
-111 113 0
-112 113 0
-114 -2 115 0
114 -115 0
2 -115 0
-106 -6 116 0
106 -116 0
6 -116 0
-115 -116 -117 0
115 116 -117 0
115 -116 117 0
-115 116 117 0
-117 -113 -118 0
117 113 -118 0
117 -113 118 0
-117 113 118 0
-117 -113 119 0
117 -119 0
113 -119 0
-115 -116 120 0
115 -120 0
116 -120 0
119 120 -121 0
-119 121 0
-120 121 0
-114 -6 122 0
114 -122 0
6 -122 0
-121 -122 -123 0
121 122 -123 0
121 -122 123 0
-121 122 123 0
-121 -122 124 0
121 -124 0
122 -124 0
-1 -125 126 0
1 -126 0
125 -126 0
-14 -126 -127 0
14 126 -127 0
14 -126 127 0
-14 126 127 0
-14 -126 128 0
14 -128 0
126 -128 0
-4 -125 129 0
4 -129 0
125 -129 0
-22 -129 -130 0
22 129 -130 0
22 -129 130 0
-22 129 130 0
-130 -128 -131 0
130 128 -131 0
130 -128 131 0
-130 128 131 0
-130 -128 132 0
130 -132 0
128 -132 0
-22 -129 133 0
22 -133 0
129 -133 0
132 133 -134 0
-132 134 0
-133 134 0
-10 -125 135 0
10 -135 0
125 -135 0
-30 -135 -136 0
30 135 -136 0
30 -135 136 0
-30 135 136 0
-136 -134 -137 0
136 134 -137 0
136 -134 137 0
-136 134 137 0
-136 -134 138 0
136 -138 0
134 -138 0
-30 -135 139 0
30 -139 0
135 -139 0
138 139 -140 0
-138 140 0
-139 140 0
-18 -125 141 0
18 -141 0
125 -141 0
-38 -141 -142 0
38 141 -142 0
38 -141 142 0
-38 141 142 0
-142 -140 -143 0
142 140 -143 0
142 -140 143 0
-142 140 143 0
-142 -140 144 0
142 -144 0
140 -144 0
-38 -141 145 0
38 -145 0
141 -145 0
144 145 -146 0
-144 146 0
-145 146 0
-26 -125 147 0
26 -147 0
125 -147 0
-46 -147 -148 0
46 147 -148 0
46 -147 148 0
-46 147 148 0
-148 -146 -149 0
148 146 -149 0
148 -146 149 0
-148 146 149 0
-148 -146 150 0
148 -150 0
146 -150 0
-46 -147 151 0
46 -151 0
147 -151 0
150 151 -152 0
-150 152 0
-151 152 0
-34 -125 153 0
34 -153 0
125 -153 0
-54 -153 -154 0
54 153 -154 0
54 -153 154 0
-54 153 154 0
-154 -152 -155 0
154 152 -155 0
154 -152 155 0
-154 152 155 0
-154 -152 156 0
154 -156 0
152 -156 0
-54 -153 157 0
54 -157 0
153 -157 0
156 157 -158 0
-156 158 0
-157 158 0
-42 -125 159 0
42 -159 0
125 -159 0
-62 -159 -160 0
62 159 -160 0
62 -159 160 0
-62 159 160 0
-160 -158 -161 0
160 158 -161 0
160 -158 161 0
-160 158 161 0
-160 -158 162 0
160 -162 0
158 -162 0
-62 -159 163 0
62 -163 0
159 -163 0
162 163 -164 0
-162 164 0
-163 164 0
-50 -125 165 0
50 -165 0
125 -165 0
-70 -165 -166 0
70 165 -166 0
70 -165 166 0
-70 165 166 0
-166 -164 -167 0
166 164 -167 0
166 -164 167 0
-166 164 167 0
-166 -164 168 0
166 -168 0
164 -168 0
-70 -165 169 0
70 -169 0
165 -169 0
168 169 -170 0
-168 170 0
-169 170 0
-58 -125 171 0
58 -171 0
125 -171 0
-78 -171 -172 0
78 171 -172 0
78 -171 172 0
-78 171 172 0
-172 -170 -173 0
172 170 -173 0
172 -170 173 0
-172 170 173 0
-172 -170 174 0
172 -174 0
170 -174 0
-78 -171 175 0
78 -175 0
171 -175 0
174 175 -176 0
-174 176 0
-175 176 0
-66 -125 177 0
66 -177 0
125 -177 0
-86 -177 -178 0
86 177 -178 0
86 -177 178 0
-86 177 178 0
-178 -176 -179 0
178 176 -179 0
178 -176 179 0
-178 176 179 0
-178 -176 180 0
178 -180 0
176 -180 0
-86 -177 181 0
86 -181 0
177 -181 0
180 181 -182 0
-180 182 0
-181 182 0
-74 -125 183 0
74 -183 0
125 -183 0
-94 -183 -184 0
94 183 -184 0
94 -183 184 0
-94 183 184 0
-184 -182 -185 0
184 182 -185 0
184 -182 185 0
-184 182 185 0
-184 -182 186 0
184 -186 0
182 -186 0
-94 -183 187 0
94 -187 0
183 -187 0
186 187 -188 0
-186 188 0
-187 188 0
-82 -125 189 0
82 -189 0
125 -189 0
-102 -189 -190 0
102 189 -190 0
102 -189 190 0
-102 189 190 0
-190 -188 -191 0
190 188 -191 0
190 -188 191 0
-190 188 191 0
-190 -188 192 0
190 -192 0
188 -192 0
-102 -189 193 0
102 -193 0
189 -193 0
192 193 -194 0
-192 194 0
-193 194 0
-90 -125 195 0
90 -195 0
125 -195 0
-110 -195 -196 0
110 195 -196 0
110 -195 196 0
-110 195 196 0
-196 -194 -197 0
196 194 -197 0
196 -194 197 0
-196 194 197 0
-196 -194 198 0
196 -198 0
194 -198 0
-110 -195 199 0
110 -199 0
195 -199 0
198 199 -200 0
-198 200 0
-199 200 0
-98 -125 201 0
98 -201 0
125 -201 0
-118 -201 -202 0
118 201 -202 0
118 -201 202 0
-118 201 202 0
-202 -200 -203 0
202 200 -203 0
202 -200 203 0
-202 200 203 0
-202 -200 204 0
202 -204 0
200 -204 0
-118 -201 205 0
118 -205 0
201 -205 0
204 205 -206 0
-204 206 0
-205 206 0
-106 -125 207 0
106 -207 0
125 -207 0
-123 -207 -208 0
123 207 -208 0
123 -207 208 0
-123 207 208 0
-208 -206 -209 0
208 206 -209 0
208 -206 209 0
-208 206 209 0
-208 -206 210 0
208 -210 0
206 -210 0
-123 -207 211 0
123 -211 0
207 -211 0
210 211 -212 0
-210 212 0
-211 212 0
-114 -125 213 0
114 -213 0
125 -213 0
-124 -213 -214 0
124 213 -214 0
124 -213 214 0
-124 213 214 0
-214 -212 -215 0
214 212 -215 0
214 -212 215 0
-214 212 215 0
-214 -212 216 0
214 -216 0
212 -216 0
-124 -213 217 0
124 -217 0
213 -217 0
216 217 -218 0
-216 218 0
-217 218 0
-1 -219 220 0
1 -220 0
219 -220 0
-131 -220 -221 0
131 220 -221 0
131 -220 221 0
-131 220 221 0
-131 -220 222 0
131 -222 0
220 -222 0
-4 -219 223 0
4 -223 0
219 -223 0
-137 -223 -224 0
137 223 -224 0
137 -223 224 0
-137 223 224 0
-224 -222 -225 0
224 222 -225 0
224 -222 225 0
-224 222 225 0
-224 -222 226 0
224 -226 0
222 -226 0
-137 -223 227 0
137 -227 0
223 -227 0
226 227 -228 0
-226 228 0
-227 228 0
-10 -219 229 0
10 -229 0
219 -229 0
-143 -229 -230 0
143 229 -230 0
143 -229 230 0
-143 229 230 0
-230 -228 -231 0
230 228 -231 0
230 -228 231 0
-230 228 231 0
-230 -228 232 0
230 -232 0
228 -232 0
-143 -229 233 0
143 -233 0
229 -233 0
232 233 -234 0
-232 234 0
-233 234 0
-18 -219 235 0
18 -235 0
219 -235 0
-149 -235 -236 0
149 235 -236 0
149 -235 236 0
-149 235 236 0
-236 -234 -237 0
236 234 -237 0
236 -234 237 0
-236 234 237 0
-236 -234 238 0
236 -238 0
234 -238 0
-149 -235 239 0
149 -239 0
235 -239 0
238 239 -240 0
-238 240 0
-239 240 0
-26 -219 241 0
26 -241 0
219 -241 0
-155 -241 -242 0
155 241 -242 0
155 -241 242 0
-155 241 242 0
-242 -240 -243 0
242 240 -243 0
242 -240 243 0
-242 240 243 0
-242 -240 244 0
242 -244 0
240 -244 0
-155 -241 245 0
155 -245 0
241 -245 0
244 245 -246 0
-244 246 0
-245 246 0
-34 -219 247 0
34 -247 0
219 -247 0
-161 -247 -248 0
161 247 -248 0
161 -247 248 0
-161 247 248 0
-248 -246 -249 0
248 246 -249 0
248 -246 249 0
-248 246 249 0
-248 -246 250 0
248 -250 0
246 -250 0
-161 -247 251 0
161 -251 0
247 -251 0
250 251 -252 0
-250 252 0
-251 252 0
-42 -219 253 0
42 -253 0
219 -253 0
-167 -253 -254 0
167 253 -254 0
167 -253 254 0
-167 253 254 0
-254 -252 -255 0
254 252 -255 0
254 -252 255 0
-254 252 255 0
-254 -252 256 0
254 -256 0
252 -256 0
-167 -253 257 0
167 -257 0
253 -257 0
256 257 -258 0
-256 258 0
-257 258 0
-50 -219 259 0
50 -259 0
219 -259 0
-173 -259 -260 0
173 259 -260 0
173 -259 260 0
-173 259 260 0
-260 -258 -261 0
260 258 -261 0
260 -258 261 0
-260 258 261 0
-260 -258 262 0
260 -262 0
258 -262 0
-173 -259 263 0
173 -263 0
259 -263 0
262 263 -264 0
-262 264 0
-263 264 0
-58 -219 265 0
58 -265 0
219 -265 0
-179 -265 -266 0
179 265 -266 0
179 -265 266 0
-179 265 266 0
-266 -264 -267 0
266 264 -267 0
266 -264 267 0
-266 264 267 0
-266 -264 268 0
266 -268 0
264 -268 0
-179 -265 269 0
179 -269 0
265 -269 0
268 269 -270 0
-268 270 0
-269 270 0
-66 -219 271 0
66 -271 0
219 -271 0
-185 -271 -272 0
185 271 -272 0
185 -271 272 0
-185 271 272 0
-272 -270 -273 0
272 270 -273 0
272 -270 273 0
-272 270 273 0
-272 -270 274 0
272 -274 0
270 -274 0
-185 -271 275 0
185 -275 0
271 -275 0
274 275 -276 0
-274 276 0
-275 276 0
-74 -219 277 0
74 -277 0
219 -277 0
-191 -277 -278 0
191 277 -278 0
191 -277 278 0
-191 277 278 0
-278 -276 -279 0
278 276 -279 0
278 -276 279 0
-278 276 279 0
-278 -276 280 0
278 -280 0
276 -280 0
-191 -277 281 0
191 -281 0
277 -281 0
280 281 -282 0
-280 282 0
-281 282 0
-82 -219 283 0
82 -283 0
219 -283 0
-197 -283 -284 0
197 283 -284 0
197 -283 284 0
-197 283 284 0
-284 -282 -285 0
284 282 -285 0
284 -282 285 0
-284 282 285 0
-284 -282 286 0
284 -286 0
282 -286 0
-197 -283 287 0
197 -287 0
283 -287 0
286 287 -288 0
-286 288 0
-287 288 0
-90 -219 289 0
90 -289 0
219 -289 0
-203 -289 -290 0
203 289 -290 0
203 -289 290 0
-203 289 290 0
-290 -288 -291 0
290 288 -291 0
290 -288 291 0
-290 288 291 0
-290 -288 292 0
290 -292 0
288 -292 0
-203 -289 293 0
203 -293 0
289 -293 0
292 293 -294 0
-292 294 0
-293 294 0
-98 -219 295 0
98 -295 0
219 -295 0
-209 -295 -296 0
209 295 -296 0
209 -295 296 0
-209 295 296 0
-296 -294 -297 0
296 294 -297 0
296 -294 297 0
-296 294 297 0
-296 -294 298 0
296 -298 0
294 -298 0
-209 -295 299 0
209 -299 0
295 -299 0
298 299 -300 0
-298 300 0
-299 300 0
-106 -219 301 0
106 -301 0
219 -301 0
-215 -301 -302 0
215 301 -302 0
215 -301 302 0
-215 301 302 0
-302 -300 -303 0
302 300 -303 0
302 -300 303 0
-302 300 303 0
-302 -300 304 0
302 -304 0
300 -304 0
-215 -301 305 0
215 -305 0
301 -305 0
304 305 -306 0
-304 306 0
-305 306 0
-114 -219 307 0
114 -307 0
219 -307 0
-218 -307 -308 0
218 307 -308 0
218 -307 308 0
-218 307 308 0
-308 -306 -309 0
308 306 -309 0
308 -306 309 0
-308 306 309 0
-308 -306 310 0
308 -310 0
306 -310 0
-218 -307 311 0
218 -311 0
307 -311 0
310 311 -312 0
-310 312 0
-311 312 0
-1 -313 314 0
1 -314 0
313 -314 0
-225 -314 -315 0
225 314 -315 0
225 -314 315 0
-225 314 315 0
-225 -314 316 0
225 -316 0
314 -316 0
-4 -313 317 0
4 -317 0
313 -317 0
-231 -317 -318 0
231 317 -318 0
231 -317 318 0
-231 317 318 0
-318 -316 -319 0
318 316 -319 0
318 -316 319 0
-318 316 319 0
-318 -316 320 0
318 -320 0
316 -320 0
-231 -317 321 0
231 -321 0
317 -321 0
320 321 -322 0
-320 322 0
-321 322 0
-10 -313 323 0
10 -323 0
313 -323 0
-237 -323 -324 0
237 323 -324 0
237 -323 324 0
-237 323 324 0
-324 -322 -325 0
324 322 -325 0
324 -322 325 0
-324 322 325 0
-324 -322 326 0
324 -326 0
322 -326 0
-237 -323 327 0
237 -327 0
323 -327 0
326 327 -328 0
-326 328 0
-327 328 0
-18 -313 329 0
18 -329 0
313 -329 0
-243 -329 -330 0
243 329 -330 0
243 -329 330 0
-243 329 330 0
-330 -328 -331 0
330 328 -331 0
330 -328 331 0
-330 328 331 0
-330 -328 332 0
330 -332 0
328 -332 0
-243 -329 333 0
243 -333 0
329 -333 0
332 333 -334 0
-332 334 0
-333 334 0
-26 -313 335 0
26 -335 0
313 -335 0
-249 -335 -336 0
249 335 -336 0
249 -335 336 0
-249 335 336 0
-336 -334 -337 0
336 334 -337 0
336 -334 337 0
-336 334 337 0
-336 -334 338 0
336 -338 0
334 -338 0
-249 -335 339 0
249 -339 0
335 -339 0
338 339 -340 0
-338 340 0
-339 340 0
-34 -313 341 0
34 -341 0
313 -341 0
-255 -341 -342 0
255 341 -342 0
255 -341 342 0
-255 341 342 0
-342 -340 -343 0
342 340 -343 0
342 -340 343 0
-342 340 343 0
-342 -340 344 0
342 -344 0
340 -344 0
-255 -341 345 0
255 -345 0
341 -345 0
344 345 -346 0
-344 346 0
-345 346 0
-42 -313 347 0
42 -347 0
313 -347 0
-261 -347 -348 0
261 347 -348 0
261 -347 348 0
-261 347 348 0
-348 -346 -349 0
348 346 -349 0
348 -346 349 0
-348 346 349 0
-348 -346 350 0
348 -350 0
346 -350 0
-261 -347 351 0
261 -351 0
347 -351 0
350 351 -352 0
-350 352 0
-351 352 0
-50 -313 353 0
50 -353 0
313 -353 0
-267 -353 -354 0
267 353 -354 0
267 -353 354 0
-267 353 354 0
-354 -352 -355 0
354 352 -355 0
354 -352 355 0
-354 352 355 0
-354 -352 356 0
354 -356 0
352 -356 0
-267 -353 357 0
267 -357 0
353 -357 0
356 357 -358 0
-356 358 0
-357 358 0
-58 -313 359 0
58 -359 0
313 -359 0
-273 -359 -360 0
273 359 -360 0
273 -359 360 0
-273 359 360 0
-360 -358 -361 0
360 358 -361 0
360 -358 361 0
-360 358 361 0
-360 -358 362 0
360 -362 0
358 -362 0
-273 -359 363 0
273 -363 0
359 -363 0
362 363 -364 0
-362 364 0
-363 364 0
-66 -313 365 0
66 -365 0
313 -365 0
-279 -365 -366 0
279 365 -366 0
279 -365 366 0
-279 365 366 0
-366 -364 -367 0
366 364 -367 0
366 -364 367 0
-366 364 367 0
-366 -364 368 0
366 -368 0
364 -368 0
-279 -365 369 0
279 -369 0
365 -369 0
368 369 -370 0
-368 370 0
-369 370 0
-74 -313 371 0
74 -371 0
313 -371 0
-285 -371 -372 0
285 371 -372 0
285 -371 372 0
-285 371 372 0
-372 -370 -373 0
372 370 -373 0
372 -370 373 0
-372 370 373 0
-372 -370 374 0
372 -374 0
370 -374 0
-285 -371 375 0
285 -375 0
371 -375 0
374 375 -376 0
-374 376 0
-375 376 0
-82 -313 377 0
82 -377 0
313 -377 0
-291 -377 -378 0
291 377 -378 0
291 -377 378 0
-291 377 378 0
-378 -376 -379 0
378 376 -379 0
378 -376 379 0
-378 376 379 0
-378 -376 380 0
378 -380 0
376 -380 0
-291 -377 381 0
291 -381 0
377 -381 0
380 381 -382 0
-380 382 0
-381 382 0
-90 -313 383 0
90 -383 0
313 -383 0
-297 -383 -384 0
297 383 -384 0
297 -383 384 0
-297 383 384 0
-384 -382 -385 0
384 382 -385 0
384 -382 385 0
-384 382 385 0
-384 -382 386 0
384 -386 0
382 -386 0
-297 -383 387 0
297 -387 0
383 -387 0
386 387 -388 0
-386 388 0
-387 388 0
-98 -313 389 0
98 -389 0
313 -389 0
-303 -389 -390 0
303 389 -390 0
303 -389 390 0
-303 389 390 0
-390 -388 -391 0
390 388 -391 0
390 -388 391 0
-390 388 391 0
-390 -388 392 0
390 -392 0
388 -392 0
-303 -389 393 0
303 -393 0
389 -393 0
392 393 -394 0
-392 394 0
-393 394 0
-106 -313 395 0
106 -395 0
313 -395 0
-309 -395 -396 0
309 395 -396 0
309 -395 396 0
-309 395 396 0
-396 -394 -397 0
396 394 -397 0
396 -394 397 0
-396 394 397 0
-396 -394 398 0
396 -398 0
394 -398 0
-309 -395 399 0
309 -399 0
395 -399 0
398 399 -400 0
-398 400 0
-399 400 0
-114 -313 401 0
114 -401 0
313 -401 0
-312 -401 -402 0
312 401 -402 0
312 -401 402 0
-312 401 402 0
-402 -400 -403 0
402 400 -403 0
402 -400 403 0
-402 400 403 0
-402 -400 404 0
402 -404 0
400 -404 0
-312 -401 405 0
312 -405 0
401 -405 0
404 405 -406 0
-404 406 0
-405 406 0
-1 -407 408 0
1 -408 0
407 -408 0
-319 -408 -409 0
319 408 -409 0
319 -408 409 0
-319 408 409 0
-319 -408 410 0
319 -410 0
408 -410 0
-4 -407 411 0
4 -411 0
407 -411 0
-325 -411 -412 0
325 411 -412 0
325 -411 412 0
-325 411 412 0
-412 -410 -413 0
412 410 -413 0
412 -410 413 0
-412 410 413 0
-412 -410 414 0
412 -414 0
410 -414 0
-325 -411 415 0
325 -415 0
411 -415 0
414 415 -416 0
-414 416 0
-415 416 0
-10 -407 417 0
10 -417 0
407 -417 0
-331 -417 -418 0
331 417 -418 0
331 -417 418 0
-331 417 418 0
-418 -416 -419 0
418 416 -419 0
418 -416 419 0
-418 416 419 0
-418 -416 420 0
418 -420 0
416 -420 0
-331 -417 421 0
331 -421 0
417 -421 0
420 421 -422 0
-420 422 0
-421 422 0
-18 -407 423 0
18 -423 0
407 -423 0
-337 -423 -424 0
337 423 -424 0
337 -423 424 0
-337 423 424 0
-424 -422 -425 0
424 422 -425 0
424 -422 425 0
-424 422 425 0
-424 -422 426 0
424 -426 0
422 -426 0
-337 -423 427 0
337 -427 0
423 -427 0
426 427 -428 0
-426 428 0
-427 428 0
-26 -407 429 0
26 -429 0
407 -429 0
-343 -429 -430 0
343 429 -430 0
343 -429 430 0
-343 429 430 0
-430 -428 -431 0
430 428 -431 0
430 -428 431 0
-430 428 431 0
-430 -428 432 0
430 -432 0
428 -432 0
-343 -429 433 0
343 -433 0
429 -433 0
432 433 -434 0
-432 434 0
-433 434 0
-34 -407 435 0
34 -435 0
407 -435 0
-349 -435 -436 0
349 435 -436 0
349 -435 436 0
-349 435 436 0
-436 -434 -437 0
436 434 -437 0
436 -434 437 0
-436 434 437 0
-436 -434 438 0
436 -438 0
434 -438 0
-349 -435 439 0
349 -439 0
435 -439 0
438 439 -440 0
-438 440 0
-439 440 0
-42 -407 441 0
42 -441 0
407 -441 0
-355 -441 -442 0
355 441 -442 0
355 -441 442 0
-355 441 442 0
-442 -440 -443 0
442 440 -443 0
442 -440 443 0
-442 440 443 0
-442 -440 444 0
442 -444 0
440 -444 0
-355 -441 445 0
355 -445 0
441 -445 0
444 445 -446 0
-444 446 0
-445 446 0
-50 -407 447 0
50 -447 0
407 -447 0
-361 -447 -448 0
361 447 -448 0
361 -447 448 0
-361 447 448 0
-448 -446 -449 0
448 446 -449 0
448 -446 449 0
-448 446 449 0
-448 -446 450 0
448 -450 0
446 -450 0
-361 -447 451 0
361 -451 0
447 -451 0
450 451 -452 0
-450 452 0
-451 452 0
-58 -407 453 0
58 -453 0
407 -453 0
-367 -453 -454 0
367 453 -454 0
367 -453 454 0
-367 453 454 0
-454 -452 -455 0
454 452 -455 0
454 -452 455 0
-454 452 455 0
-454 -452 456 0
454 -456 0
452 -456 0
-367 -453 457 0
367 -457 0
453 -457 0
456 457 -458 0
-456 458 0
-457 458 0
-66 -407 459 0
66 -459 0
407 -459 0
-373 -459 -460 0
373 459 -460 0
373 -459 460 0
-373 459 460 0
-460 -458 -461 0
460 458 -461 0
460 -458 461 0
-460 458 461 0
-460 -458 462 0
460 -462 0
458 -462 0
-373 -459 463 0
373 -463 0
459 -463 0
462 463 -464 0
-462 464 0
-463 464 0
-74 -407 465 0
74 -465 0
407 -465 0
-379 -465 -466 0
379 465 -466 0
379 -465 466 0
-379 465 466 0
-466 -464 -467 0
466 464 -467 0
466 -464 467 0
-466 464 467 0
-466 -464 468 0
466 -468 0
464 -468 0
-379 -465 469 0
379 -469 0
465 -469 0
468 469 -470 0
-468 470 0
-469 470 0
-82 -407 471 0
82 -471 0
407 -471 0
-385 -471 -472 0
385 471 -472 0
385 -471 472 0
-385 471 472 0
-472 -470 -473 0
472 470 -473 0
472 -470 473 0
-472 470 473 0
-472 -470 474 0
472 -474 0
470 -474 0
-385 -471 475 0
385 -475 0
471 -475 0
474 475 -476 0
-474 476 0
-475 476 0
-90 -407 477 0
90 -477 0
407 -477 0
-391 -477 -478 0
391 477 -478 0
391 -477 478 0
-391 477 478 0
-478 -476 -479 0
478 476 -479 0
478 -476 479 0
-478 476 479 0
-478 -476 480 0
478 -480 0
476 -480 0
-391 -477 481 0
391 -481 0
477 -481 0
480 481 -482 0
-480 482 0
-481 482 0
-98 -407 483 0
98 -483 0
407 -483 0
-397 -483 -484 0
397 483 -484 0
397 -483 484 0
-397 483 484 0
-484 -482 -485 0
484 482 -485 0
484 -482 485 0
-484 482 485 0
-484 -482 486 0
484 -486 0
482 -486 0
-397 -483 487 0
397 -487 0
483 -487 0
486 487 -488 0
-486 488 0
-487 488 0
-106 -407 489 0
106 -489 0
407 -489 0
-403 -489 -490 0
403 489 -490 0
403 -489 490 0
-403 489 490 0
-490 -488 -491 0
490 488 -491 0
490 -488 491 0
-490 488 491 0
-490 -488 492 0
490 -492 0
488 -492 0
-403 -489 493 0
403 -493 0
489 -493 0
492 493 -494 0
-492 494 0
-493 494 0
-114 -407 495 0
114 -495 0
407 -495 0
-406 -495 -496 0
406 495 -496 0
406 -495 496 0
-406 495 496 0
-496 -494 -497 0
496 494 -497 0
496 -494 497 0
-496 494 497 0
-496 -494 498 0
496 -498 0
494 -498 0
-406 -495 499 0
406 -499 0
495 -499 0
498 499 -500 0
-498 500 0
-499 500 0
-1 -501 502 0
1 -502 0
501 -502 0
-413 -502 -503 0
413 502 -503 0
413 -502 503 0
-413 502 503 0
-413 -502 504 0
413 -504 0
502 -504 0
-4 -501 505 0
4 -505 0
501 -505 0
-419 -505 -506 0
419 505 -506 0
419 -505 506 0
-419 505 506 0
-506 -504 -507 0
506 504 -507 0
506 -504 507 0
-506 504 507 0
-506 -504 508 0
506 -508 0
504 -508 0
-419 -505 509 0
419 -509 0
505 -509 0
508 509 -510 0
-508 510 0
-509 510 0
-10 -501 511 0
10 -511 0
501 -511 0
-425 -511 -512 0
425 511 -512 0
425 -511 512 0
-425 511 512 0
-512 -510 -513 0
512 510 -513 0
512 -510 513 0
-512 510 513 0
-512 -510 514 0
512 -514 0
510 -514 0
-425 -511 515 0
425 -515 0
511 -515 0
514 515 -516 0
-514 516 0
-515 516 0
-18 -501 517 0
18 -517 0
501 -517 0
-431 -517 -518 0
431 517 -518 0
431 -517 518 0
-431 517 518 0
-518 -516 -519 0
518 516 -519 0
518 -516 519 0
-518 516 519 0
-518 -516 520 0
518 -520 0
516 -520 0
-431 -517 521 0
431 -521 0
517 -521 0
520 521 -522 0
-520 522 0
-521 522 0
-26 -501 523 0
26 -523 0
501 -523 0
-437 -523 -524 0
437 523 -524 0
437 -523 524 0
-437 523 524 0
-524 -522 -525 0
524 522 -525 0
524 -522 525 0
-524 522 525 0
-524 -522 526 0
524 -526 0
522 -526 0
-437 -523 527 0
437 -527 0
523 -527 0
526 527 -528 0
-526 528 0
-527 528 0
-34 -501 529 0
34 -529 0
501 -529 0
-443 -529 -530 0
443 529 -530 0
443 -529 530 0
-443 529 530 0
-530 -528 -531 0
530 528 -531 0
530 -528 531 0
-530 528 531 0
-530 -528 532 0
530 -532 0
528 -532 0
-443 -529 533 0
443 -533 0
529 -533 0
532 533 -534 0
-532 534 0
-533 534 0
-42 -501 535 0
42 -535 0
501 -535 0
-449 -535 -536 0
449 535 -536 0
449 -535 536 0
-449 535 536 0
-536 -534 -537 0
536 534 -537 0
536 -534 537 0
-536 534 537 0
-536 -534 538 0
536 -538 0
534 -538 0
-449 -535 539 0
449 -539 0
535 -539 0
538 539 -540 0
-538 540 0
-539 540 0
-50 -501 541 0
50 -541 0
501 -541 0
-455 -541 -542 0
455 541 -542 0
455 -541 542 0
-455 541 542 0
-542 -540 -543 0
542 540 -543 0
542 -540 543 0
-542 540 543 0
-542 -540 544 0
542 -544 0
540 -544 0
-455 -541 545 0
455 -545 0
541 -545 0
544 545 -546 0
-544 546 0
-545 546 0
-58 -501 547 0
58 -547 0
501 -547 0
-461 -547 -548 0
461 547 -548 0
461 -547 548 0
-461 547 548 0
-548 -546 -549 0
548 546 -549 0
548 -546 549 0
-548 546 549 0
-548 -546 550 0
548 -550 0
546 -550 0
-461 -547 551 0
461 -551 0
547 -551 0
550 551 -552 0
-550 552 0
-551 552 0
-66 -501 553 0
66 -553 0
501 -553 0
-467 -553 -554 0
467 553 -554 0
467 -553 554 0
-467 553 554 0
-554 -552 -555 0
554 552 -555 0
554 -552 555 0
-554 552 555 0
-554 -552 556 0
554 -556 0
552 -556 0
-467 -553 557 0
467 -557 0
553 -557 0
556 557 -558 0
-556 558 0
-557 558 0
-74 -501 559 0
74 -559 0
501 -559 0
-473 -559 -560 0
473 559 -560 0
473 -559 560 0
-473 559 560 0
-560 -558 -561 0
560 558 -561 0
560 -558 561 0
-560 558 561 0
-560 -558 562 0
560 -562 0
558 -562 0
-473 -559 563 0
473 -563 0
559 -563 0
562 563 -564 0
-562 564 0
-563 564 0
-82 -501 565 0
82 -565 0
501 -565 0
-479 -565 -566 0
479 565 -566 0
479 -565 566 0
-479 565 566 0
-566 -564 -567 0
566 564 -567 0
566 -564 567 0
-566 564 567 0
-566 -564 568 0
566 -568 0
564 -568 0
-479 -565 569 0
479 -569 0
565 -569 0
568 569 -570 0
-568 570 0
-569 570 0
-90 -501 571 0
90 -571 0
501 -571 0
-485 -571 -572 0
485 571 -572 0
485 -571 572 0
-485 571 572 0
-572 -570 -573 0
572 570 -573 0
572 -570 573 0
-572 570 573 0
-572 -570 574 0
572 -574 0
570 -574 0
-485 -571 575 0
485 -575 0
571 -575 0
574 575 -576 0
-574 576 0
-575 576 0
-98 -501 577 0
98 -577 0
501 -577 0
-491 -577 -578 0
491 577 -578 0
491 -577 578 0
-491 577 578 0
-578 -576 -579 0
578 576 -579 0
578 -576 579 0
-578 576 579 0
-578 -576 580 0
578 -580 0
576 -580 0
-491 -577 581 0
491 -581 0
577 -581 0
580 581 -582 0
-580 582 0
-581 582 0
-106 -501 583 0
106 -583 0
501 -583 0
-497 -583 -584 0
497 583 -584 0
497 -583 584 0
-497 583 584 0
-584 -582 -585 0
584 582 -585 0
584 -582 585 0
-584 582 585 0
-584 -582 586 0
584 -586 0
582 -586 0
-497 -583 587 0
497 -587 0
583 -587 0
586 587 -588 0
-586 588 0
-587 588 0
-114 -501 589 0
114 -589 0
501 -589 0
-500 -589 -590 0
500 589 -590 0
500 -589 590 0
-500 589 590 0
-590 -588 -591 0
590 588 -591 0
590 -588 591 0
-590 588 591 0
-590 -588 592 0
590 -592 0
588 -592 0
-500 -589 593 0
500 -593 0
589 -593 0
592 593 -594 0
-592 594 0
-593 594 0
-1 -595 596 0
1 -596 0
595 -596 0
-507 -596 -597 0
507 596 -597 0
507 -596 597 0
-507 596 597 0
-507 -596 598 0
507 -598 0
596 -598 0
-4 -595 599 0
4 -599 0
595 -599 0
-513 -599 -600 0
513 599 -600 0
513 -599 600 0
-513 599 600 0
-600 -598 -601 0
600 598 -601 0
600 -598 601 0
-600 598 601 0
-600 -598 602 0
600 -602 0
598 -602 0
-513 -599 603 0
513 -603 0
599 -603 0
602 603 -604 0
-602 604 0
-603 604 0
-10 -595 605 0
10 -605 0
595 -605 0
-519 -605 -606 0
519 605 -606 0
519 -605 606 0
-519 605 606 0
-606 -604 -607 0
606 604 -607 0
606 -604 607 0
-606 604 607 0
-606 -604 608 0
606 -608 0
604 -608 0
-519 -605 609 0
519 -609 0
605 -609 0
608 609 -610 0
-608 610 0
-609 610 0
-18 -595 611 0
18 -611 0
595 -611 0
-525 -611 -612 0
525 611 -612 0
525 -611 612 0
-525 611 612 0
-612 -610 -613 0
612 610 -613 0
612 -610 613 0
-612 610 613 0
-612 -610 614 0
612 -614 0
610 -614 0
-525 -611 615 0
525 -615 0
611 -615 0
614 615 -616 0
-614 616 0
-615 616 0
-26 -595 617 0
26 -617 0
595 -617 0
-531 -617 -618 0
531 617 -618 0
531 -617 618 0
-531 617 618 0
-618 -616 -619 0
618 616 -619 0
618 -616 619 0
-618 616 619 0
-618 -616 620 0
618 -620 0
616 -620 0
-531 -617 621 0
531 -621 0
617 -621 0
620 621 -622 0
-620 622 0
-621 622 0
-34 -595 623 0
34 -623 0
595 -623 0
-537 -623 -624 0
537 623 -624 0
537 -623 624 0
-537 623 624 0
-624 -622 -625 0
624 622 -625 0
624 -622 625 0
-624 622 625 0
-624 -622 626 0
624 -626 0
622 -626 0
-537 -623 627 0
537 -627 0
623 -627 0
626 627 -628 0
-626 628 0
-627 628 0
-42 -595 629 0
42 -629 0
595 -629 0
-543 -629 -630 0
543 629 -630 0
543 -629 630 0
-543 629 630 0
-630 -628 -631 0
630 628 -631 0
630 -628 631 0
-630 628 631 0
-630 -628 632 0
630 -632 0
628 -632 0
-543 -629 633 0
543 -633 0
629 -633 0
632 633 -634 0
-632 634 0
-633 634 0
-50 -595 635 0
50 -635 0
595 -635 0
-549 -635 -636 0
549 635 -636 0
549 -635 636 0
-549 635 636 0
-636 -634 -637 0
636 634 -637 0
636 -634 637 0
-636 634 637 0
-636 -634 638 0
636 -638 0
634 -638 0
-549 -635 639 0
549 -639 0
635 -639 0
638 639 -640 0
-638 640 0
-639 640 0
-58 -595 641 0
58 -641 0
595 -641 0
-555 -641 -642 0
555 641 -642 0
555 -641 642 0
-555 641 642 0
-642 -640 -643 0
642 640 -643 0
642 -640 643 0
-642 640 643 0
-642 -640 644 0
642 -644 0
640 -644 0
-555 -641 645 0
555 -645 0
641 -645 0
644 645 -646 0
-644 646 0
-645 646 0
-66 -595 647 0
66 -647 0
595 -647 0
-561 -647 -648 0
561 647 -648 0
561 -647 648 0
-561 647 648 0
-648 -646 -649 0
648 646 -649 0
648 -646 649 0
-648 646 649 0
-648 -646 650 0
648 -650 0
646 -650 0
-561 -647 651 0
561 -651 0
647 -651 0
650 651 -652 0
-650 652 0
-651 652 0
-74 -595 653 0
74 -653 0
595 -653 0
-567 -653 -654 0
567 653 -654 0
567 -653 654 0
-567 653 654 0
-654 -652 -655 0
654 652 -655 0
654 -652 655 0
-654 652 655 0
-654 -652 656 0
654 -656 0
652 -656 0
-567 -653 657 0
567 -657 0
653 -657 0
656 657 -658 0
-656 658 0
-657 658 0
-82 -595 659 0
82 -659 0
595 -659 0
-573 -659 -660 0
573 659 -660 0
573 -659 660 0
-573 659 660 0
-660 -658 -661 0
660 658 -661 0
660 -658 661 0
-660 658 661 0
-660 -658 662 0
660 -662 0
658 -662 0
-573 -659 663 0
573 -663 0
659 -663 0
662 663 -664 0
-662 664 0
-663 664 0
-90 -595 665 0
90 -665 0
595 -665 0
-579 -665 -666 0
579 665 -666 0
579 -665 666 0
-579 665 666 0
-666 -664 -667 0
666 664 -667 0
666 -664 667 0
-666 664 667 0
-666 -664 668 0
666 -668 0
664 -668 0
-579 -665 669 0
579 -669 0
665 -669 0
668 669 -670 0
-668 670 0
-669 670 0
-98 -595 671 0
98 -671 0
595 -671 0
-585 -671 -672 0
585 671 -672 0
585 -671 672 0
-585 671 672 0
-672 -670 -673 0
672 670 -673 0
672 -670 673 0
-672 670 673 0
-672 -670 674 0
672 -674 0
670 -674 0
-585 -671 675 0
585 -675 0
671 -675 0
674 675 -676 0
-674 676 0
-675 676 0
-106 -595 677 0
106 -677 0
595 -677 0
-591 -677 -678 0
591 677 -678 0
591 -677 678 0
-591 677 678 0
-678 -676 -679 0
678 676 -679 0
678 -676 679 0
-678 676 679 0
-678 -676 680 0
678 -680 0
676 -680 0
-591 -677 681 0
591 -681 0
677 -681 0
680 681 -682 0
-680 682 0
-681 682 0
-114 -595 683 0
114 -683 0
595 -683 0
-594 -683 -684 0
594 683 -684 0
594 -683 684 0
-594 683 684 0
-684 -682 -685 0
684 682 -685 0
684 -682 685 0
-684 682 685 0
-684 -682 686 0
684 -686 0
682 -686 0
-594 -683 687 0
594 -687 0
683 -687 0
686 687 -688 0
-686 688 0
-687 688 0
-1 -689 690 0
1 -690 0
689 -690 0
-601 -690 -691 0
601 690 -691 0
601 -690 691 0
-601 690 691 0
-601 -690 692 0
601 -692 0
690 -692 0
-4 -689 693 0
4 -693 0
689 -693 0
-607 -693 -694 0
607 693 -694 0
607 -693 694 0
-607 693 694 0
-694 -692 -695 0
694 692 -695 0
694 -692 695 0
-694 692 695 0
-694 -692 696 0
694 -696 0
692 -696 0
-607 -693 697 0
607 -697 0
693 -697 0
696 697 -698 0
-696 698 0
-697 698 0
-10 -689 699 0
10 -699 0
689 -699 0
-613 -699 -700 0
613 699 -700 0
613 -699 700 0
-613 699 700 0
-700 -698 -701 0
700 698 -701 0
700 -698 701 0
-700 698 701 0
-700 -698 702 0
700 -702 0
698 -702 0
-613 -699 703 0
613 -703 0
699 -703 0
702 703 -704 0
-702 704 0
-703 704 0
-18 -689 705 0
18 -705 0
689 -705 0
-619 -705 -706 0
619 705 -706 0
619 -705 706 0
-619 705 706 0
-706 -704 -707 0
706 704 -707 0
706 -704 707 0
-706 704 707 0
-706 -704 708 0
706 -708 0
704 -708 0
-619 -705 709 0
619 -709 0
705 -709 0
708 709 -710 0
-708 710 0
-709 710 0
-26 -689 711 0
26 -711 0
689 -711 0
-625 -711 -712 0
625 711 -712 0
625 -711 712 0
-625 711 712 0
-712 -710 -713 0
712 710 -713 0
712 -710 713 0
-712 710 713 0
-712 -710 714 0
712 -714 0
710 -714 0
-625 -711 715 0
625 -715 0
711 -715 0
714 715 -716 0
-714 716 0
-715 716 0
-34 -689 717 0
34 -717 0
689 -717 0
-631 -717 -718 0
631 717 -718 0
631 -717 718 0
-631 717 718 0
-718 -716 -719 0
718 716 -719 0
718 -716 719 0
-718 716 719 0
-718 -716 720 0
718 -720 0
716 -720 0
-631 -717 721 0
631 -721 0
717 -721 0
720 721 -722 0
-720 722 0
-721 722 0
-42 -689 723 0
42 -723 0
689 -723 0
-637 -723 -724 0
637 723 -724 0
637 -723 724 0
-637 723 724 0
-724 -722 -725 0
724 722 -725 0
724 -722 725 0
-724 722 725 0
-724 -722 726 0
724 -726 0
722 -726 0
-637 -723 727 0
637 -727 0
723 -727 0
726 727 -728 0
-726 728 0
-727 728 0
-50 -689 729 0
50 -729 0
689 -729 0
-643 -729 -730 0
643 729 -730 0
643 -729 730 0
-643 729 730 0
-730 -728 -731 0
730 728 -731 0
730 -728 731 0
-730 728 731 0
-730 -728 732 0
730 -732 0
728 -732 0
-643 -729 733 0
643 -733 0
729 -733 0
732 733 -734 0
-732 734 0
-733 734 0
-58 -689 735 0
58 -735 0
689 -735 0
-649 -735 -736 0
649 735 -736 0
649 -735 736 0
-649 735 736 0
-736 -734 -737 0
736 734 -737 0
736 -734 737 0
-736 734 737 0
-736 -734 738 0
736 -738 0
734 -738 0
-649 -735 739 0
649 -739 0
735 -739 0
738 739 -740 0
-738 740 0
-739 740 0
-66 -689 741 0
66 -741 0
689 -741 0
-655 -741 -742 0
655 741 -742 0
655 -741 742 0
-655 741 742 0
-742 -740 -743 0
742 740 -743 0
742 -740 743 0
-742 740 743 0
-742 -740 744 0
742 -744 0
740 -744 0
-655 -741 745 0
655 -745 0
741 -745 0
744 745 -746 0
-744 746 0
-745 746 0
-74 -689 747 0
74 -747 0
689 -747 0
-661 -747 -748 0
661 747 -748 0
661 -747 748 0
-661 747 748 0
-748 -746 -749 0
748 746 -749 0
748 -746 749 0
-748 746 749 0
-748 -746 750 0
748 -750 0
746 -750 0
-661 -747 751 0
661 -751 0
747 -751 0
750 751 -752 0
-750 752 0
-751 752 0
-82 -689 753 0
82 -753 0
689 -753 0
-667 -753 -754 0
667 753 -754 0
667 -753 754 0
-667 753 754 0
-754 -752 -755 0
754 752 -755 0
754 -752 755 0
-754 752 755 0
-754 -752 756 0
754 -756 0
752 -756 0
-667 -753 757 0
667 -757 0
753 -757 0
756 757 -758 0
-756 758 0
-757 758 0
-90 -689 759 0
90 -759 0
689 -759 0
-673 -759 -760 0
673 759 -760 0
673 -759 760 0
-673 759 760 0
-760 -758 -761 0
760 758 -761 0
760 -758 761 0
-760 758 761 0
-760 -758 762 0
760 -762 0
758 -762 0
-673 -759 763 0
673 -763 0
759 -763 0
762 763 -764 0
-762 764 0
-763 764 0
-98 -689 765 0
98 -765 0
689 -765 0
-679 -765 -766 0
679 765 -766 0
679 -765 766 0
-679 765 766 0
-766 -764 -767 0
766 764 -767 0
766 -764 767 0
-766 764 767 0
-766 -764 768 0
766 -768 0
764 -768 0
-679 -765 769 0
679 -769 0
765 -769 0
768 769 -770 0
-768 770 0
-769 770 0
-106 -689 771 0
106 -771 0
689 -771 0
-685 -771 -772 0
685 771 -772 0
685 -771 772 0
-685 771 772 0
-772 -770 -773 0
772 770 -773 0
772 -770 773 0
-772 770 773 0
-772 -770 774 0
772 -774 0
770 -774 0
-685 -771 775 0
685 -775 0
771 -775 0
774 775 -776 0
-774 776 0
-775 776 0
-114 -689 777 0
114 -777 0
689 -777 0
-688 -777 -778 0
688 777 -778 0
688 -777 778 0
-688 777 778 0
-778 -776 -779 0
778 776 -779 0
778 -776 779 0
-778 776 779 0
-778 -776 780 0
778 -780 0
776 -780 0
-688 -777 781 0
688 -781 0
777 -781 0
780 781 -782 0
-780 782 0
-781 782 0
-1 -783 784 0
1 -784 0
783 -784 0
-695 -784 -785 0
695 784 -785 0
695 -784 785 0
-695 784 785 0
-695 -784 786 0
695 -786 0
784 -786 0
-4 -783 787 0
4 -787 0
783 -787 0
-701 -787 -788 0
701 787 -788 0
701 -787 788 0
-701 787 788 0
-788 -786 -789 0
788 786 -789 0
788 -786 789 0
-788 786 789 0
-788 -786 790 0
788 -790 0
786 -790 0
-701 -787 791 0
701 -791 0
787 -791 0
790 791 -792 0
-790 792 0
-791 792 0
-10 -783 793 0
10 -793 0
783 -793 0
-707 -793 -794 0
707 793 -794 0
707 -793 794 0
-707 793 794 0
-794 -792 -795 0
794 792 -795 0
794 -792 795 0
-794 792 795 0
-794 -792 796 0
794 -796 0
792 -796 0
-707 -793 797 0
707 -797 0
793 -797 0
796 797 -798 0
-796 798 0
-797 798 0
-18 -783 799 0
18 -799 0
783 -799 0
-713 -799 -800 0
713 799 -800 0
713 -799 800 0
-713 799 800 0
-800 -798 -801 0
800 798 -801 0
800 -798 801 0
-800 798 801 0
-800 -798 802 0
800 -802 0
798 -802 0
-713 -799 803 0
713 -803 0
799 -803 0
802 803 -804 0
-802 804 0
-803 804 0
-26 -783 805 0
26 -805 0
783 -805 0
-719 -805 -806 0
719 805 -806 0
719 -805 806 0
-719 805 806 0
-806 -804 -807 0
806 804 -807 0
806 -804 807 0
-806 804 807 0
-806 -804 808 0
806 -808 0
804 -808 0
-719 -805 809 0
719 -809 0
805 -809 0
808 809 -810 0
-808 810 0
-809 810 0
-34 -783 811 0
34 -811 0
783 -811 0
-725 -811 -812 0
725 811 -812 0
725 -811 812 0
-725 811 812 0
-812 -810 -813 0
812 810 -813 0
812 -810 813 0
-812 810 813 0
-812 -810 814 0
812 -814 0
810 -814 0
-725 -811 815 0
725 -815 0
811 -815 0
814 815 -816 0
-814 816 0
-815 816 0
-42 -783 817 0
42 -817 0
783 -817 0
-731 -817 -818 0
731 817 -818 0
731 -817 818 0
-731 817 818 0
-818 -816 -819 0
818 816 -819 0
818 -816 819 0
-818 816 819 0
-818 -816 820 0
818 -820 0
816 -820 0
-731 -817 821 0
731 -821 0
817 -821 0
820 821 -822 0
-820 822 0
-821 822 0
-50 -783 823 0
50 -823 0
783 -823 0
-737 -823 -824 0
737 823 -824 0
737 -823 824 0
-737 823 824 0
-824 -822 -825 0
824 822 -825 0
824 -822 825 0
-824 822 825 0
-824 -822 826 0
824 -826 0
822 -826 0
-737 -823 827 0
737 -827 0
823 -827 0
826 827 -828 0
-826 828 0
-827 828 0
-58 -783 829 0
58 -829 0
783 -829 0
-743 -829 -830 0
743 829 -830 0
743 -829 830 0
-743 829 830 0
-830 -828 -831 0
830 828 -831 0
830 -828 831 0
-830 828 831 0
-830 -828 832 0
830 -832 0
828 -832 0
-743 -829 833 0
743 -833 0
829 -833 0
832 833 -834 0
-832 834 0
-833 834 0
-66 -783 835 0
66 -835 0
783 -835 0
-749 -835 -836 0
749 835 -836 0
749 -835 836 0
-749 835 836 0
-836 -834 -837 0
836 834 -837 0
836 -834 837 0
-836 834 837 0
-836 -834 838 0
836 -838 0
834 -838 0
-749 -835 839 0
749 -839 0
835 -839 0
838 839 -840 0
-838 840 0
-839 840 0
-74 -783 841 0
74 -841 0
783 -841 0
-755 -841 -842 0
755 841 -842 0
755 -841 842 0
-755 841 842 0
-842 -840 -843 0
842 840 -843 0
842 -840 843 0
-842 840 843 0
-842 -840 844 0
842 -844 0
840 -844 0
-755 -841 845 0
755 -845 0
841 -845 0
844 845 -846 0
-844 846 0
-845 846 0
-82 -783 847 0
82 -847 0
783 -847 0
-761 -847 -848 0
761 847 -848 0
761 -847 848 0
-761 847 848 0
-848 -846 -849 0
848 846 -849 0
848 -846 849 0
-848 846 849 0
-848 -846 850 0
848 -850 0
846 -850 0
-761 -847 851 0
761 -851 0
847 -851 0
850 851 -852 0
-850 852 0
-851 852 0
-90 -783 853 0
90 -853 0
783 -853 0
-767 -853 -854 0
767 853 -854 0
767 -853 854 0
-767 853 854 0
-854 -852 -855 0
854 852 -855 0
854 -852 855 0
-854 852 855 0
-854 -852 856 0
854 -856 0
852 -856 0
-767 -853 857 0
767 -857 0
853 -857 0
856 857 -858 0
-856 858 0
-857 858 0
-98 -783 859 0
98 -859 0
783 -859 0
-773 -859 -860 0
773 859 -860 0
773 -859 860 0
-773 859 860 0
-860 -858 -861 0
860 858 -861 0
860 -858 861 0
-860 858 861 0
-860 -858 862 0
860 -862 0
858 -862 0
-773 -859 863 0
773 -863 0
859 -863 0
862 863 -864 0
-862 864 0
-863 864 0
-106 -783 865 0
106 -865 0
783 -865 0
-779 -865 -866 0
779 865 -866 0
779 -865 866 0
-779 865 866 0
-866 -864 -867 0
866 864 -867 0
866 -864 867 0
-866 864 867 0
-866 -864 868 0
866 -868 0
864 -868 0
-779 -865 869 0
779 -869 0
865 -869 0
868 869 -870 0
-868 870 0
-869 870 0
-114 -783 871 0
114 -871 0
783 -871 0
-782 -871 -872 0
782 871 -872 0
782 -871 872 0
-782 871 872 0
-872 -870 -873 0
872 870 -873 0
872 -870 873 0
-872 870 873 0
-872 -870 874 0
872 -874 0
870 -874 0
-782 -871 875 0
782 -875 0
871 -875 0
874 875 -876 0
-874 876 0
-875 876 0
-1 -877 878 0
1 -878 0
877 -878 0
-789 -878 -879 0
789 878 -879 0
789 -878 879 0
-789 878 879 0
-789 -878 880 0
789 -880 0
878 -880 0
-4 -877 881 0
4 -881 0
877 -881 0
-795 -881 -882 0
795 881 -882 0
795 -881 882 0
-795 881 882 0
-882 -880 -883 0
882 880 -883 0
882 -880 883 0
-882 880 883 0
-882 -880 884 0
882 -884 0
880 -884 0
-795 -881 885 0
795 -885 0
881 -885 0
884 885 -886 0
-884 886 0
-885 886 0
-10 -877 887 0
10 -887 0
877 -887 0
-801 -887 -888 0
801 887 -888 0
801 -887 888 0
-801 887 888 0
-888 -886 -889 0
888 886 -889 0
888 -886 889 0
-888 886 889 0
-888 -886 890 0
888 -890 0
886 -890 0
-801 -887 891 0
801 -891 0
887 -891 0
890 891 -892 0
-890 892 0
-891 892 0
-18 -877 893 0
18 -893 0
877 -893 0
-807 -893 -894 0
807 893 -894 0
807 -893 894 0
-807 893 894 0
-894 -892 -895 0
894 892 -895 0
894 -892 895 0
-894 892 895 0
-894 -892 896 0
894 -896 0
892 -896 0
-807 -893 897 0
807 -897 0
893 -897 0
896 897 -898 0
-896 898 0
-897 898 0
-26 -877 899 0
26 -899 0
877 -899 0
-813 -899 -900 0
813 899 -900 0
813 -899 900 0
-813 899 900 0
-900 -898 -901 0
900 898 -901 0
900 -898 901 0
-900 898 901 0
-900 -898 902 0
900 -902 0
898 -902 0
-813 -899 903 0
813 -903 0
899 -903 0
902 903 -904 0
-902 904 0
-903 904 0
-34 -877 905 0
34 -905 0
877 -905 0
-819 -905 -906 0
819 905 -906 0
819 -905 906 0
-819 905 906 0
-906 -904 -907 0
906 904 -907 0
906 -904 907 0
-906 904 907 0
-906 -904 908 0
906 -908 0
904 -908 0
-819 -905 909 0
819 -909 0
905 -909 0
908 909 -910 0
-908 910 0
-909 910 0
-42 -877 911 0
42 -911 0
877 -911 0
-825 -911 -912 0
825 911 -912 0
825 -911 912 0
-825 911 912 0
-912 -910 -913 0
912 910 -913 0
912 -910 913 0
-912 910 913 0
-912 -910 914 0
912 -914 0
910 -914 0
-825 -911 915 0
825 -915 0
911 -915 0
914 915 -916 0
-914 916 0
-915 916 0
-50 -877 917 0
50 -917 0
877 -917 0
-831 -917 -918 0
831 917 -918 0
831 -917 918 0
-831 917 918 0
-918 -916 -919 0
918 916 -919 0
918 -916 919 0
-918 916 919 0
-918 -916 920 0
918 -920 0
916 -920 0
-831 -917 921 0
831 -921 0
917 -921 0
920 921 -922 0
-920 922 0
-921 922 0
-58 -877 923 0
58 -923 0
877 -923 0
-837 -923 -924 0
837 923 -924 0
837 -923 924 0
-837 923 924 0
-924 -922 -925 0
924 922 -925 0
924 -922 925 0
-924 922 925 0
-924 -922 926 0
924 -926 0
922 -926 0
-837 -923 927 0
837 -927 0
923 -927 0
926 927 -928 0
-926 928 0
-927 928 0
-66 -877 929 0
66 -929 0
877 -929 0
-843 -929 -930 0
843 929 -930 0
843 -929 930 0
-843 929 930 0
-930 -928 -931 0
930 928 -931 0
930 -928 931 0
-930 928 931 0
-930 -928 932 0
930 -932 0
928 -932 0
-843 -929 933 0
843 -933 0
929 -933 0
932 933 -934 0
-932 934 0
-933 934 0
-74 -877 935 0
74 -935 0
877 -935 0
-849 -935 -936 0
849 935 -936 0
849 -935 936 0
-849 935 936 0
-936 -934 -937 0
936 934 -937 0
936 -934 937 0
-936 934 937 0
-936 -934 938 0
936 -938 0
934 -938 0
-849 -935 939 0
849 -939 0
935 -939 0
938 939 -940 0
-938 940 0
-939 940 0
-82 -877 941 0
82 -941 0
877 -941 0
-855 -941 -942 0
855 941 -942 0
855 -941 942 0
-855 941 942 0
-942 -940 -943 0
942 940 -943 0
942 -940 943 0
-942 940 943 0
-942 -940 944 0
942 -944 0
940 -944 0
-855 -941 945 0
855 -945 0
941 -945 0
944 945 -946 0
-944 946 0
-945 946 0
-90 -877 947 0
90 -947 0
877 -947 0
-861 -947 -948 0
861 947 -948 0
861 -947 948 0
-861 947 948 0
-948 -946 -949 0
948 946 -949 0
948 -946 949 0
-948 946 949 0
-948 -946 950 0
948 -950 0
946 -950 0
-861 -947 951 0
861 -951 0
947 -951 0
950 951 -952 0
-950 952 0
-951 952 0
-98 -877 953 0
98 -953 0
877 -953 0
-867 -953 -954 0
867 953 -954 0
867 -953 954 0
-867 953 954 0
-954 -952 -955 0
954 952 -955 0
954 -952 955 0
-954 952 955 0
-954 -952 956 0
954 -956 0
952 -956 0
-867 -953 957 0
867 -957 0
953 -957 0
956 957 -958 0
-956 958 0
-957 958 0
-106 -877 959 0
106 -959 0
877 -959 0
-873 -959 -960 0
873 959 -960 0
873 -959 960 0
-873 959 960 0
-960 -958 -961 0
960 958 -961 0
960 -958 961 0
-960 958 961 0
-960 -958 962 0
960 -962 0
958 -962 0
-873 -959 963 0
873 -963 0
959 -963 0
962 963 -964 0
-962 964 0
-963 964 0
-114 -877 965 0
114 -965 0
877 -965 0
-876 -965 -966 0
876 965 -966 0
876 -965 966 0
-876 965 966 0
-966 -964 -967 0
966 964 -967 0
966 -964 967 0
-966 964 967 0
-966 -964 968 0
966 -968 0
964 -968 0
-876 -965 969 0
876 -969 0
965 -969 0
968 969 -970 0
-968 970 0
-969 970 0
-1 -971 972 0
1 -972 0
971 -972 0
-883 -972 -973 0
883 972 -973 0
883 -972 973 0
-883 972 973 0
-883 -972 974 0
883 -974 0
972 -974 0
-4 -971 975 0
4 -975 0
971 -975 0
-889 -975 -976 0
889 975 -976 0
889 -975 976 0
-889 975 976 0
-976 -974 -977 0
976 974 -977 0
976 -974 977 0
-976 974 977 0
-976 -974 978 0
976 -978 0
974 -978 0
-889 -975 979 0
889 -979 0
975 -979 0
978 979 -980 0
-978 980 0
-979 980 0
-10 -971 981 0
10 -981 0
971 -981 0
-895 -981 -982 0
895 981 -982 0
895 -981 982 0
-895 981 982 0
-982 -980 -983 0
982 980 -983 0
982 -980 983 0
-982 980 983 0
-982 -980 984 0
982 -984 0
980 -984 0
-895 -981 985 0
895 -985 0
981 -985 0
984 985 -986 0
-984 986 0
-985 986 0
-18 -971 987 0
18 -987 0
971 -987 0
-901 -987 -988 0
901 987 -988 0
901 -987 988 0
-901 987 988 0
-988 -986 -989 0
988 986 -989 0
988 -986 989 0
-988 986 989 0
-988 -986 990 0
988 -990 0
986 -990 0
-901 -987 991 0
901 -991 0
987 -991 0
990 991 -992 0
-990 992 0
-991 992 0
-26 -971 993 0
26 -993 0
971 -993 0
-907 -993 -994 0
907 993 -994 0
907 -993 994 0
-907 993 994 0
-994 -992 -995 0
994 992 -995 0
994 -992 995 0
-994 992 995 0
-994 -992 996 0
994 -996 0
992 -996 0
-907 -993 997 0
907 -997 0
993 -997 0
996 997 -998 0
-996 998 0
-997 998 0
-34 -971 999 0
34 -999 0
971 -999 0
-913 -999 -1000 0
913 999 -1000 0
913 -999 1000 0
-913 999 1000 0
-1000 -998 -1001 0
1000 998 -1001 0
1000 -998 1001 0
-1000 998 1001 0
-1000 -998 1002 0
1000 -1002 0
998 -1002 0
-913 -999 1003 0
913 -1003 0
999 -1003 0
1002 1003 -1004 0
-1002 1004 0
-1003 1004 0
-42 -971 1005 0
42 -1005 0
971 -1005 0
-919 -1005 -1006 0
919 1005 -1006 0
919 -1005 1006 0
-919 1005 1006 0
-1006 -1004 -1007 0
1006 1004 -1007 0
1006 -1004 1007 0
-1006 1004 1007 0
-1006 -1004 1008 0
1006 -1008 0
1004 -1008 0
-919 -1005 1009 0
919 -1009 0
1005 -1009 0
1008 1009 -1010 0
-1008 1010 0
-1009 1010 0
-50 -971 1011 0
50 -1011 0
971 -1011 0
-925 -1011 -1012 0
925 1011 -1012 0
925 -1011 1012 0
-925 1011 1012 0
-1012 -1010 -1013 0
1012 1010 -1013 0
1012 -1010 1013 0
-1012 1010 1013 0
-1012 -1010 1014 0
1012 -1014 0
1010 -1014 0
-925 -1011 1015 0
925 -1015 0
1011 -1015 0
1014 1015 -1016 0
-1014 1016 0
-1015 1016 0
-58 -971 1017 0
58 -1017 0
971 -1017 0
-931 -1017 -1018 0
931 1017 -1018 0
931 -1017 1018 0
-931 1017 1018 0
-1018 -1016 -1019 0
1018 1016 -1019 0
1018 -1016 1019 0
-1018 1016 1019 0
-1018 -1016 1020 0
1018 -1020 0
1016 -1020 0
-931 -1017 1021 0
931 -1021 0
1017 -1021 0
1020 1021 -1022 0
-1020 1022 0
-1021 1022 0
-66 -971 1023 0
66 -1023 0
971 -1023 0
-937 -1023 -1024 0
937 1023 -1024 0
937 -1023 1024 0
-937 1023 1024 0
-1024 -1022 -1025 0
1024 1022 -1025 0
1024 -1022 1025 0
-1024 1022 1025 0
-1024 -1022 1026 0
1024 -1026 0
1022 -1026 0
-937 -1023 1027 0
937 -1027 0
1023 -1027 0
1026 1027 -1028 0
-1026 1028 0
-1027 1028 0
-74 -971 1029 0
74 -1029 0
971 -1029 0
-943 -1029 -1030 0
943 1029 -1030 0
943 -1029 1030 0
-943 1029 1030 0
-1030 -1028 -1031 0
1030 1028 -1031 0
1030 -1028 1031 0
-1030 1028 1031 0
-1030 -1028 1032 0
1030 -1032 0
1028 -1032 0
-943 -1029 1033 0
943 -1033 0
1029 -1033 0
1032 1033 -1034 0
-1032 1034 0
-1033 1034 0
-82 -971 1035 0
82 -1035 0
971 -1035 0
-949 -1035 -1036 0
949 1035 -1036 0
949 -1035 1036 0
-949 1035 1036 0
-1036 -1034 -1037 0
1036 1034 -1037 0
1036 -1034 1037 0
-1036 1034 1037 0
-1036 -1034 1038 0
1036 -1038 0
1034 -1038 0
-949 -1035 1039 0
949 -1039 0
1035 -1039 0
1038 1039 -1040 0
-1038 1040 0
-1039 1040 0
-90 -971 1041 0
90 -1041 0
971 -1041 0
-955 -1041 -1042 0
955 1041 -1042 0
955 -1041 1042 0
-955 1041 1042 0
-1042 -1040 -1043 0
1042 1040 -1043 0
1042 -1040 1043 0
-1042 1040 1043 0
-1042 -1040 1044 0
1042 -1044 0
1040 -1044 0
-955 -1041 1045 0
955 -1045 0
1041 -1045 0
1044 1045 -1046 0
-1044 1046 0
-1045 1046 0
-98 -971 1047 0
98 -1047 0
971 -1047 0
-961 -1047 -1048 0
961 1047 -1048 0
961 -1047 1048 0
-961 1047 1048 0
-1048 -1046 -1049 0
1048 1046 -1049 0
1048 -1046 1049 0
-1048 1046 1049 0
-1048 -1046 1050 0
1048 -1050 0
1046 -1050 0
-961 -1047 1051 0
961 -1051 0
1047 -1051 0
1050 1051 -1052 0
-1050 1052 0
-1051 1052 0
-106 -971 1053 0
106 -1053 0
971 -1053 0
-967 -1053 -1054 0
967 1053 -1054 0
967 -1053 1054 0
-967 1053 1054 0
-1054 -1052 -1055 0
1054 1052 -1055 0
1054 -1052 1055 0
-1054 1052 1055 0
-1054 -1052 1056 0
1054 -1056 0
1052 -1056 0
-967 -1053 1057 0
967 -1057 0
1053 -1057 0
1056 1057 -1058 0
-1056 1058 0
-1057 1058 0
-114 -971 1059 0
114 -1059 0
971 -1059 0
-970 -1059 -1060 0
970 1059 -1060 0
970 -1059 1060 0
-970 1059 1060 0
-1060 -1058 -1061 0
1060 1058 -1061 0
1060 -1058 1061 0
-1060 1058 1061 0
-1060 -1058 1062 0
1060 -1062 0
1058 -1062 0
-970 -1059 1063 0
970 -1063 0
1059 -1063 0
1062 1063 -1064 0
-1062 1064 0
-1063 1064 0
-1 -1065 1066 0
1 -1066 0
1065 -1066 0
-977 -1066 -1067 0
977 1066 -1067 0
977 -1066 1067 0
-977 1066 1067 0
-977 -1066 1068 0
977 -1068 0
1066 -1068 0
-4 -1065 1069 0
4 -1069 0
1065 -1069 0
-983 -1069 -1070 0
983 1069 -1070 0
983 -1069 1070 0
-983 1069 1070 0
-1070 -1068 -1071 0
1070 1068 -1071 0
1070 -1068 1071 0
-1070 1068 1071 0
-1070 -1068 1072 0
1070 -1072 0
1068 -1072 0
-983 -1069 1073 0
983 -1073 0
1069 -1073 0
1072 1073 -1074 0
-1072 1074 0
-1073 1074 0
-10 -1065 1075 0
10 -1075 0
1065 -1075 0
-989 -1075 -1076 0
989 1075 -1076 0
989 -1075 1076 0
-989 1075 1076 0
-1076 -1074 -1077 0
1076 1074 -1077 0
1076 -1074 1077 0
-1076 1074 1077 0
-1076 -1074 1078 0
1076 -1078 0
1074 -1078 0
-989 -1075 1079 0
989 -1079 0
1075 -1079 0
1078 1079 -1080 0
-1078 1080 0
-1079 1080 0
-18 -1065 1081 0
18 -1081 0
1065 -1081 0
-995 -1081 -1082 0
995 1081 -1082 0
995 -1081 1082 0
-995 1081 1082 0
-1082 -1080 -1083 0
1082 1080 -1083 0
1082 -1080 1083 0
-1082 1080 1083 0
-1082 -1080 1084 0
1082 -1084 0
1080 -1084 0
-995 -1081 1085 0
995 -1085 0
1081 -1085 0
1084 1085 -1086 0
-1084 1086 0
-1085 1086 0
-26 -1065 1087 0
26 -1087 0
1065 -1087 0
-1001 -1087 -1088 0
1001 1087 -1088 0
1001 -1087 1088 0
-1001 1087 1088 0
-1088 -1086 -1089 0
1088 1086 -1089 0
1088 -1086 1089 0
-1088 1086 1089 0
-1088 -1086 1090 0
1088 -1090 0
1086 -1090 0
-1001 -1087 1091 0
1001 -1091 0
1087 -1091 0
1090 1091 -1092 0
-1090 1092 0
-1091 1092 0
-34 -1065 1093 0
34 -1093 0
1065 -1093 0
-1007 -1093 -1094 0
1007 1093 -1094 0
1007 -1093 1094 0
-1007 1093 1094 0
-1094 -1092 -1095 0
1094 1092 -1095 0
1094 -1092 1095 0
-1094 1092 1095 0
-1094 -1092 1096 0
1094 -1096 0
1092 -1096 0
-1007 -1093 1097 0
1007 -1097 0
1093 -1097 0
1096 1097 -1098 0
-1096 1098 0
-1097 1098 0
-42 -1065 1099 0
42 -1099 0
1065 -1099 0
-1013 -1099 -1100 0
1013 1099 -1100 0
1013 -1099 1100 0
-1013 1099 1100 0
-1100 -1098 -1101 0
1100 1098 -1101 0
1100 -1098 1101 0
-1100 1098 1101 0
-1100 -1098 1102 0
1100 -1102 0
1098 -1102 0
-1013 -1099 1103 0
1013 -1103 0
1099 -1103 0
1102 1103 -1104 0
-1102 1104 0
-1103 1104 0
-50 -1065 1105 0
50 -1105 0
1065 -1105 0
-1019 -1105 -1106 0
1019 1105 -1106 0
1019 -1105 1106 0
-1019 1105 1106 0
-1106 -1104 -1107 0
1106 1104 -1107 0
1106 -1104 1107 0
-1106 1104 1107 0
-1106 -1104 1108 0
1106 -1108 0
1104 -1108 0
-1019 -1105 1109 0
1019 -1109 0
1105 -1109 0
1108 1109 -1110 0
-1108 1110 0
-1109 1110 0
-58 -1065 1111 0
58 -1111 0
1065 -1111 0
-1025 -1111 -1112 0
1025 1111 -1112 0
1025 -1111 1112 0
-1025 1111 1112 0
-1112 -1110 -1113 0
1112 1110 -1113 0
1112 -1110 1113 0
-1112 1110 1113 0
-1112 -1110 1114 0
1112 -1114 0
1110 -1114 0
-1025 -1111 1115 0
1025 -1115 0
1111 -1115 0
1114 1115 -1116 0
-1114 1116 0
-1115 1116 0
-66 -1065 1117 0
66 -1117 0
1065 -1117 0
-1031 -1117 -1118 0
1031 1117 -1118 0
1031 -1117 1118 0
-1031 1117 1118 0
-1118 -1116 -1119 0
1118 1116 -1119 0
1118 -1116 1119 0
-1118 1116 1119 0
-1118 -1116 1120 0
1118 -1120 0
1116 -1120 0
-1031 -1117 1121 0
1031 -1121 0
1117 -1121 0
1120 1121 -1122 0
-1120 1122 0
-1121 1122 0
-74 -1065 1123 0
74 -1123 0
1065 -1123 0
-1037 -1123 -1124 0
1037 1123 -1124 0
1037 -1123 1124 0
-1037 1123 1124 0
-1124 -1122 -1125 0
1124 1122 -1125 0
1124 -1122 1125 0
-1124 1122 1125 0
-1124 -1122 1126 0
1124 -1126 0
1122 -1126 0
-1037 -1123 1127 0
1037 -1127 0
1123 -1127 0
1126 1127 -1128 0
-1126 1128 0
-1127 1128 0
-82 -1065 1129 0
82 -1129 0
1065 -1129 0
-1043 -1129 -1130 0
1043 1129 -1130 0
1043 -1129 1130 0
-1043 1129 1130 0
-1130 -1128 -1131 0
1130 1128 -1131 0
1130 -1128 1131 0
-1130 1128 1131 0
-1130 -1128 1132 0
1130 -1132 0
1128 -1132 0
-1043 -1129 1133 0
1043 -1133 0
1129 -1133 0
1132 1133 -1134 0
-1132 1134 0
-1133 1134 0
-90 -1065 1135 0
90 -1135 0
1065 -1135 0
-1049 -1135 -1136 0
1049 1135 -1136 0
1049 -1135 1136 0
-1049 1135 1136 0
-1136 -1134 -1137 0
1136 1134 -1137 0
1136 -1134 1137 0
-1136 1134 1137 0
-1136 -1134 1138 0
1136 -1138 0
1134 -1138 0
-1049 -1135 1139 0
1049 -1139 0
1135 -1139 0
1138 1139 -1140 0
-1138 1140 0
-1139 1140 0
-98 -1065 1141 0
98 -1141 0
1065 -1141 0
-1055 -1141 -1142 0
1055 1141 -1142 0
1055 -1141 1142 0
-1055 1141 1142 0
-1142 -1140 -1143 0
1142 1140 -1143 0
1142 -1140 1143 0
-1142 1140 1143 0
-1142 -1140 1144 0
1142 -1144 0
1140 -1144 0
-1055 -1141 1145 0
1055 -1145 0
1141 -1145 0
1144 1145 -1146 0
-1144 1146 0
-1145 1146 0
-106 -1065 1147 0
106 -1147 0
1065 -1147 0
-1061 -1147 -1148 0
1061 1147 -1148 0
1061 -1147 1148 0
-1061 1147 1148 0
-1148 -1146 -1149 0
1148 1146 -1149 0
1148 -1146 1149 0
-1148 1146 1149 0
-1148 -1146 1150 0
1148 -1150 0
1146 -1150 0
-1061 -1147 1151 0
1061 -1151 0
1147 -1151 0
1150 1151 -1152 0
-1150 1152 0
-1151 1152 0
-114 -1065 1153 0
114 -1153 0
1065 -1153 0
-1064 -1153 -1154 0
1064 1153 -1154 0
1064 -1153 1154 0
-1064 1153 1154 0
-1154 -1152 -1155 0
1154 1152 -1155 0
1154 -1152 1155 0
-1154 1152 1155 0
-1154 -1152 1156 0
1154 -1156 0
1152 -1156 0
-1064 -1153 1157 0
1064 -1157 0
1153 -1157 0
1156 1157 -1158 0
-1156 1158 0
-1157 1158 0
-1 -1159 1160 0
1 -1160 0
1159 -1160 0
-1071 -1160 -1161 0
1071 1160 -1161 0
1071 -1160 1161 0
-1071 1160 1161 0
-1071 -1160 1162 0
1071 -1162 0
1160 -1162 0
-4 -1159 1163 0
4 -1163 0
1159 -1163 0
-1077 -1163 -1164 0
1077 1163 -1164 0
1077 -1163 1164 0
-1077 1163 1164 0
-1164 -1162 -1165 0
1164 1162 -1165 0
1164 -1162 1165 0
-1164 1162 1165 0
-1164 -1162 1166 0
1164 -1166 0
1162 -1166 0
-1077 -1163 1167 0
1077 -1167 0
1163 -1167 0
1166 1167 -1168 0
-1166 1168 0
-1167 1168 0
-10 -1159 1169 0
10 -1169 0
1159 -1169 0
-1083 -1169 -1170 0
1083 1169 -1170 0
1083 -1169 1170 0
-1083 1169 1170 0
-1170 -1168 -1171 0
1170 1168 -1171 0
1170 -1168 1171 0
-1170 1168 1171 0
-1170 -1168 1172 0
1170 -1172 0
1168 -1172 0
-1083 -1169 1173 0
1083 -1173 0
1169 -1173 0
1172 1173 -1174 0
-1172 1174 0
-1173 1174 0
-18 -1159 1175 0
18 -1175 0
1159 -1175 0
-1089 -1175 -1176 0
1089 1175 -1176 0
1089 -1175 1176 0
-1089 1175 1176 0
-1176 -1174 -1177 0
1176 1174 -1177 0
1176 -1174 1177 0
-1176 1174 1177 0
-1176 -1174 1178 0
1176 -1178 0
1174 -1178 0
-1089 -1175 1179 0
1089 -1179 0
1175 -1179 0
1178 1179 -1180 0
-1178 1180 0
-1179 1180 0
-26 -1159 1181 0
26 -1181 0
1159 -1181 0
-1095 -1181 -1182 0
1095 1181 -1182 0
1095 -1181 1182 0
-1095 1181 1182 0
-1182 -1180 -1183 0
1182 1180 -1183 0
1182 -1180 1183 0
-1182 1180 1183 0
-1182 -1180 1184 0
1182 -1184 0
1180 -1184 0
-1095 -1181 1185 0
1095 -1185 0
1181 -1185 0
1184 1185 -1186 0
-1184 1186 0
-1185 1186 0
-34 -1159 1187 0
34 -1187 0
1159 -1187 0
-1101 -1187 -1188 0
1101 1187 -1188 0
1101 -1187 1188 0
-1101 1187 1188 0
-1188 -1186 -1189 0
1188 1186 -1189 0
1188 -1186 1189 0
-1188 1186 1189 0
-1188 -1186 1190 0
1188 -1190 0
1186 -1190 0
-1101 -1187 1191 0
1101 -1191 0
1187 -1191 0
1190 1191 -1192 0
-1190 1192 0
-1191 1192 0
-42 -1159 1193 0
42 -1193 0
1159 -1193 0
-1107 -1193 -1194 0
1107 1193 -1194 0
1107 -1193 1194 0
-1107 1193 1194 0
-1194 -1192 -1195 0
1194 1192 -1195 0
1194 -1192 1195 0
-1194 1192 1195 0
-1194 -1192 1196 0
1194 -1196 0
1192 -1196 0
-1107 -1193 1197 0
1107 -1197 0
1193 -1197 0
1196 1197 -1198 0
-1196 1198 0
-1197 1198 0
-50 -1159 1199 0
50 -1199 0
1159 -1199 0
-1113 -1199 -1200 0
1113 1199 -1200 0
1113 -1199 1200 0
-1113 1199 1200 0
-1200 -1198 -1201 0
1200 1198 -1201 0
1200 -1198 1201 0
-1200 1198 1201 0
-1200 -1198 1202 0
1200 -1202 0
1198 -1202 0
-1113 -1199 1203 0
1113 -1203 0
1199 -1203 0
1202 1203 -1204 0
-1202 1204 0
-1203 1204 0
-58 -1159 1205 0
58 -1205 0
1159 -1205 0
-1119 -1205 -1206 0
1119 1205 -1206 0
1119 -1205 1206 0
-1119 1205 1206 0
-1206 -1204 -1207 0
1206 1204 -1207 0
1206 -1204 1207 0
-1206 1204 1207 0
-1206 -1204 1208 0
1206 -1208 0
1204 -1208 0
-1119 -1205 1209 0
1119 -1209 0
1205 -1209 0
1208 1209 -1210 0
-1208 1210 0
-1209 1210 0
-66 -1159 1211 0
66 -1211 0
1159 -1211 0
-1125 -1211 -1212 0
1125 1211 -1212 0
1125 -1211 1212 0
-1125 1211 1212 0
-1212 -1210 -1213 0
1212 1210 -1213 0
1212 -1210 1213 0
-1212 1210 1213 0
-1212 -1210 1214 0
1212 -1214 0
1210 -1214 0
-1125 -1211 1215 0
1125 -1215 0
1211 -1215 0
1214 1215 -1216 0
-1214 1216 0
-1215 1216 0
-74 -1159 1217 0
74 -1217 0
1159 -1217 0
-1131 -1217 -1218 0
1131 1217 -1218 0
1131 -1217 1218 0
-1131 1217 1218 0
-1218 -1216 -1219 0
1218 1216 -1219 0
1218 -1216 1219 0
-1218 1216 1219 0
-1218 -1216 1220 0
1218 -1220 0
1216 -1220 0
-1131 -1217 1221 0
1131 -1221 0
1217 -1221 0
1220 1221 -1222 0
-1220 1222 0
-1221 1222 0
-82 -1159 1223 0
82 -1223 0
1159 -1223 0
-1137 -1223 -1224 0
1137 1223 -1224 0
1137 -1223 1224 0
-1137 1223 1224 0
-1224 -1222 -1225 0
1224 1222 -1225 0
1224 -1222 1225 0
-1224 1222 1225 0
-1224 -1222 1226 0
1224 -1226 0
1222 -1226 0
-1137 -1223 1227 0
1137 -1227 0
1223 -1227 0
1226 1227 -1228 0
-1226 1228 0
-1227 1228 0
-90 -1159 1229 0
90 -1229 0
1159 -1229 0
-1143 -1229 -1230 0
1143 1229 -1230 0
1143 -1229 1230 0
-1143 1229 1230 0
-1230 -1228 -1231 0
1230 1228 -1231 0
1230 -1228 1231 0
-1230 1228 1231 0
-1230 -1228 1232 0
1230 -1232 0
1228 -1232 0
-1143 -1229 1233 0
1143 -1233 0
1229 -1233 0
1232 1233 -1234 0
-1232 1234 0
-1233 1234 0
-98 -1159 1235 0
98 -1235 0
1159 -1235 0
-1149 -1235 -1236 0
1149 1235 -1236 0
1149 -1235 1236 0
-1149 1235 1236 0
-1236 -1234 -1237 0
1236 1234 -1237 0
1236 -1234 1237 0
-1236 1234 1237 0
-1236 -1234 1238 0
1236 -1238 0
1234 -1238 0
-1149 -1235 1239 0
1149 -1239 0
1235 -1239 0
1238 1239 -1240 0
-1238 1240 0
-1239 1240 0
-106 -1159 1241 0
106 -1241 0
1159 -1241 0
-1155 -1241 -1242 0
1155 1241 -1242 0
1155 -1241 1242 0
-1155 1241 1242 0
-1242 -1240 -1243 0
1242 1240 -1243 0
1242 -1240 1243 0
-1242 1240 1243 0
-1242 -1240 1244 0
1242 -1244 0
1240 -1244 0
-1155 -1241 1245 0
1155 -1245 0
1241 -1245 0
1244 1245 -1246 0
-1244 1246 0
-1245 1246 0
-114 -1159 1247 0
114 -1247 0
1159 -1247 0
-1158 -1247 -1248 0
1158 1247 -1248 0
1158 -1247 1248 0
-1158 1247 1248 0
-1248 -1246 -1249 0
1248 1246 -1249 0
1248 -1246 1249 0
-1248 1246 1249 0
-1248 -1246 1250 0
1248 -1250 0
1246 -1250 0
-1158 -1247 1251 0
1158 -1251 0
1247 -1251 0
1250 1251 -1252 0
-1250 1252 0
-1251 1252 0
-1 -1253 1254 0
1 -1254 0
1253 -1254 0
-1165 -1254 -1255 0
1165 1254 -1255 0
1165 -1254 1255 0
-1165 1254 1255 0
-1165 -1254 1256 0
1165 -1256 0
1254 -1256 0
-4 -1253 1257 0
4 -1257 0
1253 -1257 0
-1171 -1257 -1258 0
1171 1257 -1258 0
1171 -1257 1258 0
-1171 1257 1258 0
-1258 -1256 -1259 0
1258 1256 -1259 0
1258 -1256 1259 0
-1258 1256 1259 0
-1258 -1256 1260 0
1258 -1260 0
1256 -1260 0
-1171 -1257 1261 0
1171 -1261 0
1257 -1261 0
1260 1261 -1262 0
-1260 1262 0
-1261 1262 0
-10 -1253 1263 0
10 -1263 0
1253 -1263 0
-1177 -1263 -1264 0
1177 1263 -1264 0
1177 -1263 1264 0
-1177 1263 1264 0
-1264 -1262 -1265 0
1264 1262 -1265 0
1264 -1262 1265 0
-1264 1262 1265 0
-1264 -1262 1266 0
1264 -1266 0
1262 -1266 0
-1177 -1263 1267 0
1177 -1267 0
1263 -1267 0
1266 1267 -1268 0
-1266 1268 0
-1267 1268 0
-18 -1253 1269 0
18 -1269 0
1253 -1269 0
-1183 -1269 -1270 0
1183 1269 -1270 0
1183 -1269 1270 0
-1183 1269 1270 0
-1270 -1268 -1271 0
1270 1268 -1271 0
1270 -1268 1271 0
-1270 1268 1271 0
-1270 -1268 1272 0
1270 -1272 0
1268 -1272 0
-1183 -1269 1273 0
1183 -1273 0
1269 -1273 0
1272 1273 -1274 0
-1272 1274 0
-1273 1274 0
-26 -1253 1275 0
26 -1275 0
1253 -1275 0
-1189 -1275 -1276 0
1189 1275 -1276 0
1189 -1275 1276 0
-1189 1275 1276 0
-1276 -1274 -1277 0
1276 1274 -1277 0
1276 -1274 1277 0
-1276 1274 1277 0
-1276 -1274 1278 0
1276 -1278 0
1274 -1278 0
-1189 -1275 1279 0
1189 -1279 0
1275 -1279 0
1278 1279 -1280 0
-1278 1280 0
-1279 1280 0
-34 -1253 1281 0
34 -1281 0
1253 -1281 0
-1195 -1281 -1282 0
1195 1281 -1282 0
1195 -1281 1282 0
-1195 1281 1282 0
-1282 -1280 -1283 0
1282 1280 -1283 0
1282 -1280 1283 0
-1282 1280 1283 0
-1282 -1280 1284 0
1282 -1284 0
1280 -1284 0
-1195 -1281 1285 0
1195 -1285 0
1281 -1285 0
1284 1285 -1286 0
-1284 1286 0
-1285 1286 0
-42 -1253 1287 0
42 -1287 0
1253 -1287 0
-1201 -1287 -1288 0
1201 1287 -1288 0
1201 -1287 1288 0
-1201 1287 1288 0
-1288 -1286 -1289 0
1288 1286 -1289 0
1288 -1286 1289 0
-1288 1286 1289 0
-1288 -1286 1290 0
1288 -1290 0
1286 -1290 0
-1201 -1287 1291 0
1201 -1291 0
1287 -1291 0
1290 1291 -1292 0
-1290 1292 0
-1291 1292 0
-50 -1253 1293 0
50 -1293 0
1253 -1293 0
-1207 -1293 -1294 0
1207 1293 -1294 0
1207 -1293 1294 0
-1207 1293 1294 0
-1294 -1292 -1295 0
1294 1292 -1295 0
1294 -1292 1295 0
-1294 1292 1295 0
-1294 -1292 1296 0
1294 -1296 0
1292 -1296 0
-1207 -1293 1297 0
1207 -1297 0
1293 -1297 0
1296 1297 -1298 0
-1296 1298 0
-1297 1298 0
-58 -1253 1299 0
58 -1299 0
1253 -1299 0
-1213 -1299 -1300 0
1213 1299 -1300 0
1213 -1299 1300 0
-1213 1299 1300 0
-1300 -1298 -1301 0
1300 1298 -1301 0
1300 -1298 1301 0
-1300 1298 1301 0
-1300 -1298 1302 0
1300 -1302 0
1298 -1302 0
-1213 -1299 1303 0
1213 -1303 0
1299 -1303 0
1302 1303 -1304 0
-1302 1304 0
-1303 1304 0
-66 -1253 1305 0
66 -1305 0
1253 -1305 0
-1219 -1305 -1306 0
1219 1305 -1306 0
1219 -1305 1306 0
-1219 1305 1306 0
-1306 -1304 -1307 0
1306 1304 -1307 0
1306 -1304 1307 0
-1306 1304 1307 0
-1306 -1304 1308 0
1306 -1308 0
1304 -1308 0
-1219 -1305 1309 0
1219 -1309 0
1305 -1309 0
1308 1309 -1310 0
-1308 1310 0
-1309 1310 0
-74 -1253 1311 0
74 -1311 0
1253 -1311 0
-1225 -1311 -1312 0
1225 1311 -1312 0
1225 -1311 1312 0
-1225 1311 1312 0
-1312 -1310 -1313 0
1312 1310 -1313 0
1312 -1310 1313 0
-1312 1310 1313 0
-1312 -1310 1314 0
1312 -1314 0
1310 -1314 0
-1225 -1311 1315 0
1225 -1315 0
1311 -1315 0
1314 1315 -1316 0
-1314 1316 0
-1315 1316 0
-82 -1253 1317 0
82 -1317 0
1253 -1317 0
-1231 -1317 -1318 0
1231 1317 -1318 0
1231 -1317 1318 0
-1231 1317 1318 0
-1318 -1316 -1319 0
1318 1316 -1319 0
1318 -1316 1319 0
-1318 1316 1319 0
-1318 -1316 1320 0
1318 -1320 0
1316 -1320 0
-1231 -1317 1321 0
1231 -1321 0
1317 -1321 0
1320 1321 -1322 0
-1320 1322 0
-1321 1322 0
-90 -1253 1323 0
90 -1323 0
1253 -1323 0
-1237 -1323 -1324 0
1237 1323 -1324 0
1237 -1323 1324 0
-1237 1323 1324 0
-1324 -1322 -1325 0
1324 1322 -1325 0
1324 -1322 1325 0
-1324 1322 1325 0
-1324 -1322 1326 0
1324 -1326 0
1322 -1326 0
-1237 -1323 1327 0
1237 -1327 0
1323 -1327 0
1326 1327 -1328 0
-1326 1328 0
-1327 1328 0
-98 -1253 1329 0
98 -1329 0
1253 -1329 0
-1243 -1329 -1330 0
1243 1329 -1330 0
1243 -1329 1330 0
-1243 1329 1330 0
-1330 -1328 -1331 0
1330 1328 -1331 0
1330 -1328 1331 0
-1330 1328 1331 0
-1330 -1328 1332 0
1330 -1332 0
1328 -1332 0
-1243 -1329 1333 0
1243 -1333 0
1329 -1333 0
1332 1333 -1334 0
-1332 1334 0
-1333 1334 0
-106 -1253 1335 0
106 -1335 0
1253 -1335 0
-1249 -1335 -1336 0
1249 1335 -1336 0
1249 -1335 1336 0
-1249 1335 1336 0
-1336 -1334 -1337 0
1336 1334 -1337 0
1336 -1334 1337 0
-1336 1334 1337 0
-1336 -1334 1338 0
1336 -1338 0
1334 -1338 0
-1249 -1335 1339 0
1249 -1339 0
1335 -1339 0
1338 1339 -1340 0
-1338 1340 0
-1339 1340 0
-114 -1253 1341 0
114 -1341 0
1253 -1341 0
-1252 -1341 -1342 0
1252 1341 -1342 0
1252 -1341 1342 0
-1252 1341 1342 0
-1342 -1340 -1343 0
1342 1340 -1343 0
1342 -1340 1343 0
-1342 1340 1343 0
-1342 -1340 1344 0
1342 -1344 0
1340 -1344 0
-1252 -1341 1345 0
1252 -1345 0
1341 -1345 0
1344 1345 -1346 0
-1344 1346 0
-1345 1346 0
-1 -1347 1348 0
1 -1348 0
1347 -1348 0
-1259 -1348 -1349 0
1259 1348 -1349 0
1259 -1348 1349 0
-1259 1348 1349 0
-1259 -1348 1350 0
1259 -1350 0
1348 -1350 0
-4 -1347 1351 0
4 -1351 0
1347 -1351 0
-1265 -1351 -1352 0
1265 1351 -1352 0
1265 -1351 1352 0
-1265 1351 1352 0
-1352 -1350 -1353 0
1352 1350 -1353 0
1352 -1350 1353 0
-1352 1350 1353 0
-1352 -1350 1354 0
1352 -1354 0
1350 -1354 0
-1265 -1351 1355 0
1265 -1355 0
1351 -1355 0
1354 1355 -1356 0
-1354 1356 0
-1355 1356 0
-10 -1347 1357 0
10 -1357 0
1347 -1357 0
-1271 -1357 -1358 0
1271 1357 -1358 0
1271 -1357 1358 0
-1271 1357 1358 0
-1358 -1356 -1359 0
1358 1356 -1359 0
1358 -1356 1359 0
-1358 1356 1359 0
-1358 -1356 1360 0
1358 -1360 0
1356 -1360 0
-1271 -1357 1361 0
1271 -1361 0
1357 -1361 0
1360 1361 -1362 0
-1360 1362 0
-1361 1362 0
-18 -1347 1363 0
18 -1363 0
1347 -1363 0
-1277 -1363 -1364 0
1277 1363 -1364 0
1277 -1363 1364 0
-1277 1363 1364 0
-1364 -1362 -1365 0
1364 1362 -1365 0
1364 -1362 1365 0
-1364 1362 1365 0
-1364 -1362 1366 0
1364 -1366 0
1362 -1366 0
-1277 -1363 1367 0
1277 -1367 0
1363 -1367 0
1366 1367 -1368 0
-1366 1368 0
-1367 1368 0
-26 -1347 1369 0
26 -1369 0
1347 -1369 0
-1283 -1369 -1370 0
1283 1369 -1370 0
1283 -1369 1370 0
-1283 1369 1370 0
-1370 -1368 -1371 0
1370 1368 -1371 0
1370 -1368 1371 0
-1370 1368 1371 0
-1370 -1368 1372 0
1370 -1372 0
1368 -1372 0
-1283 -1369 1373 0
1283 -1373 0
1369 -1373 0
1372 1373 -1374 0
-1372 1374 0
-1373 1374 0
-34 -1347 1375 0
34 -1375 0
1347 -1375 0
-1289 -1375 -1376 0
1289 1375 -1376 0
1289 -1375 1376 0
-1289 1375 1376 0
-1376 -1374 -1377 0
1376 1374 -1377 0
1376 -1374 1377 0
-1376 1374 1377 0
-1376 -1374 1378 0
1376 -1378 0
1374 -1378 0
-1289 -1375 1379 0
1289 -1379 0
1375 -1379 0
1378 1379 -1380 0
-1378 1380 0
-1379 1380 0
-42 -1347 1381 0
42 -1381 0
1347 -1381 0
-1295 -1381 -1382 0
1295 1381 -1382 0
1295 -1381 1382 0
-1295 1381 1382 0
-1382 -1380 -1383 0
1382 1380 -1383 0
1382 -1380 1383 0
-1382 1380 1383 0
-1382 -1380 1384 0
1382 -1384 0
1380 -1384 0
-1295 -1381 1385 0
1295 -1385 0
1381 -1385 0
1384 1385 -1386 0
-1384 1386 0
-1385 1386 0
-50 -1347 1387 0
50 -1387 0
1347 -1387 0
-1301 -1387 -1388 0
1301 1387 -1388 0
1301 -1387 1388 0
-1301 1387 1388 0
-1388 -1386 -1389 0
1388 1386 -1389 0
1388 -1386 1389 0
-1388 1386 1389 0
-1388 -1386 1390 0
1388 -1390 0
1386 -1390 0
-1301 -1387 1391 0
1301 -1391 0
1387 -1391 0
1390 1391 -1392 0
-1390 1392 0
-1391 1392 0
-58 -1347 1393 0
58 -1393 0
1347 -1393 0
-1307 -1393 -1394 0
1307 1393 -1394 0
1307 -1393 1394 0
-1307 1393 1394 0
-1394 -1392 -1395 0
1394 1392 -1395 0
1394 -1392 1395 0
-1394 1392 1395 0
-1394 -1392 1396 0
1394 -1396 0
1392 -1396 0
-1307 -1393 1397 0
1307 -1397 0
1393 -1397 0
1396 1397 -1398 0
-1396 1398 0
-1397 1398 0
-66 -1347 1399 0
66 -1399 0
1347 -1399 0
-1313 -1399 -1400 0
1313 1399 -1400 0
1313 -1399 1400 0
-1313 1399 1400 0
-1400 -1398 -1401 0
1400 1398 -1401 0
1400 -1398 1401 0
-1400 1398 1401 0
-1400 -1398 1402 0
1400 -1402 0
1398 -1402 0
-1313 -1399 1403 0
1313 -1403 0
1399 -1403 0
1402 1403 -1404 0
-1402 1404 0
-1403 1404 0
-74 -1347 1405 0
74 -1405 0
1347 -1405 0
-1319 -1405 -1406 0
1319 1405 -1406 0
1319 -1405 1406 0
-1319 1405 1406 0
-1406 -1404 -1407 0
1406 1404 -1407 0
1406 -1404 1407 0
-1406 1404 1407 0
-1406 -1404 1408 0
1406 -1408 0
1404 -1408 0
-1319 -1405 1409 0
1319 -1409 0
1405 -1409 0
1408 1409 -1410 0
-1408 1410 0
-1409 1410 0
-82 -1347 1411 0
82 -1411 0
1347 -1411 0
-1325 -1411 -1412 0
1325 1411 -1412 0
1325 -1411 1412 0
-1325 1411 1412 0
-1412 -1410 -1413 0
1412 1410 -1413 0
1412 -1410 1413 0
-1412 1410 1413 0
-1412 -1410 1414 0
1412 -1414 0
1410 -1414 0
-1325 -1411 1415 0
1325 -1415 0
1411 -1415 0
1414 1415 -1416 0
-1414 1416 0
-1415 1416 0
-90 -1347 1417 0
90 -1417 0
1347 -1417 0
-1331 -1417 -1418 0
1331 1417 -1418 0
1331 -1417 1418 0
-1331 1417 1418 0
-1418 -1416 -1419 0
1418 1416 -1419 0
1418 -1416 1419 0
-1418 1416 1419 0
-1418 -1416 1420 0
1418 -1420 0
1416 -1420 0
-1331 -1417 1421 0
1331 -1421 0
1417 -1421 0
1420 1421 -1422 0
-1420 1422 0
-1421 1422 0
-98 -1347 1423 0
98 -1423 0
1347 -1423 0
-1337 -1423 -1424 0
1337 1423 -1424 0
1337 -1423 1424 0
-1337 1423 1424 0
-1424 -1422 -1425 0
1424 1422 -1425 0
1424 -1422 1425 0
-1424 1422 1425 0
-1424 -1422 1426 0
1424 -1426 0
1422 -1426 0
-1337 -1423 1427 0
1337 -1427 0
1423 -1427 0
1426 1427 -1428 0
-1426 1428 0
-1427 1428 0
-106 -1347 1429 0
106 -1429 0
1347 -1429 0
-1343 -1429 -1430 0
1343 1429 -1430 0
1343 -1429 1430 0
-1343 1429 1430 0
-1430 -1428 -1431 0
1430 1428 -1431 0
1430 -1428 1431 0
-1430 1428 1431 0
-1430 -1428 1432 0
1430 -1432 0
1428 -1432 0
-1343 -1429 1433 0
1343 -1433 0
1429 -1433 0
1432 1433 -1434 0
-1432 1434 0
-1433 1434 0
-114 -1347 1435 0
114 -1435 0
1347 -1435 0
-1346 -1435 -1436 0
1346 1435 -1436 0
1346 -1435 1436 0
-1346 1435 1436 0
-1436 -1434 -1437 0
1436 1434 -1437 0
1436 -1434 1437 0
-1436 1434 1437 0
-1436 -1434 1438 0
1436 -1438 0
1434 -1438 0
-1346 -1435 1439 0
1346 -1439 0
1435 -1439 0
1438 1439 -1440 0
-1438 1440 0
-1439 1440 0
3 0
8 0
-127 0
221 0
315 0
-409 0
-503 0
-597 0
-691 0
785 0
879 0
-973 0
-1067 0
-1161 0
1255 0
-1349 0
-1353 0
-1359 0
-1365 0
-1371 0
-1377 0
-1383 0
-1389 0
-1395 0
-1401 0
-1407 0
-1413 0
-1419 0
-1425 0
-1431 0
-1437 0
-1440 0
