p cnf 1632 5355
-1 -2 3 0
1 -3 0
2 -3 0
-4 -2 5 0
4 -5 0
2 -5 0
-1 -6 7 0
1 -7 0
6 -7 0
-5 -7 -8 0
5 7 -8 0
5 -7 8 0
-5 7 8 0
-5 -7 9 0
5 -9 0
7 -9 0
-10 -2 11 0
10 -11 0
2 -11 0
-4 -6 12 0
4 -12 0
6 -12 0
-11 -12 -13 0
11 12 -13 0
11 -12 13 0
-11 12 13 0
-13 -9 -14 0
13 9 -14 0
13 -9 14 0
-13 9 14 0
-13 -9 15 0
13 -15 0
9 -15 0
-11 -12 16 0
11 -16 0
12 -16 0
15 16 -17 0
-15 17 0
-16 17 0
-18 -2 19 0
18 -19 0
2 -19 0
-10 -6 20 0
10 -20 0
6 -20 0
-19 -20 -21 0
19 20 -21 0
19 -20 21 0
-19 20 21 0
-21 -17 -22 0
21 17 -22 0
21 -17 22 0
-21 17 22 0
-21 -17 23 0
21 -23 0
17 -23 0
-19 -20 24 0
19 -24 0
20 -24 0
23 24 -25 0
-23 25 0
-24 25 0
-26 -2 27 0
26 -27 0
2 -27 0
-18 -6 28 0
18 -28 0
6 -28 0
-27 -28 -29 0
27 28 -29 0
27 -28 29 0
-27 28 29 0
-29 -25 -30 0
29 25 -30 0
29 -25 30 0
-29 25 30 0
-29 -25 31 0
29 -31 0
25 -31 0
-27 -28 32 0
27 -32 0
28 -32 0
31 32 -33 0
-31 33 0
-32 33 0
-34 -2 35 0
34 -35 0
2 -35 0
-26 -6 36 0
26 -36 0
6 -36 0
-35 -36 -37 0
35 36 -37 0
35 -36 37 0
-35 36 37 0
-37 -33 -38 0
37 33 -38 0
37 -33 38 0
-37 33 38 0
-37 -33 39 0
37 -39 0
33 -39 0
-35 -36 40 0
35 -40 0
36 -40 0
39 40 -41 0
-39 41 0
-40 41 0
-42 -2 43 0
42 -43 0
2 -43 0
-34 -6 44 0
34 -44 0
6 -44 0
-43 -44 -45 0
43 44 -45 0
43 -44 45 0
-43 44 45 0
-45 -41 -46 0
45 41 -46 0
45 -41 46 0
-45 41 46 0
-45 -41 47 0
45 -47 0
41 -47 0
-43 -44 48 0
43 -48 0
44 -48 0
47 48 -49 0
-47 49 0
-48 49 0
-50 -2 51 0
50 -51 0
2 -51 0
-42 -6 52 0
42 -52 0
6 -52 0
-51 -52 -53 0
51 52 -53 0
51 -52 53 0
-51 52 53 0
-53 -49 -54 0
53 49 -54 0
53 -49 54 0
-53 49 54 0
-53 -49 55 0
53 -55 0
49 -55 0
-51 -52 56 0
51 -56 0
52 -56 0
55 56 -57 0
-55 57 0
-56 57 0
-58 -2 59 0
58 -59 0
2 -59 0
-50 -6 60 0
50 -60 0
6 -60 0
-59 -60 -61 0
59 60 -61 0
59 -60 61 0
-59 60 61 0
-61 -57 -62 0
61 57 -62 0
61 -57 62 0
-61 57 62 0
-61 -57 63 0
61 -63 0
57 -63 0
-59 -60 64 0
59 -64 0
60 -64 0
63 64 -65 0
-63 65 0
-64 65 0
-66 -2 67 0
66 -67 0
2 -67 0
-58 -6 68 0
58 -68 0
6 -68 0
-67 -68 -69 0
67 68 -69 0
67 -68 69 0
-67 68 69 0
-69 -65 -70 0
69 65 -70 0
69 -65 70 0
-69 65 70 0
-69 -65 71 0
69 -71 0
65 -71 0
-67 -68 72 0
67 -72 0
68 -72 0
71 72 -73 0
-71 73 0
-72 73 0
-74 -2 75 0
74 -75 0
2 -75 0
-66 -6 76 0
66 -76 0
6 -76 0
-75 -76 -77 0
75 76 -77 0
75 -76 77 0
-75 76 77 0
-77 -73 -78 0
77 73 -78 0
77 -73 78 0
-77 73 78 0
-77 -73 79 0
77 -79 0
73 -79 0
-75 -76 80 0
75 -80 0
76 -80 0
79 80 -81 0
-79 81 0
-80 81 0
-82 -2 83 0
82 -83 0
2 -83 0
-74 -6 84 0
74 -84 0
6 -84 0
-83 -84 -85 0
83 84 -85 0
83 -84 85 0
-83 84 85 0
-85 -81 -86 0
85 81 -86 0
85 -81 86 0
-85 81 86 0
-85 -81 87 0
85 -87 0
81 -87 0
-83 -84 88 0
83 -88 0
84 -88 0
87 88 -89 0
-87 89 0
-88 89 0
-90 -2 91 0
90 -91 0
2 -91 0
-82 -6 92 0
82 -92 0
6 -92 0
-91 -92 -93 0
91 92 -93 0
91 -92 93 0
-91 92 93 0
-93 -89 -94 0
93 89 -94 0
93 -89 94 0
-93 89 94 0
-93 -89 95 0
93 -95 0
89 -95 0
-91 -92 96 0
91 -96 0
92 -96 0
95 96 -97 0
-95 97 0
-96 97 0
-98 -2 99 0
98 -99 0
2 -99 0
-90 -6 100 0
90 -100 0
6 -100 0
-99 -100 -101 0
99 100 -101 0
99 -100 101 0
-99 100 101 0
-101 -97 -102 0
101 97 -102 0
101 -97 102 0
-101 97 102 0
-101 -97 103 0
101 -103 0
97 -103 0
-99 -100 104 0
99 -104 0
100 -104 0
103 104 -105 0
-103 105 0
-104 105 0
-106 -2 107 0
106 -107 0
2 -107 0
-98 -6 108 0
98 -108 0
6 -108 0
-107 -108 -109 0
107 108 -109 0
107 -108 109 0
-107 108 109 0
-109 -105 -110 0
109 105 -110 0
109 -105 110 0
-109 105 110 0
-109 -105 111 0
109 -111 0
105 -111 0
-107 -108 112 0
107 -112 0
108 -112 0
111 112 -113 0
-111 113 0
-112 113 0
-114 -2 115 0
114 -115 0
2 -115 0
-106 -6 116 0
106 -116 0
6 -116 0
-115 -116 -117 0
115 116 -117 0
115 -116 117 0
-115 116 117 0
-117 -113 -118 0
117 113 -118 0
117 -113 118 0
-117 113 118 0
-117 -113 119 0
117 -119 0
113 -119 0
-115 -116 120 0
115 -120 0
116 -120 0
119 120 -121 0
-119 121 0
-120 121 0
-122 -2 123 0
122 -123 0
2 -123 0
-114 -6 124 0
114 -124 0
6 -124 0
-123 -124 -125 0
123 124 -125 0
123 -124 125 0
-123 124 125 0
-125 -121 -126 0
125 121 -126 0
125 -121 126 0
-125 121 126 0
-125 -121 127 0
125 -127 0
121 -127 0
-123 -124 128 0
123 -128 0
124 -128 0
127 128 -129 0
-127 129 0
-128 129 0
-122 -6 130 0
122 -130 0
6 -130 0
-129 -130 -131 0
129 130 -131 0
129 -130 131 0
-129 130 131 0
-129 -130 132 0
129 -132 0
130 -132 0
-1 -133 134 0
1 -134 0
133 -134 0
-14 -134 -135 0
14 134 -135 0
14 -134 135 0
-14 134 135 0
-14 -134 136 0
14 -136 0
134 -136 0
-4 -133 137 0
4 -137 0
133 -137 0
-22 -137 -138 0
22 137 -138 0
22 -137 138 0
-22 137 138 0
-138 -136 -139 0
138 136 -139 0
138 -136 139 0
-138 136 139 0
-138 -136 140 0
138 -140 0
136 -140 0
-22 -137 141 0
22 -141 0
137 -141 0
140 141 -142 0
-140 142 0
-141 142 0
-10 -133 143 0
10 -143 0
133 -143 0
-30 -143 -144 0
30 143 -144 0
30 -143 144 0
-30 143 144 0
-144 -142 -145 0
144 142 -145 0
144 -142 145 0
-144 142 145 0
-144 -142 146 0
144 -146 0
142 -146 0
-30 -143 147 0
30 -147 0
143 -147 0
146 147 -148 0
-146 148 0
-147 148 0
-18 -133 149 0
18 -149 0
133 -149 0
-38 -149 -150 0
38 149 -150 0
38 -149 150 0
-38 149 150 0
-150 -148 -151 0
150 148 -151 0
150 -148 151 0
-150 148 151 0
-150 -148 152 0
150 -152 0
148 -152 0
-38 -149 153 0
38 -153 0
149 -153 0
152 153 -154 0
-152 154 0
-153 154 0
-26 -133 155 0
26 -155 0
133 -155 0
-46 -155 -156 0
46 155 -156 0
46 -155 156 0
-46 155 156 0
-156 -154 -157 0
156 154 -157 0
156 -154 157 0
-156 154 157 0
-156 -154 158 0
156 -158 0
154 -158 0
-46 -155 159 0
46 -159 0
155 -159 0
158 159 -160 0
-158 160 0
-159 160 0
-34 -133 161 0
34 -161 0
133 -161 0
-54 -161 -162 0
54 161 -162 0
54 -161 162 0
-54 161 162 0
-162 -160 -163 0
162 160 -163 0
162 -160 163 0
-162 160 163 0
-162 -160 164 0
162 -164 0
160 -164 0
-54 -161 165 0
54 -165 0
161 -165 0
164 165 -166 0
-164 166 0
-165 166 0
-42 -133 167 0
42 -167 0
133 -167 0
-62 -167 -168 0
62 167 -168 0
62 -167 168 0
-62 167 168 0
-168 -166 -169 0
168 166 -169 0
168 -166 169 0
-168 166 169 0
-168 -166 170 0
168 -170 0
166 -170 0
-62 -167 171 0
62 -171 0
167 -171 0
170 171 -172 0
-170 172 0
-171 172 0
-50 -133 173 0
50 -173 0
133 -173 0
-70 -173 -174 0
70 173 -174 0
70 -173 174 0
-70 173 174 0
-174 -172 -175 0
174 172 -175 0
174 -172 175 0
-174 172 175 0
-174 -172 176 0
174 -176 0
172 -176 0
-70 -173 177 0
70 -177 0
173 -177 0
176 177 -178 0
-176 178 0
-177 178 0
-58 -133 179 0
58 -179 0
133 -179 0
-78 -179 -180 0
78 179 -180 0
78 -179 180 0
-78 179 180 0
-180 -178 -181 0
180 178 -181 0
180 -178 181 0
-180 178 181 0
-180 -178 182 0
180 -182 0
178 -182 0
-78 -179 183 0
78 -183 0
179 -183 0
182 183 -184 0
-182 184 0
-183 184 0
-66 -133 185 0
66 -185 0
133 -185 0
-86 -185 -186 0
86 185 -186 0
86 -185 186 0
-86 185 186 0
-186 -184 -187 0
186 184 -187 0
186 -184 187 0
-186 184 187 0
-186 -184 188 0
186 -188 0
184 -188 0
-86 -185 189 0
86 -189 0
185 -189 0
188 189 -190 0
-188 190 0
-189 190 0
-74 -133 191 0
74 -191 0
133 -191 0
-94 -191 -192 0
94 191 -192 0
94 -191 192 0
-94 191 192 0
-192 -190 -193 0
192 190 -193 0
192 -190 193 0
-192 190 193 0
-192 -190 194 0
192 -194 0
190 -194 0
-94 -191 195 0
94 -195 0
191 -195 0
194 195 -196 0
-194 196 0
-195 196 0
-82 -133 197 0
82 -197 0
133 -197 0
-102 -197 -198 0
102 197 -198 0
102 -197 198 0
-102 197 198 0
-198 -196 -199 0
198 196 -199 0
198 -196 199 0
-198 196 199 0
-198 -196 200 0
198 -200 0
196 -200 0
-102 -197 201 0
102 -201 0
197 -201 0
200 201 -202 0
-200 202 0
-201 202 0
-90 -133 203 0
90 -203 0
133 -203 0
-110 -203 -204 0
110 203 -204 0
110 -203 204 0
-110 203 204 0
-204 -202 -205 0
204 202 -205 0
204 -202 205 0
-204 202 205 0
-204 -202 206 0
204 -206 0
202 -206 0
-110 -203 207 0
110 -207 0
203 -207 0
206 207 -208 0
-206 208 0
-207 208 0
-98 -133 209 0
98 -209 0
133 -209 0
-118 -209 -210 0
118 209 -210 0
118 -209 210 0
-118 209 210 0
-210 -208 -211 0
210 208 -211 0
210 -208 211 0
-210 208 211 0
-210 -208 212 0
210 -212 0
208 -212 0
-118 -209 213 0
118 -213 0
209 -213 0
212 213 -214 0
-212 214 0
-213 214 0
-106 -133 215 0
106 -215 0
133 -215 0
-126 -215 -216 0
126 215 -216 0
126 -215 216 0
-126 215 216 0
-216 -214 -217 0
216 214 -217 0
216 -214 217 0
-216 214 217 0
-216 -214 218 0
216 -218 0
214 -218 0
-126 -215 219 0
126 -219 0
215 -219 0
218 219 -220 0
-218 220 0
-219 220 0
-114 -133 221 0
114 -221 0
133 -221 0
-131 -221 -222 0
131 221 -222 0
131 -221 222 0
-131 221 222 0
-222 -220 -223 0
222 220 -223 0
222 -220 223 0
-222 220 223 0
-222 -220 224 0
222 -224 0
220 -224 0
-131 -221 225 0
131 -225 0
221 -225 0
224 225 -226 0
-224 226 0
-225 226 0
-122 -133 227 0
122 -227 0
133 -227 0
-132 -227 -228 0
132 227 -228 0
132 -227 228 0
-132 227 228 0
-228 -226 -229 0
228 226 -229 0
228 -226 229 0
-228 226 229 0
-228 -226 230 0
228 -230 0
226 -230 0
-132 -227 231 0
132 -231 0
227 -231 0
230 231 -232 0
-230 232 0
-231 232 0
-1 -233 234 0
1 -234 0
233 -234 0
-139 -234 -235 0
139 234 -235 0
139 -234 235 0
-139 234 235 0
-139 -234 236 0
139 -236 0
234 -236 0
-4 -233 237 0
4 -237 0
233 -237 0
-145 -237 -238 0
145 237 -238 0
145 -237 238 0
-145 237 238 0
-238 -236 -239 0
238 236 -239 0
238 -236 239 0
-238 236 239 0
-238 -236 240 0
238 -240 0
236 -240 0
-145 -237 241 0
145 -241 0
237 -241 0
240 241 -242 0
-240 242 0
-241 242 0
-10 -233 243 0
10 -243 0
233 -243 0
-151 -243 -244 0
151 243 -244 0
151 -243 244 0
-151 243 244 0
-244 -242 -245 0
244 242 -245 0
244 -242 245 0
-244 242 245 0
-244 -242 246 0
244 -246 0
242 -246 0
-151 -243 247 0
151 -247 0
243 -247 0
246 247 -248 0
-246 248 0
-247 248 0
-18 -233 249 0
18 -249 0
233 -249 0
-157 -249 -250 0
157 249 -250 0
157 -249 250 0
-157 249 250 0
-250 -248 -251 0
250 248 -251 0
250 -248 251 0
-250 248 251 0
-250 -248 252 0
250 -252 0
248 -252 0
-157 -249 253 0
157 -253 0
249 -253 0
252 253 -254 0
-252 254 0
-253 254 0
-26 -233 255 0
26 -255 0
233 -255 0
-163 -255 -256 0
163 255 -256 0
163 -255 256 0
-163 255 256 0
-256 -254 -257 0
256 254 -257 0
256 -254 257 0
-256 254 257 0
-256 -254 258 0
256 -258 0
254 -258 0
-163 -255 259 0
163 -259 0
255 -259 0
258 259 -260 0
-258 260 0
-259 260 0
-34 -233 261 0
34 -261 0
233 -261 0
-169 -261 -262 0
169 261 -262 0
169 -261 262 0
-169 261 262 0
-262 -260 -263 0
262 260 -263 0
262 -260 263 0
-262 260 263 0
-262 -260 264 0
262 -264 0
260 -264 0
-169 -261 265 0
169 -265 0
261 -265 0
264 265 -266 0
-264 266 0
-265 266 0
-42 -233 267 0
42 -267 0
233 -267 0
-175 -267 -268 0
175 267 -268 0
175 -267 268 0
-175 267 268 0
-268 -266 -269 0
268 266 -269 0
268 -266 269 0
-268 266 269 0
-268 -266 270 0
268 -270 0
266 -270 0
-175 -267 271 0
175 -271 0
267 -271 0
270 271 -272 0
-270 272 0
-271 272 0
-50 -233 273 0
50 -273 0
233 -273 0
-181 -273 -274 0
181 273 -274 0
181 -273 274 0
-181 273 274 0
-274 -272 -275 0
274 272 -275 0
274 -272 275 0
-274 272 275 0
-274 -272 276 0
274 -276 0
272 -276 0
-181 -273 277 0
181 -277 0
273 -277 0
276 277 -278 0
-276 278 0
-277 278 0
-58 -233 279 0
58 -279 0
233 -279 0
-187 -279 -280 0
187 279 -280 0
187 -279 280 0
-187 279 280 0
-280 -278 -281 0
280 278 -281 0
280 -278 281 0
-280 278 281 0
-280 -278 282 0
280 -282 0
278 -282 0
-187 -279 283 0
187 -283 0
279 -283 0
282 283 -284 0
-282 284 0
-283 284 0
-66 -233 285 0
66 -285 0
233 -285 0
-193 -285 -286 0
193 285 -286 0
193 -285 286 0
-193 285 286 0
-286 -284 -287 0
286 284 -287 0
286 -284 287 0
-286 284 287 0
-286 -284 288 0
286 -288 0
284 -288 0
-193 -285 289 0
193 -289 0
285 -289 0
288 289 -290 0
-288 290 0
-289 290 0
-74 -233 291 0
74 -291 0
233 -291 0
-199 -291 -292 0
199 291 -292 0
199 -291 292 0
-199 291 292 0
-292 -290 -293 0
292 290 -293 0
292 -290 293 0
-292 290 293 0
-292 -290 294 0
292 -294 0
290 -294 0
-199 -291 295 0
199 -295 0
291 -295 0
294 295 -296 0
-294 296 0
-295 296 0
-82 -233 297 0
82 -297 0
233 -297 0
-205 -297 -298 0
205 297 -298 0
205 -297 298 0
-205 297 298 0
-298 -296 -299 0
298 296 -299 0
298 -296 299 0
-298 296 299 0
-298 -296 300 0
298 -300 0
296 -300 0
-205 -297 301 0
205 -301 0
297 -301 0
300 301 -302 0
-300 302 0
-301 302 0
-90 -233 303 0
90 -303 0
233 -303 0
-211 -303 -304 0
211 303 -304 0
211 -303 304 0
-211 303 304 0
-304 -302 -305 0
304 302 -305 0
304 -302 305 0
-304 302 305 0
-304 -302 306 0
304 -306 0
302 -306 0
-211 -303 307 0
211 -307 0
303 -307 0
306 307 -308 0
-306 308 0
-307 308 0
-98 -233 309 0
98 -309 0
233 -309 0
-217 -309 -310 0
217 309 -310 0
217 -309 310 0
-217 309 310 0
-310 -308 -311 0
310 308 -311 0
310 -308 311 0
-310 308 311 0
-310 -308 312 0
310 -312 0
308 -312 0
-217 -309 313 0
217 -313 0
309 -313 0
312 313 -314 0
-312 314 0
-313 314 0
-106 -233 315 0
106 -315 0
233 -315 0
-223 -315 -316 0
223 315 -316 0
223 -315 316 0
-223 315 316 0
-316 -314 -317 0
316 314 -317 0
316 -314 317 0
-316 314 317 0
-316 -314 318 0
316 -318 0
314 -318 0
-223 -315 319 0
223 -319 0
315 -319 0
318 319 -320 0
-318 320 0
-319 320 0
-114 -233 321 0
114 -321 0
233 -321 0
-229 -321 -322 0
229 321 -322 0
229 -321 322 0
-229 321 322 0
-322 -320 -323 0
322 320 -323 0
322 -320 323 0
-322 320 323 0
-322 -320 324 0
322 -324 0
320 -324 0
-229 -321 325 0
229 -325 0
321 -325 0
324 325 -326 0
-324 326 0
-325 326 0
-122 -233 327 0
122 -327 0
233 -327 0
-232 -327 -328 0
232 327 -328 0
232 -327 328 0
-232 327 328 0
-328 -326 -329 0
328 326 -329 0
328 -326 329 0
-328 326 329 0
-328 -326 330 0
328 -330 0
326 -330 0
-232 -327 331 0
232 -331 0
327 -331 0
330 331 -332 0
-330 332 0
-331 332 0
-1 -333 334 0
1 -334 0
333 -334 0
-239 -334 -335 0
239 334 -335 0
239 -334 335 0
-239 334 335 0
-239 -334 336 0
239 -336 0
334 -336 0
-4 -333 337 0
4 -337 0
333 -337 0
-245 -337 -338 0
245 337 -338 0
245 -337 338 0
-245 337 338 0
-338 -336 -339 0
338 336 -339 0
338 -336 339 0
-338 336 339 0
-338 -336 340 0
338 -340 0
336 -340 0
-245 -337 341 0
245 -341 0
337 -341 0
340 341 -342 0
-340 342 0
-341 342 0
-10 -333 343 0
10 -343 0
333 -343 0
-251 -343 -344 0
251 343 -344 0
251 -343 344 0
-251 343 344 0
-344 -342 -345 0
344 342 -345 0
344 -342 345 0
-344 342 345 0
-344 -342 346 0
344 -346 0
342 -346 0
-251 -343 347 0
251 -347 0
343 -347 0
346 347 -348 0
-346 348 0
-347 348 0
-18 -333 349 0
18 -349 0
333 -349 0
-257 -349 -350 0
257 349 -350 0
257 -349 350 0
-257 349 350 0
-350 -348 -351 0
350 348 -351 0
350 -348 351 0
-350 348 351 0
-350 -348 352 0
350 -352 0
348 -352 0
-257 -349 353 0
257 -353 0
349 -353 0
352 353 -354 0
-352 354 0
-353 354 0
-26 -333 355 0
26 -355 0
333 -355 0
-263 -355 -356 0
263 355 -356 0
263 -355 356 0
-263 355 356 0
-356 -354 -357 0
356 354 -357 0
356 -354 357 0
-356 354 357 0
-356 -354 358 0
356 -358 0
354 -358 0
-263 -355 359 0
263 -359 0
355 -359 0
358 359 -360 0
-358 360 0
-359 360 0
-34 -333 361 0
34 -361 0
333 -361 0
-269 -361 -362 0
269 361 -362 0
269 -361 362 0
-269 361 362 0
-362 -360 -363 0
362 360 -363 0
362 -360 363 0
-362 360 363 0
-362 -360 364 0
362 -364 0
360 -364 0
-269 -361 365 0
269 -365 0
361 -365 0
364 365 -366 0
-364 366 0
-365 366 0
-42 -333 367 0
42 -367 0
333 -367 0
-275 -367 -368 0
275 367 -368 0
275 -367 368 0
-275 367 368 0
-368 -366 -369 0
368 366 -369 0
368 -366 369 0
-368 366 369 0
-368 -366 370 0
368 -370 0
366 -370 0
-275 -367 371 0
275 -371 0
367 -371 0
370 371 -372 0
-370 372 0
-371 372 0
-50 -333 373 0
50 -373 0
333 -373 0
-281 -373 -374 0
281 373 -374 0
281 -373 374 0
-281 373 374 0
-374 -372 -375 0
374 372 -375 0
374 -372 375 0
-374 372 375 0
-374 -372 376 0
374 -376 0
372 -376 0
-281 -373 377 0
281 -377 0
373 -377 0
376 377 -378 0
-376 378 0
-377 378 0
-58 -333 379 0
58 -379 0
333 -379 0
-287 -379 -380 0
287 379 -380 0
287 -379 380 0
-287 379 380 0
-380 -378 -381 0
380 378 -381 0
380 -378 381 0
-380 378 381 0
-380 -378 382 0
380 -382 0
378 -382 0
-287 -379 383 0
287 -383 0
379 -383 0
382 383 -384 0
-382 384 0
-383 384 0
-66 -333 385 0
66 -385 0
333 -385 0
-293 -385 -386 0
293 385 -386 0
293 -385 386 0
-293 385 386 0
-386 -384 -387 0
386 384 -387 0
386 -384 387 0
-386 384 387 0
-386 -384 388 0
386 -388 0
384 -388 0
-293 -385 389 0
293 -389 0
385 -389 0
388 389 -390 0
-388 390 0
-389 390 0
-74 -333 391 0
74 -391 0
333 -391 0
-299 -391 -392 0
299 391 -392 0
299 -391 392 0
-299 391 392 0
-392 -390 -393 0
392 390 -393 0
392 -390 393 0
-392 390 393 0
-392 -390 394 0
392 -394 0
390 -394 0
-299 -391 395 0
299 -395 0
391 -395 0
394 395 -396 0
-394 396 0
-395 396 0
-82 -333 397 0
82 -397 0
333 -397 0
-305 -397 -398 0
305 397 -398 0
305 -397 398 0
-305 397 398 0
-398 -396 -399 0
398 396 -399 0
398 -396 399 0
-398 396 399 0
-398 -396 400 0
398 -400 0
396 -400 0
-305 -397 401 0
305 -401 0
397 -401 0
400 401 -402 0
-400 402 0
-401 402 0
-90 -333 403 0
90 -403 0
333 -403 0
-311 -403 -404 0
311 403 -404 0
311 -403 404 0
-311 403 404 0
-404 -402 -405 0
404 402 -405 0
404 -402 405 0
-404 402 405 0
-404 -402 406 0
404 -406 0
402 -406 0
-311 -403 407 0
311 -407 0
403 -407 0
406 407 -408 0
-406 408 0
-407 408 0
-98 -333 409 0
98 -409 0
333 -409 0
-317 -409 -410 0
317 409 -410 0
317 -409 410 0
-317 409 410 0
-410 -408 -411 0
410 408 -411 0
410 -408 411 0
-410 408 411 0
-410 -408 412 0
410 -412 0
408 -412 0
-317 -409 413 0
317 -413 0
409 -413 0
412 413 -414 0
-412 414 0
-413 414 0
-106 -333 415 0
106 -415 0
333 -415 0
-323 -415 -416 0
323 415 -416 0
323 -415 416 0
-323 415 416 0
-416 -414 -417 0
416 414 -417 0
416 -414 417 0
-416 414 417 0
-416 -414 418 0
416 -418 0
414 -418 0
-323 -415 419 0
323 -419 0
415 -419 0
418 419 -420 0
-418 420 0
-419 420 0
-114 -333 421 0
114 -421 0
333 -421 0
-329 -421 -422 0
329 421 -422 0
329 -421 422 0
-329 421 422 0
-422 -420 -423 0
422 420 -423 0
422 -420 423 0
-422 420 423 0
-422 -420 424 0
422 -424 0
420 -424 0
-329 -421 425 0
329 -425 0
421 -425 0
424 425 -426 0
-424 426 0
-425 426 0
-122 -333 427 0
122 -427 0
333 -427 0
-332 -427 -428 0
332 427 -428 0
332 -427 428 0
-332 427 428 0
-428 -426 -429 0
428 426 -429 0
428 -426 429 0
-428 426 429 0
-428 -426 430 0
428 -430 0
426 -430 0
-332 -427 431 0
332 -431 0
427 -431 0
430 431 -432 0
-430 432 0
-431 432 0
-1 -433 434 0
1 -434 0
433 -434 0
-339 -434 -435 0
339 434 -435 0
339 -434 435 0
-339 434 435 0
-339 -434 436 0
339 -436 0
434 -436 0
-4 -433 437 0
4 -437 0
433 -437 0
-345 -437 -438 0
345 437 -438 0
345 -437 438 0
-345 437 438 0
-438 -436 -439 0
438 436 -439 0
438 -436 439 0
-438 436 439 0
-438 -436 440 0
438 -440 0
436 -440 0
-345 -437 441 0
345 -441 0
437 -441 0
440 441 -442 0
-440 442 0
-441 442 0
-10 -433 443 0
10 -443 0
433 -443 0
-351 -443 -444 0
351 443 -444 0
351 -443 444 0
-351 443 444 0
-444 -442 -445 0
444 442 -445 0
444 -442 445 0
-444 442 445 0
-444 -442 446 0
444 -446 0
442 -446 0
-351 -443 447 0
351 -447 0
443 -447 0
446 447 -448 0
-446 448 0
-447 448 0
-18 -433 449 0
18 -449 0
433 -449 0
-357 -449 -450 0
357 449 -450 0
357 -449 450 0
-357 449 450 0
-450 -448 -451 0
450 448 -451 0
450 -448 451 0
-450 448 451 0
-450 -448 452 0
450 -452 0
448 -452 0
-357 -449 453 0
357 -453 0
449 -453 0
452 453 -454 0
-452 454 0
-453 454 0
-26 -433 455 0
26 -455 0
433 -455 0
-363 -455 -456 0
363 455 -456 0
363 -455 456 0
-363 455 456 0
-456 -454 -457 0
456 454 -457 0
456 -454 457 0
-456 454 457 0
-456 -454 458 0
456 -458 0
454 -458 0
-363 -455 459 0
363 -459 0
455 -459 0
458 459 -460 0
-458 460 0
-459 460 0
-34 -433 461 0
34 -461 0
433 -461 0
-369 -461 -462 0
369 461 -462 0
369 -461 462 0
-369 461 462 0
-462 -460 -463 0
462 460 -463 0
462 -460 463 0
-462 460 463 0
-462 -460 464 0
462 -464 0
460 -464 0
-369 -461 465 0
369 -465 0
461 -465 0
464 465 -466 0
-464 466 0
-465 466 0
-42 -433 467 0
42 -467 0
433 -467 0
-375 -467 -468 0
375 467 -468 0
375 -467 468 0
-375 467 468 0
-468 -466 -469 0
468 466 -469 0
468 -466 469 0
-468 466 469 0
-468 -466 470 0
468 -470 0
466 -470 0
-375 -467 471 0
375 -471 0
467 -471 0
470 471 -472 0
-470 472 0
-471 472 0
-50 -433 473 0
50 -473 0
433 -473 0
-381 -473 -474 0
381 473 -474 0
381 -473 474 0
-381 473 474 0
-474 -472 -475 0
474 472 -475 0
474 -472 475 0
-474 472 475 0
-474 -472 476 0
474 -476 0
472 -476 0
-381 -473 477 0
381 -477 0
473 -477 0
476 477 -478 0
-476 478 0
-477 478 0
-58 -433 479 0
58 -479 0
433 -479 0
-387 -479 -480 0
387 479 -480 0
387 -479 480 0
-387 479 480 0
-480 -478 -481 0
480 478 -481 0
480 -478 481 0
-480 478 481 0
-480 -478 482 0
480 -482 0
478 -482 0
-387 -479 483 0
387 -483 0
479 -483 0
482 483 -484 0
-482 484 0
-483 484 0
-66 -433 485 0
66 -485 0
433 -485 0
-393 -485 -486 0
393 485 -486 0
393 -485 486 0
-393 485 486 0
-486 -484 -487 0
486 484 -487 0
486 -484 487 0
-486 484 487 0
-486 -484 488 0
486 -488 0
484 -488 0
-393 -485 489 0
393 -489 0
485 -489 0
488 489 -490 0
-488 490 0
-489 490 0
-74 -433 491 0
74 -491 0
433 -491 0
-399 -491 -492 0
399 491 -492 0
399 -491 492 0
-399 491 492 0
-492 -490 -493 0
492 490 -493 0
492 -490 493 0
-492 490 493 0
-492 -490 494 0
492 -494 0
490 -494 0
-399 -491 495 0
399 -495 0
491 -495 0
494 495 -496 0
-494 496 0
-495 496 0
-82 -433 497 0
82 -497 0
433 -497 0
-405 -497 -498 0
405 497 -498 0
405 -497 498 0
-405 497 498 0
-498 -496 -499 0
498 496 -499 0
498 -496 499 0
-498 496 499 0
-498 -496 500 0
498 -500 0
496 -500 0
-405 -497 501 0
405 -501 0
497 -501 0
500 501 -502 0
-500 502 0
-501 502 0
-90 -433 503 0
90 -503 0
433 -503 0
-411 -503 -504 0
411 503 -504 0
411 -503 504 0
-411 503 504 0
-504 -502 -505 0
504 502 -505 0
504 -502 505 0
-504 502 505 0
-504 -502 506 0
504 -506 0
502 -506 0
-411 -503 507 0
411 -507 0
503 -507 0
506 507 -508 0
-506 508 0
-507 508 0
-98 -433 509 0
98 -509 0
433 -509 0
-417 -509 -510 0
417 509 -510 0
417 -509 510 0
-417 509 510 0
-510 -508 -511 0
510 508 -511 0
510 -508 511 0
-510 508 511 0
-510 -508 512 0
510 -512 0
508 -512 0
-417 -509 513 0
417 -513 0
509 -513 0
512 513 -514 0
-512 514 0
-513 514 0
-106 -433 515 0
106 -515 0
433 -515 0
-423 -515 -516 0
423 515 -516 0
423 -515 516 0
-423 515 516 0
-516 -514 -517 0
516 514 -517 0
516 -514 517 0
-516 514 517 0
-516 -514 518 0
516 -518 0
514 -518 0
-423 -515 519 0
423 -519 0
515 -519 0
518 519 -520 0
-518 520 0
-519 520 0
-114 -433 521 0
114 -521 0
433 -521 0
-429 -521 -522 0
429 521 -522 0
429 -521 522 0
-429 521 522 0
-522 -520 -523 0
522 520 -523 0
522 -520 523 0
-522 520 523 0
-522 -520 524 0
522 -524 0
520 -524 0
-429 -521 525 0
429 -525 0
521 -525 0
524 525 -526 0
-524 526 0
-525 526 0
-122 -433 527 0
122 -527 0
433 -527 0
-432 -527 -528 0
432 527 -528 0
432 -527 528 0
-432 527 528 0
-528 -526 -529 0
528 526 -529 0
528 -526 529 0
-528 526 529 0
-528 -526 530 0
528 -530 0
526 -530 0
-432 -527 531 0
432 -531 0
527 -531 0
530 531 -532 0
-530 532 0
-531 532 0
-1 -533 534 0
1 -534 0
533 -534 0
-439 -534 -535 0
439 534 -535 0
439 -534 535 0
-439 534 535 0
-439 -534 536 0
439 -536 0
534 -536 0
-4 -533 537 0
4 -537 0
533 -537 0
-445 -537 -538 0
445 537 -538 0
445 -537 538 0
-445 537 538 0
-538 -536 -539 0
538 536 -539 0
538 -536 539 0
-538 536 539 0
-538 -536 540 0
538 -540 0
536 -540 0
-445 -537 541 0
445 -541 0
537 -541 0
540 541 -542 0
-540 542 0
-541 542 0
-10 -533 543 0
10 -543 0
533 -543 0
-451 -543 -544 0
451 543 -544 0
451 -543 544 0
-451 543 544 0
-544 -542 -545 0
544 542 -545 0
544 -542 545 0
-544 542 545 0
-544 -542 546 0
544 -546 0
542 -546 0
-451 -543 547 0
451 -547 0
543 -547 0
546 547 -548 0
-546 548 0
-547 548 0
-18 -533 549 0
18 -549 0
533 -549 0
-457 -549 -550 0
457 549 -550 0
457 -549 550 0
-457 549 550 0
-550 -548 -551 0
550 548 -551 0
550 -548 551 0
-550 548 551 0
-550 -548 552 0
550 -552 0
548 -552 0
-457 -549 553 0
457 -553 0
549 -553 0
552 553 -554 0
-552 554 0
-553 554 0
-26 -533 555 0
26 -555 0
533 -555 0
-463 -555 -556 0
463 555 -556 0
463 -555 556 0
-463 555 556 0
-556 -554 -557 0
556 554 -557 0
556 -554 557 0
-556 554 557 0
-556 -554 558 0
556 -558 0
554 -558 0
-463 -555 559 0
463 -559 0
555 -559 0
558 559 -560 0
-558 560 0
-559 560 0
-34 -533 561 0
34 -561 0
533 -561 0
-469 -561 -562 0
469 561 -562 0
469 -561 562 0
-469 561 562 0
-562 -560 -563 0
562 560 -563 0
562 -560 563 0
-562 560 563 0
-562 -560 564 0
562 -564 0
560 -564 0
-469 -561 565 0
469 -565 0
561 -565 0
564 565 -566 0
-564 566 0
-565 566 0
-42 -533 567 0
42 -567 0
533 -567 0
-475 -567 -568 0
475 567 -568 0
475 -567 568 0
-475 567 568 0
-568 -566 -569 0
568 566 -569 0
568 -566 569 0
-568 566 569 0
-568 -566 570 0
568 -570 0
566 -570 0
-475 -567 571 0
475 -571 0
567 -571 0
570 571 -572 0
-570 572 0
-571 572 0
-50 -533 573 0
50 -573 0
533 -573 0
-481 -573 -574 0
481 573 -574 0
481 -573 574 0
-481 573 574 0
-574 -572 -575 0
574 572 -575 0
574 -572 575 0
-574 572 575 0
-574 -572 576 0
574 -576 0
572 -576 0
-481 -573 577 0
481 -577 0
573 -577 0
576 577 -578 0
-576 578 0
-577 578 0
-58 -533 579 0
58 -579 0
533 -579 0
-487 -579 -580 0
487 579 -580 0
487 -579 580 0
-487 579 580 0
-580 -578 -581 0
580 578 -581 0
580 -578 581 0
-580 578 581 0
-580 -578 582 0
580 -582 0
578 -582 0
-487 -579 583 0
487 -583 0
579 -583 0
582 583 -584 0
-582 584 0
-583 584 0
-66 -533 585 0
66 -585 0
533 -585 0
-493 -585 -586 0
493 585 -586 0
493 -585 586 0
-493 585 586 0
-586 -584 -587 0
586 584 -587 0
586 -584 587 0
-586 584 587 0
-586 -584 588 0
586 -588 0
584 -588 0
-493 -585 589 0
493 -589 0
585 -589 0
588 589 -590 0
-588 590 0
-589 590 0
-74 -533 591 0
74 -591 0
533 -591 0
-499 -591 -592 0
499 591 -592 0
499 -591 592 0
-499 591 592 0
-592 -590 -593 0
592 590 -593 0
592 -590 593 0
-592 590 593 0
-592 -590 594 0
592 -594 0
590 -594 0
-499 -591 595 0
499 -595 0
591 -595 0
594 595 -596 0
-594 596 0
-595 596 0
-82 -533 597 0
82 -597 0
533 -597 0
-505 -597 -598 0
505 597 -598 0
505 -597 598 0
-505 597 598 0
-598 -596 -599 0
598 596 -599 0
598 -596 599 0
-598 596 599 0
-598 -596 600 0
598 -600 0
596 -600 0
-505 -597 601 0
505 -601 0
597 -601 0
600 601 -602 0
-600 602 0
-601 602 0
-90 -533 603 0
90 -603 0
533 -603 0
-511 -603 -604 0
511 603 -604 0
511 -603 604 0
-511 603 604 0
-604 -602 -605 0
604 602 -605 0
604 -602 605 0
-604 602 605 0
-604 -602 606 0
604 -606 0
602 -606 0
-511 -603 607 0
511 -607 0
603 -607 0
606 607 -608 0
-606 608 0
-607 608 0
-98 -533 609 0
98 -609 0
533 -609 0
-517 -609 -610 0
517 609 -610 0
517 -609 610 0
-517 609 610 0
-610 -608 -611 0
610 608 -611 0
610 -608 611 0
-610 608 611 0
-610 -608 612 0
610 -612 0
608 -612 0
-517 -609 613 0
517 -613 0
609 -613 0
612 613 -614 0
-612 614 0
-613 614 0
-106 -533 615 0
106 -615 0
533 -615 0
-523 -615 -616 0
523 615 -616 0
523 -615 616 0
-523 615 616 0
-616 -614 -617 0
616 614 -617 0
616 -614 617 0
-616 614 617 0
-616 -614 618 0
616 -618 0
614 -618 0
-523 -615 619 0
523 -619 0
615 -619 0
618 619 -620 0
-618 620 0
-619 620 0
-114 -533 621 0
114 -621 0
533 -621 0
-529 -621 -622 0
529 621 -622 0
529 -621 622 0
-529 621 622 0
-622 -620 -623 0
622 620 -623 0
622 -620 623 0
-622 620 623 0
-622 -620 624 0
622 -624 0
620 -624 0
-529 -621 625 0
529 -625 0
621 -625 0
624 625 -626 0
-624 626 0
-625 626 0
-122 -533 627 0
122 -627 0
533 -627 0
-532 -627 -628 0
532 627 -628 0
532 -627 628 0
-532 627 628 0
-628 -626 -629 0
628 626 -629 0
628 -626 629 0
-628 626 629 0
-628 -626 630 0
628 -630 0
626 -630 0
-532 -627 631 0
532 -631 0
627 -631 0
630 631 -632 0
-630 632 0
-631 632 0
-1 -633 634 0
1 -634 0
633 -634 0
-539 -634 -635 0
539 634 -635 0
539 -634 635 0
-539 634 635 0
-539 -634 636 0
539 -636 0
634 -636 0
-4 -633 637 0
4 -637 0
633 -637 0
-545 -637 -638 0
545 637 -638 0
545 -637 638 0
-545 637 638 0
-638 -636 -639 0
638 636 -639 0
638 -636 639 0
-638 636 639 0
-638 -636 640 0
638 -640 0
636 -640 0
-545 -637 641 0
545 -641 0
637 -641 0
640 641 -642 0
-640 642 0
-641 642 0
-10 -633 643 0
10 -643 0
633 -643 0
-551 -643 -644 0
551 643 -644 0
551 -643 644 0
-551 643 644 0
-644 -642 -645 0
644 642 -645 0
644 -642 645 0
-644 642 645 0
-644 -642 646 0
644 -646 0
642 -646 0
-551 -643 647 0
551 -647 0
643 -647 0
646 647 -648 0
-646 648 0
-647 648 0
-18 -633 649 0
18 -649 0
633 -649 0
-557 -649 -650 0
557 649 -650 0
557 -649 650 0
-557 649 650 0
-650 -648 -651 0
650 648 -651 0
650 -648 651 0
-650 648 651 0
-650 -648 652 0
650 -652 0
648 -652 0
-557 -649 653 0
557 -653 0
649 -653 0
652 653 -654 0
-652 654 0
-653 654 0
-26 -633 655 0
26 -655 0
633 -655 0
-563 -655 -656 0
563 655 -656 0
563 -655 656 0
-563 655 656 0
-656 -654 -657 0
656 654 -657 0
656 -654 657 0
-656 654 657 0
-656 -654 658 0
656 -658 0
654 -658 0
-563 -655 659 0
563 -659 0
655 -659 0
658 659 -660 0
-658 660 0
-659 660 0
-34 -633 661 0
34 -661 0
633 -661 0
-569 -661 -662 0
569 661 -662 0
569 -661 662 0
-569 661 662 0
-662 -660 -663 0
662 660 -663 0
662 -660 663 0
-662 660 663 0
-662 -660 664 0
662 -664 0
660 -664 0
-569 -661 665 0
569 -665 0
661 -665 0
664 665 -666 0
-664 666 0
-665 666 0
-42 -633 667 0
42 -667 0
633 -667 0
-575 -667 -668 0
575 667 -668 0
575 -667 668 0
-575 667 668 0
-668 -666 -669 0
668 666 -669 0
668 -666 669 0
-668 666 669 0
-668 -666 670 0
668 -670 0
666 -670 0
-575 -667 671 0
575 -671 0
667 -671 0
670 671 -672 0
-670 672 0
-671 672 0
-50 -633 673 0
50 -673 0
633 -673 0
-581 -673 -674 0
581 673 -674 0
581 -673 674 0
-581 673 674 0
-674 -672 -675 0
674 672 -675 0
674 -672 675 0
-674 672 675 0
-674 -672 676 0
674 -676 0
672 -676 0
-581 -673 677 0
581 -677 0
673 -677 0
676 677 -678 0
-676 678 0
-677 678 0
-58 -633 679 0
58 -679 0
633 -679 0
-587 -679 -680 0
587 679 -680 0
587 -679 680 0
-587 679 680 0
-680 -678 -681 0
680 678 -681 0
680 -678 681 0
-680 678 681 0
-680 -678 682 0
680 -682 0
678 -682 0
-587 -679 683 0
587 -683 0
679 -683 0
682 683 -684 0
-682 684 0
-683 684 0
-66 -633 685 0
66 -685 0
633 -685 0
-593 -685 -686 0
593 685 -686 0
593 -685 686 0
-593 685 686 0
-686 -684 -687 0
686 684 -687 0
686 -684 687 0
-686 684 687 0
-686 -684 688 0
686 -688 0
684 -688 0
-593 -685 689 0
593 -689 0
685 -689 0
688 689 -690 0
-688 690 0
-689 690 0
-74 -633 691 0
74 -691 0
633 -691 0
-599 -691 -692 0
599 691 -692 0
599 -691 692 0
-599 691 692 0
-692 -690 -693 0
692 690 -693 0
692 -690 693 0
-692 690 693 0
-692 -690 694 0
692 -694 0
690 -694 0
-599 -691 695 0
599 -695 0
691 -695 0
694 695 -696 0
-694 696 0
-695 696 0
-82 -633 697 0
82 -697 0
633 -697 0
-605 -697 -698 0
605 697 -698 0
605 -697 698 0
-605 697 698 0
-698 -696 -699 0
698 696 -699 0
698 -696 699 0
-698 696 699 0
-698 -696 700 0
698 -700 0
696 -700 0
-605 -697 701 0
605 -701 0
697 -701 0
700 701 -702 0
-700 702 0
-701 702 0
-90 -633 703 0
90 -703 0
633 -703 0
-611 -703 -704 0
611 703 -704 0
611 -703 704 0
-611 703 704 0
-704 -702 -705 0
704 702 -705 0
704 -702 705 0
-704 702 705 0
-704 -702 706 0
704 -706 0
702 -706 0
-611 -703 707 0
611 -707 0
703 -707 0
706 707 -708 0
-706 708 0
-707 708 0
-98 -633 709 0
98 -709 0
633 -709 0
-617 -709 -710 0
617 709 -710 0
617 -709 710 0
-617 709 710 0
-710 -708 -711 0
710 708 -711 0
710 -708 711 0
-710 708 711 0
-710 -708 712 0
710 -712 0
708 -712 0
-617 -709 713 0
617 -713 0
709 -713 0
712 713 -714 0
-712 714 0
-713 714 0
-106 -633 715 0
106 -715 0
633 -715 0
-623 -715 -716 0
623 715 -716 0
623 -715 716 0
-623 715 716 0
-716 -714 -717 0
716 714 -717 0
716 -714 717 0
-716 714 717 0
-716 -714 718 0
716 -718 0
714 -718 0
-623 -715 719 0
623 -719 0
715 -719 0
718 719 -720 0
-718 720 0
-719 720 0
-114 -633 721 0
114 -721 0
633 -721 0
-629 -721 -722 0
629 721 -722 0
629 -721 722 0
-629 721 722 0
-722 -720 -723 0
722 720 -723 0
722 -720 723 0
-722 720 723 0
-722 -720 724 0
722 -724 0
720 -724 0
-629 -721 725 0
629 -725 0
721 -725 0
724 725 -726 0
-724 726 0
-725 726 0
-122 -633 727 0
122 -727 0
633 -727 0
-632 -727 -728 0
632 727 -728 0
632 -727 728 0
-632 727 728 0
-728 -726 -729 0
728 726 -729 0
728 -726 729 0
-728 726 729 0
-728 -726 730 0
728 -730 0
726 -730 0
-632 -727 731 0
632 -731 0
727 -731 0
730 731 -732 0
-730 732 0
-731 732 0
-1 -733 734 0
1 -734 0
733 -734 0
-639 -734 -735 0
639 734 -735 0
639 -734 735 0
-639 734 735 0
-639 -734 736 0
639 -736 0
734 -736 0
-4 -733 737 0
4 -737 0
733 -737 0
-645 -737 -738 0
645 737 -738 0
645 -737 738 0
-645 737 738 0
-738 -736 -739 0
738 736 -739 0
738 -736 739 0
-738 736 739 0
-738 -736 740 0
738 -740 0
736 -740 0
-645 -737 741 0
645 -741 0
737 -741 0
740 741 -742 0
-740 742 0
-741 742 0
-10 -733 743 0
10 -743 0
733 -743 0
-651 -743 -744 0
651 743 -744 0
651 -743 744 0
-651 743 744 0
-744 -742 -745 0
744 742 -745 0
744 -742 745 0
-744 742 745 0
-744 -742 746 0
744 -746 0
742 -746 0
-651 -743 747 0
651 -747 0
743 -747 0
746 747 -748 0
-746 748 0
-747 748 0
-18 -733 749 0
18 -749 0
733 -749 0
-657 -749 -750 0
657 749 -750 0
657 -749 750 0
-657 749 750 0
-750 -748 -751 0
750 748 -751 0
750 -748 751 0
-750 748 751 0
-750 -748 752 0
750 -752 0
748 -752 0
-657 -749 753 0
657 -753 0
749 -753 0
752 753 -754 0
-752 754 0
-753 754 0
-26 -733 755 0
26 -755 0
733 -755 0
-663 -755 -756 0
663 755 -756 0
663 -755 756 0
-663 755 756 0
-756 -754 -757 0
756 754 -757 0
756 -754 757 0
-756 754 757 0
-756 -754 758 0
756 -758 0
754 -758 0
-663 -755 759 0
663 -759 0
755 -759 0
758 759 -760 0
-758 760 0
-759 760 0
-34 -733 761 0
34 -761 0
733 -761 0
-669 -761 -762 0
669 761 -762 0
669 -761 762 0
-669 761 762 0
-762 -760 -763 0
762 760 -763 0
762 -760 763 0
-762 760 763 0
-762 -760 764 0
762 -764 0
760 -764 0
-669 -761 765 0
669 -765 0
761 -765 0
764 765 -766 0
-764 766 0
-765 766 0
-42 -733 767 0
42 -767 0
733 -767 0
-675 -767 -768 0
675 767 -768 0
675 -767 768 0
-675 767 768 0
-768 -766 -769 0
768 766 -769 0
768 -766 769 0
-768 766 769 0
-768 -766 770 0
768 -770 0
766 -770 0
-675 -767 771 0
675 -771 0
767 -771 0
770 771 -772 0
-770 772 0
-771 772 0
-50 -733 773 0
50 -773 0
733 -773 0
-681 -773 -774 0
681 773 -774 0
681 -773 774 0
-681 773 774 0
-774 -772 -775 0
774 772 -775 0
774 -772 775 0
-774 772 775 0
-774 -772 776 0
774 -776 0
772 -776 0
-681 -773 777 0
681 -777 0
773 -777 0
776 777 -778 0
-776 778 0
-777 778 0
-58 -733 779 0
58 -779 0
733 -779 0
-687 -779 -780 0
687 779 -780 0
687 -779 780 0
-687 779 780 0
-780 -778 -781 0
780 778 -781 0
780 -778 781 0
-780 778 781 0
-780 -778 782 0
780 -782 0
778 -782 0
-687 -779 783 0
687 -783 0
779 -783 0
782 783 -784 0
-782 784 0
-783 784 0
-66 -733 785 0
66 -785 0
733 -785 0
-693 -785 -786 0
693 785 -786 0
693 -785 786 0
-693 785 786 0
-786 -784 -787 0
786 784 -787 0
786 -784 787 0
-786 784 787 0
-786 -784 788 0
786 -788 0
784 -788 0
-693 -785 789 0
693 -789 0
785 -789 0
788 789 -790 0
-788 790 0
-789 790 0
-74 -733 791 0
74 -791 0
733 -791 0
-699 -791 -792 0
699 791 -792 0
699 -791 792 0
-699 791 792 0
-792 -790 -793 0
792 790 -793 0
792 -790 793 0
-792 790 793 0
-792 -790 794 0
792 -794 0
790 -794 0
-699 -791 795 0
699 -795 0
791 -795 0
794 795 -796 0
-794 796 0
-795 796 0
-82 -733 797 0
82 -797 0
733 -797 0
-705 -797 -798 0
705 797 -798 0
705 -797 798 0
-705 797 798 0
-798 -796 -799 0
798 796 -799 0
798 -796 799 0
-798 796 799 0
-798 -796 800 0
798 -800 0
796 -800 0
-705 -797 801 0
705 -801 0
797 -801 0
800 801 -802 0
-800 802 0
-801 802 0
-90 -733 803 0
90 -803 0
733 -803 0
-711 -803 -804 0
711 803 -804 0
711 -803 804 0
-711 803 804 0
-804 -802 -805 0
804 802 -805 0
804 -802 805 0
-804 802 805 0
-804 -802 806 0
804 -806 0
802 -806 0
-711 -803 807 0
711 -807 0
803 -807 0
806 807 -808 0
-806 808 0
-807 808 0
-98 -733 809 0
98 -809 0
733 -809 0
-717 -809 -810 0
717 809 -810 0
717 -809 810 0
-717 809 810 0
-810 -808 -811 0
810 808 -811 0
810 -808 811 0
-810 808 811 0
-810 -808 812 0
810 -812 0
808 -812 0
-717 -809 813 0
717 -813 0
809 -813 0
812 813 -814 0
-812 814 0
-813 814 0
-106 -733 815 0
106 -815 0
733 -815 0
-723 -815 -816 0
723 815 -816 0
723 -815 816 0
-723 815 816 0
-816 -814 -817 0
816 814 -817 0
816 -814 817 0
-816 814 817 0
-816 -814 818 0
816 -818 0
814 -818 0
-723 -815 819 0
723 -819 0
815 -819 0
818 819 -820 0
-818 820 0
-819 820 0
-114 -733 821 0
114 -821 0
733 -821 0
-729 -821 -822 0
729 821 -822 0
729 -821 822 0
-729 821 822 0
-822 -820 -823 0
822 820 -823 0
822 -820 823 0
-822 820 823 0
-822 -820 824 0
822 -824 0
820 -824 0
-729 -821 825 0
729 -825 0
821 -825 0
824 825 -826 0
-824 826 0
-825 826 0
-122 -733 827 0
122 -827 0
733 -827 0
-732 -827 -828 0
732 827 -828 0
732 -827 828 0
-732 827 828 0
-828 -826 -829 0
828 826 -829 0
828 -826 829 0
-828 826 829 0
-828 -826 830 0
828 -830 0
826 -830 0
-732 -827 831 0
732 -831 0
827 -831 0
830 831 -832 0
-830 832 0
-831 832 0
-1 -833 834 0
1 -834 0
833 -834 0
-739 -834 -835 0
739 834 -835 0
739 -834 835 0
-739 834 835 0
-739 -834 836 0
739 -836 0
834 -836 0
-4 -833 837 0
4 -837 0
833 -837 0
-745 -837 -838 0
745 837 -838 0
745 -837 838 0
-745 837 838 0
-838 -836 -839 0
838 836 -839 0
838 -836 839 0
-838 836 839 0
-838 -836 840 0
838 -840 0
836 -840 0
-745 -837 841 0
745 -841 0
837 -841 0
840 841 -842 0
-840 842 0
-841 842 0
-10 -833 843 0
10 -843 0
833 -843 0
-751 -843 -844 0
751 843 -844 0
751 -843 844 0
-751 843 844 0
-844 -842 -845 0
844 842 -845 0
844 -842 845 0
-844 842 845 0
-844 -842 846 0
844 -846 0
842 -846 0
-751 -843 847 0
751 -847 0
843 -847 0
846 847 -848 0
-846 848 0
-847 848 0
-18 -833 849 0
18 -849 0
833 -849 0
-757 -849 -850 0
757 849 -850 0
757 -849 850 0
-757 849 850 0
-850 -848 -851 0
850 848 -851 0
850 -848 851 0
-850 848 851 0
-850 -848 852 0
850 -852 0
848 -852 0
-757 -849 853 0
757 -853 0
849 -853 0
852 853 -854 0
-852 854 0
-853 854 0
-26 -833 855 0
26 -855 0
833 -855 0
-763 -855 -856 0
763 855 -856 0
763 -855 856 0
-763 855 856 0
-856 -854 -857 0
856 854 -857 0
856 -854 857 0
-856 854 857 0
-856 -854 858 0
856 -858 0
854 -858 0
-763 -855 859 0
763 -859 0
855 -859 0
858 859 -860 0
-858 860 0
-859 860 0
-34 -833 861 0
34 -861 0
833 -861 0
-769 -861 -862 0
769 861 -862 0
769 -861 862 0
-769 861 862 0
-862 -860 -863 0
862 860 -863 0
862 -860 863 0
-862 860 863 0
-862 -860 864 0
862 -864 0
860 -864 0
-769 -861 865 0
769 -865 0
861 -865 0
864 865 -866 0
-864 866 0
-865 866 0
-42 -833 867 0
42 -867 0
833 -867 0
-775 -867 -868 0
775 867 -868 0
775 -867 868 0
-775 867 868 0
-868 -866 -869 0
868 866 -869 0
868 -866 869 0
-868 866 869 0
-868 -866 870 0
868 -870 0
866 -870 0
-775 -867 871 0
775 -871 0
867 -871 0
870 871 -872 0
-870 872 0
-871 872 0
-50 -833 873 0
50 -873 0
833 -873 0
-781 -873 -874 0
781 873 -874 0
781 -873 874 0
-781 873 874 0
-874 -872 -875 0
874 872 -875 0
874 -872 875 0
-874 872 875 0
-874 -872 876 0
874 -876 0
872 -876 0
-781 -873 877 0
781 -877 0
873 -877 0
876 877 -878 0
-876 878 0
-877 878 0
-58 -833 879 0
58 -879 0
833 -879 0
-787 -879 -880 0
787 879 -880 0
787 -879 880 0
-787 879 880 0
-880 -878 -881 0
880 878 -881 0
880 -878 881 0
-880 878 881 0
-880 -878 882 0
880 -882 0
878 -882 0
-787 -879 883 0
787 -883 0
879 -883 0
882 883 -884 0
-882 884 0
-883 884 0
-66 -833 885 0
66 -885 0
833 -885 0
-793 -885 -886 0
793 885 -886 0
793 -885 886 0
-793 885 886 0
-886 -884 -887 0
886 884 -887 0
886 -884 887 0
-886 884 887 0
-886 -884 888 0
886 -888 0
884 -888 0
-793 -885 889 0
793 -889 0
885 -889 0
888 889 -890 0
-888 890 0
-889 890 0
-74 -833 891 0
74 -891 0
833 -891 0
-799 -891 -892 0
799 891 -892 0
799 -891 892 0
-799 891 892 0
-892 -890 -893 0
892 890 -893 0
892 -890 893 0
-892 890 893 0
-892 -890 894 0
892 -894 0
890 -894 0
-799 -891 895 0
799 -895 0
891 -895 0
894 895 -896 0
-894 896 0
-895 896 0
-82 -833 897 0
82 -897 0
833 -897 0
-805 -897 -898 0
805 897 -898 0
805 -897 898 0
-805 897 898 0
-898 -896 -899 0
898 896 -899 0
898 -896 899 0
-898 896 899 0
-898 -896 900 0
898 -900 0
896 -900 0
-805 -897 901 0
805 -901 0
897 -901 0
900 901 -902 0
-900 902 0
-901 902 0
-90 -833 903 0
90 -903 0
833 -903 0
-811 -903 -904 0
811 903 -904 0
811 -903 904 0
-811 903 904 0
-904 -902 -905 0
904 902 -905 0
904 -902 905 0
-904 902 905 0
-904 -902 906 0
904 -906 0
902 -906 0
-811 -903 907 0
811 -907 0
903 -907 0
906 907 -908 0
-906 908 0
-907 908 0
-98 -833 909 0
98 -909 0
833 -909 0
-817 -909 -910 0
817 909 -910 0
817 -909 910 0
-817 909 910 0
-910 -908 -911 0
910 908 -911 0
910 -908 911 0
-910 908 911 0
-910 -908 912 0
910 -912 0
908 -912 0
-817 -909 913 0
817 -913 0
909 -913 0
912 913 -914 0
-912 914 0
-913 914 0
-106 -833 915 0
106 -915 0
833 -915 0
-823 -915 -916 0
823 915 -916 0
823 -915 916 0
-823 915 916 0
-916 -914 -917 0
916 914 -917 0
916 -914 917 0
-916 914 917 0
-916 -914 918 0
916 -918 0
914 -918 0
-823 -915 919 0
823 -919 0
915 -919 0
918 919 -920 0
-918 920 0
-919 920 0
-114 -833 921 0
114 -921 0
833 -921 0
-829 -921 -922 0
829 921 -922 0
829 -921 922 0
-829 921 922 0
-922 -920 -923 0
922 920 -923 0
922 -920 923 0
-922 920 923 0
-922 -920 924 0
922 -924 0
920 -924 0
-829 -921 925 0
829 -925 0
921 -925 0
924 925 -926 0
-924 926 0
-925 926 0
-122 -833 927 0
122 -927 0
833 -927 0
-832 -927 -928 0
832 927 -928 0
832 -927 928 0
-832 927 928 0
-928 -926 -929 0
928 926 -929 0
928 -926 929 0
-928 926 929 0
-928 -926 930 0
928 -930 0
926 -930 0
-832 -927 931 0
832 -931 0
927 -931 0
930 931 -932 0
-930 932 0
-931 932 0
-1 -933 934 0
1 -934 0
933 -934 0
-839 -934 -935 0
839 934 -935 0
839 -934 935 0
-839 934 935 0
-839 -934 936 0
839 -936 0
934 -936 0
-4 -933 937 0
4 -937 0
933 -937 0
-845 -937 -938 0
845 937 -938 0
845 -937 938 0
-845 937 938 0
-938 -936 -939 0
938 936 -939 0
938 -936 939 0
-938 936 939 0
-938 -936 940 0
938 -940 0
936 -940 0
-845 -937 941 0
845 -941 0
937 -941 0
940 941 -942 0
-940 942 0
-941 942 0
-10 -933 943 0
10 -943 0
933 -943 0
-851 -943 -944 0
851 943 -944 0
851 -943 944 0
-851 943 944 0
-944 -942 -945 0
944 942 -945 0
944 -942 945 0
-944 942 945 0
-944 -942 946 0
944 -946 0
942 -946 0
-851 -943 947 0
851 -947 0
943 -947 0
946 947 -948 0
-946 948 0
-947 948 0
-18 -933 949 0
18 -949 0
933 -949 0
-857 -949 -950 0
857 949 -950 0
857 -949 950 0
-857 949 950 0
-950 -948 -951 0
950 948 -951 0
950 -948 951 0
-950 948 951 0
-950 -948 952 0
950 -952 0
948 -952 0
-857 -949 953 0
857 -953 0
949 -953 0
952 953 -954 0
-952 954 0
-953 954 0
-26 -933 955 0
26 -955 0
933 -955 0
-863 -955 -956 0
863 955 -956 0
863 -955 956 0
-863 955 956 0
-956 -954 -957 0
956 954 -957 0
956 -954 957 0
-956 954 957 0
-956 -954 958 0
956 -958 0
954 -958 0
-863 -955 959 0
863 -959 0
955 -959 0
958 959 -960 0
-958 960 0
-959 960 0
-34 -933 961 0
34 -961 0
933 -961 0
-869 -961 -962 0
869 961 -962 0
869 -961 962 0
-869 961 962 0
-962 -960 -963 0
962 960 -963 0
962 -960 963 0
-962 960 963 0
-962 -960 964 0
962 -964 0
960 -964 0
-869 -961 965 0
869 -965 0
961 -965 0
964 965 -966 0
-964 966 0
-965 966 0
-42 -933 967 0
42 -967 0
933 -967 0
-875 -967 -968 0
875 967 -968 0
875 -967 968 0
-875 967 968 0
-968 -966 -969 0
968 966 -969 0
968 -966 969 0
-968 966 969 0
-968 -966 970 0
968 -970 0
966 -970 0
-875 -967 971 0
875 -971 0
967 -971 0
970 971 -972 0
-970 972 0
-971 972 0
-50 -933 973 0
50 -973 0
933 -973 0
-881 -973 -974 0
881 973 -974 0
881 -973 974 0
-881 973 974 0
-974 -972 -975 0
974 972 -975 0
974 -972 975 0
-974 972 975 0
-974 -972 976 0
974 -976 0
972 -976 0
-881 -973 977 0
881 -977 0
973 -977 0
976 977 -978 0
-976 978 0
-977 978 0
-58 -933 979 0
58 -979 0
933 -979 0
-887 -979 -980 0
887 979 -980 0
887 -979 980 0
-887 979 980 0
-980 -978 -981 0
980 978 -981 0
980 -978 981 0
-980 978 981 0
-980 -978 982 0
980 -982 0
978 -982 0
-887 -979 983 0
887 -983 0
979 -983 0
982 983 -984 0
-982 984 0
-983 984 0
-66 -933 985 0
66 -985 0
933 -985 0
-893 -985 -986 0
893 985 -986 0
893 -985 986 0
-893 985 986 0
-986 -984 -987 0
986 984 -987 0
986 -984 987 0
-986 984 987 0
-986 -984 988 0
986 -988 0
984 -988 0
-893 -985 989 0
893 -989 0
985 -989 0
988 989 -990 0
-988 990 0
-989 990 0
-74 -933 991 0
74 -991 0
933 -991 0
-899 -991 -992 0
899 991 -992 0
899 -991 992 0
-899 991 992 0
-992 -990 -993 0
992 990 -993 0
992 -990 993 0
-992 990 993 0
-992 -990 994 0
992 -994 0
990 -994 0
-899 -991 995 0
899 -995 0
991 -995 0
994 995 -996 0
-994 996 0
-995 996 0
-82 -933 997 0
82 -997 0
933 -997 0
-905 -997 -998 0
905 997 -998 0
905 -997 998 0
-905 997 998 0
-998 -996 -999 0
998 996 -999 0
998 -996 999 0
-998 996 999 0
-998 -996 1000 0
998 -1000 0
996 -1000 0
-905 -997 1001 0
905 -1001 0
997 -1001 0
1000 1001 -1002 0
-1000 1002 0
-1001 1002 0
-90 -933 1003 0
90 -1003 0
933 -1003 0
-911 -1003 -1004 0
911 1003 -1004 0
911 -1003 1004 0
-911 1003 1004 0
-1004 -1002 -1005 0
1004 1002 -1005 0
1004 -1002 1005 0
-1004 1002 1005 0
-1004 -1002 1006 0
1004 -1006 0
1002 -1006 0
-911 -1003 1007 0
911 -1007 0
1003 -1007 0
1006 1007 -1008 0
-1006 1008 0
-1007 1008 0
-98 -933 1009 0
98 -1009 0
933 -1009 0
-917 -1009 -1010 0
917 1009 -1010 0
917 -1009 1010 0
-917 1009 1010 0
-1010 -1008 -1011 0
1010 1008 -1011 0
1010 -1008 1011 0
-1010 1008 1011 0
-1010 -1008 1012 0
1010 -1012 0
1008 -1012 0
-917 -1009 1013 0
917 -1013 0
1009 -1013 0
1012 1013 -1014 0
-1012 1014 0
-1013 1014 0
-106 -933 1015 0
106 -1015 0
933 -1015 0
-923 -1015 -1016 0
923 1015 -1016 0
923 -1015 1016 0
-923 1015 1016 0
-1016 -1014 -1017 0
1016 1014 -1017 0
1016 -1014 1017 0
-1016 1014 1017 0
-1016 -1014 1018 0
1016 -1018 0
1014 -1018 0
-923 -1015 1019 0
923 -1019 0
1015 -1019 0
1018 1019 -1020 0
-1018 1020 0
-1019 1020 0
-114 -933 1021 0
114 -1021 0
933 -1021 0
-929 -1021 -1022 0
929 1021 -1022 0
929 -1021 1022 0
-929 1021 1022 0
-1022 -1020 -1023 0
1022 1020 -1023 0
1022 -1020 1023 0
-1022 1020 1023 0
-1022 -1020 1024 0
1022 -1024 0
1020 -1024 0
-929 -1021 1025 0
929 -1025 0
1021 -1025 0
1024 1025 -1026 0
-1024 1026 0
-1025 1026 0
-122 -933 1027 0
122 -1027 0
933 -1027 0
-932 -1027 -1028 0
932 1027 -1028 0
932 -1027 1028 0
-932 1027 1028 0
-1028 -1026 -1029 0
1028 1026 -1029 0
1028 -1026 1029 0
-1028 1026 1029 0
-1028 -1026 1030 0
1028 -1030 0
1026 -1030 0
-932 -1027 1031 0
932 -1031 0
1027 -1031 0
1030 1031 -1032 0
-1030 1032 0
-1031 1032 0
-1 -1033 1034 0
1 -1034 0
1033 -1034 0
-939 -1034 -1035 0
939 1034 -1035 0
939 -1034 1035 0
-939 1034 1035 0
-939 -1034 1036 0
939 -1036 0
1034 -1036 0
-4 -1033 1037 0
4 -1037 0
1033 -1037 0
-945 -1037 -1038 0
945 1037 -1038 0
945 -1037 1038 0
-945 1037 1038 0
-1038 -1036 -1039 0
1038 1036 -1039 0
1038 -1036 1039 0
-1038 1036 1039 0
-1038 -1036 1040 0
1038 -1040 0
1036 -1040 0
-945 -1037 1041 0
945 -1041 0
1037 -1041 0
1040 1041 -1042 0
-1040 1042 0
-1041 1042 0
-10 -1033 1043 0
10 -1043 0
1033 -1043 0
-951 -1043 -1044 0
951 1043 -1044 0
951 -1043 1044 0
-951 1043 1044 0
-1044 -1042 -1045 0
1044 1042 -1045 0
1044 -1042 1045 0
-1044 1042 1045 0
-1044 -1042 1046 0
1044 -1046 0
1042 -1046 0
-951 -1043 1047 0
951 -1047 0
1043 -1047 0
1046 1047 -1048 0
-1046 1048 0
-1047 1048 0
-18 -1033 1049 0
18 -1049 0
1033 -1049 0
-957 -1049 -1050 0
957 1049 -1050 0
957 -1049 1050 0
-957 1049 1050 0
-1050 -1048 -1051 0
1050 1048 -1051 0
1050 -1048 1051 0
-1050 1048 1051 0
-1050 -1048 1052 0
1050 -1052 0
1048 -1052 0
-957 -1049 1053 0
957 -1053 0
1049 -1053 0
1052 1053 -1054 0
-1052 1054 0
-1053 1054 0
-26 -1033 1055 0
26 -1055 0
1033 -1055 0
-963 -1055 -1056 0
963 1055 -1056 0
963 -1055 1056 0
-963 1055 1056 0
-1056 -1054 -1057 0
1056 1054 -1057 0
1056 -1054 1057 0
-1056 1054 1057 0
-1056 -1054 1058 0
1056 -1058 0
1054 -1058 0
-963 -1055 1059 0
963 -1059 0
1055 -1059 0
1058 1059 -1060 0
-1058 1060 0
-1059 1060 0
-34 -1033 1061 0
34 -1061 0
1033 -1061 0
-969 -1061 -1062 0
969 1061 -1062 0
969 -1061 1062 0
-969 1061 1062 0
-1062 -1060 -1063 0
1062 1060 -1063 0
1062 -1060 1063 0
-1062 1060 1063 0
-1062 -1060 1064 0
1062 -1064 0
1060 -1064 0
-969 -1061 1065 0
969 -1065 0
1061 -1065 0
1064 1065 -1066 0
-1064 1066 0
-1065 1066 0
-42 -1033 1067 0
42 -1067 0
1033 -1067 0
-975 -1067 -1068 0
975 1067 -1068 0
975 -1067 1068 0
-975 1067 1068 0
-1068 -1066 -1069 0
1068 1066 -1069 0
1068 -1066 1069 0
-1068 1066 1069 0
-1068 -1066 1070 0
1068 -1070 0
1066 -1070 0
-975 -1067 1071 0
975 -1071 0
1067 -1071 0
1070 1071 -1072 0
-1070 1072 0
-1071 1072 0
-50 -1033 1073 0
50 -1073 0
1033 -1073 0
-981 -1073 -1074 0
981 1073 -1074 0
981 -1073 1074 0
-981 1073 1074 0
-1074 -1072 -1075 0
1074 1072 -1075 0
1074 -1072 1075 0
-1074 1072 1075 0
-1074 -1072 1076 0
1074 -1076 0
1072 -1076 0
-981 -1073 1077 0
981 -1077 0
1073 -1077 0
1076 1077 -1078 0
-1076 1078 0
-1077 1078 0
-58 -1033 1079 0
58 -1079 0
1033 -1079 0
-987 -1079 -1080 0
987 1079 -1080 0
987 -1079 1080 0
-987 1079 1080 0
-1080 -1078 -1081 0
1080 1078 -1081 0
1080 -1078 1081 0
-1080 1078 1081 0
-1080 -1078 1082 0
1080 -1082 0
1078 -1082 0
-987 -1079 1083 0
987 -1083 0
1079 -1083 0
1082 1083 -1084 0
-1082 1084 0
-1083 1084 0
-66 -1033 1085 0
66 -1085 0
1033 -1085 0
-993 -1085 -1086 0
993 1085 -1086 0
993 -1085 1086 0
-993 1085 1086 0
-1086 -1084 -1087 0
1086 1084 -1087 0
1086 -1084 1087 0
-1086 1084 1087 0
-1086 -1084 1088 0
1086 -1088 0
1084 -1088 0
-993 -1085 1089 0
993 -1089 0
1085 -1089 0
1088 1089 -1090 0
-1088 1090 0
-1089 1090 0
-74 -1033 1091 0
74 -1091 0
1033 -1091 0
-999 -1091 -1092 0
999 1091 -1092 0
999 -1091 1092 0
-999 1091 1092 0
-1092 -1090 -1093 0
1092 1090 -1093 0
1092 -1090 1093 0
-1092 1090 1093 0
-1092 -1090 1094 0
1092 -1094 0
1090 -1094 0
-999 -1091 1095 0
999 -1095 0
1091 -1095 0
1094 1095 -1096 0
-1094 1096 0
-1095 1096 0
-82 -1033 1097 0
82 -1097 0
1033 -1097 0
-1005 -1097 -1098 0
1005 1097 -1098 0
1005 -1097 1098 0
-1005 1097 1098 0
-1098 -1096 -1099 0
1098 1096 -1099 0
1098 -1096 1099 0
-1098 1096 1099 0
-1098 -1096 1100 0
1098 -1100 0
1096 -1100 0
-1005 -1097 1101 0
1005 -1101 0
1097 -1101 0
1100 1101 -1102 0
-1100 1102 0
-1101 1102 0
-90 -1033 1103 0
90 -1103 0
1033 -1103 0
-1011 -1103 -1104 0
1011 1103 -1104 0
1011 -1103 1104 0
-1011 1103 1104 0
-1104 -1102 -1105 0
1104 1102 -1105 0
1104 -1102 1105 0
-1104 1102 1105 0
-1104 -1102 1106 0
1104 -1106 0
1102 -1106 0
-1011 -1103 1107 0
1011 -1107 0
1103 -1107 0
1106 1107 -1108 0
-1106 1108 0
-1107 1108 0
-98 -1033 1109 0
98 -1109 0
1033 -1109 0
-1017 -1109 -1110 0
1017 1109 -1110 0
1017 -1109 1110 0
-1017 1109 1110 0
-1110 -1108 -1111 0
1110 1108 -1111 0
1110 -1108 1111 0
-1110 1108 1111 0
-1110 -1108 1112 0
1110 -1112 0
1108 -1112 0
-1017 -1109 1113 0
1017 -1113 0
1109 -1113 0
1112 1113 -1114 0
-1112 1114 0
-1113 1114 0
-106 -1033 1115 0
106 -1115 0
1033 -1115 0
-1023 -1115 -1116 0
1023 1115 -1116 0
1023 -1115 1116 0
-1023 1115 1116 0
-1116 -1114 -1117 0
1116 1114 -1117 0
1116 -1114 1117 0
-1116 1114 1117 0
-1116 -1114 1118 0
1116 -1118 0
1114 -1118 0
-1023 -1115 1119 0
1023 -1119 0
1115 -1119 0
1118 1119 -1120 0
-1118 1120 0
-1119 1120 0
-114 -1033 1121 0
114 -1121 0
1033 -1121 0
-1029 -1121 -1122 0
1029 1121 -1122 0
1029 -1121 1122 0
-1029 1121 1122 0
-1122 -1120 -1123 0
1122 1120 -1123 0
1122 -1120 1123 0
-1122 1120 1123 0
-1122 -1120 1124 0
1122 -1124 0
1120 -1124 0
-1029 -1121 1125 0
1029 -1125 0
1121 -1125 0
1124 1125 -1126 0
-1124 1126 0
-1125 1126 0
-122 -1033 1127 0
122 -1127 0
1033 -1127 0
-1032 -1127 -1128 0
1032 1127 -1128 0
1032 -1127 1128 0
-1032 1127 1128 0
-1128 -1126 -1129 0
1128 1126 -1129 0
1128 -1126 1129 0
-1128 1126 1129 0
-1128 -1126 1130 0
1128 -1130 0
1126 -1130 0
-1032 -1127 1131 0
1032 -1131 0
1127 -1131 0
1130 1131 -1132 0
-1130 1132 0
-1131 1132 0
-1 -1133 1134 0
1 -1134 0
1133 -1134 0
-1039 -1134 -1135 0
1039 1134 -1135 0
1039 -1134 1135 0
-1039 1134 1135 0
-1039 -1134 1136 0
1039 -1136 0
1134 -1136 0
-4 -1133 1137 0
4 -1137 0
1133 -1137 0
-1045 -1137 -1138 0
1045 1137 -1138 0
1045 -1137 1138 0
-1045 1137 1138 0
-1138 -1136 -1139 0
1138 1136 -1139 0
1138 -1136 1139 0
-1138 1136 1139 0
-1138 -1136 1140 0
1138 -1140 0
1136 -1140 0
-1045 -1137 1141 0
1045 -1141 0
1137 -1141 0
1140 1141 -1142 0
-1140 1142 0
-1141 1142 0
-10 -1133 1143 0
10 -1143 0
1133 -1143 0
-1051 -1143 -1144 0
1051 1143 -1144 0
1051 -1143 1144 0
-1051 1143 1144 0
-1144 -1142 -1145 0
1144 1142 -1145 0
1144 -1142 1145 0
-1144 1142 1145 0
-1144 -1142 1146 0
1144 -1146 0
1142 -1146 0
-1051 -1143 1147 0
1051 -1147 0
1143 -1147 0
1146 1147 -1148 0
-1146 1148 0
-1147 1148 0
-18 -1133 1149 0
18 -1149 0
1133 -1149 0
-1057 -1149 -1150 0
1057 1149 -1150 0
1057 -1149 1150 0
-1057 1149 1150 0
-1150 -1148 -1151 0
1150 1148 -1151 0
1150 -1148 1151 0
-1150 1148 1151 0
-1150 -1148 1152 0
1150 -1152 0
1148 -1152 0
-1057 -1149 1153 0
1057 -1153 0
1149 -1153 0
1152 1153 -1154 0
-1152 1154 0
-1153 1154 0
-26 -1133 1155 0
26 -1155 0
1133 -1155 0
-1063 -1155 -1156 0
1063 1155 -1156 0
1063 -1155 1156 0
-1063 1155 1156 0
-1156 -1154 -1157 0
1156 1154 -1157 0
1156 -1154 1157 0
-1156 1154 1157 0
-1156 -1154 1158 0
1156 -1158 0
1154 -1158 0
-1063 -1155 1159 0
1063 -1159 0
1155 -1159 0
1158 1159 -1160 0
-1158 1160 0
-1159 1160 0
-34 -1133 1161 0
34 -1161 0
1133 -1161 0
-1069 -1161 -1162 0
1069 1161 -1162 0
1069 -1161 1162 0
-1069 1161 1162 0
-1162 -1160 -1163 0
1162 1160 -1163 0
1162 -1160 1163 0
-1162 1160 1163 0
-1162 -1160 1164 0
1162 -1164 0
1160 -1164 0
-1069 -1161 1165 0
1069 -1165 0
1161 -1165 0
1164 1165 -1166 0
-1164 1166 0
-1165 1166 0
-42 -1133 1167 0
42 -1167 0
1133 -1167 0
-1075 -1167 -1168 0
1075 1167 -1168 0
1075 -1167 1168 0
-1075 1167 1168 0
-1168 -1166 -1169 0
1168 1166 -1169 0
1168 -1166 1169 0
-1168 1166 1169 0
-1168 -1166 1170 0
1168 -1170 0
1166 -1170 0
-1075 -1167 1171 0
1075 -1171 0
1167 -1171 0
1170 1171 -1172 0
-1170 1172 0
-1171 1172 0
-50 -1133 1173 0
50 -1173 0
1133 -1173 0
-1081 -1173 -1174 0
1081 1173 -1174 0
1081 -1173 1174 0
-1081 1173 1174 0
-1174 -1172 -1175 0
1174 1172 -1175 0
1174 -1172 1175 0
-1174 1172 1175 0
-1174 -1172 1176 0
1174 -1176 0
1172 -1176 0
-1081 -1173 1177 0
1081 -1177 0
1173 -1177 0
1176 1177 -1178 0
-1176 1178 0
-1177 1178 0
-58 -1133 1179 0
58 -1179 0
1133 -1179 0
-1087 -1179 -1180 0
1087 1179 -1180 0
1087 -1179 1180 0
-1087 1179 1180 0
-1180 -1178 -1181 0
1180 1178 -1181 0
1180 -1178 1181 0
-1180 1178 1181 0
-1180 -1178 1182 0
1180 -1182 0
1178 -1182 0
-1087 -1179 1183 0
1087 -1183 0
1179 -1183 0
1182 1183 -1184 0
-1182 1184 0
-1183 1184 0
-66 -1133 1185 0
66 -1185 0
1133 -1185 0
-1093 -1185 -1186 0
1093 1185 -1186 0
1093 -1185 1186 0
-1093 1185 1186 0
-1186 -1184 -1187 0
1186 1184 -1187 0
1186 -1184 1187 0
-1186 1184 1187 0
-1186 -1184 1188 0
1186 -1188 0
1184 -1188 0
-1093 -1185 1189 0
1093 -1189 0
1185 -1189 0
1188 1189 -1190 0
-1188 1190 0
-1189 1190 0
-74 -1133 1191 0
74 -1191 0
1133 -1191 0
-1099 -1191 -1192 0
1099 1191 -1192 0
1099 -1191 1192 0
-1099 1191 1192 0
-1192 -1190 -1193 0
1192 1190 -1193 0
1192 -1190 1193 0
-1192 1190 1193 0
-1192 -1190 1194 0
1192 -1194 0
1190 -1194 0
-1099 -1191 1195 0
1099 -1195 0
1191 -1195 0
1194 1195 -1196 0
-1194 1196 0
-1195 1196 0
-82 -1133 1197 0
82 -1197 0
1133 -1197 0
-1105 -1197 -1198 0
1105 1197 -1198 0
1105 -1197 1198 0
-1105 1197 1198 0
-1198 -1196 -1199 0
1198 1196 -1199 0
1198 -1196 1199 0
-1198 1196 1199 0
-1198 -1196 1200 0
1198 -1200 0
1196 -1200 0
-1105 -1197 1201 0
1105 -1201 0
1197 -1201 0
1200 1201 -1202 0
-1200 1202 0
-1201 1202 0
-90 -1133 1203 0
90 -1203 0
1133 -1203 0
-1111 -1203 -1204 0
1111 1203 -1204 0
1111 -1203 1204 0
-1111 1203 1204 0
-1204 -1202 -1205 0
1204 1202 -1205 0
1204 -1202 1205 0
-1204 1202 1205 0
-1204 -1202 1206 0
1204 -1206 0
1202 -1206 0
-1111 -1203 1207 0
1111 -1207 0
1203 -1207 0
1206 1207 -1208 0
-1206 1208 0
-1207 1208 0
-98 -1133 1209 0
98 -1209 0
1133 -1209 0
-1117 -1209 -1210 0
1117 1209 -1210 0
1117 -1209 1210 0
-1117 1209 1210 0
-1210 -1208 -1211 0
1210 1208 -1211 0
1210 -1208 1211 0
-1210 1208 1211 0
-1210 -1208 1212 0
1210 -1212 0
1208 -1212 0
-1117 -1209 1213 0
1117 -1213 0
1209 -1213 0
1212 1213 -1214 0
-1212 1214 0
-1213 1214 0
-106 -1133 1215 0
106 -1215 0
1133 -1215 0
-1123 -1215 -1216 0
1123 1215 -1216 0
1123 -1215 1216 0
-1123 1215 1216 0
-1216 -1214 -1217 0
1216 1214 -1217 0
1216 -1214 1217 0
-1216 1214 1217 0
-1216 -1214 1218 0
1216 -1218 0
1214 -1218 0
-1123 -1215 1219 0
1123 -1219 0
1215 -1219 0
1218 1219 -1220 0
-1218 1220 0
-1219 1220 0
-114 -1133 1221 0
114 -1221 0
1133 -1221 0
-1129 -1221 -1222 0
1129 1221 -1222 0
1129 -1221 1222 0
-1129 1221 1222 0
-1222 -1220 -1223 0
1222 1220 -1223 0
1222 -1220 1223 0
-1222 1220 1223 0
-1222 -1220 1224 0
1222 -1224 0
1220 -1224 0
-1129 -1221 1225 0
1129 -1225 0
1221 -1225 0
1224 1225 -1226 0
-1224 1226 0
-1225 1226 0
-122 -1133 1227 0
122 -1227 0
1133 -1227 0
-1132 -1227 -1228 0
1132 1227 -1228 0
1132 -1227 1228 0
-1132 1227 1228 0
-1228 -1226 -1229 0
1228 1226 -1229 0
1228 -1226 1229 0
-1228 1226 1229 0
-1228 -1226 1230 0
1228 -1230 0
1226 -1230 0
-1132 -1227 1231 0
1132 -1231 0
1227 -1231 0
1230 1231 -1232 0
-1230 1232 0
-1231 1232 0
-1 -1233 1234 0
1 -1234 0
1233 -1234 0
-1139 -1234 -1235 0
1139 1234 -1235 0
1139 -1234 1235 0
-1139 1234 1235 0
-1139 -1234 1236 0
1139 -1236 0
1234 -1236 0
-4 -1233 1237 0
4 -1237 0
1233 -1237 0
-1145 -1237 -1238 0
1145 1237 -1238 0
1145 -1237 1238 0
-1145 1237 1238 0
-1238 -1236 -1239 0
1238 1236 -1239 0
1238 -1236 1239 0
-1238 1236 1239 0
-1238 -1236 1240 0
1238 -1240 0
1236 -1240 0
-1145 -1237 1241 0
1145 -1241 0
1237 -1241 0
1240 1241 -1242 0
-1240 1242 0
-1241 1242 0
-10 -1233 1243 0
10 -1243 0
1233 -1243 0
-1151 -1243 -1244 0
1151 1243 -1244 0
1151 -1243 1244 0
-1151 1243 1244 0
-1244 -1242 -1245 0
1244 1242 -1245 0
1244 -1242 1245 0
-1244 1242 1245 0
-1244 -1242 1246 0
1244 -1246 0
1242 -1246 0
-1151 -1243 1247 0
1151 -1247 0
1243 -1247 0
1246 1247 -1248 0
-1246 1248 0
-1247 1248 0
-18 -1233 1249 0
18 -1249 0
1233 -1249 0
-1157 -1249 -1250 0
1157 1249 -1250 0
1157 -1249 1250 0
-1157 1249 1250 0
-1250 -1248 -1251 0
1250 1248 -1251 0
1250 -1248 1251 0
-1250 1248 1251 0
-1250 -1248 1252 0
1250 -1252 0
1248 -1252 0
-1157 -1249 1253 0
1157 -1253 0
1249 -1253 0
1252 1253 -1254 0
-1252 1254 0
-1253 1254 0
-26 -1233 1255 0
26 -1255 0
1233 -1255 0
-1163 -1255 -1256 0
1163 1255 -1256 0
1163 -1255 1256 0
-1163 1255 1256 0
-1256 -1254 -1257 0
1256 1254 -1257 0
1256 -1254 1257 0
-1256 1254 1257 0
-1256 -1254 1258 0
1256 -1258 0
1254 -1258 0
-1163 -1255 1259 0
1163 -1259 0
1255 -1259 0
1258 1259 -1260 0
-1258 1260 0
-1259 1260 0
-34 -1233 1261 0
34 -1261 0
1233 -1261 0
-1169 -1261 -1262 0
1169 1261 -1262 0
1169 -1261 1262 0
-1169 1261 1262 0
-1262 -1260 -1263 0
1262 1260 -1263 0
1262 -1260 1263 0
-1262 1260 1263 0
-1262 -1260 1264 0
1262 -1264 0
1260 -1264 0
-1169 -1261 1265 0
1169 -1265 0
1261 -1265 0
1264 1265 -1266 0
-1264 1266 0
-1265 1266 0
-42 -1233 1267 0
42 -1267 0
1233 -1267 0
-1175 -1267 -1268 0
1175 1267 -1268 0
1175 -1267 1268 0
-1175 1267 1268 0
-1268 -1266 -1269 0
1268 1266 -1269 0
1268 -1266 1269 0
-1268 1266 1269 0
-1268 -1266 1270 0
1268 -1270 0
1266 -1270 0
-1175 -1267 1271 0
1175 -1271 0
1267 -1271 0
1270 1271 -1272 0
-1270 1272 0
-1271 1272 0
-50 -1233 1273 0
50 -1273 0
1233 -1273 0
-1181 -1273 -1274 0
1181 1273 -1274 0
1181 -1273 1274 0
-1181 1273 1274 0
-1274 -1272 -1275 0
1274 1272 -1275 0
1274 -1272 1275 0
-1274 1272 1275 0
-1274 -1272 1276 0
1274 -1276 0
1272 -1276 0
-1181 -1273 1277 0
1181 -1277 0
1273 -1277 0
1276 1277 -1278 0
-1276 1278 0
-1277 1278 0
-58 -1233 1279 0
58 -1279 0
1233 -1279 0
-1187 -1279 -1280 0
1187 1279 -1280 0
1187 -1279 1280 0
-1187 1279 1280 0
-1280 -1278 -1281 0
1280 1278 -1281 0
1280 -1278 1281 0
-1280 1278 1281 0
-1280 -1278 1282 0
1280 -1282 0
1278 -1282 0
-1187 -1279 1283 0
1187 -1283 0
1279 -1283 0
1282 1283 -1284 0
-1282 1284 0
-1283 1284 0
-66 -1233 1285 0
66 -1285 0
1233 -1285 0
-1193 -1285 -1286 0
1193 1285 -1286 0
1193 -1285 1286 0
-1193 1285 1286 0
-1286 -1284 -1287 0
1286 1284 -1287 0
1286 -1284 1287 0
-1286 1284 1287 0
-1286 -1284 1288 0
1286 -1288 0
1284 -1288 0
-1193 -1285 1289 0
1193 -1289 0
1285 -1289 0
1288 1289 -1290 0
-1288 1290 0
-1289 1290 0
-74 -1233 1291 0
74 -1291 0
1233 -1291 0
-1199 -1291 -1292 0
1199 1291 -1292 0
1199 -1291 1292 0
-1199 1291 1292 0
-1292 -1290 -1293 0
1292 1290 -1293 0
1292 -1290 1293 0
-1292 1290 1293 0
-1292 -1290 1294 0
1292 -1294 0
1290 -1294 0
-1199 -1291 1295 0
1199 -1295 0
1291 -1295 0
1294 1295 -1296 0
-1294 1296 0
-1295 1296 0
-82 -1233 1297 0
82 -1297 0
1233 -1297 0
-1205 -1297 -1298 0
1205 1297 -1298 0
1205 -1297 1298 0
-1205 1297 1298 0
-1298 -1296 -1299 0
1298 1296 -1299 0
1298 -1296 1299 0
-1298 1296 1299 0
-1298 -1296 1300 0
1298 -1300 0
1296 -1300 0
-1205 -1297 1301 0
1205 -1301 0
1297 -1301 0
1300 1301 -1302 0
-1300 1302 0
-1301 1302 0
-90 -1233 1303 0
90 -1303 0
1233 -1303 0
-1211 -1303 -1304 0
1211 1303 -1304 0
1211 -1303 1304 0
-1211 1303 1304 0
-1304 -1302 -1305 0
1304 1302 -1305 0
1304 -1302 1305 0
-1304 1302 1305 0
-1304 -1302 1306 0
1304 -1306 0
1302 -1306 0
-1211 -1303 1307 0
1211 -1307 0
1303 -1307 0
1306 1307 -1308 0
-1306 1308 0
-1307 1308 0
-98 -1233 1309 0
98 -1309 0
1233 -1309 0
-1217 -1309 -1310 0
1217 1309 -1310 0
1217 -1309 1310 0
-1217 1309 1310 0
-1310 -1308 -1311 0
1310 1308 -1311 0
1310 -1308 1311 0
-1310 1308 1311 0
-1310 -1308 1312 0
1310 -1312 0
1308 -1312 0
-1217 -1309 1313 0
1217 -1313 0
1309 -1313 0
1312 1313 -1314 0
-1312 1314 0
-1313 1314 0
-106 -1233 1315 0
106 -1315 0
1233 -1315 0
-1223 -1315 -1316 0
1223 1315 -1316 0
1223 -1315 1316 0
-1223 1315 1316 0
-1316 -1314 -1317 0
1316 1314 -1317 0
1316 -1314 1317 0
-1316 1314 1317 0
-1316 -1314 1318 0
1316 -1318 0
1314 -1318 0
-1223 -1315 1319 0
1223 -1319 0
1315 -1319 0
1318 1319 -1320 0
-1318 1320 0
-1319 1320 0
-114 -1233 1321 0
114 -1321 0
1233 -1321 0
-1229 -1321 -1322 0
1229 1321 -1322 0
1229 -1321 1322 0
-1229 1321 1322 0
-1322 -1320 -1323 0
1322 1320 -1323 0
1322 -1320 1323 0
-1322 1320 1323 0
-1322 -1320 1324 0
1322 -1324 0
1320 -1324 0
-1229 -1321 1325 0
1229 -1325 0
1321 -1325 0
1324 1325 -1326 0
-1324 1326 0
-1325 1326 0
-122 -1233 1327 0
122 -1327 0
1233 -1327 0
-1232 -1327 -1328 0
1232 1327 -1328 0
1232 -1327 1328 0
-1232 1327 1328 0
-1328 -1326 -1329 0
1328 1326 -1329 0
1328 -1326 1329 0
-1328 1326 1329 0
-1328 -1326 1330 0
1328 -1330 0
1326 -1330 0
-1232 -1327 1331 0
1232 -1331 0
1327 -1331 0
1330 1331 -1332 0
-1330 1332 0
-1331 1332 0
-1 -1333 1334 0
1 -1334 0
1333 -1334 0
-1239 -1334 -1335 0
1239 1334 -1335 0
1239 -1334 1335 0
-1239 1334 1335 0
-1239 -1334 1336 0
1239 -1336 0
1334 -1336 0
-4 -1333 1337 0
4 -1337 0
1333 -1337 0
-1245 -1337 -1338 0
1245 1337 -1338 0
1245 -1337 1338 0
-1245 1337 1338 0
-1338 -1336 -1339 0
1338 1336 -1339 0
1338 -1336 1339 0
-1338 1336 1339 0
-1338 -1336 1340 0
1338 -1340 0
1336 -1340 0
-1245 -1337 1341 0
1245 -1341 0
1337 -1341 0
1340 1341 -1342 0
-1340 1342 0
-1341 1342 0
-10 -1333 1343 0
10 -1343 0
1333 -1343 0
-1251 -1343 -1344 0
1251 1343 -1344 0
1251 -1343 1344 0
-1251 1343 1344 0
-1344 -1342 -1345 0
1344 1342 -1345 0
1344 -1342 1345 0
-1344 1342 1345 0
-1344 -1342 1346 0
1344 -1346 0
1342 -1346 0
-1251 -1343 1347 0
1251 -1347 0
1343 -1347 0
1346 1347 -1348 0
-1346 1348 0
-1347 1348 0
-18 -1333 1349 0
18 -1349 0
1333 -1349 0
-1257 -1349 -1350 0
1257 1349 -1350 0
1257 -1349 1350 0
-1257 1349 1350 0
-1350 -1348 -1351 0
1350 1348 -1351 0
1350 -1348 1351 0
-1350 1348 1351 0
-1350 -1348 1352 0
1350 -1352 0
1348 -1352 0
-1257 -1349 1353 0
1257 -1353 0
1349 -1353 0
1352 1353 -1354 0
-1352 1354 0
-1353 1354 0
-26 -1333 1355 0
26 -1355 0
1333 -1355 0
-1263 -1355 -1356 0
1263 1355 -1356 0
1263 -1355 1356 0
-1263 1355 1356 0
-1356 -1354 -1357 0
1356 1354 -1357 0
1356 -1354 1357 0
-1356 1354 1357 0
-1356 -1354 1358 0
1356 -1358 0
1354 -1358 0
-1263 -1355 1359 0
1263 -1359 0
1355 -1359 0
1358 1359 -1360 0
-1358 1360 0
-1359 1360 0
-34 -1333 1361 0
34 -1361 0
1333 -1361 0
-1269 -1361 -1362 0
1269 1361 -1362 0
1269 -1361 1362 0
-1269 1361 1362 0
-1362 -1360 -1363 0
1362 1360 -1363 0
1362 -1360 1363 0
-1362 1360 1363 0
-1362 -1360 1364 0
1362 -1364 0
1360 -1364 0
-1269 -1361 1365 0
1269 -1365 0
1361 -1365 0
1364 1365 -1366 0
-1364 1366 0
-1365 1366 0
-42 -1333 1367 0
42 -1367 0
1333 -1367 0
-1275 -1367 -1368 0
1275 1367 -1368 0
1275 -1367 1368 0
-1275 1367 1368 0
-1368 -1366 -1369 0
1368 1366 -1369 0
1368 -1366 1369 0
-1368 1366 1369 0
-1368 -1366 1370 0
1368 -1370 0
1366 -1370 0
-1275 -1367 1371 0
1275 -1371 0
1367 -1371 0
1370 1371 -1372 0
-1370 1372 0
-1371 1372 0
-50 -1333 1373 0
50 -1373 0
1333 -1373 0
-1281 -1373 -1374 0
1281 1373 -1374 0
1281 -1373 1374 0
-1281 1373 1374 0
-1374 -1372 -1375 0
1374 1372 -1375 0
1374 -1372 1375 0
-1374 1372 1375 0
-1374 -1372 1376 0
1374 -1376 0
1372 -1376 0
-1281 -1373 1377 0
1281 -1377 0
1373 -1377 0
1376 1377 -1378 0
-1376 1378 0
-1377 1378 0
-58 -1333 1379 0
58 -1379 0
1333 -1379 0
-1287 -1379 -1380 0
1287 1379 -1380 0
1287 -1379 1380 0
-1287 1379 1380 0
-1380 -1378 -1381 0
1380 1378 -1381 0
1380 -1378 1381 0
-1380 1378 1381 0
-1380 -1378 1382 0
1380 -1382 0
1378 -1382 0
-1287 -1379 1383 0
1287 -1383 0
1379 -1383 0
1382 1383 -1384 0
-1382 1384 0
-1383 1384 0
-66 -1333 1385 0
66 -1385 0
1333 -1385 0
-1293 -1385 -1386 0
1293 1385 -1386 0
1293 -1385 1386 0
-1293 1385 1386 0
-1386 -1384 -1387 0
1386 1384 -1387 0
1386 -1384 1387 0
-1386 1384 1387 0
-1386 -1384 1388 0
1386 -1388 0
1384 -1388 0
-1293 -1385 1389 0
1293 -1389 0
1385 -1389 0
1388 1389 -1390 0
-1388 1390 0
-1389 1390 0
-74 -1333 1391 0
74 -1391 0
1333 -1391 0
-1299 -1391 -1392 0
1299 1391 -1392 0
1299 -1391 1392 0
-1299 1391 1392 0
-1392 -1390 -1393 0
1392 1390 -1393 0
1392 -1390 1393 0
-1392 1390 1393 0
-1392 -1390 1394 0
1392 -1394 0
1390 -1394 0
-1299 -1391 1395 0
1299 -1395 0
1391 -1395 0
1394 1395 -1396 0
-1394 1396 0
-1395 1396 0
-82 -1333 1397 0
82 -1397 0
1333 -1397 0
-1305 -1397 -1398 0
1305 1397 -1398 0
1305 -1397 1398 0
-1305 1397 1398 0
-1398 -1396 -1399 0
1398 1396 -1399 0
1398 -1396 1399 0
-1398 1396 1399 0
-1398 -1396 1400 0
1398 -1400 0
1396 -1400 0
-1305 -1397 1401 0
1305 -1401 0
1397 -1401 0
1400 1401 -1402 0
-1400 1402 0
-1401 1402 0
-90 -1333 1403 0
90 -1403 0
1333 -1403 0
-1311 -1403 -1404 0
1311 1403 -1404 0
1311 -1403 1404 0
-1311 1403 1404 0
-1404 -1402 -1405 0
1404 1402 -1405 0
1404 -1402 1405 0
-1404 1402 1405 0
-1404 -1402 1406 0
1404 -1406 0
1402 -1406 0
-1311 -1403 1407 0
1311 -1407 0
1403 -1407 0
1406 1407 -1408 0
-1406 1408 0
-1407 1408 0
-98 -1333 1409 0
98 -1409 0
1333 -1409 0
-1317 -1409 -1410 0
1317 1409 -1410 0
1317 -1409 1410 0
-1317 1409 1410 0
-1410 -1408 -1411 0
1410 1408 -1411 0
1410 -1408 1411 0
-1410 1408 1411 0
-1410 -1408 1412 0
1410 -1412 0
1408 -1412 0
-1317 -1409 1413 0
1317 -1413 0
1409 -1413 0
1412 1413 -1414 0
-1412 1414 0
-1413 1414 0
-106 -1333 1415 0
106 -1415 0
1333 -1415 0
-1323 -1415 -1416 0
1323 1415 -1416 0
1323 -1415 1416 0
-1323 1415 1416 0
-1416 -1414 -1417 0
1416 1414 -1417 0
1416 -1414 1417 0
-1416 1414 1417 0
-1416 -1414 1418 0
1416 -1418 0
1414 -1418 0
-1323 -1415 1419 0
1323 -1419 0
1415 -1419 0
1418 1419 -1420 0
-1418 1420 0
-1419 1420 0
-114 -1333 1421 0
114 -1421 0
1333 -1421 0
-1329 -1421 -1422 0
1329 1421 -1422 0
1329 -1421 1422 0
-1329 1421 1422 0
-1422 -1420 -1423 0
1422 1420 -1423 0
1422 -1420 1423 0
-1422 1420 1423 0
-1422 -1420 1424 0
1422 -1424 0
1420 -1424 0
-1329 -1421 1425 0
1329 -1425 0
1421 -1425 0
1424 1425 -1426 0
-1424 1426 0
-1425 1426 0
-122 -1333 1427 0
122 -1427 0
1333 -1427 0
-1332 -1427 -1428 0
1332 1427 -1428 0
1332 -1427 1428 0
-1332 1427 1428 0
-1428 -1426 -1429 0
1428 1426 -1429 0
1428 -1426 1429 0
-1428 1426 1429 0
-1428 -1426 1430 0
1428 -1430 0
1426 -1430 0
-1332 -1427 1431 0
1332 -1431 0
1427 -1431 0
1430 1431 -1432 0
-1430 1432 0
-1431 1432 0
-1 -1433 1434 0
1 -1434 0
1433 -1434 0
-1339 -1434 -1435 0
1339 1434 -1435 0
1339 -1434 1435 0
-1339 1434 1435 0
-1339 -1434 1436 0
1339 -1436 0
1434 -1436 0
-4 -1433 1437 0
4 -1437 0
1433 -1437 0
-1345 -1437 -1438 0
1345 1437 -1438 0
1345 -1437 1438 0
-1345 1437 1438 0
-1438 -1436 -1439 0
1438 1436 -1439 0
1438 -1436 1439 0
-1438 1436 1439 0
-1438 -1436 1440 0
1438 -1440 0
1436 -1440 0
-1345 -1437 1441 0
1345 -1441 0
1437 -1441 0
1440 1441 -1442 0
-1440 1442 0
-1441 1442 0
-10 -1433 1443 0
10 -1443 0
1433 -1443 0
-1351 -1443 -1444 0
1351 1443 -1444 0
1351 -1443 1444 0
-1351 1443 1444 0
-1444 -1442 -1445 0
1444 1442 -1445 0
1444 -1442 1445 0
-1444 1442 1445 0
-1444 -1442 1446 0
1444 -1446 0
1442 -1446 0
-1351 -1443 1447 0
1351 -1447 0
1443 -1447 0
1446 1447 -1448 0
-1446 1448 0
-1447 1448 0
-18 -1433 1449 0
18 -1449 0
1433 -1449 0
-1357 -1449 -1450 0
1357 1449 -1450 0
1357 -1449 1450 0
-1357 1449 1450 0
-1450 -1448 -1451 0
1450 1448 -1451 0
1450 -1448 1451 0
-1450 1448 1451 0
-1450 -1448 1452 0
1450 -1452 0
1448 -1452 0
-1357 -1449 1453 0
1357 -1453 0
1449 -1453 0
1452 1453 -1454 0
-1452 1454 0
-1453 1454 0
-26 -1433 1455 0
26 -1455 0
1433 -1455 0
-1363 -1455 -1456 0
1363 1455 -1456 0
1363 -1455 1456 0
-1363 1455 1456 0
-1456 -1454 -1457 0
1456 1454 -1457 0
1456 -1454 1457 0
-1456 1454 1457 0
-1456 -1454 1458 0
1456 -1458 0
1454 -1458 0
-1363 -1455 1459 0
1363 -1459 0
1455 -1459 0
1458 1459 -1460 0
-1458 1460 0
-1459 1460 0
-34 -1433 1461 0
34 -1461 0
1433 -1461 0
-1369 -1461 -1462 0
1369 1461 -1462 0
1369 -1461 1462 0
-1369 1461 1462 0
-1462 -1460 -1463 0
1462 1460 -1463 0
1462 -1460 1463 0
-1462 1460 1463 0
-1462 -1460 1464 0
1462 -1464 0
1460 -1464 0
-1369 -1461 1465 0
1369 -1465 0
1461 -1465 0
1464 1465 -1466 0
-1464 1466 0
-1465 1466 0
-42 -1433 1467 0
42 -1467 0
1433 -1467 0
-1375 -1467 -1468 0
1375 1467 -1468 0
1375 -1467 1468 0
-1375 1467 1468 0
-1468 -1466 -1469 0
1468 1466 -1469 0
1468 -1466 1469 0
-1468 1466 1469 0
-1468 -1466 1470 0
1468 -1470 0
1466 -1470 0
-1375 -1467 1471 0
1375 -1471 0
1467 -1471 0
1470 1471 -1472 0
-1470 1472 0
-1471 1472 0
-50 -1433 1473 0
50 -1473 0
1433 -1473 0
-1381 -1473 -1474 0
1381 1473 -1474 0
1381 -1473 1474 0
-1381 1473 1474 0
-1474 -1472 -1475 0
1474 1472 -1475 0
1474 -1472 1475 0
-1474 1472 1475 0
-1474 -1472 1476 0
1474 -1476 0
1472 -1476 0
-1381 -1473 1477 0
1381 -1477 0
1473 -1477 0
1476 1477 -1478 0
-1476 1478 0
-1477 1478 0
-58 -1433 1479 0
58 -1479 0
1433 -1479 0
-1387 -1479 -1480 0
1387 1479 -1480 0
1387 -1479 1480 0
-1387 1479 1480 0
-1480 -1478 -1481 0
1480 1478 -1481 0
1480 -1478 1481 0
-1480 1478 1481 0
-1480 -1478 1482 0
1480 -1482 0
1478 -1482 0
-1387 -1479 1483 0
1387 -1483 0
1479 -1483 0
1482 1483 -1484 0
-1482 1484 0
-1483 1484 0
-66 -1433 1485 0
66 -1485 0
1433 -1485 0
-1393 -1485 -1486 0
1393 1485 -1486 0
1393 -1485 1486 0
-1393 1485 1486 0
-1486 -1484 -1487 0
1486 1484 -1487 0
1486 -1484 1487 0
-1486 1484 1487 0
-1486 -1484 1488 0
1486 -1488 0
1484 -1488 0
-1393 -1485 1489 0
1393 -1489 0
1485 -1489 0
1488 1489 -1490 0
-1488 1490 0
-1489 1490 0
-74 -1433 1491 0
74 -1491 0
1433 -1491 0
-1399 -1491 -1492 0
1399 1491 -1492 0
1399 -1491 1492 0
-1399 1491 1492 0
-1492 -1490 -1493 0
1492 1490 -1493 0
1492 -1490 1493 0
-1492 1490 1493 0
-1492 -1490 1494 0
1492 -1494 0
1490 -1494 0
-1399 -1491 1495 0
1399 -1495 0
1491 -1495 0
1494 1495 -1496 0
-1494 1496 0
-1495 1496 0
-82 -1433 1497 0
82 -1497 0
1433 -1497 0
-1405 -1497 -1498 0
1405 1497 -1498 0
1405 -1497 1498 0
-1405 1497 1498 0
-1498 -1496 -1499 0
1498 1496 -1499 0
1498 -1496 1499 0
-1498 1496 1499 0
-1498 -1496 1500 0
1498 -1500 0
1496 -1500 0
-1405 -1497 1501 0
1405 -1501 0
1497 -1501 0
1500 1501 -1502 0
-1500 1502 0
-1501 1502 0
-90 -1433 1503 0
90 -1503 0
1433 -1503 0
-1411 -1503 -1504 0
1411 1503 -1504 0
1411 -1503 1504 0
-1411 1503 1504 0
-1504 -1502 -1505 0
1504 1502 -1505 0
1504 -1502 1505 0
-1504 1502 1505 0
-1504 -1502 1506 0
1504 -1506 0
1502 -1506 0
-1411 -1503 1507 0
1411 -1507 0
1503 -1507 0
1506 1507 -1508 0
-1506 1508 0
-1507 1508 0
-98 -1433 1509 0
98 -1509 0
1433 -1509 0
-1417 -1509 -1510 0
1417 1509 -1510 0
1417 -1509 1510 0
-1417 1509 1510 0
-1510 -1508 -1511 0
1510 1508 -1511 0
1510 -1508 1511 0
-1510 1508 1511 0
-1510 -1508 1512 0
1510 -1512 0
1508 -1512 0
-1417 -1509 1513 0
1417 -1513 0
1509 -1513 0
1512 1513 -1514 0
-1512 1514 0
-1513 1514 0
-106 -1433 1515 0
106 -1515 0
1433 -1515 0
-1423 -1515 -1516 0
1423 1515 -1516 0
1423 -1515 1516 0
-1423 1515 1516 0
-1516 -1514 -1517 0
1516 1514 -1517 0
1516 -1514 1517 0
-1516 1514 1517 0
-1516 -1514 1518 0
1516 -1518 0
1514 -1518 0
-1423 -1515 1519 0
1423 -1519 0
1515 -1519 0
1518 1519 -1520 0
-1518 1520 0
-1519 1520 0
-114 -1433 1521 0
114 -1521 0
1433 -1521 0
-1429 -1521 -1522 0
1429 1521 -1522 0
1429 -1521 1522 0
-1429 1521 1522 0
-1522 -1520 -1523 0
1522 1520 -1523 0
1522 -1520 1523 0
-1522 1520 1523 0
-1522 -1520 1524 0
1522 -1524 0
1520 -1524 0
-1429 -1521 1525 0
1429 -1525 0
1521 -1525 0
1524 1525 -1526 0
-1524 1526 0
-1525 1526 0
-122 -1433 1527 0
122 -1527 0
1433 -1527 0
-1432 -1527 -1528 0
1432 1527 -1528 0
1432 -1527 1528 0
-1432 1527 1528 0
-1528 -1526 -1529 0
1528 1526 -1529 0
1528 -1526 1529 0
-1528 1526 1529 0
-1528 -1526 1530 0
1528 -1530 0
1526 -1530 0
-1432 -1527 1531 0
1432 -1531 0
1527 -1531 0
1530 1531 -1532 0
-1530 1532 0
-1531 1532 0
-1 -1533 1534 0
1 -1534 0
1533 -1534 0
-1439 -1534 -1535 0
1439 1534 -1535 0
1439 -1534 1535 0
-1439 1534 1535 0
-1439 -1534 1536 0
1439 -1536 0
1534 -1536 0
-4 -1533 1537 0
4 -1537 0
1533 -1537 0
-1445 -1537 -1538 0
1445 1537 -1538 0
1445 -1537 1538 0
-1445 1537 1538 0
-1538 -1536 -1539 0
1538 1536 -1539 0
1538 -1536 1539 0
-1538 1536 1539 0
-1538 -1536 1540 0
1538 -1540 0
1536 -1540 0
-1445 -1537 1541 0
1445 -1541 0
1537 -1541 0
1540 1541 -1542 0
-1540 1542 0
-1541 1542 0
-10 -1533 1543 0
10 -1543 0
1533 -1543 0
-1451 -1543 -1544 0
1451 1543 -1544 0
1451 -1543 1544 0
-1451 1543 1544 0
-1544 -1542 -1545 0
1544 1542 -1545 0
1544 -1542 1545 0
-1544 1542 1545 0
-1544 -1542 1546 0
1544 -1546 0
1542 -1546 0
-1451 -1543 1547 0
1451 -1547 0
1543 -1547 0
1546 1547 -1548 0
-1546 1548 0
-1547 1548 0
-18 -1533 1549 0
18 -1549 0
1533 -1549 0
-1457 -1549 -1550 0
1457 1549 -1550 0
1457 -1549 1550 0
-1457 1549 1550 0
-1550 -1548 -1551 0
1550 1548 -1551 0
1550 -1548 1551 0
-1550 1548 1551 0
-1550 -1548 1552 0
1550 -1552 0
1548 -1552 0
-1457 -1549 1553 0
1457 -1553 0
1549 -1553 0
1552 1553 -1554 0
-1552 1554 0
-1553 1554 0
-26 -1533 1555 0
26 -1555 0
1533 -1555 0
-1463 -1555 -1556 0
1463 1555 -1556 0
1463 -1555 1556 0
-1463 1555 1556 0
-1556 -1554 -1557 0
1556 1554 -1557 0
1556 -1554 1557 0
-1556 1554 1557 0
-1556 -1554 1558 0
1556 -1558 0
1554 -1558 0
-1463 -1555 1559 0
1463 -1559 0
1555 -1559 0
1558 1559 -1560 0
-1558 1560 0
-1559 1560 0
-34 -1533 1561 0
34 -1561 0
1533 -1561 0
-1469 -1561 -1562 0
1469 1561 -1562 0
1469 -1561 1562 0
-1469 1561 1562 0
-1562 -1560 -1563 0
1562 1560 -1563 0
1562 -1560 1563 0
-1562 1560 1563 0
-1562 -1560 1564 0
1562 -1564 0
1560 -1564 0
-1469 -1561 1565 0
1469 -1565 0
1561 -1565 0
1564 1565 -1566 0
-1564 1566 0
-1565 1566 0
-42 -1533 1567 0
42 -1567 0
1533 -1567 0
-1475 -1567 -1568 0
1475 1567 -1568 0
1475 -1567 1568 0
-1475 1567 1568 0
-1568 -1566 -1569 0
1568 1566 -1569 0
1568 -1566 1569 0
-1568 1566 1569 0
-1568 -1566 1570 0
1568 -1570 0
1566 -1570 0
-1475 -1567 1571 0
1475 -1571 0
1567 -1571 0
1570 1571 -1572 0
-1570 1572 0
-1571 1572 0
-50 -1533 1573 0
50 -1573 0
1533 -1573 0
-1481 -1573 -1574 0
1481 1573 -1574 0
1481 -1573 1574 0
-1481 1573 1574 0
-1574 -1572 -1575 0
1574 1572 -1575 0
1574 -1572 1575 0
-1574 1572 1575 0
-1574 -1572 1576 0
1574 -1576 0
1572 -1576 0
-1481 -1573 1577 0
1481 -1577 0
1573 -1577 0
1576 1577 -1578 0
-1576 1578 0
-1577 1578 0
-58 -1533 1579 0
58 -1579 0
1533 -1579 0
-1487 -1579 -1580 0
1487 1579 -1580 0
1487 -1579 1580 0
-1487 1579 1580 0
-1580 -1578 -1581 0
1580 1578 -1581 0
1580 -1578 1581 0
-1580 1578 1581 0
-1580 -1578 1582 0
1580 -1582 0
1578 -1582 0
-1487 -1579 1583 0
1487 -1583 0
1579 -1583 0
1582 1583 -1584 0
-1582 1584 0
-1583 1584 0
-66 -1533 1585 0
66 -1585 0
1533 -1585 0
-1493 -1585 -1586 0
1493 1585 -1586 0
1493 -1585 1586 0
-1493 1585 1586 0
-1586 -1584 -1587 0
1586 1584 -1587 0
1586 -1584 1587 0
-1586 1584 1587 0
-1586 -1584 1588 0
1586 -1588 0
1584 -1588 0
-1493 -1585 1589 0
1493 -1589 0
1585 -1589 0
1588 1589 -1590 0
-1588 1590 0
-1589 1590 0
-74 -1533 1591 0
74 -1591 0
1533 -1591 0
-1499 -1591 -1592 0
1499 1591 -1592 0
1499 -1591 1592 0
-1499 1591 1592 0
-1592 -1590 -1593 0
1592 1590 -1593 0
1592 -1590 1593 0
-1592 1590 1593 0
-1592 -1590 1594 0
1592 -1594 0
1590 -1594 0
-1499 -1591 1595 0
1499 -1595 0
1591 -1595 0
1594 1595 -1596 0
-1594 1596 0
-1595 1596 0
-82 -1533 1597 0
82 -1597 0
1533 -1597 0
-1505 -1597 -1598 0
1505 1597 -1598 0
1505 -1597 1598 0
-1505 1597 1598 0
-1598 -1596 -1599 0
1598 1596 -1599 0
1598 -1596 1599 0
-1598 1596 1599 0
-1598 -1596 1600 0
1598 -1600 0
1596 -1600 0
-1505 -1597 1601 0
1505 -1601 0
1597 -1601 0
1600 1601 -1602 0
-1600 1602 0
-1601 1602 0
-90 -1533 1603 0
90 -1603 0
1533 -1603 0
-1511 -1603 -1604 0
1511 1603 -1604 0
1511 -1603 1604 0
-1511 1603 1604 0
-1604 -1602 -1605 0
1604 1602 -1605 0
1604 -1602 1605 0
-1604 1602 1605 0
-1604 -1602 1606 0
1604 -1606 0
1602 -1606 0
-1511 -1603 1607 0
1511 -1607 0
1603 -1607 0
1606 1607 -1608 0
-1606 1608 0
-1607 1608 0
-98 -1533 1609 0
98 -1609 0
1533 -1609 0
-1517 -1609 -1610 0
1517 1609 -1610 0
1517 -1609 1610 0
-1517 1609 1610 0
-1610 -1608 -1611 0
1610 1608 -1611 0
1610 -1608 1611 0
-1610 1608 1611 0
-1610 -1608 1612 0
1610 -1612 0
1608 -1612 0
-1517 -1609 1613 0
1517 -1613 0
1609 -1613 0
1612 1613 -1614 0
-1612 1614 0
-1613 1614 0
-106 -1533 1615 0
106 -1615 0
1533 -1615 0
-1523 -1615 -1616 0
1523 1615 -1616 0
1523 -1615 1616 0
-1523 1615 1616 0
-1616 -1614 -1617 0
1616 1614 -1617 0
1616 -1614 1617 0
-1616 1614 1617 0
-1616 -1614 1618 0
1616 -1618 0
1614 -1618 0
-1523 -1615 1619 0
1523 -1619 0
1615 -1619 0
1618 1619 -1620 0
-1618 1620 0
-1619 1620 0
-114 -1533 1621 0
114 -1621 0
1533 -1621 0
-1529 -1621 -1622 0
1529 1621 -1622 0
1529 -1621 1622 0
-1529 1621 1622 0
-1622 -1620 -1623 0
1622 1620 -1623 0
1622 -1620 1623 0
-1622 1620 1623 0
-1622 -1620 1624 0
1622 -1624 0
1620 -1624 0
-1529 -1621 1625 0
1529 -1625 0
1621 -1625 0
1624 1625 -1626 0
-1624 1626 0
-1625 1626 0
-122 -1533 1627 0
122 -1627 0
1533 -1627 0
-1532 -1627 -1628 0
1532 1627 -1628 0
1532 -1627 1628 0
-1532 1627 1628 0
-1628 -1626 -1629 0
1628 1626 -1629 0
1628 -1626 1629 0
-1628 1626 1629 0
-1628 -1626 1630 0
1628 -1630 0
1626 -1630 0
-1532 -1627 1631 0
1532 -1631 0
1627 -1631 0
1630 1631 -1632 0
-1630 1632 0
-1631 1632 0
3 0
8 0
-135 0
-235 0
-335 0
-435 0
-535 0
-635 0
-735 0
-835 0
-935 0
-1035 0
-1135 0
-1235 0
-1335 0
-1435 0
-1535 0
-1539 0
1545 0
-1551 0
-1557 0
-1563 0
-1569 0
-1575 0
-1581 0
-1587 0
-1593 0
-1599 0
-1605 0
-1611 0
-1617 0
-1623 0
1629 0
-1632 0
