p cnf 1836 6030
-2 3 -1 0
1 -3 0
-3 2 0
5 -4 -2 0
-5 4 0
-5 2 0
-6 7 -1 0
1 -7 0
6 -7 0
-8 -7 -5 0
-8 5 7 0
8 5 -7 0
8 -5 7 0
-7 9 -5 0
-9 5 0
-9 7 0
-10 11 -2 0
-11 10 0
-11 2 0
-6 -4 12 0
-12 4 0
-12 6 0
-12 -11 -13 0
11 -13 12 0
-12 11 13 0
-11 13 12 0
-9 -14 -13 0
-14 9 13 0
-9 14 13 0
14 9 -13 0
-9 15 -13 0
-15 13 0
9 -15 0
-12 -11 16 0
11 -16 0
-16 12 0
15 16 -17 0
-15 17 0
-16 17 0
-2 19 -18 0
-19 18 0
-19 2 0
-10 -6 20 0
10 -20 0
6 -20 0
-21 -19 -20 0
-21 19 20 0
21 19 -20 0
21 -19 20 0
-17 -21 -22 0
21 -22 17 0
21 22 -17 0
22 -21 17 0
23 -17 -21 0
21 -23 0
-23 17 0
-19 24 -20 0
-24 19 0
-24 20 0
23 24 -25 0
25 -23 0
-24 25 0
-26 27 -2 0
26 -27 0
-27 2 0
-6 28 -18 0
-28 18 0
6 -28 0
-27 -29 -28 0
27 -29 28 0
27 29 -28 0
-27 28 29 0
-30 -29 -25 0
-30 25 29 0
30 29 -25 0
-29 25 30 0
-29 31 -25 0
29 -31 0
25 -31 0
-27 32 -28 0
27 -32 0
-32 28 0
-33 32 31 0
33 -31 0
-32 33 0
35 -2 -34 0
-35 34 0
-35 2 0
-26 -6 36 0
26 -36 0
-36 6 0
-36 -37 -35 0
36 35 -37 0
-36 35 37 0
36 37 -35 0
-38 -37 -33 0
37 -38 33 0
37 -33 38 0
-37 33 38 0
39 -37 -33 0
37 -39 0
-39 33 0
40 -36 -35 0
-40 35 0
36 -40 0
40 39 -41 0
-39 41 0
-40 41 0
-42 43 -2 0
-43 42 0
-43 2 0
-6 44 -34 0
-44 34 0
-44 6 0
-45 -44 -43 0
-45 44 43 0
-44 43 45 0
44 -43 45 0
-45 -46 -41 0
-46 45 41 0
46 -41 45 0
-45 46 41 0
-45 -41 47 0
-47 45 0
-47 41 0
-44 -43 48 0
-48 43 0
44 -48 0
48 -49 47 0
49 -47 0
49 -48 0
-50 51 -2 0
-51 50 0
-51 2 0
-42 -6 52 0
-52 42 0
-52 6 0
-52 -51 -53 0
51 -53 52 0
-52 51 53 0
-51 53 52 0
-49 -53 -54 0
49 53 -54 0
-49 53 54 0
54 49 -53 0
55 -49 -53 0
53 -55 0
49 -55 0
-52 -51 56 0
51 -56 0
-56 52 0
55 -57 56 0
57 -55 0
57 -56 0
-58 59 -2 0
-59 58 0
-59 2 0
-50 -6 60 0
-60 50 0
6 -60 0
-61 -59 -60 0
-61 60 59 0
61 -60 59 0
61 -59 60 0
-62 -61 -57 0
-62 57 61 0
61 62 -57 0
57 -61 62 0
-61 63 -57 0
-63 61 0
57 -63 0
64 -59 -60 0
-64 59 0
-64 60 0
-65 64 63 0
65 -63 0
65 -64 0
-2 67 -66 0
-67 66 0
-67 2 0
-6 -58 68 0
-68 58 0
6 -68 0
-68 -67 -69 0
68 -69 67 0
-68 69 67 0
-67 69 68 0
-70 -65 -69 0
-70 65 69 0
-65 70 69 0
65 70 -69 0
-65 71 -69 0
-71 69 0
65 -71 0
72 -68 -67 0
-72 67 0
-72 68 0
72 -73 71 0
73 -71 0
73 -72 0
-74 75 -2 0
-75 74 0
-75 2 0
-6 76 -66 0
-76 66 0
-76 6 0
-75 -77 -76 0
-77 75 76 0
-76 77 75 0
-75 77 76 0
-77 -73 -78 0
73 77 -78 0
77 -73 78 0
73 -77 78 0
-77 -73 79 0
77 -79 0
73 -79 0
-75 -76 80 0
75 -80 0
76 -80 0
79 80 -81 0
81 -79 0
81 -80 0
83 -2 -82 0
82 -83 0
-83 2 0
-74 -6 84 0
74 -84 0
6 -84 0
-84 -83 -85 0
83 -85 84 0
83 85 -84 0
85 -83 84 0
-81 -85 -86 0
81 85 -86 0
85 -81 86 0
81 -85 86 0
-81 -85 87 0
85 -87 0
81 -87 0
-84 -83 88 0
83 -88 0
84 -88 0
-89 88 87 0
89 -87 0
89 -88 0
-90 91 -2 0
90 -91 0
-91 2 0
-6 92 -82 0
-92 82 0
-92 6 0
-92 -93 -91 0
-93 92 91 0
-92 91 93 0
93 92 -91 0
-89 -93 -94 0
93 89 -94 0
93 94 -89 0
94 89 -93 0
-89 -93 95 0
93 -95 0
89 -95 0
-92 96 -91 0
91 -96 0
92 -96 0
96 -97 95 0
97 -95 0
-96 97 0
99 -98 -2 0
98 -99 0
-99 2 0
-90 -6 100 0
-100 90 0
-100 6 0
-101 -100 -99 0
99 100 -101 0
99 -100 101 0
100 101 -99 0
-97 -102 -101 0
-102 101 97 0
-97 101 102 0
-101 97 102 0
-97 -101 103 0
101 -103 0
97 -103 0
104 -100 -99 0
99 -104 0
-104 100 0
104 103 -105 0
105 -103 0
-104 105 0
107 -106 -2 0
106 -107 0
-107 2 0
108 -6 -98 0
98 -108 0
6 -108 0
-109 -107 -108 0
108 107 -109 0
109 107 -108 0
109 108 -107 0
-109 -105 -110 0
109 -110 105 0
109 -105 110 0
110 -109 105 0
111 -109 -105 0
109 -111 0
-111 105 0
112 -107 -108 0
107 -112 0
108 -112 0
112 111 -113 0
113 -111 0
-112 113 0
-114 115 -2 0
114 -115 0
-115 2 0
-6 -106 116 0
106 -116 0
-116 6 0
-117 -116 -115 0
-117 116 115 0
-116 115 117 0
116 -115 117 0
-117 -118 -113 0
-118 113 117 0
118 117 -113 0
-117 113 118 0
-117 119 -113 0
-119 117 0
113 -119 0
-116 120 -115 0
-120 115 0
-120 116 0
-121 119 120 0
-119 121 0
-120 121 0
-122 123 -2 0
-123 122 0
-123 2 0
124 -6 -114 0
-124 114 0
-124 6 0
-124 -123 -125 0
124 123 -125 0
-124 125 123 0
124 -123 125 0
-121 -126 -125 0
-126 125 121 0
-121 125 126 0
121 126 -125 0
-121 127 -125 0
-127 125 0
-127 121 0
-124 -123 128 0
-128 123 0
124 -128 0
127 -129 128 0
-127 129 0
-128 129 0
-130 131 -2 0
130 -131 0
-131 2 0
-122 -6 132 0
-132 122 0
-132 6 0
-132 -131 -133 0
-133 131 132 0
-132 131 133 0
-131 132 133 0
-133 -129 -134 0
-134 133 129 0
134 -129 133 0
-133 134 129 0
-133 -129 135 0
-135 133 0
-135 129 0
-132 -131 136 0
131 -136 0
-136 132 0
-137 136 135 0
137 -135 0
137 -136 0
-130 -6 138 0
130 -138 0
-138 6 0
-139 -138 -137 0
137 -139 138 0
139 137 -138 0
138 139 -137 0
-138 -137 140 0
137 -140 0
138 -140 0
142 -141 -1 0
1 -142 0
141 -142 0
-143 -14 -142 0
142 14 -143 0
14 -142 143 0
142 -14 143 0
-14 144 -142 0
14 -144 0
142 -144 0
-141 145 -4 0
-145 4 0
141 -145 0
-146 -145 -22 0
-146 22 145 0
22 146 -145 0
146 145 -22 0
-146 -147 -144 0
146 -147 144 0
146 147 -144 0
-146 147 144 0
-146 148 -144 0
146 -148 0
-148 144 0
149 -145 -22 0
22 -149 0
145 -149 0
-150 148 149 0
-148 150 0
150 -149 0
-10 -141 151 0
-151 10 0
-151 141 0
-151 -30 -152 0
-152 30 151 0
-151 152 30 0
-30 152 151 0
-150 -152 -153 0
-153 150 152 0
-150 153 152 0
153 -152 150 0
-150 -152 154 0
152 -154 0
150 -154 0
-151 -30 155 0
-155 30 0
-155 151 0
-156 154 155 0
156 -154 0
-155 156 0
157 -141 -18 0
-157 18 0
-157 141 0
-157 -38 -158 0
157 -158 38 0
-157 38 158 0
157 -38 158 0
-156 -158 -159 0
156 158 -159 0
-156 159 158 0
-158 156 159 0
160 -156 -158 0
-160 158 0
156 -160 0
-157 -38 161 0
38 -161 0
157 -161 0
-162 160 161 0
162 -160 0
162 -161 0
-26 -141 163 0
26 -163 0
141 -163 0
-164 -46 -163 0
-164 46 163 0
164 46 -163 0
-46 164 163 0
-164 -165 -162 0
162 -165 164 0
-162 165 164 0
-164 165 162 0
-164 166 -162 0
-166 164 0
162 -166 0
-46 167 -163 0
-167 46 0
-167 163 0
166 -168 167 0
-166 168 0
-167 168 0
169 -141 -34 0
-169 34 0
141 -169 0
-170 -169 -54 0
54 169 -170 0
54 -169 170 0
169 170 -54 0
-170 -168 -171 0
168 -171 170 0
-168 171 170 0
-170 168 171 0
-170 -168 172 0
-172 170 0
168 -172 0
-169 173 -54 0
54 -173 0
169 -173 0
-174 173 172 0
174 -172 0
174 -173 0
-42 175 -141 0
-175 42 0
-175 141 0
-175 -62 -176 0
175 62 -176 0
-175 176 62 0
175 -62 176 0
-174 -177 -176 0
174 176 -177 0
-174 176 177 0
177 174 -176 0
-174 178 -176 0
-178 176 0
-178 174 0
-175 -62 179 0
-179 62 0
175 -179 0
-180 178 179 0
180 -178 0
180 -179 0
181 -50 -141 0
50 -181 0
141 -181 0
-70 -182 -181 0
-182 181 70 0
182 70 -181 0
-70 181 182 0
-180 -183 -182 0
-183 180 182 0
-180 183 182 0
183 180 -182 0
-180 -182 184 0
182 -184 0
180 -184 0
-70 185 -181 0
70 -185 0
181 -185 0
185 -186 184 0
186 -184 0
-185 186 0
187 -58 -141 0
-187 58 0
-187 141 0
-187 -78 -188 0
187 -188 78 0
-187 188 78 0
188 -78 187 0
-188 -186 -189 0
188 186 -189 0
188 -186 189 0
-188 186 189 0
190 -188 -186 0
188 -190 0
186 -190 0
-187 -78 191 0
-191 78 0
187 -191 0
190 191 -192 0
192 -190 0
192 -191 0
193 -141 -66 0
-193 66 0
141 -193 0
-193 -86 -194 0
193 -194 86 0
194 -193 86 0
193 194 -86 0
-192 -195 -194 0
192 194 -195 0
-192 195 194 0
192 195 -194 0
-192 196 -194 0
194 -196 0
192 -196 0
-193 197 -86 0
-197 86 0
193 -197 0
-198 197 196 0
-196 198 0
-197 198 0
-74 -141 199 0
74 -199 0
-199 141 0
-200 -199 -94 0
94 -200 199 0
94 -199 200 0
200 -94 199 0
-200 -198 -201 0
-201 200 198 0
200 201 -198 0
-200 201 198 0
-200 -198 202 0
200 -202 0
-202 198 0
203 -199 -94 0
94 -203 0
-203 199 0
203 -204 202 0
204 -202 0
204 -203 0
205 -141 -82 0
82 -205 0
141 -205 0
-102 -205 -206 0
205 -206 102 0
-205 206 102 0
205 -102 206 0
-204 -206 -207 0
204 -207 206 0
207 -204 206 0
207 204 -206 0
208 -204 -206 0
-208 206 0
204 -208 0
209 -102 -205 0
-209 102 0
-209 205 0
209 -210 208 0
-208 210 0
-209 210 0
-90 -141 211 0
-211 90 0
-211 141 0
-211 -212 -110 0
211 -212 110 0
-211 212 110 0
211 212 -110 0
-213 -210 -212 0
212 -213 210 0
212 213 -210 0
213 -212 210 0
214 -210 -212 0
212 -214 0
-214 210 0
-211 215 -110 0
-215 110 0
211 -215 0
215 -216 214 0
-214 216 0
-215 216 0
217 -141 -98 0
-217 98 0
-217 141 0
-118 -217 -218 0
217 -218 118 0
-217 118 218 0
-118 217 218 0
-216 -218 -219 0
-219 216 218 0
-216 219 218 0
219 -218 216 0
-216 -218 220 0
-220 218 0
216 -220 0
-118 -217 221 0
-221 118 0
217 -221 0
-222 221 220 0
222 -220 0
222 -221 0
-106 -141 223 0
106 -223 0
-223 141 0
-126 -224 -223 0
-224 223 126 0
224 -223 126 0
-126 223 224 0
-222 -224 -225 0
222 224 -225 0
-222 225 224 0
222 225 -224 0
-222 226 -224 0
-226 224 0
222 -226 0
-126 227 -223 0
-227 126 0
-227 223 0
226 227 -228 0
-226 228 0
-227 228 0
229 -141 -114 0
-229 114 0
-229 141 0
-229 -134 -230 0
229 134 -230 0
-229 134 230 0
229 -134 230 0
-231 -228 -230 0
-231 228 230 0
231 -228 230 0
231 228 -230 0
232 -228 -230 0
-232 230 0
228 -232 0
-229 -134 233 0
-233 134 0
229 -233 0
232 -234 233 0
234 -232 0
-233 234 0
-122 -141 235 0
-235 122 0
141 -235 0
-236 -139 -235 0
-236 139 235 0
139 -235 236 0
-139 235 236 0
-236 -234 -237 0
234 -237 236 0
-234 237 236 0
-236 234 237 0
-236 -234 238 0
-238 236 0
-238 234 0
-139 239 -235 0
139 -239 0
-239 235 0
238 -240 239 0
-238 240 0
-239 240 0
-130 -141 241 0
130 -241 0
141 -241 0
-241 -140 -242 0
241 140 -242 0
140 242 -241 0
241 -140 242 0
-240 -243 -242 0
-243 240 242 0
-240 243 242 0
240 243 -242 0
-240 244 -242 0
-244 242 0
-244 240 0
245 -241 -140 0
-245 140 0
-245 241 0
-246 245 244 0
246 -244 0
246 -245 0
248 -247 -1 0
1 -248 0
247 -248 0
-147 -249 -248 0
-249 147 248 0
249 147 -248 0
-147 248 249 0
-147 250 -248 0
147 -250 0
248 -250 0
-247 -4 251 0
-251 4 0
247 -251 0
-251 -153 -252 0
153 251 -252 0
153 -251 252 0
-153 252 251 0
-253 -250 -252 0
-253 250 252 0
253 -250 252 0
253 250 -252 0
254 -250 -252 0
-254 252 0
-254 250 0
-251 -153 255 0
153 -255 0
-255 251 0
254 255 -256 0
-254 256 0
-255 256 0
-10 257 -247 0
-257 10 0
247 -257 0
-257 -258 -159 0
-258 257 159 0
-257 258 159 0
257 258 -159 0
-258 -259 -256 0
-259 258 256 0
258 259 -256 0
-258 259 256 0
-258 260 -256 0
-260 258 0
-260 256 0
-257 261 -159 0
-261 159 0
257 -261 0
260 261 -262 0
262 -260 0
262 -261 0
263 -247 -18 0
-263 18 0
247 -263 0
-165 -264 -263 0
165 -264 263 0
264 165 -263 0
-165 263 264 0
-265 -264 -262 0
264 262 -265 0
265 264 -262 0
265 262 -264 0
-264 -262 266 0
264 -266 0
262 -266 0
-165 267 -263 0
165 -267 0
263 -267 0
267 -268 266 0
268 -266 0
268 -267 0
-26 269 -247 0
26 -269 0
247 -269 0
-270 -269 -171 0
-270 269 171 0
-269 270 171 0
270 269 -171 0
-270 -271 -268 0
270 268 -271 0
270 271 -268 0
-270 268 271 0
-270 272 -268 0
-272 270 0
-272 268 0
273 -269 -171 0
171 -273 0
269 -273 0
273 272 -274 0
-272 274 0
274 -273 0
275 -247 -34 0
-275 34 0
247 -275 0
-275 -276 -177 0
-276 275 177 0
276 -275 177 0
276 275 -177 0
-274 -276 -277 0
-277 274 276 0
-274 277 276 0
274 277 -276 0
-274 278 -276 0
-278 276 0
-278 274 0
-275 279 -177 0
-279 177 0
-279 275 0
-280 278 279 0
-278 280 0
-279 280 0
-42 281 -247 0
42 -281 0
247 -281 0
-282 -183 -281 0
183 -282 281 0
183 282 -281 0
281 -183 282 0
-282 -280 -283 0
280 -283 282 0
283 -280 282 0
283 -282 280 0
-282 284 -280 0
-284 282 0
-284 280 0
-183 285 -281 0
183 -285 0
281 -285 0
284 285 -286 0
-284 286 0
-285 286 0
-50 287 -247 0
-287 50 0
247 -287 0
-287 -189 -288 0
-288 287 189 0
288 -287 189 0
288 287 -189 0
-286 -289 -288 0
288 -289 286 0
288 289 -286 0
286 289 -288 0
-286 290 -288 0
288 -290 0
-290 286 0
-287 291 -189 0
-291 189 0
-291 287 0
291 290 -292 0
292 -290 0
292 -291 0
-58 293 -247 0
-293 58 0
247 -293 0
-293 -294 -195 0
-294 195 293 0
-293 294 195 0
294 293 -195 0
-294 -292 -295 0
294 292 -295 0
294 295 -292 0
292 -294 295 0
-294 -292 296 0
294 -296 0
292 -296 0
-293 297 -195 0
195 -297 0
293 -297 0
-298 296 297 0
298 -296 0
298 -297 0
299 -247 -66 0
-299 66 0
247 -299 0
-300 -299 -201 0
299 201 -300 0
201 -299 300 0
299 300 -201 0
-298 -300 -301 0
300 298 -301 0
-298 300 301 0
-300 301 298 0
-298 -300 302 0
-302 300 0
-302 298 0
303 -299 -201 0
201 -303 0
299 -303 0
-304 302 303 0
-302 304 0
-303 304 0
-74 305 -247 0
74 -305 0
247 -305 0
-305 -207 -306 0
207 305 -306 0
207 -305 306 0
305 -207 306 0
-307 -304 -306 0
-307 306 304 0
-304 307 306 0
307 304 -306 0
-304 308 -306 0
-308 306 0
-308 304 0
309 -305 -207 0
207 -309 0
305 -309 0
309 -310 308 0
310 -308 0
310 -309 0
311 -247 -82 0
82 -311 0
247 -311 0
-213 -312 -311 0
311 213 -312 0
213 312 -311 0
-213 311 312 0
-310 -312 -313 0
310 -313 312 0
-310 313 312 0
310 -312 313 0
-310 -312 314 0
-314 312 0
-314 310 0
-213 315 -311 0
213 -315 0
311 -315 0
-316 315 314 0
-314 316 0
-315 316 0
-90 317 -247 0
90 -317 0
247 -317 0
-219 -318 -317 0
317 219 -318 0
318 219 -317 0
317 -219 318 0
-316 -319 -318 0
318 -319 316 0
-316 318 319 0
319 -318 316 0
-316 320 -318 0
318 -320 0
-320 316 0
-219 321 -317 0
-321 219 0
317 -321 0
320 321 -322 0
322 -320 0
-321 322 0
323 -98 -247 0
98 -323 0
247 -323 0
-324 -323 -225 0
225 -324 323 0
225 324 -323 0
323 324 -225 0
-322 -325 -324 0
322 324 -325 0
324 325 -322 0
322 -324 325 0
326 -322 -324 0
324 -326 0
322 -326 0
327 -323 -225 0
225 -327 0
323 -327 0
-328 326 327 0
328 -326 0
328 -327 0
-106 -247 329 0
106 -329 0
247 -329 0
-329 -231 -330 0
231 -330 329 0
-329 231 330 0
-231 330 329 0
-330 -328 -331 0
328 -331 330 0
-328 330 331 0
328 -330 331 0
-330 -328 332 0
330 -332 0
328 -332 0
-329 -231 333 0
231 -333 0
-333 329 0
-334 332 333 0
334 -332 0
-333 334 0
335 -114 -247 0
114 -335 0
247 -335 0
-335 -336 -237 0
335 -336 237 0
336 -335 237 0
335 336 -237 0
-334 -337 -336 0
-337 336 334 0
-334 336 337 0
337 334 -336 0
-334 338 -336 0
336 -338 0
-338 334 0
-335 339 -237 0
-339 237 0
335 -339 0
339 -340 338 0
-338 340 0
-339 340 0
-122 341 -247 0
-341 122 0
247 -341 0
-342 -341 -243 0
-342 341 243 0
-341 342 243 0
341 342 -243 0
-342 -343 -340 0
-343 340 342 0
343 342 -340 0
-342 340 343 0
-342 344 -340 0
342 -344 0
340 -344 0
-341 345 -243 0
-345 243 0
341 -345 0
345 -346 344 0
346 -344 0
346 -345 0
-130 -247 347 0
130 -347 0
247 -347 0
-246 -347 -348 0
-348 246 347 0
246 -347 348 0
-246 348 347 0
-346 -349 -348 0
346 -349 348 0
349 -346 348 0
346 349 -348 0
350 -346 -348 0
-350 348 0
346 -350 0
-246 351 -347 0
246 -351 0
-351 347 0
-352 351 350 0
-350 352 0
-351 352 0
-353 354 -1 0
1 -354 0
-354 353 0
-253 -355 -354 0
253 -355 354 0
253 355 -354 0
-253 355 354 0
-253 356 -354 0
253 -356 0
354 -356 0
-353 357 -4 0
-357 4 0
353 -357 0
-259 -358 -357 0
-358 357 259 0
-357 358 259 0
-259 358 357 0
-359 -356 -358 0
-359 358 356 0
359 358 -356 0
359 356 -358 0
360 -356 -358 0
-360 358 0
-360 356 0
-259 361 -357 0
-361 259 0
357 -361 0
360 -362 361 0
-360 362 0
362 -361 0
-10 -353 363 0
-363 10 0
-363 353 0
-363 -265 -364 0
265 -364 363 0
-363 265 364 0
364 -265 363 0
-362 -364 -365 0
364 362 -365 0
364 365 -362 0
365 -364 362 0
366 -362 -364 0
364 -366 0
-366 362 0
-363 -265 367 0
265 -367 0
-367 363 0
367 366 -368 0
-366 368 0
368 -367 0
369 -353 -18 0
-369 18 0
353 -369 0
-369 -370 -271 0
-370 369 271 0
271 -369 370 0
369 -271 370 0
-368 -370 -371 0
-371 368 370 0
-368 371 370 0
368 -370 371 0
-368 372 -370 0
-372 370 0
-372 368 0
-369 373 -271 0
271 -373 0
369 -373 0
372 373 -374 0
374 -372 0
374 -373 0
375 -26 -353 0
26 -375 0
353 -375 0
-277 -376 -375 0
375 -376 277 0
376 277 -375 0
376 375 -277 0
-377 -374 -376 0
376 -377 374 0
376 -374 377 0
374 -376 377 0
378 -374 -376 0
376 -378 0
374 -378 0
-277 379 -375 0
277 -379 0
375 -379 0
-380 378 379 0
380 -378 0
380 -379 0
381 -353 -34 0
-381 34 0
-381 353 0
-382 -381 -283 0
-382 283 381 0
382 -381 283 0
382 -283 381 0
-382 -380 -383 0
382 380 -383 0
382 -380 383 0
-382 380 383 0
-382 -380 384 0
382 -384 0
380 -384 0
-381 385 -283 0
283 -385 0
381 -385 0
-386 385 384 0
386 -384 0
386 -385 0
-42 387 -353 0
-387 42 0
-387 353 0
-289 -388 -387 0
289 387 -388 0
289 -387 388 0
388 -289 387 0
-386 -388 -389 0
386 388 -389 0
-386 388 389 0
386 -388 389 0
-386 390 -388 0
388 -390 0
386 -390 0
-289 391 -387 0
-391 289 0
-391 387 0
-392 390 391 0
392 -390 0
-391 392 0
393 -50 -353 0
-393 50 0
-393 353 0
-393 -394 -295 0
393 295 -394 0
-393 394 295 0
394 393 -295 0
-392 -395 -394 0
392 -395 394 0
-392 394 395 0
392 395 -394 0
-392 396 -394 0
394 -396 0
392 -396 0
-393 397 -295 0
295 -397 0
393 -397 0
397 396 -398 0
-396 398 0
398 -397 0
-58 399 -353 0
-399 58 0
-399 353 0
-399 -400 -301 0
399 -400 301 0
-399 301 400 0
399 -301 400 0
-398 -400 -401 0
-401 398 400 0
-398 401 400 0
401 -400 398 0
402 -398 -400 0
-402 400 0
-402 398 0
-399 403 -301 0
-403 301 0
399 -403 0
402 -404 403 0
-402 404 0
404 -403 0
-353 405 -66 0
66 -405 0
353 -405 0
-307 -406 -405 0
-406 307 405 0
406 307 -405 0
-307 406 405 0
-404 -406 -407 0
404 406 -407 0
-404 406 407 0
404 -406 407 0
-404 -406 408 0
-408 406 0
404 -408 0
409 -307 -405 0
-409 307 0
-409 405 0
409 408 -410 0
-408 410 0
-409 410 0
-74 -353 411 0
74 -411 0
353 -411 0
-313 -412 -411 0
313 -412 411 0
313 -411 412 0
412 -313 411 0
-412 -413 -410 0
410 -413 412 0
413 -410 412 0
413 -412 410 0
414 -412 -410 0
-414 412 0
410 -414 0
-313 -411 415 0
-415 313 0
-415 411 0
415 -416 414 0
416 -414 0
416 -415 0
417 -353 -82 0
82 -417 0
-417 353 0
-417 -319 -418 0
-418 319 417 0
-417 319 418 0
418 -319 417 0
-419 -416 -418 0
416 418 -419 0
418 -416 419 0
416 419 -418 0
420 -416 -418 0
418 -420 0
416 -420 0
-417 -319 421 0
319 -421 0
417 -421 0
-422 420 421 0
422 -420 0
422 -421 0
-90 -353 423 0
-423 90 0
-423 353 0
-423 -325 -424 0
423 -424 325 0
424 -423 325 0
424 423 -325 0
-425 -424 -422 0
424 422 -425 0
424 425 -422 0
422 425 -424 0
426 -424 -422 0
424 -426 0
422 -426 0
-423 -325 427 0
-427 325 0
-427 423 0
426 -428 427 0
428 -426 0
428 -427 0
429 -353 -98 0
98 -429 0
353 -429 0
-331 -430 -429 0
429 -430 331 0
430 331 -429 0
430 -331 429 0
-431 -430 -428 0
430 -431 428 0
430 431 -428 0
428 -430 431 0
432 -430 -428 0
430 -432 0
428 -432 0
-331 433 -429 0
-433 331 0
-433 429 0
432 -434 433 0
434 -432 0
434 -433 0
-106 435 -353 0
106 -435 0
-435 353 0
-337 -435 -436 0
435 337 -436 0
-435 337 436 0
-337 435 436 0
-434 -437 -436 0
436 -437 434 0
436 -434 437 0
434 -436 437 0
-434 438 -436 0
436 -438 0
-438 434 0
-337 -435 439 0
-439 337 0
-439 435 0
-440 438 439 0
-438 440 0
-439 440 0
-114 441 -353 0
-441 114 0
-441 353 0
-441 -343 -442 0
-442 441 343 0
-441 442 343 0
442 -343 441 0
-440 -442 -443 0
442 440 -443 0
-440 442 443 0
443 -442 440 0
-440 444 -442 0
-444 442 0
-444 440 0
-441 -343 445 0
-445 343 0
-445 441 0
-446 444 445 0
-444 446 0
-445 446 0
-122 -353 447 0
-447 122 0
-447 353 0
-447 -448 -349 0
349 -448 447 0
-447 349 448 0
448 -349 447 0
-448 -446 -449 0
-449 448 446 0
-446 448 449 0
-448 449 446 0
450 -448 -446 0
448 -450 0
-450 446 0
-447 451 -349 0
-451 349 0
-451 447 0
450 451 -452 0
452 -450 0
-451 452 0
-130 453 -353 0
130 -453 0
-453 353 0
-352 -453 -454 0
-454 453 352 0
-453 454 352 0
-352 453 454 0
-454 -455 -452 0
-455 454 452 0
455 -452 454 0
-454 455 452 0
-454 -452 456 0
454 -456 0
-456 452 0
-352 -453 457 0
-457 352 0
-457 453 0
-458 457 456 0
458 -456 0
-457 458 0
-459 460 -1 0
1 -460 0
459 -460 0
-359 -461 -460 0
359 460 -461 0
359 461 -460 0
461 -359 460 0
462 -359 -460 0
359 -462 0
460 -462 0
-459 463 -4 0
-463 4 0
459 -463 0
-463 -464 -365 0
463 365 -464 0
365 464 -463 0
463 464 -365 0
-465 -462 -464 0
-465 464 462 0
465 464 -462 0
465 462 -464 0
466 -462 -464 0
-466 464 0
-466 462 0
-463 467 -365 0
365 -467 0
463 -467 0
466 467 -468 0
-466 468 0
468 -467 0
-459 -10 469 0
10 -469 0
459 -469 0
-470 -469 -371 0
469 -470 371 0
470 371 -469 0
469 470 -371 0
-471 -470 -468 0
-471 468 470 0
470 -468 471 0
468 -470 471 0
472 -470 -468 0
-472 470 0
-472 468 0
473 -469 -371 0
371 -473 0
469 -473 0
472 -474 473 0
-472 474 0
474 -473 0
-459 475 -18 0
-475 18 0
459 -475 0
-377 -476 -475 0
-476 377 475 0
377 -475 476 0
-377 476 475 0
-476 -474 -477 0
474 -477 476 0
477 -474 476 0
-476 474 477 0
478 -476 -474 0
-478 476 0
-478 474 0
-377 -475 479 0
377 -479 0
475 -479 0
478 -480 479 0
-478 480 0
480 -479 0
-459 -26 481 0
26 -481 0
459 -481 0
-481 -482 -383 0
-482 481 383 0
-481 383 482 0
481 482 -383 0
-483 -482 -480 0
480 -483 482 0
-480 483 482 0
480 -482 483 0
484 -482 -480 0
-484 482 0
480 -484 0
-481 485 -383 0
-485 383 0
-485 481 0
-486 485 484 0
-484 486 0
-485 486 0
-459 487 -34 0
-487 34 0
459 -487 0
-487 -389 -488 0
389 -488 487 0
488 -487 389 0
488 -389 487 0
-486 -489 -488 0
488 -489 486 0
488 -486 489 0
486 489 -488 0
-486 490 -488 0
488 -490 0
-490 486 0
-487 -389 491 0
389 -491 0
-491 487 0
-492 491 490 0
492 -490 0
492 -491 0
-42 -459 493 0
42 -493 0
459 -493 0
-395 -494 -493 0
-494 395 493 0
494 395 -493 0
-395 494 493 0
-492 -495 -494 0
492 -495 494 0
-492 494 495 0
495 492 -494 0
-492 496 -494 0
494 -496 0
492 -496 0
-395 497 -493 0
-497 395 0
-497 493 0
-498 496 497 0
-496 498 0
-497 498 0
-459 -50 499 0
50 -499 0
459 -499 0
-500 -401 -499 0
499 401 -500 0
500 401 -499 0
499 500 -401 0
-500 -501 -498 0
500 498 -501 0
500 501 -498 0
-500 498 501 0
-500 502 -498 0
500 -502 0
-502 498 0
503 -401 -499 0
401 -503 0
499 -503 0
503 -504 502 0
-502 504 0
504 -503 0
-459 -58 505 0
-505 58 0
459 -505 0
-506 -505 -407 0
505 -506 407 0
-505 506 407 0
505 506 -407 0
-506 -504 -507 0
506 504 -507 0
506 -504 507 0
-506 507 504 0
-506 -504 508 0
506 -508 0
504 -508 0
509 -505 -407 0
-509 407 0
505 -509 0
509 -510 508 0
510 -508 0
-509 510 0
-459 511 -66 0
-511 66 0
459 -511 0
-511 -413 -512 0
511 413 -512 0
-511 413 512 0
511 -413 512 0
-513 -510 -512 0
-513 510 512 0
-510 513 512 0
510 513 -512 0
-510 514 -512 0
-514 512 0
510 -514 0
515 -511 -413 0
-515 413 0
511 -515 0
515 514 -516 0
516 -514 0
516 -515 0
-459 -74 517 0
-517 74 0
459 -517 0
-517 -419 -518 0
-518 517 419 0
-517 518 419 0
518 -419 517 0
-519 -518 -516 0
516 518 -519 0
518 519 -516 0
516 -518 519 0
520 -518 -516 0
518 -520 0
516 -520 0
-517 521 -419 0
-521 419 0
-521 517 0
520 521 -522 0
522 -520 0
522 -521 0
-459 523 -82 0
82 -523 0
459 -523 0
-524 -523 -425 0
425 523 -524 0
425 -523 524 0
523 -425 524 0
-522 -524 -525 0
522 -525 524 0
525 -522 524 0
522 525 -524 0
-522 526 -524 0
524 -526 0
522 -526 0
527 -523 -425 0
425 -527 0
523 -527 0
527 526 -528 0
528 -526 0
-527 528 0
-90 -459 529 0
-529 90 0
459 -529 0
-530 -529 -431 0
-530 431 529 0
-529 431 530 0
-431 530 529 0
-530 -528 -531 0
528 530 -531 0
-528 531 530 0
-530 531 528 0
-530 -528 532 0
-532 530 0
-532 528 0
-529 -431 533 0
431 -533 0
-533 529 0
-534 533 532 0
-532 534 0
-533 534 0
-459 535 -98 0
98 -535 0
459 -535 0
-437 -536 -535 0
535 -536 437 0
536 -535 437 0
535 -437 536 0
-534 -536 -537 0
536 534 -537 0
-534 537 536 0
537 -536 534 0
538 -534 -536 0
536 -538 0
-538 534 0
539 -437 -535 0
-539 437 0
535 -539 0
539 538 -540 0
540 -538 0
-539 540 0
-459 541 -106 0
106 -541 0
459 -541 0
-541 -542 -443 0
541 443 -542 0
542 -541 443 0
542 541 -443 0
-543 -542 -540 0
542 -543 540 0
542 543 -540 0
-542 543 540 0
544 -542 -540 0
542 -544 0
540 -544 0
545 -541 -443 0
443 -545 0
541 -545 0
545 544 -546 0
546 -544 0
546 -545 0
-459 547 -114 0
114 -547 0
459 -547 0
-548 -449 -547 0
-548 547 449 0
548 -547 449 0
547 -449 548 0
-548 -549 -546 0
546 -549 548 0
549 -546 548 0
546 -548 549 0
-548 -546 550 0
-550 548 0
546 -550 0
551 -449 -547 0
-551 449 0
547 -551 0
551 -552 550 0
-550 552 0
552 -551 0
-122 -459 553 0
122 -553 0
459 -553 0
-554 -455 -553 0
455 553 -554 0
554 455 -553 0
554 -455 553 0
-555 -552 -554 0
-555 552 554 0
554 555 -552 0
552 555 -554 0
556 -552 -554 0
554 -556 0
552 -556 0
557 -455 -553 0
-557 455 0
-557 553 0
557 -558 556 0
558 -556 0
-557 558 0
-130 -459 559 0
130 -559 0
459 -559 0
-458 -559 -560 0
458 -560 559 0
560 458 -559 0
560 -458 559 0
-561 -558 -560 0
560 558 -561 0
560 -558 561 0
558 561 -560 0
562 -558 -560 0
560 -562 0
558 -562 0
-458 -559 563 0
458 -563 0
-563 559 0
-564 563 562 0
564 -562 0
564 -563 0
566 -565 -1 0
1 -566 0
565 -566 0
-567 -465 -566 0
566 465 -567 0
567 465 -566 0
566 -465 567 0
-465 568 -566 0
-568 465 0
566 -568 0
569 -565 -4 0
-569 4 0
565 -569 0
-471 -570 -569 0
569 -570 471 0
570 -569 471 0
-471 569 570 0
-568 -570 -571 0
570 568 -571 0
570 571 -568 0
571 568 -570 0
-568 -570 572 0
570 -572 0
-572 568 0
-471 -569 573 0
-573 471 0
569 -573 0
-574 572 573 0
574 -572 0
-573 574 0
-10 575 -565 0
-575 10 0
565 -575 0
-576 -575 -477 0
-576 575 477 0
-575 477 576 0
-477 575 576 0
-576 -577 -574 0
-577 574 576 0
-574 576 577 0
-576 574 577 0
-576 578 -574 0
-578 576 0
-578 574 0
-575 579 -477 0
477 -579 0
575 -579 0
-580 579 578 0
-578 580 0
580 -579 0
581 -565 -18 0
-581 18 0
565 -581 0
-483 -581 -582 0
581 483 -582 0
582 -581 483 0
-483 582 581 0
-580 -583 -582 0
582 580 -583 0
583 -580 582 0
583 580 -582 0
-580 584 -582 0
582 -584 0
580 -584 0
-483 -581 585 0
-585 483 0
-585 581 0
585 584 -586 0
586 -584 0
-585 586 0
-26 -565 587 0
26 -587 0
-587 565 0
-587 -588 -489 0
489 -588 587 0
-587 489 588 0
588 -489 587 0
-589 -588 -586 0
-589 586 588 0
589 588 -586 0
586 -588 589 0
590 -588 -586 0
588 -590 0
586 -590 0
-587 591 -489 0
-591 489 0
-591 587 0
-592 591 590 0
592 -590 0
-591 592 0
-565 593 -34 0
-593 34 0
565 -593 0
-495 -594 -593 0
-594 495 593 0
495 594 -593 0
-495 594 593 0
-592 -595 -594 0
594 -595 592 0
594 595 -592 0
592 595 -594 0
-592 -594 596 0
594 -596 0
592 -596 0
-495 597 -593 0
-597 495 0
-597 593 0
597 -598 596 0
598 -596 0
-597 598 0
-42 599 -565 0
42 -599 0
565 -599 0
-600 -501 -599 0
599 -600 501 0
600 501 -599 0
599 -501 600 0
-600 -601 -598 0
598 -601 600 0
601 -598 600 0
601 -600 598 0
602 -600 -598 0
-602 600 0
598 -602 0
603 -501 -599 0
-603 501 0
599 -603 0
602 -604 603 0
-602 604 0
-603 604 0
-50 -565 605 0
-605 50 0
565 -605 0
-606 -605 -507 0
-606 507 605 0
606 -605 507 0
606 605 -507 0
-606 -607 -604 0
-607 604 606 0
607 -604 606 0
-606 607 604 0
-606 -604 608 0
606 -608 0
604 -608 0
609 -605 -507 0
507 -609 0
605 -609 0
609 608 -610 0
610 -608 0
610 -609 0
-58 611 -565 0
-611 58 0
-611 565 0
-611 -612 -513 0
-612 611 513 0
-611 513 612 0
-513 611 612 0
-612 -613 -610 0
-613 610 612 0
613 612 -610 0
-612 613 610 0
-612 614 -610 0
612 -614 0
610 -614 0
-611 615 -513 0
-615 513 0
-615 611 0
615 614 -616 0
616 -614 0
-615 616 0
617 -565 -66 0
66 -617 0
565 -617 0
-519 -618 -617 0
617 -618 519 0
618 -617 519 0
617 618 -519 0
-619 -616 -618 0
618 616 -619 0
618 619 -616 0
619 616 -618 0
620 -616 -618 0
618 -620 0
616 -620 0
621 -519 -617 0
-621 519 0
617 -621 0
621 620 -622 0
622 -620 0
622 -621 0
623 -74 -565 0
-623 74 0
-623 565 0
-623 -525 -624 0
623 525 -624 0
-623 525 624 0
623 624 -525 0
-625 -622 -624 0
622 624 -625 0
624 -622 625 0
622 625 -624 0
626 -622 -624 0
624 -626 0
622 -626 0
-623 -525 627 0
-627 525 0
623 -627 0
626 -628 627 0
628 -626 0
-627 628 0
-565 629 -82 0
82 -629 0
565 -629 0
-630 -629 -531 0
-630 531 629 0
531 -629 630 0
629 630 -531 0
-630 -628 -631 0
628 630 -631 0
631 -628 630 0
-630 628 631 0
-630 -628 632 0
-632 630 0
628 -632 0
633 -629 -531 0
531 -633 0
-633 629 0
-634 633 632 0
-632 634 0
-633 634 0
-90 635 -565 0
-635 90 0
-635 565 0
-635 -636 -537 0
-636 635 537 0
-635 537 636 0
635 636 -537 0
-636 -634 -637 0
-637 636 634 0
-634 637 636 0
-636 637 634 0
-636 -634 638 0
636 -638 0
-638 634 0
-635 -537 639 0
537 -639 0
635 -639 0
639 -640 638 0
640 -638 0
640 -639 0
-565 641 -98 0
98 -641 0
565 -641 0
-543 -642 -641 0
-642 641 543 0
642 543 -641 0
-543 642 641 0
-642 -640 -643 0
642 640 -643 0
642 -640 643 0
-642 640 643 0
-642 -640 644 0
642 -644 0
640 -644 0
-543 645 -641 0
-645 543 0
641 -645 0
645 644 -646 0
646 -644 0
646 -645 0
-106 -565 647 0
106 -647 0
565 -647 0
-648 -647 -549 0
-648 549 647 0
549 -647 648 0
647 -549 648 0
-648 -646 -649 0
646 648 -649 0
-646 648 649 0
-648 646 649 0
650 -648 -646 0
648 -650 0
646 -650 0
-647 -549 651 0
-651 549 0
-651 647 0
650 -652 651 0
652 -650 0
-651 652 0
-114 -565 653 0
114 -653 0
565 -653 0
-555 -653 -654 0
-654 555 653 0
654 -653 555 0
-555 654 653 0
-655 -652 -654 0
654 -655 652 0
654 -652 655 0
655 -654 652 0
-652 -654 656 0
654 -656 0
-656 652 0
-555 -653 657 0
-657 555 0
-657 653 0
656 657 -658 0
658 -656 0
-657 658 0
-122 659 -565 0
-659 122 0
-659 565 0
-659 -660 -561 0
-660 659 561 0
-659 660 561 0
660 659 -561 0
-661 -660 -658 0
658 -661 660 0
661 660 -658 0
658 661 -660 0
-660 662 -658 0
-662 660 0
658 -662 0
-659 663 -561 0
-663 561 0
-663 659 0
663 662 -664 0
664 -662 0
664 -663 0
-130 665 -565 0
130 -665 0
565 -665 0
-564 -666 -665 0
564 -666 665 0
564 666 -665 0
-564 666 665 0
-666 -664 -667 0
664 666 -667 0
666 667 -664 0
664 667 -666 0
668 -666 -664 0
666 -668 0
664 -668 0
-564 669 -665 0
564 -669 0
-669 665 0
668 -670 669 0
670 -668 0
-669 670 0
672 -671 -1 0
1 -672 0
671 -672 0
-673 -672 -571 0
672 -673 571 0
571 -672 673 0
672 673 -571 0
674 -672 -571 0
-674 571 0
672 -674 0
675 -671 -4 0
-675 4 0
-675 671 0
-577 -676 -675 0
675 -676 577 0
676 -675 577 0
-577 675 676 0
-674 -676 -677 0
-677 676 674 0
-674 677 676 0
-676 677 674 0
-674 -676 678 0
-678 676 0
-678 674 0
-577 679 -675 0
577 -679 0
675 -679 0
679 678 -680 0
-678 680 0
680 -679 0
681 -10 -671 0
-681 10 0
-681 671 0
-682 -681 -583 0
583 -682 681 0
583 -681 682 0
681 682 -583 0
-682 -680 -683 0
-683 680 682 0
683 -680 682 0
-682 683 680 0
-682 684 -680 0
-684 682 0
-684 680 0
685 -681 -583 0
583 -685 0
681 -685 0
-686 684 685 0
-684 686 0
-685 686 0
687 -671 -18 0
-687 18 0
-687 671 0
-589 -688 -687 0
687 -688 589 0
-687 688 589 0
-589 688 687 0
-686 -688 -689 0
688 686 -689 0
-686 688 689 0
689 -688 686 0
-686 -688 690 0
688 -690 0
686 -690 0
-589 691 -687 0
-691 589 0
687 -691 0
-692 691 690 0
-690 692 0
-691 692 0
-26 693 -671 0
26 -693 0
-693 671 0
-693 -694 -595 0
693 -694 595 0
-693 694 595 0
693 694 -595 0
-692 -694 -695 0
-695 694 692 0
-692 695 694 0
-694 695 692 0
-692 696 -694 0
694 -696 0
-696 692 0
-693 697 -595 0
-697 595 0
693 -697 0
-698 696 697 0
-696 698 0
-697 698 0
699 -671 -34 0
-699 34 0
-699 671 0
-700 -699 -601 0
601 -700 699 0
601 700 -699 0
700 699 -601 0
-698 -700 -701 0
700 -701 698 0
-698 701 700 0
701 -700 698 0
-698 -700 702 0
-702 700 0
-702 698 0
703 -699 -601 0
601 -703 0
699 -703 0
702 -704 703 0
-702 704 0
704 -703 0
-42 -671 705 0
-705 42 0
-705 671 0
-607 -705 -706 0
607 -706 705 0
607 706 -705 0
-607 706 705 0
-707 -704 -706 0
704 706 -707 0
706 -704 707 0
704 707 -706 0
708 -704 -706 0
706 -708 0
704 -708 0
-607 709 -705 0
607 -709 0
-709 705 0
-710 708 709 0
-708 710 0
710 -709 0
711 -50 -671 0
-711 50 0
-711 671 0
-711 -712 -613 0
711 613 -712 0
712 -711 613 0
711 712 -613 0
-710 -712 -713 0
712 -713 710 0
712 -710 713 0
713 -712 710 0
714 -710 -712 0
712 -714 0
-714 710 0
715 -711 -613 0
-715 613 0
711 -715 0
715 714 -716 0
-714 716 0
-715 716 0
717 -58 -671 0
58 -717 0
671 -717 0
-619 -718 -717 0
717 619 -718 0
619 718 -717 0
-619 718 717 0
-719 -716 -718 0
-719 718 716 0
718 -716 719 0
719 -718 716 0
720 -716 -718 0
-720 718 0
-720 716 0
-619 721 -717 0
619 -721 0
717 -721 0
720 721 -722 0
-720 722 0
722 -721 0
723 -671 -66 0
66 -723 0
671 -723 0
-724 -625 -723 0
723 625 -724 0
625 724 -723 0
723 -625 724 0
-724 -725 -722 0
722 -725 724 0
725 -722 724 0
-724 722 725 0
-724 -722 726 0
-726 724 0
-726 722 0
727 -625 -723 0
625 -727 0
723 -727 0
727 -728 726 0
-726 728 0
728 -727 0
-74 -671 729 0
74 -729 0
-729 671 0
-729 -730 -631 0
631 -730 729 0
631 -729 730 0
729 730 -631 0
-728 -730 -731 0
730 728 -731 0
731 -728 730 0
731 -730 728 0
-728 -730 732 0
730 -732 0
728 -732 0
-729 733 -631 0
631 -733 0
729 -733 0
733 -734 732 0
734 -732 0
-733 734 0
735 -671 -82 0
82 -735 0
-735 671 0
-736 -637 -735 0
735 637 -736 0
736 637 -735 0
735 -637 736 0
-737 -736 -734 0
-737 736 734 0
736 -734 737 0
-736 734 737 0
738 -736 -734 0
736 -738 0
-738 734 0
-637 -735 739 0
637 -739 0
735 -739 0
738 739 -740 0
740 -738 0
740 -739 0
-90 741 -671 0
-741 90 0
-741 671 0
-741 -742 -643 0
741 -742 643 0
-741 742 643 0
741 -643 742 0
-742 -743 -740 0
740 -743 742 0
-740 743 742 0
-742 740 743 0
744 -742 -740 0
-744 742 0
740 -744 0
-741 745 -643 0
-745 643 0
741 -745 0
745 744 -746 0
-744 746 0
-745 746 0
-671 -98 747 0
98 -747 0
-747 671 0
-649 -748 -747 0
-748 747 649 0
-747 748 649 0
748 -649 747 0
-748 -746 -749 0
-749 748 746 0
-746 748 749 0
749 -748 746 0
-748 -746 750 0
-750 748 0
-750 746 0
-649 -747 751 0
-751 649 0
-751 747 0
751 -752 750 0
-750 752 0
-751 752 0
-106 753 -671 0
106 -753 0
-753 671 0
-655 -753 -754 0
655 753 -754 0
655 754 -753 0
-655 754 753 0
-755 -754 -752 0
-755 754 752 0
755 754 -752 0
755 -754 752 0
-754 756 -752 0
754 -756 0
-756 752 0
-655 -753 757 0
655 -757 0
753 -757 0
-758 757 756 0
758 -756 0
758 -757 0
759 -114 -671 0
114 -759 0
-759 671 0
-661 -759 -760 0
759 661 -760 0
661 760 -759 0
-661 759 760 0
-761 -760 -758 0
-761 758 760 0
-758 761 760 0
758 -760 761 0
-760 -758 762 0
-762 760 0
-762 758 0
-661 -759 763 0
-763 661 0
759 -763 0
763 -764 762 0
-762 764 0
-763 764 0
-122 -671 765 0
-765 122 0
-765 671 0
-765 -766 -667 0
667 -766 765 0
-765 667 766 0
766 765 -667 0
-766 -764 -767 0
764 766 -767 0
-764 766 767 0
-766 764 767 0
-766 -764 768 0
766 -768 0
764 -768 0
769 -765 -667 0
-769 667 0
-769 765 0
769 -770 768 0
770 -768 0
-769 770 0
-130 -671 771 0
130 -771 0
-771 671 0
-670 -771 -772 0
670 -772 771 0
670 -771 772 0
-670 771 772 0
-770 -772 -773 0
770 772 -773 0
773 -770 772 0
770 -772 773 0
-770 -772 774 0
-774 772 0
770 -774 0
-670 -771 775 0
670 -775 0
-775 771 0
774 775 -776 0
776 -774 0
776 -775 0
778 -777 -1 0
1 -778 0
-778 777 0
-778 -779 -677 0
677 -779 778 0
-778 677 779 0
778 779 -677 0
-778 780 -677 0
677 -780 0
-780 778 0
781 -777 -4 0
-781 4 0
777 -781 0
-781 -782 -683 0
781 683 -782 0
782 683 -781 0
782 781 -683 0
-783 -782 -780 0
782 780 -783 0
782 -780 783 0
780 -782 783 0
784 -782 -780 0
782 -784 0
780 -784 0
785 -781 -683 0
-785 683 0
781 -785 0
785 784 -786 0
786 -784 0
786 -785 0
-10 -777 787 0
10 -787 0
777 -787 0
-787 -788 -689 0
787 -788 689 0
788 689 -787 0
788 787 -689 0
-789 -788 -786 0
788 786 -789 0
788 789 -786 0
789 786 -788 0
-788 -786 790 0
788 -790 0
786 -790 0
791 -787 -689 0
-791 689 0
787 -791 0
-792 791 790 0
-790 792 0
792 -791 0
-777 793 -18 0
-793 18 0
777 -793 0
-794 -695 -793 0
-794 695 793 0
695 794 -793 0
794 793 -695 0
-792 -794 -795 0
792 -795 794 0
-792 795 794 0
-794 795 792 0
-792 -794 796 0
794 -796 0
792 -796 0
797 -695 -793 0
-797 695 0
-797 793 0
-798 797 796 0
798 -796 0
-797 798 0
-26 799 -777 0
26 -799 0
-799 777 0
-799 -701 -800 0
701 799 -800 0
701 -799 800 0
800 799 -701 0
-801 -798 -800 0
-801 798 800 0
801 800 -798 0
798 801 -800 0
802 -798 -800 0
-802 800 0
-802 798 0
-799 -701 803 0
701 -803 0
799 -803 0
802 803 -804 0
-802 804 0
804 -803 0
805 -777 -34 0
-805 34 0
777 -805 0
-707 -806 -805 0
805 707 -806 0
806 707 -805 0
806 805 -707 0
-804 -806 -807 0
806 804 -807 0
806 -804 807 0
-806 804 807 0
808 -804 -806 0
806 -808 0
804 -808 0
809 -707 -805 0
707 -809 0
805 -809 0
809 808 -810 0
810 -808 0
810 -809 0
-42 -777 811 0
-811 42 0
-811 777 0
-811 -812 -713 0
811 -812 713 0
-811 812 713 0
812 -713 811 0
-813 -810 -812 0
-813 812 810 0
813 812 -810 0
813 810 -812 0
814 -810 -812 0
812 -814 0
810 -814 0
-811 -713 815 0
-815 713 0
-815 811 0
-816 814 815 0
816 -814 0
816 -815 0
-50 817 -777 0
-817 50 0
-817 777 0
-719 -818 -817 0
817 719 -818 0
-817 719 818 0
-719 817 818 0
-818 -819 -816 0
816 818 -819 0
-816 818 819 0
816 -818 819 0
-818 820 -816 0
-820 818 0
816 -820 0
-719 821 -817 0
719 -821 0
817 -821 0
821 -822 820 0
-820 822 0
822 -821 0
-58 -777 823 0
58 -823 0
777 -823 0
-725 -824 -823 0
-824 725 823 0
824 725 -823 0
-725 824 823 0
-825 -822 -824 0
-825 824 822 0
-822 824 825 0
-824 822 825 0
-822 -824 826 0
824 -826 0
822 -826 0
-725 827 -823 0
-827 725 0
-827 823 0
-828 827 826 0
828 -826 0
-827 828 0
-777 829 -66 0
-829 66 0
777 -829 0
-830 -829 -731 0
731 -830 829 0
731 -829 830 0
830 829 -731 0
-828 -831 -830 0
828 -831 830 0
-828 831 830 0
828 -830 831 0
-828 -830 832 0
-832 830 0
828 -832 0
833 -829 -731 0
-833 731 0
-833 829 0
833 832 -834 0
-832 834 0
-833 834 0
-74 -777 835 0
74 -835 0
-835 777 0
-835 -737 -836 0
-836 835 737 0
-835 836 737 0
-737 836 835 0
-837 -836 -834 0
-837 836 834 0
836 -834 837 0
-836 837 834 0
838 -836 -834 0
836 -838 0
-838 834 0
839 -835 -737 0
-839 737 0
-839 835 0
839 -840 838 0
840 -838 0
840 -839 0
841 -777 -82 0
82 -841 0
-841 777 0
-841 -842 -743 0
-842 743 841 0
842 -841 743 0
842 -743 841 0
-840 -842 -843 0
842 840 -843 0
842 -840 843 0
840 -842 843 0
-840 -842 844 0
842 -844 0
840 -844 0
-841 845 -743 0
-845 743 0
-845 841 0
844 845 -846 0
846 -844 0
846 -845 0
-90 -777 847 0
90 -847 0
777 -847 0
-848 -847 -749 0
847 -848 749 0
848 -847 749 0
847 848 -749 0
-849 -846 -848 0
846 -849 848 0
849 848 -846 0
846 849 -848 0
-846 -848 850 0
848 -850 0
846 -850 0
851 -847 -749 0
749 -851 0
847 -851 0
-852 851 850 0
852 -850 0
852 -851 0
-777 -98 853 0
98 -853 0
777 -853 0
-755 -853 -854 0
755 -854 853 0
755 854 -853 0
-755 854 853 0
-854 -852 -855 0
-855 852 854 0
855 -852 854 0
855 -854 852 0
-854 -852 856 0
854 -856 0
852 -856 0
-755 -853 857 0
755 -857 0
-857 853 0
-858 857 856 0
858 -856 0
-857 858 0
-106 -777 859 0
106 -859 0
777 -859 0
-860 -761 -859 0
-860 859 761 0
860 -859 761 0
860 -761 859 0
-861 -860 -858 0
-861 860 858 0
860 -858 861 0
-860 858 861 0
862 -860 -858 0
860 -862 0
858 -862 0
-761 -859 863 0
-863 761 0
-863 859 0
862 -864 863 0
-862 864 0
-863 864 0
-777 -114 865 0
114 -865 0
777 -865 0
-866 -865 -767 0
-866 865 767 0
866 767 -865 0
865 866 -767 0
-867 -864 -866 0
-867 864 866 0
867 -864 866 0
867 864 -866 0
868 -864 -866 0
-868 866 0
-868 864 0
869 -865 -767 0
-869 767 0
-869 865 0
868 -870 869 0
-868 870 0
870 -869 0
-122 -777 871 0
-871 122 0
777 -871 0
-872 -871 -773 0
-872 871 773 0
-871 872 773 0
871 872 -773 0
-873 -872 -870 0
870 -873 872 0
873 872 -870 0
870 -872 873 0
-872 874 -870 0
-874 872 0
-874 870 0
875 -871 -773 0
773 -875 0
871 -875 0
875 874 -876 0
-874 876 0
876 -875 0
-130 -777 877 0
130 -877 0
-877 777 0
-877 -878 -776 0
776 -878 877 0
776 -877 878 0
877 878 -776 0
-879 -878 -876 0
-879 876 878 0
879 878 -876 0
879 876 -878 0
880 -878 -876 0
-880 878 0
-880 876 0
-877 881 -776 0
776 -881 0
-881 877 0
880 881 -882 0
882 -880 0
882 -881 0
-883 884 -1 0
1 -884 0
883 -884 0
-885 -783 -884 0
884 -885 783 0
-884 885 783 0
884 885 -783 0
886 -783 -884 0
-886 783 0
-886 884 0
-883 887 -4 0
-887 4 0
-887 883 0
-887 -789 -888 0
-888 887 789 0
-887 789 888 0
-789 887 888 0
-886 -889 -888 0
886 -889 888 0
-886 889 888 0
886 889 -888 0
-886 -888 890 0
-890 888 0
886 -890 0
-887 -789 891 0
-891 789 0
-891 887 0
-892 890 891 0
892 -890 0
-891 892 0
-883 -10 893 0
-893 10 0
-893 883 0
-893 -795 -894 0
795 893 -894 0
894 -893 795 0
894 -795 893 0
-895 -892 -894 0
894 -895 892 0
894 -892 895 0
895 892 -894 0
-892 896 -894 0
894 -896 0
892 -896 0
897 -893 -795 0
-897 795 0
-897 893 0
897 -898 896 0
898 -896 0
898 -897 0
-883 899 -18 0
-899 18 0
-899 883 0
-801 -899 -900 0
801 899 -900 0
900 -899 801 0
900 -801 899 0
-901 -898 -900 0
900 898 -901 0
900 901 -898 0
898 901 -900 0
902 -898 -900 0
900 -902 0
898 -902 0
-801 903 -899 0
-903 801 0
-903 899 0
902 903 -904 0
-902 904 0
-903 904 0
-883 -26 905 0
26 -905 0
-905 883 0
-905 -906 -807 0
905 807 -906 0
-905 906 807 0
906 905 -807 0
-906 -907 -904 0
906 904 -907 0
906 -904 907 0
-906 907 904 0
-906 908 -904 0
906 -908 0
904 -908 0
-905 909 -807 0
-909 807 0
905 -909 0
909 908 -910 0
-908 910 0
-909 910 0
-883 911 -34 0
-911 34 0
-911 883 0
-813 -911 -912 0
813 -912 911 0
813 -911 912 0
-813 912 911 0
-910 -913 -912 0
912 -913 910 0
912 913 -910 0
913 910 -912 0
914 -910 -912 0
912 -914 0
-914 910 0
-813 -911 915 0
813 -915 0
-915 911 0
915 914 -916 0
-914 916 0
-915 916 0
-42 917 -883 0
-917 42 0
-917 883 0
-917 -918 -819 0
-918 917 819 0
-917 918 819 0
918 -819 917 0
-919 -918 -916 0
916 918 -919 0
919 918 -916 0
916 -918 919 0
920 -918 -916 0
-920 918 0
916 -920 0
-917 921 -819 0
-921 819 0
-921 917 0
-922 920 921 0
-920 922 0
-921 922 0
-883 -50 923 0
-923 50 0
-923 883 0
-825 -924 -923 0
-924 923 825 0
924 -923 825 0
-825 924 923 0
-922 -925 -924 0
924 -925 922 0
924 -922 925 0
925 -924 922 0
-922 926 -924 0
924 -926 0
-926 922 0
-825 927 -923 0
-927 825 0
923 -927 0
-928 927 926 0
928 -926 0
928 -927 0
-883 -58 929 0
-929 58 0
-929 883 0
-930 -831 -929 0
-930 831 929 0
930 -929 831 0
-831 930 929 0
-930 -928 -931 0
928 930 -931 0
-928 930 931 0
928 -930 931 0
932 -930 -928 0
930 -932 0
928 -932 0
933 -831 -929 0
-933 831 0
-933 929 0
932 933 -934 0
-932 934 0
-933 934 0
-883 935 -66 0
66 -935 0
883 -935 0
-837 -936 -935 0
-936 837 935 0
936 837 -935 0
-837 936 935 0
-937 -934 -936 0
936 -937 934 0
936 937 -934 0
934 937 -936 0
938 -934 -936 0
936 -938 0
-938 934 0
-837 939 -935 0
-939 837 0
-939 935 0
939 938 -940 0
-938 940 0
-939 940 0
-883 -74 941 0
74 -941 0
-941 883 0
-941 -843 -942 0
941 843 -942 0
942 843 -941 0
941 942 -843 0
-940 -943 -942 0
942 -943 940 0
942 943 -940 0
943 940 -942 0
-940 944 -942 0
942 -944 0
940 -944 0
945 -941 -843 0
843 -945 0
941 -945 0
944 945 -946 0
946 -944 0
946 -945 0
-883 947 -82 0
82 -947 0
-947 883 0
-948 -849 -947 0
849 -948 947 0
849 948 -947 0
-849 948 947 0
-948 -949 -946 0
948 946 -949 0
949 948 -946 0
-948 949 946 0
-948 950 -946 0
-950 948 0
-950 946 0
-849 -947 951 0
849 -951 0
947 -951 0
-952 950 951 0
-950 952 0
952 -951 0
-90 953 -883 0
90 -953 0
883 -953 0
-954 -855 -953 0
-954 855 953 0
855 954 -953 0
-855 954 953 0
-954 -952 -955 0
952 954 -955 0
-952 954 955 0
-954 952 955 0
-954 -952 956 0
-956 954 0
952 -956 0
957 -855 -953 0
855 -957 0
-957 953 0
957 -958 956 0
-956 958 0
-957 958 0
-883 959 -98 0
-959 98 0
-959 883 0
-861 -959 -960 0
861 959 -960 0
-959 861 960 0
-861 959 960 0
-961 -958 -960 0
958 -961 960 0
961 -958 960 0
961 958 -960 0
-958 -960 962 0
-962 960 0
-962 958 0
-861 963 -959 0
861 -963 0
-963 959 0
963 -964 962 0
-962 964 0
-963 964 0
-883 -106 965 0
106 -965 0
-965 883 0
-867 -965 -966 0
867 -966 965 0
867 966 -965 0
966 -867 965 0
-964 -967 -966 0
966 -967 964 0
966 967 -964 0
967 -966 964 0
-964 -966 968 0
966 -968 0
-968 964 0
-867 -965 969 0
867 -969 0
-969 965 0
-970 969 968 0
-968 970 0
970 -969 0
-883 971 -114 0
114 -971 0
-971 883 0
-873 -971 -972 0
971 873 -972 0
972 -971 873 0
971 -873 972 0
-970 -973 -972 0
972 970 -973 0
-970 972 973 0
973 970 -972 0
-970 974 -972 0
972 -974 0
970 -974 0
-873 -971 975 0
-975 873 0
971 -975 0
974 -976 975 0
976 -974 0
-975 976 0
-122 977 -883 0
-977 122 0
-977 883 0
-977 -879 -978 0
879 977 -978 0
-977 879 978 0
-879 978 977 0
-979 -976 -978 0
-979 976 978 0
979 978 -976 0
979 976 -978 0
-976 980 -978 0
-980 978 0
976 -980 0
-977 -879 981 0
879 -981 0
977 -981 0
980 981 -982 0
-980 982 0
-981 982 0
-130 983 -883 0
130 -983 0
-983 883 0
-983 -882 -984 0
882 983 -984 0
882 -983 984 0
983 984 -882 0
-985 -982 -984 0
-985 982 984 0
985 984 -982 0
985 982 -984 0
986 -982 -984 0
-986 984 0
-986 982 0
-983 -882 987 0
882 -987 0
983 -987 0
986 -988 987 0
988 -986 0
988 -987 0
990 -989 -1 0
1 -990 0
-990 989 0
-991 -889 -990 0
889 -991 990 0
889 -990 991 0
990 -889 991 0
-889 992 -990 0
889 -992 0
990 -992 0
993 -989 -4 0
-993 4 0
-993 989 0
-994 -895 -993 0
-994 993 895 0
994 -993 895 0
-895 994 993 0
-994 -992 -995 0
994 992 -995 0
-992 994 995 0
-994 992 995 0
996 -994 -992 0
-996 994 0
-996 992 0
-895 -993 997 0
-997 895 0
993 -997 0
996 997 -998 0
-996 998 0
998 -997 0
-10 999 -989 0
10 -999 0
989 -999 0
-901 -1000 -999 0
901 999 -1000 0
1000 901 -999 0
1000 -901 999 0
-998 -1001 -1000 0
1000 998 -1001 0
1000 1001 -998 0
998 1001 -1000 0
-998 1002 -1000 0
1000 -1002 0
998 -1002 0
1003 -901 -999 0
-1003 901 0
-1003 999 0
1003 -1004 1002 0
-1002 1004 0
-1003 1004 0
1005 -989 -18 0
-1005 18 0
-1005 989 0
-1005 -1006 -907 0
1005 907 -1006 0
-1005 907 1006 0
1005 -907 1006 0
-1006 -1004 -1007 0
-1007 1004 1006 0
1007 -1004 1006 0
1007 -1006 1004 0
-1006 -1004 1008 0
-1008 1006 0
-1008 1004 0
-1005 1009 -907 0
907 -1009 0
1005 -1009 0
1009 -1010 1008 0
-1008 1010 0
1010 -1009 0
-26 -989 1011 0
26 -1011 0
-1011 989 0
-1011 -1012 -913 0
913 -1012 1011 0
1012 913 -1011 0
1011 1012 -913 0
-1013 -1010 -1012 0
1012 1010 -1013 0
1013 1012 -1010 0
1013 1010 -1012 0
-1010 1014 -1012 0
1012 -1014 0
-1014 1010 0
-1011 1015 -913 0
913 -1015 0
-1015 1011 0
-1016 1014 1015 0
1016 -1014 0
1016 -1015 0
1017 -989 -34 0
-1017 34 0
-1017 989 0
-919 -1017 -1018 0
1017 -1018 919 0
-1017 1018 919 0
-919 1017 1018 0
-1016 -1019 -1018 0
-1019 1016 1018 0
-1016 1019 1018 0
1019 1016 -1018 0
1020 -1016 -1018 0
1018 -1020 0
1016 -1020 0
-919 -1017 1021 0
-1021 919 0
-1021 1017 0
1020 1021 -1022 0
1022 -1020 0
1022 -1021 0
-42 1023 -989 0
-1023 42 0
-1023 989 0
-1024 -1023 -925 0
-1024 1023 925 0
-1023 1024 925 0
-925 1024 1023 0
-1024 -1025 -1022 0
1022 1024 -1025 0
1024 -1022 1025 0
-1024 1022 1025 0
-1024 1026 -1022 0
1024 -1026 0
1022 -1026 0
1027 -1023 -925 0
-1027 925 0
1023 -1027 0
1026 1027 -1028 0
1028 -1026 0
1028 -1027 0
-50 1029 -989 0
50 -1029 0
989 -1029 0
-1030 -931 -1029 0
1029 931 -1030 0
1030 931 -1029 0
1029 1030 -931 0
-1031 -1028 -1030 0
-1031 1028 1030 0
1031 -1028 1030 0
1028 1031 -1030 0
-1028 -1030 1032 0
-1032 1030 0
1028 -1032 0
1033 -931 -1029 0
-1033 931 0
-1033 1029 0
-1034 1033 1032 0
-1032 1034 0
-1033 1034 0
-58 1035 -989 0
-1035 58 0
-1035 989 0
-1036 -1035 -937 0
-1036 1035 937 0
1036 -1035 937 0
1036 1035 -937 0
-1037 -1034 -1036 0
-1037 1036 1034 0
1036 -1034 1037 0
1037 -1036 1034 0
1038 -1034 -1036 0
1036 -1038 0
-1038 1034 0
1039 -1035 -937 0
937 -1039 0
1035 -1039 0
1038 -1040 1039 0
-1038 1040 0
1040 -1039 0
1041 -989 -66 0
-1041 66 0
-1041 989 0
-1042 -1041 -943 0
-1042 943 1041 0
-1041 943 1042 0
1041 -943 1042 0
-1043 -1042 -1040 0
-1043 1042 1040 0
1043 -1040 1042 0
1043 -1042 1040 0
-1042 -1040 1044 0
-1044 1042 0
-1044 1040 0
-1041 1045 -943 0
-1045 943 0
-1045 1041 0
-1046 1045 1044 0
-1044 1046 0
-1045 1046 0
-74 1047 -989 0
74 -1047 0
989 -1047 0
-1047 -949 -1048 0
1047 949 -1048 0
1048 949 -1047 0
1048 1047 -949 0
-1048 -1046 -1049 0
1048 1046 -1049 0
1048 1049 -1046 0
1049 -1048 1046 0
-1048 -1046 1050 0
1048 -1050 0
-1050 1046 0
-1047 -949 1051 0
949 -1051 0
1047 -1051 0
-1052 1051 1050 0
-1050 1052 0
-1051 1052 0
1053 -989 -82 0
82 -1053 0
-1053 989 0
-1054 -1053 -955 0
-1054 1053 955 0
1054 -1053 955 0
1054 1053 -955 0
-1052 -1055 -1054 0
-1055 1054 1052 0
-1052 1054 1055 0
1055 1052 -1054 0
-1052 1056 -1054 0
-1056 1054 0
-1056 1052 0
1057 -1053 -955 0
-1057 955 0
1053 -1057 0
1056 -1058 1057 0
-1056 1058 0
1058 -1057 0
-90 1059 -989 0
-1059 90 0
-1059 989 0
-1059 -1060 -961 0
1059 961 -1060 0
1060 961 -1059 0
1059 1060 -961 0
-1058 -1061 -1060 0
1060 -1061 1058 0
1060 -1058 1061 0
1058 1061 -1060 0
-1058 1062 -1060 0
1060 -1062 0
-1062 1058 0
1063 -1059 -961 0
-1063 961 0
-1063 1059 0
1063 1062 -1064 0
-1062 1064 0
-1063 1064 0
1065 -989 -98 0
98 -1065 0
-1065 989 0
-967 -1066 -1065 0
1065 -1066 967 0
1066 -1065 967 0
1065 -967 1066 0
-1067 -1066 -1064 0
-1067 1066 1064 0
1066 1067 -1064 0
1064 1067 -1066 0
1068 -1066 -1064 0
1066 -1068 0
1064 -1068 0
1069 -967 -1065 0
-1069 967 0
1065 -1069 0
1069 -1070 1068 0
1070 -1068 0
-1069 1070 0
-106 -989 1071 0
106 -1071 0
989 -1071 0
-1072 -973 -1071 0
-1072 973 1071 0
1072 973 -1071 0
1072 -973 1071 0
-1073 -1070 -1072 0
-1073 1072 1070 0
1072 -1070 1073 0
-1072 1073 1070 0
-1070 -1072 1074 0
1072 -1074 0
-1074 1070 0
1075 -973 -1071 0
973 -1075 0
-1075 1071 0
1075 1074 -1076 0
1076 -1074 0
1076 -1075 0
1077 -114 -989 0
114 -1077 0
989 -1077 0
-1078 -979 -1077 0
979 1077 -1078 0
979 1078 -1077 0
1078 -979 1077 0
-1078 -1079 -1076 0
1078 -1079 1076 0
1078 -1076 1079 0
-1078 1076 1079 0
-1078 1080 -1076 0
1078 -1080 0
-1080 1076 0
-979 -1077 1081 0
979 -1081 0
1077 -1081 0
1080 -1082 1081 0
-1080 1082 0
1082 -1081 0
-122 1083 -989 0
-1083 122 0
-1083 989 0
-985 -1083 -1084 0
985 1083 -1084 0
985 1084 -1083 0
1084 -985 1083 0
-1082 -1085 -1084 0
1084 1082 -1085 0
1084 -1082 1085 0
1082 1085 -1084 0
-1082 1086 -1084 0
1084 -1086 0
-1086 1082 0
1087 -985 -1083 0
985 -1087 0
1083 -1087 0
1087 -1088 1086 0
-1086 1088 0
1088 -1087 0
-130 1089 -989 0
130 -1089 0
-1089 989 0
-1089 -1090 -988 0
988 1089 -1090 0
988 1090 -1089 0
1090 1089 -988 0
-1088 -1090 -1091 0
1090 1088 -1091 0
1090 1091 -1088 0
1088 1091 -1090 0
-1088 -1090 1092 0
1090 -1092 0
1088 -1092 0
-1089 -988 1093 0
988 -1093 0
1089 -1093 0
1093 -1094 1092 0
1094 -1092 0
1094 -1093 0
1096 -1095 -1 0
1 -1096 0
1095 -1096 0
-1097 -1096 -995 0
1096 -1097 995 0
1097 -1096 995 0
1096 1097 -995 0
1098 -1096 -995 0
-1098 995 0
1096 -1098 0
-1095 1099 -4 0
-1099 4 0
1095 -1099 0
-1099 -1100 -1001 0
1099 -1100 1001 0
-1099 1001 1100 0
1099 -1001 1100 0
-1101 -1100 -1098 0
-1101 1098 1100 0
1101 1100 -1098 0
1098 1101 -1100 0
1102 -1100 -1098 0
-1102 1100 0
1098 -1102 0
-1099 1103 -1001 0
-1103 1001 0
-1103 1099 0
1102 1103 -1104 0
-1102 1104 0
-1103 1104 0
-10 1105 -1095 0
-1105 10 0
1095 -1105 0
-1105 -1007 -1106 0
1007 1105 -1106 0
1007 -1105 1106 0
1105 1106 -1007 0
-1107 -1104 -1106 0
1106 -1107 1104 0
1106 -1104 1107 0
1104 1107 -1106 0
1108 -1104 -1106 0
1106 -1108 0
1104 -1108 0
-1105 -1007 1109 0
1007 -1109 0
-1109 1105 0
-1110 1108 1109 0
-1108 1110 0
-1109 1110 0
-1095 1111 -18 0
-1111 18 0
1095 -1111 0
-1112 -1013 -1111 0
1013 1111 -1112 0
1013 -1111 1112 0
1112 1111 -1013 0
-1113 -1110 -1112 0
1112 -1113 1110 0
1112 -1110 1113 0
-1112 1113 1110 0
-1110 -1112 1114 0
1112 -1114 0
-1114 1110 0
-1013 -1111 1115 0
1013 -1115 0
-1115 1111 0
-1116 1114 1115 0
1116 -1114 0
1116 -1115 0
-26 -1095 1117 0
26 -1117 0
1095 -1117 0
-1118 -1019 -1117 0
1019 -1118 1117 0
1019 1118 -1117 0
-1019 1118 1117 0
-1118 -1119 -1116 0
1116 -1119 1118 0
-1116 1118 1119 0
1116 -1118 1119 0
-1118 1120 -1116 0
-1120 1118 0
1116 -1120 0
-1019 -1117 1121 0
1019 -1121 0
-1121 1117 0
1120 -1122 1121 0
-1120 1122 0
1122 -1121 0
-1095 1123 -34 0
-1123 34 0
1095 -1123 0
-1124 -1025 -1123 0
1123 -1124 1025 0
-1123 1025 1124 0
1123 -1025 1124 0
-1124 -1125 -1122 0
1122 -1125 1124 0
1125 -1122 1124 0
-1124 1122 1125 0
-1124 1126 -1122 0
-1126 1124 0
-1126 1122 0
1127 -1025 -1123 0
-1127 1025 0
1123 -1127 0
1126 1127 -1128 0
-1126 1128 0
1128 -1127 0
-42 -1095 1129 0
42 -1129 0
1095 -1129 0
-1031 -1130 -1129 0
-1130 1129 1031 0
1031 1130 -1129 0
-1031 1129 1130 0
-1131 -1130 -1128 0
-1131 1128 1130 0
1131 -1128 1130 0
1128 -1130 1131 0
-1130 -1128 1132 0
-1132 1130 0
-1132 1128 0
-1031 1133 -1129 0
-1133 1031 0
1129 -1133 0
-1134 1133 1132 0
1134 -1132 0
1134 -1133 0
1135 -50 -1095 0
-1135 50 0
1095 -1135 0
-1037 -1135 -1136 0
1135 1037 -1136 0
1136 -1135 1037 0
-1037 1135 1136 0
-1134 -1137 -1136 0
1136 1134 -1137 0
1136 1137 -1134 0
1134 1137 -1136 0
1138 -1134 -1136 0
1136 -1138 0
-1138 1134 0
-1037 -1135 1139 0
-1139 1037 0
1135 -1139 0
-1140 1138 1139 0
-1138 1140 0
1140 -1139 0
-1095 -58 1141 0
-1141 58 0
1095 -1141 0
-1142 -1043 -1141 0
1043 -1142 1141 0
1043 -1141 1142 0
1142 -1043 1141 0
-1142 -1140 -1143 0
1142 1140 -1143 0
1142 -1140 1143 0
-1142 1143 1140 0
1144 -1142 -1140 0
1142 -1144 0
1140 -1144 0
1145 -1043 -1141 0
1043 -1145 0
1141 -1145 0
1144 1145 -1146 0
1146 -1144 0
1146 -1145 0
-1095 1147 -66 0
-1147 66 0
1095 -1147 0
-1147 -1148 -1049 0
1049 1147 -1148 0
1049 -1147 1148 0
1147 -1049 1148 0
-1146 -1149 -1148 0
1146 -1149 1148 0
-1146 1149 1148 0
1146 -1148 1149 0
-1146 1150 -1148 0
-1150 1148 0
1146 -1150 0
-1147 1151 -1049 0
1049 -1151 0
1147 -1151 0
1150 1151 -1152 0
-1150 1152 0
1152 -1151 0
1153 -74 -1095 0
74 -1153 0
1095 -1153 0
-1154 -1055 -1153 0
1153 -1154 1055 0
1055 1154 -1153 0
1153 -1055 1154 0
-1155 -1152 -1154 0
-1155 1152 1154 0
1155 -1152 1154 0
1155 -1154 1152 0
-1152 -1154 1156 0
-1156 1154 0
1152 -1156 0
1157 -1055 -1153 0
-1157 1055 0
1153 -1157 0
-1158 1157 1156 0
1158 -1156 0
-1157 1158 0
-1095 1159 -82 0
82 -1159 0
1095 -1159 0
-1159 -1061 -1160 0
1159 1061 -1160 0
-1159 1061 1160 0
1159 -1061 1160 0
-1158 -1161 -1160 0
1158 -1161 1160 0
-1158 1161 1160 0
1161 1158 -1160 0
-1158 1162 -1160 0
-1162 1160 0
1158 -1162 0
-1159 1163 -1061 0
1061 -1163 0
1159 -1163 0
-1164 1163 1162 0
1164 -1162 0
1164 -1163 0
-90 -1095 1165 0
90 -1165 0
1095 -1165 0
-1067 -1166 -1165 0
1165 1067 -1166 0
1067 1166 -1165 0
-1067 1165 1166 0
-1164 -1167 -1166 0
1164 -1167 1166 0
-1164 1167 1166 0
1164 -1166 1167 0
-1164 1168 -1166 0
-1168 1166 0
1164 -1168 0
-1067 1169 -1165 0
-1169 1067 0
1165 -1169 0
1168 -1170 1169 0
1170 -1168 0
-1169 1170 0
1171 -1095 -98 0
98 -1171 0
1095 -1171 0
-1073 -1171 -1172 0
1171 1073 -1172 0
1073 -1171 1172 0
-1073 1171 1172 0
-1173 -1172 -1170 0
-1173 1172 1170 0
1172 -1170 1173 0
-1172 1170 1173 0
1174 -1172 -1170 0
1172 -1174 0
1170 -1174 0
-1073 -1171 1175 0
1073 -1175 0
1171 -1175 0
-1176 1174 1175 0
1176 -1174 0
1176 -1175 0
-1095 -106 1177 0
106 -1177 0
1095 -1177 0
-1079 -1178 -1177 0
-1178 1079 1177 0
1178 1079 -1177 0
-1079 1178 1177 0
-1178 -1179 -1176 0
-1179 1176 1178 0
1179 1178 -1176 0
1179 -1178 1176 0
-1178 1180 -1176 0
-1180 1178 0
1176 -1180 0
-1079 1181 -1177 0
-1181 1079 0
-1181 1177 0
1181 1180 -1182 0
1182 -1180 0
-1181 1182 0
-1095 1183 -114 0
114 -1183 0
1095 -1183 0
-1183 -1184 -1085 0
1183 -1184 1085 0
1184 -1183 1085 0
1184 1183 -1085 0
-1185 -1184 -1182 0
1182 1184 -1185 0
1184 -1182 1185 0
1182 -1184 1185 0
1186 -1184 -1182 0
1184 -1186 0
1182 -1186 0
-1183 1187 -1085 0
1085 -1187 0
1183 -1187 0
1186 -1188 1187 0
1188 -1186 0
1188 -1187 0
-122 -1095 1189 0
122 -1189 0
1095 -1189 0
-1189 -1190 -1091 0
1189 1091 -1190 0
1190 1091 -1189 0
1189 1190 -1091 0
-1188 -1190 -1191 0
1190 -1191 1188 0
1191 1190 -1188 0
1191 1188 -1190 0
1192 -1188 -1190 0
-1192 1190 0
-1192 1188 0
-1189 1193 -1091 0
-1193 1091 0
1189 -1193 0
1192 -1194 1193 0
1194 -1192 0
1194 -1193 0
-130 -1095 1195 0
130 -1195 0
1095 -1195 0
-1196 -1195 -1094 0
1094 1195 -1196 0
1094 -1195 1196 0
1196 1195 -1094 0
-1196 -1194 -1197 0
1194 1196 -1197 0
1197 1196 -1194 0
1194 -1196 1197 0
-1196 -1194 1198 0
-1198 1196 0
1194 -1198 0
-1195 -1094 1199 0
1094 -1199 0
-1199 1195 0
-1200 1199 1198 0
-1198 1200 0
-1199 1200 0
1202 -1201 -1 0
1 -1202 0
-1202 1201 0
-1101 -1202 -1203 0
1202 1101 -1203 0
1101 -1202 1203 0
-1101 1202 1203 0
-1101 1204 -1202 0
1101 -1204 0
1202 -1204 0
-1201 -4 1205 0
-1205 4 0
-1205 1201 0
-1206 -1107 -1205 0
1205 -1206 1107 0
1206 -1205 1107 0
1206 -1107 1205 0
-1206 -1204 -1207 0
1206 1204 -1207 0
1206 -1204 1207 0
1204 -1206 1207 0
-1206 -1204 1208 0
-1208 1206 0
-1208 1204 0
1209 -1107 -1205 0
-1209 1107 0
-1209 1205 0
1209 -1210 1208 0
-1208 1210 0
1210 -1209 0
1211 -10 -1201 0
10 -1211 0
1201 -1211 0
-1212 -1113 -1211 0
1211 -1212 1113 0
1212 -1211 1113 0
1211 -1113 1212 0
-1213 -1210 -1212 0
-1213 1210 1212 0
-1210 1212 1213 0
-1212 1210 1213 0
-1210 -1212 1214 0
-1214 1212 0
-1214 1210 0
1215 -1113 -1211 0
-1215 1113 0
1211 -1215 0
-1216 1215 1214 0
-1214 1216 0
1216 -1215 0
1217 -1201 -18 0
-1217 18 0
1201 -1217 0
-1119 -1217 -1218 0
-1218 1217 1119 0
1218 -1217 1119 0
-1119 1217 1218 0
-1216 -1219 -1218 0
1216 1218 -1219 0
-1216 1219 1218 0
1216 1219 -1218 0
-1216 1220 -1218 0
-1220 1218 0
1216 -1220 0
-1119 1221 -1217 0
-1221 1119 0
-1221 1217 0
1221 -1222 1220 0
1222 -1220 0
1222 -1221 0
-26 1223 -1201 0
26 -1223 0
1201 -1223 0
-1224 -1125 -1223 0
-1224 1223 1125 0
-1223 1224 1125 0
1224 1223 -1125 0
-1222 -1225 -1224 0
-1225 1224 1222 0
1224 1225 -1222 0
1222 -1224 1225 0
-1222 1226 -1224 0
1224 -1226 0
1222 -1226 0
1227 -1125 -1223 0
-1227 1125 0
-1227 1223 0
1227 1226 -1228 0
1228 -1226 0
1228 -1227 0
-1201 1229 -34 0
-1229 34 0
-1229 1201 0
-1131 -1229 -1230 0
1131 -1230 1229 0
1131 -1229 1230 0
-1131 1230 1229 0
-1231 -1230 -1228 0
-1231 1228 1230 0
1231 1230 -1228 0
1228 -1230 1231 0
1232 -1230 -1228 0
-1232 1230 0
-1232 1228 0
-1131 -1229 1233 0
1131 -1233 0
1229 -1233 0
1232 -1234 1233 0
-1232 1234 0
1234 -1233 0
-42 1235 -1201 0
-1235 42 0
-1235 1201 0
-1236 -1235 -1137 0
1137 1235 -1236 0
1137 -1235 1236 0
1235 -1137 1236 0
-1237 -1236 -1234 0
-1237 1234 1236 0
-1234 1237 1236 0
-1236 1237 1234 0
-1236 -1234 1238 0
-1238 1236 0
-1238 1234 0
-1235 -1137 1239 0
-1239 1137 0
-1239 1235 0
1239 -1240 1238 0
1240 -1238 0
-1239 1240 0
-50 -1201 1241 0
-1241 50 0
-1241 1201 0
-1241 -1242 -1143 0
-1242 1143 1241 0
-1241 1143 1242 0
1242 -1143 1241 0
-1242 -1240 -1243 0
1240 1242 -1243 0
1242 -1240 1243 0
-1242 1240 1243 0
-1242 1244 -1240 0
1242 -1244 0
1240 -1244 0
-1241 -1143 1245 0
-1245 1143 0
-1245 1241 0
1244 -1246 1245 0
1246 -1244 0
-1245 1246 0
-58 1247 -1201 0
-1247 58 0
1201 -1247 0
-1248 -1149 -1247 0
1149 1247 -1248 0
1149 1248 -1247 0
1248 1247 -1149 0
-1249 -1246 -1248 0
1248 -1249 1246 0
1248 -1246 1249 0
1246 -1248 1249 0
1250 -1246 -1248 0
1248 -1250 0
-1250 1246 0
1251 -1149 -1247 0
1149 -1251 0
-1251 1247 0
-1252 1251 1250 0
-1250 1252 0
-1251 1252 0
-1201 1253 -66 0
-1253 66 0
-1253 1201 0
-1155 -1253 -1254 0
1155 1253 -1254 0
1155 1254 -1253 0
1254 -1155 1253 0
-1252 -1255 -1254 0
1254 1252 -1255 0
-1252 1254 1255 0
1255 1252 -1254 0
-1252 1256 -1254 0
-1256 1254 0
-1256 1252 0
1257 -1155 -1253 0
1155 -1257 0
-1257 1253 0
1257 1256 -1258 0
-1256 1258 0
-1257 1258 0
-74 1259 -1201 0
-1259 74 0
-1259 1201 0
-1260 -1259 -1161 0
1161 -1260 1259 0
1161 -1259 1260 0
1260 1259 -1161 0
-1260 -1258 -1261 0
1260 1258 -1261 0
-1258 1260 1261 0
-1260 1258 1261 0
-1260 -1258 1262 0
1260 -1262 0
1258 -1262 0
-1259 1263 -1161 0
1161 -1263 0
-1263 1259 0
-1264 1262 1263 0
1264 -1262 0
-1263 1264 0
1265 -1201 -82 0
-1265 82 0
-1265 1201 0
-1265 -1167 -1266 0
-1266 1167 1265 0
-1265 1167 1266 0
-1167 1266 1265 0
-1266 -1267 -1264 0
-1267 1264 1266 0
-1264 1267 1266 0
-1266 1267 1264 0
-1266 -1264 1268 0
-1268 1266 0
-1268 1264 0
-1265 -1167 1269 0
-1269 1167 0
-1269 1265 0
-1270 1268 1269 0
1270 -1268 0
1270 -1269 0
-90 1271 -1201 0
-1271 90 0
-1271 1201 0
-1173 -1271 -1272 0
1271 -1272 1173 0
-1271 1272 1173 0
-1173 1271 1272 0
-1270 -1273 -1272 0
1272 1270 -1273 0
1272 -1270 1273 0
1270 -1272 1273 0
-1270 -1272 1274 0
-1274 1272 0
-1274 1270 0
-1173 -1271 1275 0
-1275 1173 0
-1275 1271 0
-1276 1275 1274 0
-1274 1276 0
-1275 1276 0
1277 -1201 -98 0
98 -1277 0
-1277 1201 0
-1277 -1278 -1179 0
1179 -1278 1277 0
1179 -1277 1278 0
1278 1277 -1179 0
-1279 -1278 -1276 0
1278 1276 -1279 0
1278 -1276 1279 0
1279 1276 -1278 0
-1278 1280 -1276 0
1278 -1280 0
1276 -1280 0
-1277 1281 -1179 0
1179 -1281 0
-1281 1277 0
1280 -1282 1281 0
1282 -1280 0
-1281 1282 0
1283 -106 -1201 0
106 -1283 0
-1283 1201 0
-1283 -1185 -1284 0
1283 -1284 1185 0
-1283 1284 1185 0
1283 -1185 1284 0
-1285 -1284 -1282 0
-1285 1282 1284 0
1285 1284 -1282 0
1285 -1284 1282 0
1286 -1284 -1282 0
1284 -1286 0
1282 -1286 0
-1283 -1185 1287 0
-1287 1185 0
1283 -1287 0
1286 -1288 1287 0
-1286 1288 0
-1287 1288 0
1289 -114 -1201 0
114 -1289 0
1201 -1289 0
-1290 -1191 -1289 0
1191 1289 -1290 0
1191 1290 -1289 0
-1191 1289 1290 0
-1291 -1288 -1290 0
-1291 1288 1290 0
1291 -1288 1290 0
1291 1288 -1290 0
1292 -1288 -1290 0
-1292 1290 0
-1292 1288 0
1293 -1191 -1289 0
1191 -1293 0
-1293 1289 0
1292 -1294 1293 0
-1292 1294 0
-1293 1294 0
-122 -1201 1295 0
122 -1295 0
1201 -1295 0
-1197 -1295 -1296 0
-1296 1295 1197 0
1296 -1295 1197 0
1296 -1197 1295 0
-1297 -1294 -1296 0
-1297 1294 1296 0
-1294 1297 1296 0
1297 1294 -1296 0
1298 -1294 -1296 0
-1298 1296 0
-1298 1294 0
1299 -1197 -1295 0
-1299 1197 0
-1299 1295 0
-1300 1298 1299 0
-1298 1300 0
1300 -1299 0
-130 1301 -1201 0
130 -1301 0
1201 -1301 0
-1302 -1200 -1301 0
1301 -1302 1200 0
-1301 1302 1200 0
1301 -1200 1302 0
-1300 -1302 -1303 0
1300 -1303 1302 0
-1300 1303 1302 0
1300 -1302 1303 0
-1300 -1302 1304 0
-1304 1302 0
1300 -1304 0
1305 -1200 -1301 0
-1305 1200 0
-1305 1301 0
1305 -1306 1304 0
1306 -1304 0
-1305 1306 0
1308 -1307 -1 0
1 -1308 0
1307 -1308 0
-1309 -1308 -1207 0
-1309 1207 1308 0
1309 1207 -1308 0
1309 1308 -1207 0
-1308 1310 -1207 0
1207 -1310 0
1308 -1310 0
-1307 -4 1311 0
-1311 4 0
-1311 1307 0
-1213 -1312 -1311 0
-1312 1311 1213 0
-1311 1312 1213 0
-1213 1312 1311 0
-1312 -1313 -1310 0
1310 1312 -1313 0
1313 1312 -1310 0
-1312 1310 1313 0
-1312 1314 -1310 0
-1314 1312 0
1310 -1314 0
-1213 -1311 1315 0
-1315 1213 0
-1315 1311 0
1314 -1316 1315 0
1316 -1314 0
1316 -1315 0
1317 -10 -1307 0
-1317 10 0
-1317 1307 0
-1317 -1219 -1318 0
1317 1219 -1318 0
1219 -1317 1318 0
1317 -1219 1318 0
-1319 -1316 -1318 0
1316 1318 -1319 0
1319 -1316 1318 0
1319 1316 -1318 0
-1316 -1318 1320 0
1318 -1320 0
1316 -1320 0
1321 -1317 -1219 0
-1321 1219 0
1317 -1321 0
1321 -1322 1320 0
1322 -1320 0
-1321 1322 0
1323 -1307 -18 0
-1323 18 0
-1323 1307 0
-1225 -1324 -1323 0
1323 1225 -1324 0
1225 1324 -1323 0
-1225 1323 1324 0
-1325 -1324 -1322 0
1324 -1325 1322 0
1325 1324 -1322 0
1325 -1324 1322 0
1326 -1324 -1322 0
1324 -1326 0
1322 -1326 0
-1225 1327 -1323 0
1225 -1327 0
1323 -1327 0
1326 1327 -1328 0
1328 -1326 0
-1327 1328 0
-26 -1307 1329 0
26 -1329 0
-1329 1307 0
-1231 -1329 -1330 0
1231 -1330 1329 0
1231 1330 -1329 0
-1231 1330 1329 0
-1331 -1328 -1330 0
1330 1328 -1331 0
1330 1331 -1328 0
1331 1328 -1330 0
1332 -1328 -1330 0
1330 -1332 0
-1332 1328 0
-1231 1333 -1329 0
1231 -1333 0
-1333 1329 0
1332 1333 -1334 0
-1332 1334 0
-1333 1334 0
1335 -1307 -34 0
-1335 34 0
-1335 1307 0
-1237 -1335 -1336 0
1335 1237 -1336 0
-1335 1237 1336 0
-1237 1336 1335 0
-1337 -1336 -1334 0
-1337 1336 1334 0
1337 1336 -1334 0
1337 -1336 1334 0
1338 -1336 -1334 0
1336 -1338 0
-1338 1334 0
-1237 1339 -1335 0
-1339 1237 0
1335 -1339 0
1339 -1340 1338 0
1340 -1338 0
-1339 1340 0
-42 1341 -1307 0
-1341 42 0
-1341 1307 0
-1342 -1341 -1243 0
-1342 1341 1243 0
-1341 1342 1243 0
1342 1341 -1243 0
-1343 -1342 -1340 0
-1343 1340 1342 0
-1340 1343 1342 0
-1342 1340 1343 0
1344 -1342 -1340 0
1342 -1344 0
1340 -1344 0
1345 -1341 -1243 0
-1345 1243 0
1341 -1345 0
1344 1345 -1346 0
-1344 1346 0
1346 -1345 0
1347 -50 -1307 0
-1347 50 0
-1347 1307 0
-1347 -1249 -1348 0
1347 1249 -1348 0
1348 -1347 1249 0
1348 -1249 1347 0
-1349 -1346 -1348 0
1348 -1349 1346 0
1348 -1346 1349 0
1349 1346 -1348 0
1350 -1346 -1348 0
1348 -1350 0
-1350 1346 0
-1347 -1249 1351 0
1249 -1351 0
1347 -1351 0
1350 1351 -1352 0
1352 -1350 0
1352 -1351 0
-58 1353 -1307 0
-1353 58 0
-1353 1307 0
-1354 -1353 -1255 0
-1354 1353 1255 0
1354 -1353 1255 0
1354 1353 -1255 0
-1354 -1352 -1355 0
1352 1354 -1355 0
1355 1354 -1352 0
1352 -1354 1355 0
1356 -1354 -1352 0
1354 -1356 0
1352 -1356 0
1357 -1353 -1255 0
-1357 1255 0
1353 -1357 0
-1358 1356 1357 0
-1356 1358 0
-1357 1358 0
1359 -1307 -66 0
66 -1359 0
1307 -1359 0
-1359 -1360 -1261 0
-1360 1261 1359 0
1360 1261 -1359 0
1360 1359 -1261 0
-1358 -1361 -1360 0
1360 -1361 1358 0
1360 1361 -1358 0
1361 1358 -1360 0
-1358 1362 -1360 0
1360 -1362 0
-1362 1358 0
-1359 1363 -1261 0
-1363 1261 0
-1363 1359 0
1362 -1364 1363 0
1364 -1362 0
1364 -1363 0
-74 -1307 1365 0
74 -1365 0
-1365 1307 0
-1267 -1365 -1366 0
1267 -1366 1365 0
1366 -1365 1267 0
-1267 1366 1365 0
-1364 -1367 -1366 0
1366 -1367 1364 0
1366 -1364 1367 0
1364 1367 -1366 0
1368 -1364 -1366 0
1366 -1368 0
1364 -1368 0
-1267 -1365 1369 0
1267 -1369 0
-1369 1365 0
1368 -1370 1369 0
-1368 1370 0
1370 -1369 0
-1307 1371 -82 0
-1371 82 0
-1371 1307 0
-1371 -1273 -1372 0
-1372 1371 1273 0
-1371 1372 1273 0
-1273 1372 1371 0
-1370 -1373 -1372 0
1370 1372 -1373 0
-1370 1372 1373 0
1370 1373 -1372 0
1374 -1370 -1372 0
-1374 1372 0
1370 -1374 0
-1371 -1273 1375 0
-1375 1273 0
-1375 1371 0
1374 -1376 1375 0
1376 -1374 0
-1375 1376 0
-90 1377 -1307 0
-1377 90 0
-1377 1307 0
-1279 -1378 -1377 0
1279 1377 -1378 0
1279 -1377 1378 0
-1279 1377 1378 0
-1379 -1378 -1376 0
-1379 1376 1378 0
1379 -1376 1378 0
1376 -1378 1379 0
1380 -1378 -1376 0
-1380 1378 0
1376 -1380 0
-1279 -1377 1381 0
1279 -1381 0
1377 -1381 0
1380 -1382 1381 0
1382 -1380 0
1382 -1381 0
1383 -98 -1307 0
-1383 98 0
-1383 1307 0
-1383 -1285 -1384 0
1285 -1384 1383 0
1285 -1383 1384 0
-1285 1384 1383 0
-1384 -1385 -1382 0
1382 1384 -1385 0
1384 -1382 1385 0
-1384 1382 1385 0
-1384 -1382 1386 0
-1386 1384 0
-1386 1382 0
-1383 -1285 1387 0
1285 -1387 0
-1387 1383 0
1387 1386 -1388 0
-1386 1388 0
-1387 1388 0
-106 -1307 1389 0
106 -1389 0
-1389 1307 0
-1390 -1291 -1389 0
-1390 1291 1389 0
1390 1291 -1389 0
1390 -1291 1389 0
-1390 -1391 -1388 0
1390 -1391 1388 0
1390 1391 -1388 0
1391 -1390 1388 0
-1390 1392 -1388 0
1390 -1392 0
-1392 1388 0
1393 -1291 -1389 0
1291 -1393 0
-1393 1389 0
1393 1392 -1394 0
-1392 1394 0
1394 -1393 0
1395 -114 -1307 0
114 -1395 0
1307 -1395 0
-1396 -1395 -1297 0
-1396 1395 1297 0
1297 -1395 1396 0
1395 -1297 1396 0
-1396 -1394 -1397 0
-1397 1394 1396 0
-1394 1397 1396 0
-1396 1394 1397 0
-1396 -1394 1398 0
-1398 1396 0
1394 -1398 0
-1395 1399 -1297 0
-1399 1297 0
-1399 1395 0
-1400 1399 1398 0
1400 -1398 0
-1399 1400 0
-122 1401 -1307 0
-1401 122 0
-1401 1307 0
-1401 -1402 -1303 0
-1402 1401 1303 0
-1401 1402 1303 0
1402 1401 -1303 0
-1403 -1402 -1400 0
-1403 1400 1402 0
1403 -1400 1402 0
1403 -1402 1400 0
1404 -1402 -1400 0
-1404 1402 0
-1404 1400 0
-1401 1405 -1303 0
-1405 1303 0
-1405 1401 0
1404 1405 -1406 0
-1404 1406 0
-1405 1406 0
-130 1407 -1307 0
130 -1407 0
-1407 1307 0
-1407 -1306 -1408 0
1407 1306 -1408 0
-1407 1408 1306 0
1407 1408 -1306 0
-1409 -1406 -1408 0
-1409 1408 1406 0
1408 -1406 1409 0
1409 1406 -1408 0
1410 -1406 -1408 0
-1410 1408 0
-1410 1406 0
-1407 1411 -1306 0
-1411 1306 0
1407 -1411 0
1410 1411 -1412 0
-1410 1412 0
1412 -1411 0
-1413 1414 -1 0
1 -1414 0
1413 -1414 0
-1415 -1313 -1414 0
1313 1414 -1415 0
1313 1415 -1414 0
1414 -1313 1415 0
1416 -1313 -1414 0
1313 -1416 0
1414 -1416 0
1417 -4 -1413 0
-1417 4 0
-1417 1413 0
-1417 -1418 -1319 0
1319 1417 -1418 0
-1417 1319 1418 0
-1319 1417 1418 0
-1418 -1419 -1416 0
1416 -1419 1418 0
1419 -1416 1418 0
1416 -1418 1419 0
-1418 -1416 1420 0
-1420 1418 0
1416 -1420 0
-1417 -1319 1421 0
1319 -1421 0
-1421 1417 0
-1422 1421 1420 0
1422 -1420 0
-1421 1422 0
-10 1423 -1413 0
-1423 10 0
-1423 1413 0
-1424 -1423 -1325 0
1325 -1424 1423 0
1325 1424 -1423 0
1424 -1325 1423 0
-1425 -1424 -1422 0
-1425 1424 1422 0
1425 1424 -1422 0
1425 1422 -1424 0
-1424 -1422 1426 0
1424 -1426 0
-1426 1422 0
1427 -1423 -1325 0
1325 -1427 0
-1427 1423 0
1427 -1428 1426 0
-1426 1428 0
-1427 1428 0
-1413 1429 -18 0
-1429 18 0
-1429 1413 0
-1429 -1430 -1331 0
-1430 1331 1429 0
-1429 1331 1430 0
1430 1429 -1331 0
-1430 -1428 -1431 0
1430 1428 -1431 0
1430 1431 -1428 0
-1430 1428 1431 0
1432 -1430 -1428 0
-1432 1430 0
-1432 1428 0
-1429 1433 -1331 0
-1433 1331 0
-1433 1429 0
1433 1432 -1434 0
-1432 1434 0
-1433 1434 0
1435 -26 -1413 0
26 -1435 0
-1435 1413 0
-1436 -1337 -1435 0
1435 1337 -1436 0
1337 1436 -1435 0
1435 -1337 1436 0
-1436 -1437 -1434 0
1436 -1437 1434 0
1436 -1434 1437 0
-1436 1434 1437 0
-1436 -1434 1438 0
1436 -1438 0
-1438 1434 0
1439 -1337 -1435 0
1337 -1439 0
1435 -1439 0
1439 -1440 1438 0
-1438 1440 0
1440 -1439 0
-1413 1441 -34 0
-1441 34 0
-1441 1413 0
-1343 -1441 -1442 0
1441 1343 -1442 0
-1441 1343 1442 0
-1343 1441 1442 0
-1443 -1442 -1440 0
-1443 1440 1442 0
1443 -1440 1442 0
1440 1443 -1442 0
1444 -1442 -1440 0
-1444 1442 0
1440 -1444 0
-1343 1445 -1441 0
-1445 1343 0
-1445 1441 0
1445 1444 -1446 0
1446 -1444 0
-1445 1446 0
-42 1447 -1413 0
-1447 42 0
1413 -1447 0
-1349 -1447 -1448 0
1447 1349 -1448 0
1448 1349 -1447 0
-1349 1448 1447 0
-1446 -1449 -1448 0
1448 -1449 1446 0
1449 1448 -1446 0
1449 -1448 1446 0
-1446 1450 -1448 0
1448 -1450 0
-1450 1446 0
-1349 1451 -1447 0
1349 -1451 0
1447 -1451 0
1451 1450 -1452 0
1452 -1450 0
1452 -1451 0
-50 1453 -1413 0
-1453 50 0
-1453 1413 0
-1453 -1454 -1355 0
1355 1453 -1454 0
-1453 1355 1454 0
1453 -1355 1454 0
-1455 -1452 -1454 0
1452 -1455 1454 0
1455 -1452 1454 0
1452 1455 -1454 0
-1452 -1454 1456 0
1454 -1456 0
1452 -1456 0
1457 -1453 -1355 0
-1457 1355 0
-1457 1453 0
1457 1456 -1458 0
1458 -1456 0
-1457 1458 0
-58 1459 -1413 0
-1459 58 0
-1459 1413 0
-1459 -1460 -1361 0
1361 1459 -1460 0
1460 1361 -1459 0
1460 1459 -1361 0
-1461 -1458 -1460 0
1460 1458 -1461 0
1460 -1458 1461 0
1458 -1460 1461 0
1462 -1458 -1460 0
1460 -1462 0
1458 -1462 0
-1459 1463 -1361 0
1361 -1463 0
-1463 1459 0
1462 -1464 1463 0
-1462 1464 0
1464 -1463 0
-1413 1465 -66 0
-1465 66 0
-1465 1413 0
-1466 -1367 -1465 0
1465 1367 -1466 0
1466 1367 -1465 0
1465 1466 -1367 0
-1467 -1466 -1464 0
-1467 1466 1464 0
1467 1466 -1464 0
1467 -1466 1464 0
-1466 -1464 1468 0
1466 -1468 0
1464 -1468 0
1469 -1367 -1465 0
1367 -1469 0
1465 -1469 0
-1470 1469 1468 0
1470 -1468 0
1470 -1469 0
-74 1471 -1413 0
74 -1471 0
1413 -1471 0
-1472 -1471 -1373 0
1471 -1472 1373 0
1373 1472 -1471 0
1472 1471 -1373 0
-1470 -1473 -1472 0
1470 -1473 1472 0
-1470 1473 1472 0
1473 1470 -1472 0
-1470 1474 -1472 0
-1474 1472 0
-1474 1470 0
1475 -1471 -1373 0
-1475 1373 0
1471 -1475 0
1475 1474 -1476 0
-1474 1476 0
-1475 1476 0
-1413 1477 -82 0
-1477 82 0
-1477 1413 0
-1477 -1379 -1478 0
-1478 1477 1379 0
-1477 1478 1379 0
-1379 1478 1477 0
-1479 -1478 -1476 0
-1479 1478 1476 0
1479 -1476 1478 0
1479 -1478 1476 0
1480 -1478 -1476 0
-1480 1478 0
-1480 1476 0
-1477 -1379 1481 0
-1481 1379 0
-1481 1477 0
1481 -1482 1480 0
-1480 1482 0
1482 -1481 0
-90 1483 -1413 0
90 -1483 0
-1483 1413 0
-1483 -1484 -1385 0
-1484 1483 1385 0
1484 -1483 1385 0
1484 1483 -1385 0
-1485 -1484 -1482 0
-1485 1482 1484 0
1485 -1482 1484 0
1485 1482 -1484 0
1486 -1484 -1482 0
-1486 1484 0
1482 -1486 0
-1483 -1385 1487 0
-1487 1385 0
-1487 1483 0
-1488 1486 1487 0
-1486 1488 0
-1487 1488 0
1489 -98 -1413 0
98 -1489 0
-1489 1413 0
-1489 -1490 -1391 0
1489 1391 -1490 0
1391 -1489 1490 0
1489 1490 -1391 0
-1491 -1488 -1490 0
1488 -1491 1490 0
-1488 1490 1491 0
1488 -1490 1491 0
-1488 -1490 1492 0
-1492 1490 0
-1492 1488 0
-1489 -1391 1493 0
1391 -1493 0
1489 -1493 0
-1494 1493 1492 0
1494 -1492 0
1494 -1493 0
-106 1495 -1413 0
106 -1495 0
-1495 1413 0
-1496 -1495 -1397 0
-1496 1397 1495 0
-1495 1397 1496 0
1496 1495 -1397 0
-1494 -1496 -1497 0
-1497 1494 1496 0
-1494 1497 1496 0
1497 1494 -1496 0
-1494 -1496 1498 0
1496 -1498 0
1494 -1498 0
-1495 1499 -1397 0
-1499 1397 0
-1499 1495 0
-1500 1498 1499 0
1500 -1498 0
-1499 1500 0
1501 -114 -1413 0
114 -1501 0
-1501 1413 0
-1502 -1501 -1403 0
-1502 1501 1403 0
-1501 1403 1502 0
1501 -1403 1502 0
-1500 -1503 -1502 0
-1503 1500 1502 0
1503 -1500 1502 0
1503 -1502 1500 0
-1500 1504 -1502 0
1502 -1504 0
1500 -1504 0
-1501 -1403 1505 0
-1505 1403 0
-1505 1501 0
-1506 1504 1505 0
1506 -1504 0
-1505 1506 0
-122 1507 -1413 0
-1507 122 0
-1507 1413 0
-1508 -1409 -1507 0
-1508 1507 1409 0
-1507 1508 1409 0
-1409 1508 1507 0
-1506 -1509 -1508 0
1508 -1509 1506 0
-1506 1509 1508 0
1509 1506 -1508 0
-1506 -1508 1510 0
1508 -1510 0
1506 -1510 0
1511 -1409 -1507 0
-1511 1409 0
-1511 1507 0
1511 -1512 1510 0
1512 -1510 0
1512 -1511 0
-130 1513 -1413 0
130 -1513 0
-1513 1413 0
-1513 -1514 -1412 0
-1514 1513 1412 0
-1513 1412 1514 0
1513 1514 -1412 0
-1514 -1512 -1515 0
1512 -1515 1514 0
-1512 1515 1514 0
-1514 1515 1512 0
-1514 -1512 1516 0
-1516 1514 0
1512 -1516 0
-1513 1517 -1412 0
1412 -1517 0
1513 -1517 0
1517 -1518 1516 0
1518 -1516 0
-1517 1518 0
-1519 1520 -1 0
1 -1520 0
-1520 1519 0
-1520 -1521 -1419 0
1520 -1521 1419 0
-1520 1521 1419 0
1520 -1419 1521 0
-1520 -1419 1522 0
-1522 1419 0
-1522 1520 0
-1519 1523 -4 0
-1523 4 0
-1523 1519 0
-1425 -1523 -1524 0
1425 -1524 1523 0
1425 -1523 1524 0
-1425 1524 1523 0
-1525 -1522 -1524 0
-1525 1524 1522 0
-1522 1525 1524 0
1525 -1524 1522 0
1526 -1522 -1524 0
-1526 1524 0
-1526 1522 0
-1425 -1523 1527 0
1425 -1527 0
-1527 1523 0
1526 1527 -1528 0
-1526 1528 0
1528 -1527 0
-10 -1519 1529 0
10 -1529 0
-1529 1519 0
-1530 -1431 -1529 0
-1530 1431 1529 0
1431 1530 -1529 0
1530 1529 -1431 0
-1528 -1531 -1530 0
1528 1530 -1531 0
1531 -1528 1530 0
1531 1528 -1530 0
1532 -1528 -1530 0
1530 -1532 0
1528 -1532 0
1533 -1431 -1529 0
-1533 1431 0
-1533 1529 0
1533 -1534 1532 0
1534 -1532 0
-1533 1534 0
-1519 1535 -18 0
-1535 18 0
-1535 1519 0
-1535 -1437 -1536 0
1535 -1536 1437 0
1536 -1535 1437 0
1536 1535 -1437 0
-1534 -1536 -1537 0
1536 1534 -1537 0
1536 -1534 1537 0
1534 1537 -1536 0
1538 -1534 -1536 0
1536 -1538 0
-1538 1534 0
-1535 -1437 1539 0
-1539 1437 0
-1539 1535 0
1538 1539 -1540 0
-1538 1540 0
-1539 1540 0
1541 -26 -1519 0
26 -1541 0
-1541 1519 0
-1443 -1542 -1541 0
1541 1443 -1542 0
1542 1443 -1541 0
-1443 1541 1542 0
-1543 -1542 -1540 0
1542 1540 -1543 0
1542 1543 -1540 0
1540 -1542 1543 0
1544 -1542 -1540 0
1542 -1544 0
1540 -1544 0
-1443 -1541 1545 0
1443 -1545 0
1541 -1545 0
1544 -1546 1545 0
-1544 1546 0
1546 -1545 0
-1519 1547 -34 0
-1547 34 0
-1547 1519 0
-1548 -1547 -1449 0
1547 -1548 1449 0
1548 -1547 1449 0
1548 -1449 1547 0
-1546 -1549 -1548 0
1548 -1549 1546 0
-1546 1548 1549 0
1546 -1548 1549 0
-1546 -1548 1550 0
1548 -1550 0
-1550 1546 0
1551 -1547 -1449 0
-1551 1449 0
-1551 1547 0
-1552 1551 1550 0
-1550 1552 0
-1551 1552 0
-42 1553 -1519 0
42 -1553 0
-1553 1519 0
-1455 -1554 -1553 0
1553 1455 -1554 0
1455 1554 -1553 0
1553 -1455 1554 0
-1555 -1552 -1554 0
-1555 1552 1554 0
1555 -1552 1554 0
1555 1552 -1554 0
-1552 1556 -1554 0
-1556 1554 0
1552 -1556 0
1557 -1455 -1553 0
-1557 1455 0
1553 -1557 0
1557 1556 -1558 0
-1556 1558 0
-1557 1558 0
-50 -1519 1559 0
-1559 50 0
-1559 1519 0
-1559 -1560 -1461 0
-1560 1559 1461 0
-1559 1560 1461 0
1560 -1461 1559 0
-1561 -1560 -1558 0
1560 -1561 1558 0
1560 -1558 1561 0
-1560 1561 1558 0
-1560 -1558 1562 0
1560 -1562 0
-1562 1558 0
-1559 -1461 1563 0
-1563 1461 0
-1563 1559 0
-1564 1563 1562 0
-1562 1564 0
-1563 1564 0
-58 1565 -1519 0
-1565 58 0
-1565 1519 0
-1467 -1566 -1565 0
1467 1565 -1566 0
1467 -1565 1566 0
-1467 1565 1566 0
-1567 -1566 -1564 0
1564 1566 -1567 0
-1564 1567 1566 0
1567 -1566 1564 0
1568 -1566 -1564 0
-1568 1566 0
-1568 1564 0
-1467 1569 -1565 0
1467 -1569 0
1565 -1569 0
-1570 1569 1568 0
-1568 1570 0
1570 -1569 0
-1519 1571 -66 0
-1571 66 0
-1571 1519 0
-1571 -1572 -1473 0
1571 1473 -1572 0
-1571 1473 1572 0
1571 -1473 1572 0
-1570 -1572 -1573 0
1570 -1573 1572 0
-1570 1573 1572 0
1570 -1572 1573 0
-1570 -1572 1574 0
-1574 1572 0
1570 -1574 0
-1571 -1473 1575 0
-1575 1473 0
-1575 1571 0
-1576 1574 1575 0
1576 -1574 0
-1575 1576 0
-74 -1519 1577 0
74 -1577 0
-1577 1519 0
-1479 -1577 -1578 0
-1578 1577 1479 0
-1577 1479 1578 0
-1479 1577 1578 0
-1578 -1579 -1576 0
-1579 1576 1578 0
1579 1578 -1576 0
-1578 1579 1576 0
-1578 1580 -1576 0
-1580 1578 0
1576 -1580 0
-1479 -1577 1581 0
-1581 1479 0
-1581 1577 0
1581 1580 -1582 0
1582 -1580 0
-1581 1582 0
1583 -1519 -82 0
-1583 82 0
-1583 1519 0
-1485 -1584 -1583 0
1485 1583 -1584 0
1485 1584 -1583 0
-1485 1583 1584 0
-1584 -1585 -1582 0
1582 -1585 1584 0
1585 1584 -1582 0
1582 -1584 1585 0
-1584 1586 -1582 0
-1586 1584 0
1582 -1586 0
-1485 1587 -1583 0
1485 -1587 0
1583 -1587 0
-1588 1586 1587 0
-1586 1588 0
1588 -1587 0
-90 -1519 1589 0
-1589 90 0
-1589 1519 0
-1491 -1589 -1590 0
1589 -1590 1491 0
-1589 1590 1491 0
1589 -1491 1590 0
-1588 -1590 -1591 0
-1591 1590 1588 0
-1588 1590 1591 0
-1590 1591 1588 0
-1588 -1590 1592 0
-1592 1590 0
-1592 1588 0
1593 -1491 -1589 0
-1593 1491 0
1589 -1593 0
1593 1592 -1594 0
-1592 1594 0
-1593 1594 0
-1519 -98 1595 0
98 -1595 0
-1595 1519 0
-1497 -1595 -1596 0
1497 -1596 1595 0
1497 -1595 1596 0
-1497 1595 1596 0
-1597 -1596 -1594 0
-1597 1594 1596 0
1597 1596 -1594 0
1597 1594 -1596 0
1598 -1596 -1594 0
-1598 1596 0
-1598 1594 0
-1497 1599 -1595 0
1497 -1599 0
1595 -1599 0
1598 1599 -1600 0
1600 -1598 0
1600 -1599 0
-106 -1519 1601 0
106 -1601 0
-1601 1519 0
-1601 -1503 -1602 0
1503 -1602 1601 0
1503 -1601 1602 0
-1503 1602 1601 0
-1603 -1600 -1602 0
1600 -1603 1602 0
1603 -1600 1602 0
1600 1603 -1602 0
1604 -1600 -1602 0
-1604 1602 0
1600 -1604 0
-1601 -1503 1605 0
1503 -1605 0
-1605 1601 0
1604 -1606 1605 0
1606 -1604 0
1606 -1605 0
1607 -1519 -114 0
114 -1607 0
-1607 1519 0
-1608 -1607 -1509 0
1607 -1608 1509 0
1509 -1607 1608 0
1607 -1509 1608 0
-1609 -1608 -1606 0
1606 -1609 1608 0
1609 -1606 1608 0
1606 -1608 1609 0
-1608 1610 -1606 0
-1610 1608 0
1606 -1610 0
-1607 1611 -1509 0
1509 -1611 0
1607 -1611 0
1610 1611 -1612 0
-1610 1612 0
1612 -1611 0
-122 -1519 1613 0
122 -1613 0
-1613 1519 0
-1614 -1515 -1613 0
-1614 1515 1613 0
1614 1515 -1613 0
1614 1613 -1515 0
-1614 -1615 -1612 0
1612 1614 -1615 0
1614 1615 -1612 0
1612 -1614 1615 0
-1614 1616 -1612 0
-1616 1614 0
-1616 1612 0
1617 -1515 -1613 0
-1617 1515 0
-1617 1613 0
1617 1616 -1618 0
-1616 1618 0
-1617 1618 0
-130 -1519 1619 0
130 -1619 0
-1619 1519 0
-1620 -1518 -1619 0
-1620 1518 1619 0
1620 -1619 1518 0
-1518 1620 1619 0
-1620 -1618 -1621 0
1618 1620 -1621 0
1621 1620 -1618 0
1618 1621 -1620 0
-1620 -1618 1622 0
-1622 1620 0
-1622 1618 0
1623 -1518 -1619 0
1518 -1623 0
-1623 1619 0
1623 1622 -1624 0
-1622 1624 0
-1623 1624 0
-1625 1626 -1 0
1 -1626 0
1625 -1626 0
-1525 -1626 -1627 0
1525 -1627 1626 0
1627 1525 -1626 0
-1525 1627 1626 0
1628 -1525 -1626 0
1525 -1628 0
-1628 1626 0
1629 -4 -1625 0
-1629 4 0
1625 -1629 0
-1630 -1531 -1629 0
-1630 1629 1531 0
-1629 1630 1531 0
1629 -1531 1630 0
-1631 -1630 -1628 0
1628 -1631 1630 0
1631 1630 -1628 0
1628 1631 -1630 0
1632 -1630 -1628 0
-1632 1630 0
1628 -1632 0
1633 -1531 -1629 0
-1633 1531 0
-1633 1629 0
1633 1632 -1634 0
1634 -1632 0
-1633 1634 0
-10 1635 -1625 0
-1635 10 0
-1635 1625 0
-1635 -1636 -1537 0
-1636 1537 1635 0
-1635 1537 1636 0
1636 1635 -1537 0
-1637 -1636 -1634 0
-1637 1634 1636 0
1637 1636 -1634 0
1634 1637 -1636 0
1638 -1636 -1634 0
-1638 1636 0
1634 -1638 0
1639 -1635 -1537 0
-1639 1537 0
-1639 1635 0
1638 1639 -1640 0
1640 -1638 0
-1639 1640 0
1641 -1625 -18 0
-1641 18 0
1625 -1641 0
-1642 -1641 -1543 0
-1642 1641 1543 0
1642 1543 -1641 0
1641 1642 -1543 0
-1643 -1640 -1642 0
1640 -1643 1642 0
1643 1642 -1640 0
1640 1643 -1642 0
1644 -1640 -1642 0
1642 -1644 0
1640 -1644 0
1645 -1641 -1543 0
-1645 1543 0
1641 -1645 0
1645 1644 -1646 0
1646 -1644 0
1646 -1645 0
-26 1647 -1625 0
26 -1647 0
-1647 1625 0
-1647 -1549 -1648 0
-1648 1647 1549 0
-1647 1648 1549 0
1648 -1549 1647 0
-1648 -1649 -1646 0
1646 1648 -1649 0
1648 1649 -1646 0
-1648 1646 1649 0
-1648 1650 -1646 0
1648 -1650 0
1646 -1650 0
-1647 1651 -1549 0
-1651 1549 0
-1651 1647 0
1650 1651 -1652 0
1652 -1650 0
-1651 1652 0
-1625 1653 -34 0
-1653 34 0
-1653 1625 0
-1555 -1653 -1654 0
1555 1653 -1654 0
1555 -1653 1654 0
-1555 1654 1653 0
-1652 -1655 -1654 0
1654 1652 -1655 0
1654 -1652 1655 0
1652 1655 -1654 0
-1652 1656 -1654 0
-1656 1654 0
-1656 1652 0
-1555 -1653 1657 0
-1657 1555 0
-1657 1653 0
1656 1657 -1658 0
1658 -1656 0
-1657 1658 0
-42 1659 -1625 0
-1659 42 0
1625 -1659 0
-1561 -1659 -1660 0
1659 1561 -1660 0
-1659 1660 1561 0
1660 -1561 1659 0
-1661 -1658 -1660 0
1658 1660 -1661 0
1660 1661 -1658 0
1658 1661 -1660 0
1662 -1658 -1660 0
1660 -1662 0
1658 -1662 0
1663 -1561 -1659 0
-1663 1561 0
-1663 1659 0
1662 1663 -1664 0
1664 -1662 0
1664 -1663 0
-50 1665 -1625 0
-1665 50 0
-1665 1625 0
-1666 -1665 -1567 0
-1666 1665 1567 0
-1665 1666 1567 0
1665 -1567 1666 0
-1666 -1667 -1664 0
1664 1666 -1667 0
1666 1667 -1664 0
-1666 1667 1664 0
-1666 1668 -1664 0
1666 -1668 0
1664 -1668 0
1669 -1665 -1567 0
-1669 1567 0
1665 -1669 0
1669 -1670 1668 0
1670 -1668 0
-1669 1670 0
-58 1671 -1625 0
-1671 58 0
-1671 1625 0
-1671 -1672 -1573 0
1671 -1672 1573 0
-1671 1672 1573 0
1671 1672 -1573 0
-1670 -1673 -1672 0
1670 -1673 1672 0
-1670 1672 1673 0
1670 -1672 1673 0
-1670 1674 -1672 0
1672 -1674 0
1670 -1674 0
-1671 1675 -1573 0
-1675 1573 0
1671 -1675 0
-1676 1674 1675 0
1676 -1674 0
-1675 1676 0
1677 -1625 -66 0
66 -1677 0
1625 -1677 0
-1678 -1579 -1677 0
-1678 1579 1677 0
1579 1678 -1677 0
-1579 1678 1677 0
-1678 -1676 -1679 0
-1679 1678 1676 0
1679 -1676 1678 0
-1678 1679 1676 0
-1678 -1676 1680 0
-1680 1678 0
-1680 1676 0
-1579 1681 -1677 0
1579 -1681 0
-1681 1677 0
-1682 1681 1680 0
1682 -1680 0
-1681 1682 0
-74 1683 -1625 0
74 -1683 0
1625 -1683 0
-1585 -1684 -1683 0
-1684 1585 1683 0
1585 1684 -1683 0
-1585 1684 1683 0
-1682 -1685 -1684 0
1682 -1685 1684 0
-1682 1685 1684 0
1685 1682 -1684 0
-1682 -1684 1686 0
-1686 1684 0
1682 -1686 0
-1585 1687 -1683 0
-1687 1585 0
-1687 1683 0
-1688 1687 1686 0
1688 -1686 0
1688 -1687 0
-1625 1689 -82 0
82 -1689 0
-1689 1625 0
-1591 -1689 -1690 0
-1690 1689 1591 0
-1689 1690 1591 0
-1591 1689 1690 0
-1688 -1690 -1691 0
1688 -1691 1690 0
-1688 1691 1690 0
1688 -1690 1691 0
1692 -1688 -1690 0
-1692 1690 0
1688 -1692 0
-1591 -1689 1693 0
-1693 1591 0
1689 -1693 0
1692 -1694 1693 0
-1692 1694 0
1694 -1693 0
-90 1695 -1625 0
-1695 90 0
-1695 1625 0
-1695 -1597 -1696 0
1695 1597 -1696 0
1597 1696 -1695 0
1695 -1597 1696 0
-1694 -1696 -1697 0
-1697 1696 1694 0
1697 -1694 1696 0
1697 -1696 1694 0
-1694 1698 -1696 0
-1698 1696 0
-1698 1694 0
-1695 -1597 1699 0
1597 -1699 0
1695 -1699 0
1698 1699 -1700 0
1700 -1698 0
1700 -1699 0
1701 -98 -1625 0
98 -1701 0
1625 -1701 0
-1702 -1603 -1701 0
1701 -1702 1603 0
1603 -1701 1702 0
1701 -1603 1702 0
-1702 -1703 -1700 0
1700 -1703 1702 0
1703 1702 -1700 0
1700 -1702 1703 0
1704 -1702 -1700 0
1702 -1704 0
1700 -1704 0
-1603 1705 -1701 0
-1705 1603 0
1701 -1705 0
-1706 1704 1705 0
-1704 1706 0
-1705 1706 0
-106 1707 -1625 0
106 -1707 0
-1707 1625 0
-1609 -1707 -1708 0
1707 -1708 1609 0
-1707 1708 1609 0
-1609 1708 1707 0
-1706 -1708 -1709 0
-1709 1706 1708 0
-1706 1709 1708 0
1709 -1708 1706 0
-1706 1710 -1708 0
-1710 1708 0
-1710 1706 0
-1609 -1707 1711 0
-1711 1609 0
-1711 1707 0
1710 1711 -1712 0
1712 -1710 0
1712 -1711 0
-114 1713 -1625 0
114 -1713 0
1625 -1713 0
-1714 -1615 -1713 0
-1714 1615 1713 0
1714 1615 -1713 0
1714 1713 -1615 0
-1715 -1714 -1712 0
-1715 1712 1714 0
1715 1714 -1712 0
1715 1712 -1714 0
1716 -1714 -1712 0
1714 -1716 0
1712 -1716 0
1717 -1615 -1713 0
-1717 1615 0
-1717 1713 0
-1718 1716 1717 0
-1716 1718 0
-1717 1718 0
-122 1719 -1625 0
122 -1719 0
1625 -1719 0
-1720 -1719 -1621 0
1621 -1720 1719 0
1621 -1719 1720 0
1720 -1621 1719 0
-1718 -1720 -1721 0
1720 1718 -1721 0
-1718 1721 1720 0
1721 1718 -1720 0
-1718 -1720 1722 0
-1722 1720 0
-1722 1718 0
1723 -1719 -1621 0
1621 -1723 0
-1723 1719 0
-1724 1722 1723 0
-1722 1724 0
1724 -1723 0
-130 1725 -1625 0
130 -1725 0
-1725 1625 0
-1725 -1726 -1624 0
1725 -1726 1624 0
-1725 1624 1726 0
1725 1726 -1624 0
-1727 -1724 -1726 0
1724 -1727 1726 0
1727 -1724 1726 0
1727 1724 -1726 0
1728 -1724 -1726 0
-1728 1726 0
1724 -1728 0
-1725 1729 -1624 0
-1729 1624 0
1725 -1729 0
1729 -1730 1728 0
-1728 1730 0
-1729 1730 0
-1731 1732 -1 0
1 -1732 0
-1732 1731 0
-1732 -1631 -1733 0
1631 1732 -1733 0
1631 1733 -1732 0
-1631 1732 1733 0
-1732 -1631 1734 0
1631 -1734 0
-1734 1732 0
-1731 -4 1735 0
-1735 4 0
1731 -1735 0
-1637 -1736 -1735 0
-1736 1637 1735 0
1637 -1735 1736 0
-1637 1736 1735 0
-1734 -1736 -1737 0
-1737 1734 1736 0
-1734 1737 1736 0
-1736 1737 1734 0
-1734 -1736 1738 0
-1738 1736 0
-1738 1734 0
-1637 -1735 1739 0
1637 -1739 0
-1739 1735 0
-1740 1738 1739 0
-1738 1740 0
1740 -1739 0
-1731 -10 1741 0
10 -1741 0
1731 -1741 0
-1643 -1742 -1741 0
1741 1643 -1742 0
1643 1742 -1741 0
1741 -1643 1742 0
-1740 -1742 -1743 0
-1743 1742 1740 0
-1740 1742 1743 0
1743 -1742 1740 0
1744 -1740 -1742 0
1742 -1744 0
1740 -1744 0
1745 -1643 -1741 0
1643 -1745 0
1741 -1745 0
1745 -1746 1744 0
1746 -1744 0
1746 -1745 0
-1731 1747 -18 0
-1747 18 0
-1747 1731 0
-1747 -1649 -1748 0
1747 1649 -1748 0
-1747 1649 1748 0
1747 -1649 1748 0
-1746 -1749 -1748 0
1746 -1749 1748 0
-1746 1749 1748 0
1746 1749 -1748 0
-1746 1750 -1748 0
-1750 1748 0
1746 -1750 0
1751 -1747 -1649 0
-1751 1649 0
1747 -1751 0
1751 -1752 1750 0
-1750 1752 0
-1751 1752 0
-1731 -26 1753 0
26 -1753 0
-1753 1731 0
-1753 -1754 -1655 0
-1754 1753 1655 0
-1753 1754 1655 0
1754 1753 -1655 0
-1754 -1752 -1755 0
1754 1752 -1755 0
-1752 1754 1755 0
-1754 1752 1755 0
-1754 -1752 1756 0
-1756 1754 0
-1756 1752 0
-1753 -1655 1757 0
-1757 1655 0
-1757 1753 0
1756 -1758 1757 0
-1756 1758 0
1758 -1757 0
-1731 1759 -34 0
-1759 34 0
1731 -1759 0
-1661 -1760 -1759 0
1759 -1760 1661 0
1760 -1759 1661 0
1760 1759 -1661 0
-1758 -1760 -1761 0
1760 1758 -1761 0
1760 -1758 1761 0
1758 -1760 1761 0
-1758 -1760 1762 0
1760 -1762 0
1758 -1762 0
1763 -1661 -1759 0
-1763 1661 0
1759 -1763 0
1763 -1764 1762 0
1764 -1762 0
-1763 1764 0
-42 -1731 1765 0
-1765 42 0
-1765 1731 0
-1765 -1667 -1766 0
1667 1765 -1766 0
1667 1766 -1765 0
1765 -1667 1766 0
-1764 -1766 -1767 0
-1767 1766 1764 0
-1764 1766 1767 0
-1766 1767 1764 0
1768 -1764 -1766 0
1766 -1768 0
-1768 1764 0
1769 -1765 -1667 0
1667 -1769 0
1765 -1769 0
1769 1768 -1770 0
1770 -1768 0
1770 -1769 0
-1731 -50 1771 0
50 -1771 0
1731 -1771 0
-1772 -1673 -1771 0
-1772 1771 1673 0
1772 1673 -1771 0
-1673 1772 1771 0
-1772 -1773 -1770 0
-1773 1770 1772 0
1773 1772 -1770 0
-1772 1773 1770 0
-1772 1774 -1770 0
-1774 1772 0
1770 -1774 0
-1673 1775 -1771 0
-1775 1673 0
1771 -1775 0
1774 -1776 1775 0
1776 -1774 0
1776 -1775 0
-1731 1777 -58 0
-1777 58 0
1731 -1777 0
-1778 -1679 -1777 0
1679 1777 -1778 0
1679 -1777 1778 0
1777 -1679 1778 0
-1778 -1776 -1779 0
-1779 1776 1778 0
1779 -1776 1778 0
-1778 1779 1776 0
-1778 -1776 1780 0
-1780 1778 0
1776 -1780 0
1781 -1679 -1777 0
1679 -1781 0
-1781 1777 0
1781 1780 -1782 0
1782 -1780 0
-1781 1782 0
-1731 1783 -66 0
-1783 66 0
1731 -1783 0
-1783 -1685 -1784 0
1685 1783 -1784 0
1685 -1783 1784 0
1784 1783 -1685 0
-1785 -1784 -1782 0
1784 1782 -1785 0
1784 1785 -1782 0
1782 1785 -1784 0
1786 -1784 -1782 0
1784 -1786 0
1782 -1786 0
-1783 -1685 1787 0
1685 -1787 0
1783 -1787 0
-1788 1786 1787 0
1788 -1786 0
-1787 1788 0
-1731 -74 1789 0
74 -1789 0
1731 -1789 0
-1789 -1790 -1691 0
1789 -1790 1691 0
1790 -1789 1691 0
1790 1789 -1691 0
-1791 -1790 -1788 0
1790 -1791 1788 0
1790 -1788 1791 0
-1790 1788 1791 0
1792 -1790 -1788 0
1790 -1792 0
1788 -1792 0
1793 -1789 -1691 0
-1793 1691 0
1789 -1793 0
1792 -1794 1793 0
1794 -1792 0
-1793 1794 0
-1731 1795 -82 0
82 -1795 0
-1795 1731 0
-1795 -1796 -1697 0
1795 1697 -1796 0
1697 -1795 1796 0
1796 1795 -1697 0
-1796 -1794 -1797 0
-1797 1794 1796 0
1797 -1794 1796 0
1797 1794 -1796 0
1798 -1796 -1794 0
-1798 1796 0
-1798 1794 0
-1795 1799 -1697 0
-1799 1697 0
-1799 1795 0
-1800 1799 1798 0
-1798 1800 0
-1799 1800 0
-90 -1731 1801 0
90 -1801 0
1731 -1801 0
-1703 -1802 -1801 0
1801 -1802 1703 0
1802 1703 -1801 0
1802 1801 -1703 0
-1800 -1803 -1802 0
1802 -1803 1800 0
1802 1803 -1800 0
1800 1803 -1802 0
-1800 1804 -1802 0
1802 -1804 0
-1804 1800 0
1805 -1703 -1801 0
-1805 1703 0
-1805 1801 0
-1806 1804 1805 0
-1804 1806 0
-1805 1806 0
-1731 1807 -98 0
-1807 98 0
-1807 1731 0
-1807 -1808 -1709 0
1807 -1808 1709 0
-1807 1808 1709 0
1807 1808 -1709 0
-1806 -1809 -1808 0
-1809 1808 1806 0
-1806 1809 1808 0
1809 -1808 1806 0
-1806 -1808 1810 0
-1810 1808 0
-1810 1806 0
-1807 1811 -1709 0
-1811 1709 0
1807 -1811 0
1811 -1812 1810 0
-1810 1812 0
-1811 1812 0
-1731 -106 1813 0
106 -1813 0
-1813 1731 0
-1715 -1814 -1813 0
1715 -1814 1813 0
1715 -1813 1814 0
-1715 1813 1814 0
-1814 -1812 -1815 0
-1815 1812 1814 0
1815 -1812 1814 0
-1814 1812 1815 0
-1814 -1812 1816 0
-1816 1814 0
-1816 1812 0
-1715 -1813 1817 0
1715 -1817 0
1813 -1817 0
1816 -1818 1817 0
-1816 1818 0
1818 -1817 0
-1731 1819 -114 0
114 -1819 0
1731 -1819 0
-1820 -1721 -1819 0
1721 1819 -1820 0
1721 1820 -1819 0
1819 1820 -1721 0
-1821 -1820 -1818 0
-1821 1820 1818 0
1821 1820 -1818 0
1821 -1820 1818 0
1822 -1820 -1818 0
-1822 1820 0
-1822 1818 0
1823 -1721 -1819 0
1721 -1823 0
-1823 1819 0
-1824 1822 1823 0
-1822 1824 0
-1823 1824 0
-122 -1731 1825 0
-1825 122 0
-1825 1731 0
-1825 -1826 -1727 0
-1826 1727 1825 0
-1825 1727 1826 0
-1727 1826 1825 0
-1826 -1824 -1827 0
-1827 1826 1824 0
-1824 1827 1826 0
-1826 1827 1824 0
-1826 -1824 1828 0
1826 -1828 0
-1828 1824 0
-1825 -1727 1829 0
1727 -1829 0
-1829 1825 0
1829 1828 -1830 0
1830 -1828 0
-1829 1830 0
-130 1831 -1731 0
130 -1831 0
-1831 1731 0
-1831 -1730 -1832 0
1831 -1832 1730 0
-1831 1832 1730 0
1831 1832 -1730 0
-1833 -1832 -1830 0
-1833 1832 1830 0
1833 1832 -1830 0
1833 1830 -1832 0
1834 -1832 -1830 0
1832 -1834 0
-1834 1830 0
-1831 1835 -1730 0
-1835 1730 0
1831 -1835 0
1834 1835 -1836 0
-1834 1836 0
-1835 1836 0
3 0
-8 0
143 0
-249 0
-355 0
-461 0
567 0
-673 0
779 0
-885 0
-991 0
1097 0
-1203 0
-1309 0
-1415 0
1521 0
-1627 0
1733 0
-1737 0
-1743 0
-1749 0
-1755 0
-1761 0
-1767 0
-1773 0
-1779 0
-1785 0
-1791 0
-1797 0
-1803 0
-1809 0
-1815 0
-1821 0
-1827 0
-1833 0
-1836 0
