p cnf 2052 6745
-1 -2 3 0
1 -3 0
2 -3 0
-4 -2 5 0
4 -5 0
2 -5 0
-1 -6 7 0
1 -7 0
6 -7 0
-5 -7 -8 0
5 7 -8 0
5 -7 8 0
-5 7 8 0
-5 -7 9 0
5 -9 0
7 -9 0
-10 -2 11 0
10 -11 0
2 -11 0
-4 -6 12 0
4 -12 0
6 -12 0
-11 -12 -13 0
11 12 -13 0
11 -12 13 0
-11 12 13 0
-13 -9 -14 0
13 9 -14 0
13 -9 14 0
-13 9 14 0
-13 -9 15 0
13 -15 0
9 -15 0
-11 -12 16 0
11 -16 0
12 -16 0
15 16 -17 0
-15 17 0
-16 17 0
-18 -2 19 0
18 -19 0
2 -19 0
-10 -6 20 0
10 -20 0
6 -20 0
-19 -20 -21 0
19 20 -21 0
19 -20 21 0
-19 20 21 0
-21 -17 -22 0
21 17 -22 0
21 -17 22 0
-21 17 22 0
-21 -17 23 0
21 -23 0
17 -23 0
-19 -20 24 0
19 -24 0
20 -24 0
23 24 -25 0
-23 25 0
-24 25 0
-26 -2 27 0
26 -27 0
2 -27 0
-18 -6 28 0
18 -28 0
6 -28 0
-27 -28 -29 0
27 28 -29 0
27 -28 29 0
-27 28 29 0
-29 -25 -30 0
29 25 -30 0
29 -25 30 0
-29 25 30 0
-29 -25 31 0
29 -31 0
25 -31 0
-27 -28 32 0
27 -32 0
28 -32 0
31 32 -33 0
-31 33 0
-32 33 0
-34 -2 35 0
34 -35 0
2 -35 0
-26 -6 36 0
26 -36 0
6 -36 0
-35 -36 -37 0
35 36 -37 0
35 -36 37 0
-35 36 37 0
-37 -33 -38 0
37 33 -38 0
37 -33 38 0
-37 33 38 0
-37 -33 39 0
37 -39 0
33 -39 0
-35 -36 40 0
35 -40 0
36 -40 0
39 40 -41 0
-39 41 0
-40 41 0
-42 -2 43 0
42 -43 0
2 -43 0
-34 -6 44 0
34 -44 0
6 -44 0
-43 -44 -45 0
43 44 -45 0
43 -44 45 0
-43 44 45 0
-45 -41 -46 0
45 41 -46 0
45 -41 46 0
-45 41 46 0
-45 -41 47 0
45 -47 0
41 -47 0
-43 -44 48 0
43 -48 0
44 -48 0
47 48 -49 0
-47 49 0
-48 49 0
-50 -2 51 0
50 -51 0
2 -51 0
-42 -6 52 0
42 -52 0
6 -52 0
-51 -52 -53 0
51 52 -53 0
51 -52 53 0
-51 52 53 0
-53 -49 -54 0
53 49 -54 0
53 -49 54 0
-53 49 54 0
-53 -49 55 0
53 -55 0
49 -55 0
-51 -52 56 0
51 -56 0
52 -56 0
55 56 -57 0
-55 57 0
-56 57 0
-58 -2 59 0
58 -59 0
2 -59 0
-50 -6 60 0
50 -60 0
6 -60 0
-59 -60 -61 0
59 60 -61 0
59 -60 61 0
-59 60 61 0
-61 -57 -62 0
61 57 -62 0
61 -57 62 0
-61 57 62 0
-61 -57 63 0
61 -63 0
57 -63 0
-59 -60 64 0
59 -64 0
60 -64 0
63 64 -65 0
-63 65 0
-64 65 0
-66 -2 67 0
66 -67 0
2 -67 0
-58 -6 68 0
58 -68 0
6 -68 0
-67 -68 -69 0
67 68 -69 0
67 -68 69 0
-67 68 69 0
-69 -65 -70 0
69 65 -70 0
69 -65 70 0
-69 65 70 0
-69 -65 71 0
69 -71 0
65 -71 0
-67 -68 72 0
67 -72 0
68 -72 0
71 72 -73 0
-71 73 0
-72 73 0
-74 -2 75 0
74 -75 0
2 -75 0
-66 -6 76 0
66 -76 0
6 -76 0
-75 -76 -77 0
75 76 -77 0
75 -76 77 0
-75 76 77 0
-77 -73 -78 0
77 73 -78 0
77 -73 78 0
-77 73 78 0
-77 -73 79 0
77 -79 0
73 -79 0
-75 -76 80 0
75 -80 0
76 -80 0
79 80 -81 0
-79 81 0
-80 81 0
-82 -2 83 0
82 -83 0
2 -83 0
-74 -6 84 0
74 -84 0
6 -84 0
-83 -84 -85 0
83 84 -85 0
83 -84 85 0
-83 84 85 0
-85 -81 -86 0
85 81 -86 0
85 -81 86 0
-85 81 86 0
-85 -81 87 0
85 -87 0
81 -87 0
-83 -84 88 0
83 -88 0
84 -88 0
87 88 -89 0
-87 89 0
-88 89 0
-90 -2 91 0
90 -91 0
2 -91 0
-82 -6 92 0
82 -92 0
6 -92 0
-91 -92 -93 0
91 92 -93 0
91 -92 93 0
-91 92 93 0
-93 -89 -94 0
93 89 -94 0
93 -89 94 0
-93 89 94 0
-93 -89 95 0
93 -95 0
89 -95 0
-91 -92 96 0
91 -96 0
92 -96 0
95 96 -97 0
-95 97 0
-96 97 0
-98 -2 99 0
98 -99 0
2 -99 0
-90 -6 100 0
90 -100 0
6 -100 0
-99 -100 -101 0
99 100 -101 0
99 -100 101 0
-99 100 101 0
-101 -97 -102 0
101 97 -102 0
101 -97 102 0
-101 97 102 0
-101 -97 103 0
101 -103 0
97 -103 0
-99 -100 104 0
99 -104 0
100 -104 0
103 104 -105 0
-103 105 0
-104 105 0
-106 -2 107 0
106 -107 0
2 -107 0
-98 -6 108 0
98 -108 0
6 -108 0
-107 -108 -109 0
107 108 -109 0
107 -108 109 0
-107 108 109 0
-109 -105 -110 0
109 105 -110 0
109 -105 110 0
-109 105 110 0
-109 -105 111 0
109 -111 0
105 -111 0
-107 -108 112 0
107 -112 0
108 -112 0
111 112 -113 0
-111 113 0
-112 113 0
-114 -2 115 0
114 -115 0
2 -115 0
-106 -6 116 0
106 -116 0
6 -116 0
-115 -116 -117 0
115 116 -117 0
115 -116 117 0
-115 116 117 0
-117 -113 -118 0
117 113 -118 0
117 -113 118 0
-117 113 118 0
-117 -113 119 0
117 -119 0
113 -119 0
-115 -116 120 0
115 -120 0
116 -120 0
119 120 -121 0
-119 121 0
-120 121 0
-122 -2 123 0
122 -123 0
2 -123 0
-114 -6 124 0
114 -124 0
6 -124 0
-123 -124 -125 0
123 124 -125 0
123 -124 125 0
-123 124 125 0
-125 -121 -126 0
125 121 -126 0
125 -121 126 0
-125 121 126 0
-125 -121 127 0
125 -127 0
121 -127 0
-123 -124 128 0
123 -128 0
124 -128 0
127 128 -129 0
-127 129 0
-128 129 0
-130 -2 131 0
130 -131 0
2 -131 0
-122 -6 132 0
122 -132 0
6 -132 0
-131 -132 -133 0
131 132 -133 0
131 -132 133 0
-131 132 133 0
-133 -129 -134 0
133 129 -134 0
133 -129 134 0
-133 129 134 0
-133 -129 135 0
133 -135 0
129 -135 0
-131 -132 136 0
131 -136 0
132 -136 0
135 136 -137 0
-135 137 0
-136 137 0
-138 -2 139 0
138 -139 0
2 -139 0
-130 -6 140 0
130 -140 0
6 -140 0
-139 -140 -141 0
139 140 -141 0
139 -140 141 0
-139 140 141 0
-141 -137 -142 0
141 137 -142 0
141 -137 142 0
-141 137 142 0
-141 -137 143 0
141 -143 0
137 -143 0
-139 -140 144 0
139 -144 0
140 -144 0
143 144 -145 0
-143 145 0
-144 145 0
-138 -6 146 0
138 -146 0
6 -146 0
-145 -146 -147 0
145 146 -147 0
145 -146 147 0
-145 146 147 0
-145 -146 148 0
145 -148 0
146 -148 0
-1 -149 150 0
1 -150 0
149 -150 0
-14 -150 -151 0
14 150 -151 0
14 -150 151 0
-14 150 151 0
-14 -150 152 0
14 -152 0
150 -152 0
-4 -149 153 0
4 -153 0
149 -153 0
-22 -153 -154 0
22 153 -154 0
22 -153 154 0
-22 153 154 0
-154 -152 -155 0
154 152 -155 0
154 -152 155 0
-154 152 155 0
-154 -152 156 0
154 -156 0
152 -156 0
-22 -153 157 0
22 -157 0
153 -157 0
156 157 -158 0
-156 158 0
-157 158 0
-10 -149 159 0
10 -159 0
149 -159 0
-30 -159 -160 0
30 159 -160 0
30 -159 160 0
-30 159 160 0
-160 -158 -161 0
160 158 -161 0
160 -158 161 0
-160 158 161 0
-160 -158 162 0
160 -162 0
158 -162 0
-30 -159 163 0
30 -163 0
159 -163 0
162 163 -164 0
-162 164 0
-163 164 0
-18 -149 165 0
18 -165 0
149 -165 0
-38 -165 -166 0
38 165 -166 0
38 -165 166 0
-38 165 166 0
-166 -164 -167 0
166 164 -167 0
166 -164 167 0
-166 164 167 0
-166 -164 168 0
166 -168 0
164 -168 0
-38 -165 169 0
38 -169 0
165 -169 0
168 169 -170 0
-168 170 0
-169 170 0
-26 -149 171 0
26 -171 0
149 -171 0
-46 -171 -172 0
46 171 -172 0
46 -171 172 0
-46 171 172 0
-172 -170 -173 0
172 170 -173 0
172 -170 173 0
-172 170 173 0
-172 -170 174 0
172 -174 0
170 -174 0
-46 -171 175 0
46 -175 0
171 -175 0
174 175 -176 0
-174 176 0
-175 176 0
-34 -149 177 0
34 -177 0
149 -177 0
-54 -177 -178 0
54 177 -178 0
54 -177 178 0
-54 177 178 0
-178 -176 -179 0
178 176 -179 0
178 -176 179 0
-178 176 179 0
-178 -176 180 0
178 -180 0
176 -180 0
-54 -177 181 0
54 -181 0
177 -181 0
180 181 -182 0
-180 182 0
-181 182 0
-42 -149 183 0
42 -183 0
149 -183 0
-62 -183 -184 0
62 183 -184 0
62 -183 184 0
-62 183 184 0
-184 -182 -185 0
184 182 -185 0
184 -182 185 0
-184 182 185 0
-184 -182 186 0
184 -186 0
182 -186 0
-62 -183 187 0
62 -187 0
183 -187 0
186 187 -188 0
-186 188 0
-187 188 0
-50 -149 189 0
50 -189 0
149 -189 0
-70 -189 -190 0
70 189 -190 0
70 -189 190 0
-70 189 190 0
-190 -188 -191 0
190 188 -191 0
190 -188 191 0
-190 188 191 0
-190 -188 192 0
190 -192 0
188 -192 0
-70 -189 193 0
70 -193 0
189 -193 0
192 193 -194 0
-192 194 0
-193 194 0
-58 -149 195 0
58 -195 0
149 -195 0
-78 -195 -196 0
78 195 -196 0
78 -195 196 0
-78 195 196 0
-196 -194 -197 0
196 194 -197 0
196 -194 197 0
-196 194 197 0
-196 -194 198 0
196 -198 0
194 -198 0
-78 -195 199 0
78 -199 0
195 -199 0
198 199 -200 0
-198 200 0
-199 200 0
-66 -149 201 0
66 -201 0
149 -201 0
-86 -201 -202 0
86 201 -202 0
86 -201 202 0
-86 201 202 0
-202 -200 -203 0
202 200 -203 0
202 -200 203 0
-202 200 203 0
-202 -200 204 0
202 -204 0
200 -204 0
-86 -201 205 0
86 -205 0
201 -205 0
204 205 -206 0
-204 206 0
-205 206 0
-74 -149 207 0
74 -207 0
149 -207 0
-94 -207 -208 0
94 207 -208 0
94 -207 208 0
-94 207 208 0
-208 -206 -209 0
208 206 -209 0
208 -206 209 0
-208 206 209 0
-208 -206 210 0
208 -210 0
206 -210 0
-94 -207 211 0
94 -211 0
207 -211 0
210 211 -212 0
-210 212 0
-211 212 0
-82 -149 213 0
82 -213 0
149 -213 0
-102 -213 -214 0
102 213 -214 0
102 -213 214 0
-102 213 214 0
-214 -212 -215 0
214 212 -215 0
214 -212 215 0
-214 212 215 0
-214 -212 216 0
214 -216 0
212 -216 0
-102 -213 217 0
102 -217 0
213 -217 0
216 217 -218 0
-216 218 0
-217 218 0
-90 -149 219 0
90 -219 0
149 -219 0
-110 -219 -220 0
110 219 -220 0
110 -219 220 0
-110 219 220 0
-220 -218 -221 0
220 218 -221 0
220 -218 221 0
-220 218 221 0
-220 -218 222 0
220 -222 0
218 -222 0
-110 -219 223 0
110 -223 0
219 -223 0
222 223 -224 0
-222 224 0
-223 224 0
-98 -149 225 0
98 -225 0
149 -225 0
-118 -225 -226 0
118 225 -226 0
118 -225 226 0
-118 225 226 0
-226 -224 -227 0
226 224 -227 0
226 -224 227 0
-226 224 227 0
-226 -224 228 0
226 -228 0
224 -228 0
-118 -225 229 0
118 -229 0
225 -229 0
228 229 -230 0
-228 230 0
-229 230 0
-106 -149 231 0
106 -231 0
149 -231 0
-126 -231 -232 0
126 231 -232 0
126 -231 232 0
-126 231 232 0
-232 -230 -233 0
232 230 -233 0
232 -230 233 0
-232 230 233 0
-232 -230 234 0
232 -234 0
230 -234 0
-126 -231 235 0
126 -235 0
231 -235 0
234 235 -236 0
-234 236 0
-235 236 0
-114 -149 237 0
114 -237 0
149 -237 0
-134 -237 -238 0
134 237 -238 0
134 -237 238 0
-134 237 238 0
-238 -236 -239 0
238 236 -239 0
238 -236 239 0
-238 236 239 0
-238 -236 240 0
238 -240 0
236 -240 0
-134 -237 241 0
134 -241 0
237 -241 0
240 241 -242 0
-240 242 0
-241 242 0
-122 -149 243 0
122 -243 0
149 -243 0
-142 -243 -244 0
142 243 -244 0
142 -243 244 0
-142 243 244 0
-244 -242 -245 0
244 242 -245 0
244 -242 245 0
-244 242 245 0
-244 -242 246 0
244 -246 0
242 -246 0
-142 -243 247 0
142 -247 0
243 -247 0
246 247 -248 0
-246 248 0
-247 248 0
-130 -149 249 0
130 -249 0
149 -249 0
-147 -249 -250 0
147 249 -250 0
147 -249 250 0
-147 249 250 0
-250 -248 -251 0
250 248 -251 0
250 -248 251 0
-250 248 251 0
-250 -248 252 0
250 -252 0
248 -252 0
-147 -249 253 0
147 -253 0
249 -253 0
252 253 -254 0
-252 254 0
-253 254 0
-138 -149 255 0
138 -255 0
149 -255 0
-148 -255 -256 0
148 255 -256 0
148 -255 256 0
-148 255 256 0
-256 -254 -257 0
256 254 -257 0
256 -254 257 0
-256 254 257 0
-256 -254 258 0
256 -258 0
254 -258 0
-148 -255 259 0
148 -259 0
255 -259 0
258 259 -260 0
-258 260 0
-259 260 0
-1 -261 262 0
1 -262 0
261 -262 0
-155 -262 -263 0
155 262 -263 0
155 -262 263 0
-155 262 263 0
-155 -262 264 0
155 -264 0
262 -264 0
-4 -261 265 0
4 -265 0
261 -265 0
-161 -265 -266 0
161 265 -266 0
161 -265 266 0
-161 265 266 0
-266 -264 -267 0
266 264 -267 0
266 -264 267 0
-266 264 267 0
-266 -264 268 0
266 -268 0
264 -268 0
-161 -265 269 0
161 -269 0
265 -269 0
268 269 -270 0
-268 270 0
-269 270 0
-10 -261 271 0
10 -271 0
261 -271 0
-167 -271 -272 0
167 271 -272 0
167 -271 272 0
-167 271 272 0
-272 -270 -273 0
272 270 -273 0
272 -270 273 0
-272 270 273 0
-272 -270 274 0
272 -274 0
270 -274 0
-167 -271 275 0
167 -275 0
271 -275 0
274 275 -276 0
-274 276 0
-275 276 0
-18 -261 277 0
18 -277 0
261 -277 0
-173 -277 -278 0
173 277 -278 0
173 -277 278 0
-173 277 278 0
-278 -276 -279 0
278 276 -279 0
278 -276 279 0
-278 276 279 0
-278 -276 280 0
278 -280 0
276 -280 0
-173 -277 281 0
173 -281 0
277 -281 0
280 281 -282 0
-280 282 0
-281 282 0
-26 -261 283 0
26 -283 0
261 -283 0
-179 -283 -284 0
179 283 -284 0
179 -283 284 0
-179 283 284 0
-284 -282 -285 0
284 282 -285 0
284 -282 285 0
-284 282 285 0
-284 -282 286 0
284 -286 0
282 -286 0
-179 -283 287 0
179 -287 0
283 -287 0
286 287 -288 0
-286 288 0
-287 288 0
-34 -261 289 0
34 -289 0
261 -289 0
-185 -289 -290 0
185 289 -290 0
185 -289 290 0
-185 289 290 0
-290 -288 -291 0
290 288 -291 0
290 -288 291 0
-290 288 291 0
-290 -288 292 0
290 -292 0
288 -292 0
-185 -289 293 0
185 -293 0
289 -293 0
292 293 -294 0
-292 294 0
-293 294 0
-42 -261 295 0
42 -295 0
261 -295 0
-191 -295 -296 0
191 295 -296 0
191 -295 296 0
-191 295 296 0
-296 -294 -297 0
296 294 -297 0
296 -294 297 0
-296 294 297 0
-296 -294 298 0
296 -298 0
294 -298 0
-191 -295 299 0
191 -299 0
295 -299 0
298 299 -300 0
-298 300 0
-299 300 0
-50 -261 301 0
50 -301 0
261 -301 0
-197 -301 -302 0
197 301 -302 0
197 -301 302 0
-197 301 302 0
-302 -300 -303 0
302 300 -303 0
302 -300 303 0
-302 300 303 0
-302 -300 304 0
302 -304 0
300 -304 0
-197 -301 305 0
197 -305 0
301 -305 0
304 305 -306 0
-304 306 0
-305 306 0
-58 -261 307 0
58 -307 0
261 -307 0
-203 -307 -308 0
203 307 -308 0
203 -307 308 0
-203 307 308 0
-308 -306 -309 0
308 306 -309 0
308 -306 309 0
-308 306 309 0
-308 -306 310 0
308 -310 0
306 -310 0
-203 -307 311 0
203 -311 0
307 -311 0
310 311 -312 0
-310 312 0
-311 312 0
-66 -261 313 0
66 -313 0
261 -313 0
-209 -313 -314 0
209 313 -314 0
209 -313 314 0
-209 313 314 0
-314 -312 -315 0
314 312 -315 0
314 -312 315 0
-314 312 315 0
-314 -312 316 0
314 -316 0
312 -316 0
-209 -313 317 0
209 -317 0
313 -317 0
316 317 -318 0
-316 318 0
-317 318 0
-74 -261 319 0
74 -319 0
261 -319 0
-215 -319 -320 0
215 319 -320 0
215 -319 320 0
-215 319 320 0
-320 -318 -321 0
320 318 -321 0
320 -318 321 0
-320 318 321 0
-320 -318 322 0
320 -322 0
318 -322 0
-215 -319 323 0
215 -323 0
319 -323 0
322 323 -324 0
-322 324 0
-323 324 0
-82 -261 325 0
82 -325 0
261 -325 0
-221 -325 -326 0
221 325 -326 0
221 -325 326 0
-221 325 326 0
-326 -324 -327 0
326 324 -327 0
326 -324 327 0
-326 324 327 0
-326 -324 328 0
326 -328 0
324 -328 0
-221 -325 329 0
221 -329 0
325 -329 0
328 329 -330 0
-328 330 0
-329 330 0
-90 -261 331 0
90 -331 0
261 -331 0
-227 -331 -332 0
227 331 -332 0
227 -331 332 0
-227 331 332 0
-332 -330 -333 0
332 330 -333 0
332 -330 333 0
-332 330 333 0
-332 -330 334 0
332 -334 0
330 -334 0
-227 -331 335 0
227 -335 0
331 -335 0
334 335 -336 0
-334 336 0
-335 336 0
-98 -261 337 0
98 -337 0
261 -337 0
-233 -337 -338 0
233 337 -338 0
233 -337 338 0
-233 337 338 0
-338 -336 -339 0
338 336 -339 0
338 -336 339 0
-338 336 339 0
-338 -336 340 0
338 -340 0
336 -340 0
-233 -337 341 0
233 -341 0
337 -341 0
340 341 -342 0
-340 342 0
-341 342 0
-106 -261 343 0
106 -343 0
261 -343 0
-239 -343 -344 0
239 343 -344 0
239 -343 344 0
-239 343 344 0
-344 -342 -345 0
344 342 -345 0
344 -342 345 0
-344 342 345 0
-344 -342 346 0
344 -346 0
342 -346 0
-239 -343 347 0
239 -347 0
343 -347 0
346 347 -348 0
-346 348 0
-347 348 0
-114 -261 349 0
114 -349 0
261 -349 0
-245 -349 -350 0
245 349 -350 0
245 -349 350 0
-245 349 350 0
-350 -348 -351 0
350 348 -351 0
350 -348 351 0
-350 348 351 0
-350 -348 352 0
350 -352 0
348 -352 0
-245 -349 353 0
245 -353 0
349 -353 0
352 353 -354 0
-352 354 0
-353 354 0
-122 -261 355 0
122 -355 0
261 -355 0
-251 -355 -356 0
251 355 -356 0
251 -355 356 0
-251 355 356 0
-356 -354 -357 0
356 354 -357 0
356 -354 357 0
-356 354 357 0
-356 -354 358 0
356 -358 0
354 -358 0
-251 -355 359 0
251 -359 0
355 -359 0
358 359 -360 0
-358 360 0
-359 360 0
-130 -261 361 0
130 -361 0
261 -361 0
-257 -361 -362 0
257 361 -362 0
257 -361 362 0
-257 361 362 0
-362 -360 -363 0
362 360 -363 0
362 -360 363 0
-362 360 363 0
-362 -360 364 0
362 -364 0
360 -364 0
-257 -361 365 0
257 -365 0
361 -365 0
364 365 -366 0
-364 366 0
-365 366 0
-138 -261 367 0
138 -367 0
261 -367 0
-260 -367 -368 0
260 367 -368 0
260 -367 368 0
-260 367 368 0
-368 -366 -369 0
368 366 -369 0
368 -366 369 0
-368 366 369 0
-368 -366 370 0
368 -370 0
366 -370 0
-260 -367 371 0
260 -371 0
367 -371 0
370 371 -372 0
-370 372 0
-371 372 0
-1 -373 374 0
1 -374 0
373 -374 0
-267 -374 -375 0
267 374 -375 0
267 -374 375 0
-267 374 375 0
-267 -374 376 0
267 -376 0
374 -376 0
-4 -373 377 0
4 -377 0
373 -377 0
-273 -377 -378 0
273 377 -378 0
273 -377 378 0
-273 377 378 0
-378 -376 -379 0
378 376 -379 0
378 -376 379 0
-378 376 379 0
-378 -376 380 0
378 -380 0
376 -380 0
-273 -377 381 0
273 -381 0
377 -381 0
380 381 -382 0
-380 382 0
-381 382 0
-10 -373 383 0
10 -383 0
373 -383 0
-279 -383 -384 0
279 383 -384 0
279 -383 384 0
-279 383 384 0
-384 -382 -385 0
384 382 -385 0
384 -382 385 0
-384 382 385 0
-384 -382 386 0
384 -386 0
382 -386 0
-279 -383 387 0
279 -387 0
383 -387 0
386 387 -388 0
-386 388 0
-387 388 0
-18 -373 389 0
18 -389 0
373 -389 0
-285 -389 -390 0
285 389 -390 0
285 -389 390 0
-285 389 390 0
-390 -388 -391 0
390 388 -391 0
390 -388 391 0
-390 388 391 0
-390 -388 392 0
390 -392 0
388 -392 0
-285 -389 393 0
285 -393 0
389 -393 0
392 393 -394 0
-392 394 0
-393 394 0
-26 -373 395 0
26 -395 0
373 -395 0
-291 -395 -396 0
291 395 -396 0
291 -395 396 0
-291 395 396 0
-396 -394 -397 0
396 394 -397 0
396 -394 397 0
-396 394 397 0
-396 -394 398 0
396 -398 0
394 -398 0
-291 -395 399 0
291 -399 0
395 -399 0
398 399 -400 0
-398 400 0
-399 400 0
-34 -373 401 0
34 -401 0
373 -401 0
-297 -401 -402 0
297 401 -402 0
297 -401 402 0
-297 401 402 0
-402 -400 -403 0
402 400 -403 0
402 -400 403 0
-402 400 403 0
-402 -400 404 0
402 -404 0
400 -404 0
-297 -401 405 0
297 -405 0
401 -405 0
404 405 -406 0
-404 406 0
-405 406 0
-42 -373 407 0
42 -407 0
373 -407 0
-303 -407 -408 0
303 407 -408 0
303 -407 408 0
-303 407 408 0
-408 -406 -409 0
408 406 -409 0
408 -406 409 0
-408 406 409 0
-408 -406 410 0
408 -410 0
406 -410 0
-303 -407 411 0
303 -411 0
407 -411 0
410 411 -412 0
-410 412 0
-411 412 0
-50 -373 413 0
50 -413 0
373 -413 0
-309 -413 -414 0
309 413 -414 0
309 -413 414 0
-309 413 414 0
-414 -412 -415 0
414 412 -415 0
414 -412 415 0
-414 412 415 0
-414 -412 416 0
414 -416 0
412 -416 0
-309 -413 417 0
309 -417 0
413 -417 0
416 417 -418 0
-416 418 0
-417 418 0
-58 -373 419 0
58 -419 0
373 -419 0
-315 -419 -420 0
315 419 -420 0
315 -419 420 0
-315 419 420 0
-420 -418 -421 0
420 418 -421 0
420 -418 421 0
-420 418 421 0
-420 -418 422 0
420 -422 0
418 -422 0
-315 -419 423 0
315 -423 0
419 -423 0
422 423 -424 0
-422 424 0
-423 424 0
-66 -373 425 0
66 -425 0
373 -425 0
-321 -425 -426 0
321 425 -426 0
321 -425 426 0
-321 425 426 0
-426 -424 -427 0
426 424 -427 0
426 -424 427 0
-426 424 427 0
-426 -424 428 0
426 -428 0
424 -428 0
-321 -425 429 0
321 -429 0
425 -429 0
428 429 -430 0
-428 430 0
-429 430 0
-74 -373 431 0
74 -431 0
373 -431 0
-327 -431 -432 0
327 431 -432 0
327 -431 432 0
-327 431 432 0
-432 -430 -433 0
432 430 -433 0
432 -430 433 0
-432 430 433 0
-432 -430 434 0
432 -434 0
430 -434 0
-327 -431 435 0
327 -435 0
431 -435 0
434 435 -436 0
-434 436 0
-435 436 0
-82 -373 437 0
82 -437 0
373 -437 0
-333 -437 -438 0
333 437 -438 0
333 -437 438 0
-333 437 438 0
-438 -436 -439 0
438 436 -439 0
438 -436 439 0
-438 436 439 0
-438 -436 440 0
438 -440 0
436 -440 0
-333 -437 441 0
333 -441 0
437 -441 0
440 441 -442 0
-440 442 0
-441 442 0
-90 -373 443 0
90 -443 0
373 -443 0
-339 -443 -444 0
339 443 -444 0
339 -443 444 0
-339 443 444 0
-444 -442 -445 0
444 442 -445 0
444 -442 445 0
-444 442 445 0
-444 -442 446 0
444 -446 0
442 -446 0
-339 -443 447 0
339 -447 0
443 -447 0
446 447 -448 0
-446 448 0
-447 448 0
-98 -373 449 0
98 -449 0
373 -449 0
-345 -449 -450 0
345 449 -450 0
345 -449 450 0
-345 449 450 0
-450 -448 -451 0
450 448 -451 0
450 -448 451 0
-450 448 451 0
-450 -448 452 0
450 -452 0
448 -452 0
-345 -449 453 0
345 -453 0
449 -453 0
452 453 -454 0
-452 454 0
-453 454 0
-106 -373 455 0
106 -455 0
373 -455 0
-351 -455 -456 0
351 455 -456 0
351 -455 456 0
-351 455 456 0
-456 -454 -457 0
456 454 -457 0
456 -454 457 0
-456 454 457 0
-456 -454 458 0
456 -458 0
454 -458 0
-351 -455 459 0
351 -459 0
455 -459 0
458 459 -460 0
-458 460 0
-459 460 0
-114 -373 461 0
114 -461 0
373 -461 0
-357 -461 -462 0
357 461 -462 0
357 -461 462 0
-357 461 462 0
-462 -460 -463 0
462 460 -463 0
462 -460 463 0
-462 460 463 0
-462 -460 464 0
462 -464 0
460 -464 0
-357 -461 465 0
357 -465 0
461 -465 0
464 465 -466 0
-464 466 0
-465 466 0
-122 -373 467 0
122 -467 0
373 -467 0
-363 -467 -468 0
363 467 -468 0
363 -467 468 0
-363 467 468 0
-468 -466 -469 0
468 466 -469 0
468 -466 469 0
-468 466 469 0
-468 -466 470 0
468 -470 0
466 -470 0
-363 -467 471 0
363 -471 0
467 -471 0
470 471 -472 0
-470 472 0
-471 472 0
-130 -373 473 0
130 -473 0
373 -473 0
-369 -473 -474 0
369 473 -474 0
369 -473 474 0
-369 473 474 0
-474 -472 -475 0
474 472 -475 0
474 -472 475 0
-474 472 475 0
-474 -472 476 0
474 -476 0
472 -476 0
-369 -473 477 0
369 -477 0
473 -477 0
476 477 -478 0
-476 478 0
-477 478 0
-138 -373 479 0
138 -479 0
373 -479 0
-372 -479 -480 0
372 479 -480 0
372 -479 480 0
-372 479 480 0
-480 -478 -481 0
480 478 -481 0
480 -478 481 0
-480 478 481 0
-480 -478 482 0
480 -482 0
478 -482 0
-372 -479 483 0
372 -483 0
479 -483 0
482 483 -484 0
-482 484 0
-483 484 0
-1 -485 486 0
1 -486 0
485 -486 0
-379 -486 -487 0
379 486 -487 0
379 -486 487 0
-379 486 487 0
-379 -486 488 0
379 -488 0
486 -488 0
-4 -485 489 0
4 -489 0
485 -489 0
-385 -489 -490 0
385 489 -490 0
385 -489 490 0
-385 489 490 0
-490 -488 -491 0
490 488 -491 0
490 -488 491 0
-490 488 491 0
-490 -488 492 0
490 -492 0
488 -492 0
-385 -489 493 0
385 -493 0
489 -493 0
492 493 -494 0
-492 494 0
-493 494 0
-10 -485 495 0
10 -495 0
485 -495 0
-391 -495 -496 0
391 495 -496 0
391 -495 496 0
-391 495 496 0
-496 -494 -497 0
496 494 -497 0
496 -494 497 0
-496 494 497 0
-496 -494 498 0
496 -498 0
494 -498 0
-391 -495 499 0
391 -499 0
495 -499 0
498 499 -500 0
-498 500 0
-499 500 0
-18 -485 501 0
18 -501 0
485 -501 0
-397 -501 -502 0
397 501 -502 0
397 -501 502 0
-397 501 502 0
-502 -500 -503 0
502 500 -503 0
502 -500 503 0
-502 500 503 0
-502 -500 504 0
502 -504 0
500 -504 0
-397 -501 505 0
397 -505 0
501 -505 0
504 505 -506 0
-504 506 0
-505 506 0
-26 -485 507 0
26 -507 0
485 -507 0
-403 -507 -508 0
403 507 -508 0
403 -507 508 0
-403 507 508 0
-508 -506 -509 0
508 506 -509 0
508 -506 509 0
-508 506 509 0
-508 -506 510 0
508 -510 0
506 -510 0
-403 -507 511 0
403 -511 0
507 -511 0
510 511 -512 0
-510 512 0
-511 512 0
-34 -485 513 0
34 -513 0
485 -513 0
-409 -513 -514 0
409 513 -514 0
409 -513 514 0
-409 513 514 0
-514 -512 -515 0
514 512 -515 0
514 -512 515 0
-514 512 515 0
-514 -512 516 0
514 -516 0
512 -516 0
-409 -513 517 0
409 -517 0
513 -517 0
516 517 -518 0
-516 518 0
-517 518 0
-42 -485 519 0
42 -519 0
485 -519 0
-415 -519 -520 0
415 519 -520 0
415 -519 520 0
-415 519 520 0
-520 -518 -521 0
520 518 -521 0
520 -518 521 0
-520 518 521 0
-520 -518 522 0
520 -522 0
518 -522 0
-415 -519 523 0
415 -523 0
519 -523 0
522 523 -524 0
-522 524 0
-523 524 0
-50 -485 525 0
50 -525 0
485 -525 0
-421 -525 -526 0
421 525 -526 0
421 -525 526 0
-421 525 526 0
-526 -524 -527 0
526 524 -527 0
526 -524 527 0
-526 524 527 0
-526 -524 528 0
526 -528 0
524 -528 0
-421 -525 529 0
421 -529 0
525 -529 0
528 529 -530 0
-528 530 0
-529 530 0
-58 -485 531 0
58 -531 0
485 -531 0
-427 -531 -532 0
427 531 -532 0
427 -531 532 0
-427 531 532 0
-532 -530 -533 0
532 530 -533 0
532 -530 533 0
-532 530 533 0
-532 -530 534 0
532 -534 0
530 -534 0
-427 -531 535 0
427 -535 0
531 -535 0
534 535 -536 0
-534 536 0
-535 536 0
-66 -485 537 0
66 -537 0
485 -537 0
-433 -537 -538 0
433 537 -538 0
433 -537 538 0
-433 537 538 0
-538 -536 -539 0
538 536 -539 0
538 -536 539 0
-538 536 539 0
-538 -536 540 0
538 -540 0
536 -540 0
-433 -537 541 0
433 -541 0
537 -541 0
540 541 -542 0
-540 542 0
-541 542 0
-74 -485 543 0
74 -543 0
485 -543 0
-439 -543 -544 0
439 543 -544 0
439 -543 544 0
-439 543 544 0
-544 -542 -545 0
544 542 -545 0
544 -542 545 0
-544 542 545 0
-544 -542 546 0
544 -546 0
542 -546 0
-439 -543 547 0
439 -547 0
543 -547 0
546 547 -548 0
-546 548 0
-547 548 0
-82 -485 549 0
82 -549 0
485 -549 0
-445 -549 -550 0
445 549 -550 0
445 -549 550 0
-445 549 550 0
-550 -548 -551 0
550 548 -551 0
550 -548 551 0
-550 548 551 0
-550 -548 552 0
550 -552 0
548 -552 0
-445 -549 553 0
445 -553 0
549 -553 0
552 553 -554 0
-552 554 0
-553 554 0
-90 -485 555 0
90 -555 0
485 -555 0
-451 -555 -556 0
451 555 -556 0
451 -555 556 0
-451 555 556 0
-556 -554 -557 0
556 554 -557 0
556 -554 557 0
-556 554 557 0
-556 -554 558 0
556 -558 0
554 -558 0
-451 -555 559 0
451 -559 0
555 -559 0
558 559 -560 0
-558 560 0
-559 560 0
-98 -485 561 0
98 -561 0
485 -561 0
-457 -561 -562 0
457 561 -562 0
457 -561 562 0
-457 561 562 0
-562 -560 -563 0
562 560 -563 0
562 -560 563 0
-562 560 563 0
-562 -560 564 0
562 -564 0
560 -564 0
-457 -561 565 0
457 -565 0
561 -565 0
564 565 -566 0
-564 566 0
-565 566 0
-106 -485 567 0
106 -567 0
485 -567 0
-463 -567 -568 0
463 567 -568 0
463 -567 568 0
-463 567 568 0
-568 -566 -569 0
568 566 -569 0
568 -566 569 0
-568 566 569 0
-568 -566 570 0
568 -570 0
566 -570 0
-463 -567 571 0
463 -571 0
567 -571 0
570 571 -572 0
-570 572 0
-571 572 0
-114 -485 573 0
114 -573 0
485 -573 0
-469 -573 -574 0
469 573 -574 0
469 -573 574 0
-469 573 574 0
-574 -572 -575 0
574 572 -575 0
574 -572 575 0
-574 572 575 0
-574 -572 576 0
574 -576 0
572 -576 0
-469 -573 577 0
469 -577 0
573 -577 0
576 577 -578 0
-576 578 0
-577 578 0
-122 -485 579 0
122 -579 0
485 -579 0
-475 -579 -580 0
475 579 -580 0
475 -579 580 0
-475 579 580 0
-580 -578 -581 0
580 578 -581 0
580 -578 581 0
-580 578 581 0
-580 -578 582 0
580 -582 0
578 -582 0
-475 -579 583 0
475 -583 0
579 -583 0
582 583 -584 0
-582 584 0
-583 584 0
-130 -485 585 0
130 -585 0
485 -585 0
-481 -585 -586 0
481 585 -586 0
481 -585 586 0
-481 585 586 0
-586 -584 -587 0
586 584 -587 0
586 -584 587 0
-586 584 587 0
-586 -584 588 0
586 -588 0
584 -588 0
-481 -585 589 0
481 -589 0
585 -589 0
588 589 -590 0
-588 590 0
-589 590 0
-138 -485 591 0
138 -591 0
485 -591 0
-484 -591 -592 0
484 591 -592 0
484 -591 592 0
-484 591 592 0
-592 -590 -593 0
592 590 -593 0
592 -590 593 0
-592 590 593 0
-592 -590 594 0
592 -594 0
590 -594 0
-484 -591 595 0
484 -595 0
591 -595 0
594 595 -596 0
-594 596 0
-595 596 0
-1 -597 598 0
1 -598 0
597 -598 0
-491 -598 -599 0
491 598 -599 0
491 -598 599 0
-491 598 599 0
-491 -598 600 0
491 -600 0
598 -600 0
-4 -597 601 0
4 -601 0
597 -601 0
-497 -601 -602 0
497 601 -602 0
497 -601 602 0
-497 601 602 0
-602 -600 -603 0
602 600 -603 0
602 -600 603 0
-602 600 603 0
-602 -600 604 0
602 -604 0
600 -604 0
-497 -601 605 0
497 -605 0
601 -605 0
604 605 -606 0
-604 606 0
-605 606 0
-10 -597 607 0
10 -607 0
597 -607 0
-503 -607 -608 0
503 607 -608 0
503 -607 608 0
-503 607 608 0
-608 -606 -609 0
608 606 -609 0
608 -606 609 0
-608 606 609 0
-608 -606 610 0
608 -610 0
606 -610 0
-503 -607 611 0
503 -611 0
607 -611 0
610 611 -612 0
-610 612 0
-611 612 0
-18 -597 613 0
18 -613 0
597 -613 0
-509 -613 -614 0
509 613 -614 0
509 -613 614 0
-509 613 614 0
-614 -612 -615 0
614 612 -615 0
614 -612 615 0
-614 612 615 0
-614 -612 616 0
614 -616 0
612 -616 0
-509 -613 617 0
509 -617 0
613 -617 0
616 617 -618 0
-616 618 0
-617 618 0
-26 -597 619 0
26 -619 0
597 -619 0
-515 -619 -620 0
515 619 -620 0
515 -619 620 0
-515 619 620 0
-620 -618 -621 0
620 618 -621 0
620 -618 621 0
-620 618 621 0
-620 -618 622 0
620 -622 0
618 -622 0
-515 -619 623 0
515 -623 0
619 -623 0
622 623 -624 0
-622 624 0
-623 624 0
-34 -597 625 0
34 -625 0
597 -625 0
-521 -625 -626 0
521 625 -626 0
521 -625 626 0
-521 625 626 0
-626 -624 -627 0
626 624 -627 0
626 -624 627 0
-626 624 627 0
-626 -624 628 0
626 -628 0
624 -628 0
-521 -625 629 0
521 -629 0
625 -629 0
628 629 -630 0
-628 630 0
-629 630 0
-42 -597 631 0
42 -631 0
597 -631 0
-527 -631 -632 0
527 631 -632 0
527 -631 632 0
-527 631 632 0
-632 -630 -633 0
632 630 -633 0
632 -630 633 0
-632 630 633 0
-632 -630 634 0
632 -634 0
630 -634 0
-527 -631 635 0
527 -635 0
631 -635 0
634 635 -636 0
-634 636 0
-635 636 0
-50 -597 637 0
50 -637 0
597 -637 0
-533 -637 -638 0
533 637 -638 0
533 -637 638 0
-533 637 638 0
-638 -636 -639 0
638 636 -639 0
638 -636 639 0
-638 636 639 0
-638 -636 640 0
638 -640 0
636 -640 0
-533 -637 641 0
533 -641 0
637 -641 0
640 641 -642 0
-640 642 0
-641 642 0
-58 -597 643 0
58 -643 0
597 -643 0
-539 -643 -644 0
539 643 -644 0
539 -643 644 0
-539 643 644 0
-644 -642 -645 0
644 642 -645 0
644 -642 645 0
-644 642 645 0
-644 -642 646 0
644 -646 0
642 -646 0
-539 -643 647 0
539 -647 0
643 -647 0
646 647 -648 0
-646 648 0
-647 648 0
-66 -597 649 0
66 -649 0
597 -649 0
-545 -649 -650 0
545 649 -650 0
545 -649 650 0
-545 649 650 0
-650 -648 -651 0
650 648 -651 0
650 -648 651 0
-650 648 651 0
-650 -648 652 0
650 -652 0
648 -652 0
-545 -649 653 0
545 -653 0
649 -653 0
652 653 -654 0
-652 654 0
-653 654 0
-74 -597 655 0
74 -655 0
597 -655 0
-551 -655 -656 0
551 655 -656 0
551 -655 656 0
-551 655 656 0
-656 -654 -657 0
656 654 -657 0
656 -654 657 0
-656 654 657 0
-656 -654 658 0
656 -658 0
654 -658 0
-551 -655 659 0
551 -659 0
655 -659 0
658 659 -660 0
-658 660 0
-659 660 0
-82 -597 661 0
82 -661 0
597 -661 0
-557 -661 -662 0
557 661 -662 0
557 -661 662 0
-557 661 662 0
-662 -660 -663 0
662 660 -663 0
662 -660 663 0
-662 660 663 0
-662 -660 664 0
662 -664 0
660 -664 0
-557 -661 665 0
557 -665 0
661 -665 0
664 665 -666 0
-664 666 0
-665 666 0
-90 -597 667 0
90 -667 0
597 -667 0
-563 -667 -668 0
563 667 -668 0
563 -667 668 0
-563 667 668 0
-668 -666 -669 0
668 666 -669 0
668 -666 669 0
-668 666 669 0
-668 -666 670 0
668 -670 0
666 -670 0
-563 -667 671 0
563 -671 0
667 -671 0
670 671 -672 0
-670 672 0
-671 672 0
-98 -597 673 0
98 -673 0
597 -673 0
-569 -673 -674 0
569 673 -674 0
569 -673 674 0
-569 673 674 0
-674 -672 -675 0
674 672 -675 0
674 -672 675 0
-674 672 675 0
-674 -672 676 0
674 -676 0
672 -676 0
-569 -673 677 0
569 -677 0
673 -677 0
676 677 -678 0
-676 678 0
-677 678 0
-106 -597 679 0
106 -679 0
597 -679 0
-575 -679 -680 0
575 679 -680 0
575 -679 680 0
-575 679 680 0
-680 -678 -681 0
680 678 -681 0
680 -678 681 0
-680 678 681 0
-680 -678 682 0
680 -682 0
678 -682 0
-575 -679 683 0
575 -683 0
679 -683 0
682 683 -684 0
-682 684 0
-683 684 0
-114 -597 685 0
114 -685 0
597 -685 0
-581 -685 -686 0
581 685 -686 0
581 -685 686 0
-581 685 686 0
-686 -684 -687 0
686 684 -687 0
686 -684 687 0
-686 684 687 0
-686 -684 688 0
686 -688 0
684 -688 0
-581 -685 689 0
581 -689 0
685 -689 0
688 689 -690 0
-688 690 0
-689 690 0
-122 -597 691 0
122 -691 0
597 -691 0
-587 -691 -692 0
587 691 -692 0
587 -691 692 0
-587 691 692 0
-692 -690 -693 0
692 690 -693 0
692 -690 693 0
-692 690 693 0
-692 -690 694 0
692 -694 0
690 -694 0
-587 -691 695 0
587 -695 0
691 -695 0
694 695 -696 0
-694 696 0
-695 696 0
-130 -597 697 0
130 -697 0
597 -697 0
-593 -697 -698 0
593 697 -698 0
593 -697 698 0
-593 697 698 0
-698 -696 -699 0
698 696 -699 0
698 -696 699 0
-698 696 699 0
-698 -696 700 0
698 -700 0
696 -700 0
-593 -697 701 0
593 -701 0
697 -701 0
700 701 -702 0
-700 702 0
-701 702 0
-138 -597 703 0
138 -703 0
597 -703 0
-596 -703 -704 0
596 703 -704 0
596 -703 704 0
-596 703 704 0
-704 -702 -705 0
704 702 -705 0
704 -702 705 0
-704 702 705 0
-704 -702 706 0
704 -706 0
702 -706 0
-596 -703 707 0
596 -707 0
703 -707 0
706 707 -708 0
-706 708 0
-707 708 0
-1 -709 710 0
1 -710 0
709 -710 0
-603 -710 -711 0
603 710 -711 0
603 -710 711 0
-603 710 711 0
-603 -710 712 0
603 -712 0
710 -712 0
-4 -709 713 0
4 -713 0
709 -713 0
-609 -713 -714 0
609 713 -714 0
609 -713 714 0
-609 713 714 0
-714 -712 -715 0
714 712 -715 0
714 -712 715 0
-714 712 715 0
-714 -712 716 0
714 -716 0
712 -716 0
-609 -713 717 0
609 -717 0
713 -717 0
716 717 -718 0
-716 718 0
-717 718 0
-10 -709 719 0
10 -719 0
709 -719 0
-615 -719 -720 0
615 719 -720 0
615 -719 720 0
-615 719 720 0
-720 -718 -721 0
720 718 -721 0
720 -718 721 0
-720 718 721 0
-720 -718 722 0
720 -722 0
718 -722 0
-615 -719 723 0
615 -723 0
719 -723 0
722 723 -724 0
-722 724 0
-723 724 0
-18 -709 725 0
18 -725 0
709 -725 0
-621 -725 -726 0
621 725 -726 0
621 -725 726 0
-621 725 726 0
-726 -724 -727 0
726 724 -727 0
726 -724 727 0
-726 724 727 0
-726 -724 728 0
726 -728 0
724 -728 0
-621 -725 729 0
621 -729 0
725 -729 0
728 729 -730 0
-728 730 0
-729 730 0
-26 -709 731 0
26 -731 0
709 -731 0
-627 -731 -732 0
627 731 -732 0
627 -731 732 0
-627 731 732 0
-732 -730 -733 0
732 730 -733 0
732 -730 733 0
-732 730 733 0
-732 -730 734 0
732 -734 0
730 -734 0
-627 -731 735 0
627 -735 0
731 -735 0
734 735 -736 0
-734 736 0
-735 736 0
-34 -709 737 0
34 -737 0
709 -737 0
-633 -737 -738 0
633 737 -738 0
633 -737 738 0
-633 737 738 0
-738 -736 -739 0
738 736 -739 0
738 -736 739 0
-738 736 739 0
-738 -736 740 0
738 -740 0
736 -740 0
-633 -737 741 0
633 -741 0
737 -741 0
740 741 -742 0
-740 742 0
-741 742 0
-42 -709 743 0
42 -743 0
709 -743 0
-639 -743 -744 0
639 743 -744 0
639 -743 744 0
-639 743 744 0
-744 -742 -745 0
744 742 -745 0
744 -742 745 0
-744 742 745 0
-744 -742 746 0
744 -746 0
742 -746 0
-639 -743 747 0
639 -747 0
743 -747 0
746 747 -748 0
-746 748 0
-747 748 0
-50 -709 749 0
50 -749 0
709 -749 0
-645 -749 -750 0
645 749 -750 0
645 -749 750 0
-645 749 750 0
-750 -748 -751 0
750 748 -751 0
750 -748 751 0
-750 748 751 0
-750 -748 752 0
750 -752 0
748 -752 0
-645 -749 753 0
645 -753 0
749 -753 0
752 753 -754 0
-752 754 0
-753 754 0
-58 -709 755 0
58 -755 0
709 -755 0
-651 -755 -756 0
651 755 -756 0
651 -755 756 0
-651 755 756 0
-756 -754 -757 0
756 754 -757 0
756 -754 757 0
-756 754 757 0
-756 -754 758 0
756 -758 0
754 -758 0
-651 -755 759 0
651 -759 0
755 -759 0
758 759 -760 0
-758 760 0
-759 760 0
-66 -709 761 0
66 -761 0
709 -761 0
-657 -761 -762 0
657 761 -762 0
657 -761 762 0
-657 761 762 0
-762 -760 -763 0
762 760 -763 0
762 -760 763 0
-762 760 763 0
-762 -760 764 0
762 -764 0
760 -764 0
-657 -761 765 0
657 -765 0
761 -765 0
764 765 -766 0
-764 766 0
-765 766 0
-74 -709 767 0
74 -767 0
709 -767 0
-663 -767 -768 0
663 767 -768 0
663 -767 768 0
-663 767 768 0
-768 -766 -769 0
768 766 -769 0
768 -766 769 0
-768 766 769 0
-768 -766 770 0
768 -770 0
766 -770 0
-663 -767 771 0
663 -771 0
767 -771 0
770 771 -772 0
-770 772 0
-771 772 0
-82 -709 773 0
82 -773 0
709 -773 0
-669 -773 -774 0
669 773 -774 0
669 -773 774 0
-669 773 774 0
-774 -772 -775 0
774 772 -775 0
774 -772 775 0
-774 772 775 0
-774 -772 776 0
774 -776 0
772 -776 0
-669 -773 777 0
669 -777 0
773 -777 0
776 777 -778 0
-776 778 0
-777 778 0
-90 -709 779 0
90 -779 0
709 -779 0
-675 -779 -780 0
675 779 -780 0
675 -779 780 0
-675 779 780 0
-780 -778 -781 0
780 778 -781 0
780 -778 781 0
-780 778 781 0
-780 -778 782 0
780 -782 0
778 -782 0
-675 -779 783 0
675 -783 0
779 -783 0
782 783 -784 0
-782 784 0
-783 784 0
-98 -709 785 0
98 -785 0
709 -785 0
-681 -785 -786 0
681 785 -786 0
681 -785 786 0
-681 785 786 0
-786 -784 -787 0
786 784 -787 0
786 -784 787 0
-786 784 787 0
-786 -784 788 0
786 -788 0
784 -788 0
-681 -785 789 0
681 -789 0
785 -789 0
788 789 -790 0
-788 790 0
-789 790 0
-106 -709 791 0
106 -791 0
709 -791 0
-687 -791 -792 0
687 791 -792 0
687 -791 792 0
-687 791 792 0
-792 -790 -793 0
792 790 -793 0
792 -790 793 0
-792 790 793 0
-792 -790 794 0
792 -794 0
790 -794 0
-687 -791 795 0
687 -795 0
791 -795 0
794 795 -796 0
-794 796 0
-795 796 0
-114 -709 797 0
114 -797 0
709 -797 0
-693 -797 -798 0
693 797 -798 0
693 -797 798 0
-693 797 798 0
-798 -796 -799 0
798 796 -799 0
798 -796 799 0
-798 796 799 0
-798 -796 800 0
798 -800 0
796 -800 0
-693 -797 801 0
693 -801 0
797 -801 0
800 801 -802 0
-800 802 0
-801 802 0
-122 -709 803 0
122 -803 0
709 -803 0
-699 -803 -804 0
699 803 -804 0
699 -803 804 0
-699 803 804 0
-804 -802 -805 0
804 802 -805 0
804 -802 805 0
-804 802 805 0
-804 -802 806 0
804 -806 0
802 -806 0
-699 -803 807 0
699 -807 0
803 -807 0
806 807 -808 0
-806 808 0
-807 808 0
-130 -709 809 0
130 -809 0
709 -809 0
-705 -809 -810 0
705 809 -810 0
705 -809 810 0
-705 809 810 0
-810 -808 -811 0
810 808 -811 0
810 -808 811 0
-810 808 811 0
-810 -808 812 0
810 -812 0
808 -812 0
-705 -809 813 0
705 -813 0
809 -813 0
812 813 -814 0
-812 814 0
-813 814 0
-138 -709 815 0
138 -815 0
709 -815 0
-708 -815 -816 0
708 815 -816 0
708 -815 816 0
-708 815 816 0
-816 -814 -817 0
816 814 -817 0
816 -814 817 0
-816 814 817 0
-816 -814 818 0
816 -818 0
814 -818 0
-708 -815 819 0
708 -819 0
815 -819 0
818 819 -820 0
-818 820 0
-819 820 0
-1 -821 822 0
1 -822 0
821 -822 0
-715 -822 -823 0
715 822 -823 0
715 -822 823 0
-715 822 823 0
-715 -822 824 0
715 -824 0
822 -824 0
-4 -821 825 0
4 -825 0
821 -825 0
-721 -825 -826 0
721 825 -826 0
721 -825 826 0
-721 825 826 0
-826 -824 -827 0
826 824 -827 0
826 -824 827 0
-826 824 827 0
-826 -824 828 0
826 -828 0
824 -828 0
-721 -825 829 0
721 -829 0
825 -829 0
828 829 -830 0
-828 830 0
-829 830 0
-10 -821 831 0
10 -831 0
821 -831 0
-727 -831 -832 0
727 831 -832 0
727 -831 832 0
-727 831 832 0
-832 -830 -833 0
832 830 -833 0
832 -830 833 0
-832 830 833 0
-832 -830 834 0
832 -834 0
830 -834 0
-727 -831 835 0
727 -835 0
831 -835 0
834 835 -836 0
-834 836 0
-835 836 0
-18 -821 837 0
18 -837 0
821 -837 0
-733 -837 -838 0
733 837 -838 0
733 -837 838 0
-733 837 838 0
-838 -836 -839 0
838 836 -839 0
838 -836 839 0
-838 836 839 0
-838 -836 840 0
838 -840 0
836 -840 0
-733 -837 841 0
733 -841 0
837 -841 0
840 841 -842 0
-840 842 0
-841 842 0
-26 -821 843 0
26 -843 0
821 -843 0
-739 -843 -844 0
739 843 -844 0
739 -843 844 0
-739 843 844 0
-844 -842 -845 0
844 842 -845 0
844 -842 845 0
-844 842 845 0
-844 -842 846 0
844 -846 0
842 -846 0
-739 -843 847 0
739 -847 0
843 -847 0
846 847 -848 0
-846 848 0
-847 848 0
-34 -821 849 0
34 -849 0
821 -849 0
-745 -849 -850 0
745 849 -850 0
745 -849 850 0
-745 849 850 0
-850 -848 -851 0
850 848 -851 0
850 -848 851 0
-850 848 851 0
-850 -848 852 0
850 -852 0
848 -852 0
-745 -849 853 0
745 -853 0
849 -853 0
852 853 -854 0
-852 854 0
-853 854 0
-42 -821 855 0
42 -855 0
821 -855 0
-751 -855 -856 0
751 855 -856 0
751 -855 856 0
-751 855 856 0
-856 -854 -857 0
856 854 -857 0
856 -854 857 0
-856 854 857 0
-856 -854 858 0
856 -858 0
854 -858 0
-751 -855 859 0
751 -859 0
855 -859 0
858 859 -860 0
-858 860 0
-859 860 0
-50 -821 861 0
50 -861 0
821 -861 0
-757 -861 -862 0
757 861 -862 0
757 -861 862 0
-757 861 862 0
-862 -860 -863 0
862 860 -863 0
862 -860 863 0
-862 860 863 0
-862 -860 864 0
862 -864 0
860 -864 0
-757 -861 865 0
757 -865 0
861 -865 0
864 865 -866 0
-864 866 0
-865 866 0
-58 -821 867 0
58 -867 0
821 -867 0
-763 -867 -868 0
763 867 -868 0
763 -867 868 0
-763 867 868 0
-868 -866 -869 0
868 866 -869 0
868 -866 869 0
-868 866 869 0
-868 -866 870 0
868 -870 0
866 -870 0
-763 -867 871 0
763 -871 0
867 -871 0
870 871 -872 0
-870 872 0
-871 872 0
-66 -821 873 0
66 -873 0
821 -873 0
-769 -873 -874 0
769 873 -874 0
769 -873 874 0
-769 873 874 0
-874 -872 -875 0
874 872 -875 0
874 -872 875 0
-874 872 875 0
-874 -872 876 0
874 -876 0
872 -876 0
-769 -873 877 0
769 -877 0
873 -877 0
876 877 -878 0
-876 878 0
-877 878 0
-74 -821 879 0
74 -879 0
821 -879 0
-775 -879 -880 0
775 879 -880 0
775 -879 880 0
-775 879 880 0
-880 -878 -881 0
880 878 -881 0
880 -878 881 0
-880 878 881 0
-880 -878 882 0
880 -882 0
878 -882 0
-775 -879 883 0
775 -883 0
879 -883 0
882 883 -884 0
-882 884 0
-883 884 0
-82 -821 885 0
82 -885 0
821 -885 0
-781 -885 -886 0
781 885 -886 0
781 -885 886 0
-781 885 886 0
-886 -884 -887 0
886 884 -887 0
886 -884 887 0
-886 884 887 0
-886 -884 888 0
886 -888 0
884 -888 0
-781 -885 889 0
781 -889 0
885 -889 0
888 889 -890 0
-888 890 0
-889 890 0
-90 -821 891 0
90 -891 0
821 -891 0
-787 -891 -892 0
787 891 -892 0
787 -891 892 0
-787 891 892 0
-892 -890 -893 0
892 890 -893 0
892 -890 893 0
-892 890 893 0
-892 -890 894 0
892 -894 0
890 -894 0
-787 -891 895 0
787 -895 0
891 -895 0
894 895 -896 0
-894 896 0
-895 896 0
-98 -821 897 0
98 -897 0
821 -897 0
-793 -897 -898 0
793 897 -898 0
793 -897 898 0
-793 897 898 0
-898 -896 -899 0
898 896 -899 0
898 -896 899 0
-898 896 899 0
-898 -896 900 0
898 -900 0
896 -900 0
-793 -897 901 0
793 -901 0
897 -901 0
900 901 -902 0
-900 902 0
-901 902 0
-106 -821 903 0
106 -903 0
821 -903 0
-799 -903 -904 0
799 903 -904 0
799 -903 904 0
-799 903 904 0
-904 -902 -905 0
904 902 -905 0
904 -902 905 0
-904 902 905 0
-904 -902 906 0
904 -906 0
902 -906 0
-799 -903 907 0
799 -907 0
903 -907 0
906 907 -908 0
-906 908 0
-907 908 0
-114 -821 909 0
114 -909 0
821 -909 0
-805 -909 -910 0
805 909 -910 0
805 -909 910 0
-805 909 910 0
-910 -908 -911 0
910 908 -911 0
910 -908 911 0
-910 908 911 0
-910 -908 912 0
910 -912 0
908 -912 0
-805 -909 913 0
805 -913 0
909 -913 0
912 913 -914 0
-912 914 0
-913 914 0
-122 -821 915 0
122 -915 0
821 -915 0
-811 -915 -916 0
811 915 -916 0
811 -915 916 0
-811 915 916 0
-916 -914 -917 0
916 914 -917 0
916 -914 917 0
-916 914 917 0
-916 -914 918 0
916 -918 0
914 -918 0
-811 -915 919 0
811 -919 0
915 -919 0
918 919 -920 0
-918 920 0
-919 920 0
-130 -821 921 0
130 -921 0
821 -921 0
-817 -921 -922 0
817 921 -922 0
817 -921 922 0
-817 921 922 0
-922 -920 -923 0
922 920 -923 0
922 -920 923 0
-922 920 923 0
-922 -920 924 0
922 -924 0
920 -924 0
-817 -921 925 0
817 -925 0
921 -925 0
924 925 -926 0
-924 926 0
-925 926 0
-138 -821 927 0
138 -927 0
821 -927 0
-820 -927 -928 0
820 927 -928 0
820 -927 928 0
-820 927 928 0
-928 -926 -929 0
928 926 -929 0
928 -926 929 0
-928 926 929 0
-928 -926 930 0
928 -930 0
926 -930 0
-820 -927 931 0
820 -931 0
927 -931 0
930 931 -932 0
-930 932 0
-931 932 0
-1 -933 934 0
1 -934 0
933 -934 0
-827 -934 -935 0
827 934 -935 0
827 -934 935 0
-827 934 935 0
-827 -934 936 0
827 -936 0
934 -936 0
-4 -933 937 0
4 -937 0
933 -937 0
-833 -937 -938 0
833 937 -938 0
833 -937 938 0
-833 937 938 0
-938 -936 -939 0
938 936 -939 0
938 -936 939 0
-938 936 939 0
-938 -936 940 0
938 -940 0
936 -940 0
-833 -937 941 0
833 -941 0
937 -941 0
940 941 -942 0
-940 942 0
-941 942 0
-10 -933 943 0
10 -943 0
933 -943 0
-839 -943 -944 0
839 943 -944 0
839 -943 944 0
-839 943 944 0
-944 -942 -945 0
944 942 -945 0
944 -942 945 0
-944 942 945 0
-944 -942 946 0
944 -946 0
942 -946 0
-839 -943 947 0
839 -947 0
943 -947 0
946 947 -948 0
-946 948 0
-947 948 0
-18 -933 949 0
18 -949 0
933 -949 0
-845 -949 -950 0
845 949 -950 0
845 -949 950 0
-845 949 950 0
-950 -948 -951 0
950 948 -951 0
950 -948 951 0
-950 948 951 0
-950 -948 952 0
950 -952 0
948 -952 0
-845 -949 953 0
845 -953 0
949 -953 0
952 953 -954 0
-952 954 0
-953 954 0
-26 -933 955 0
26 -955 0
933 -955 0
-851 -955 -956 0
851 955 -956 0
851 -955 956 0
-851 955 956 0
-956 -954 -957 0
956 954 -957 0
956 -954 957 0
-956 954 957 0
-956 -954 958 0
956 -958 0
954 -958 0
-851 -955 959 0
851 -959 0
955 -959 0
958 959 -960 0
-958 960 0
-959 960 0
-34 -933 961 0
34 -961 0
933 -961 0
-857 -961 -962 0
857 961 -962 0
857 -961 962 0
-857 961 962 0
-962 -960 -963 0
962 960 -963 0
962 -960 963 0
-962 960 963 0
-962 -960 964 0
962 -964 0
960 -964 0
-857 -961 965 0
857 -965 0
961 -965 0
964 965 -966 0
-964 966 0
-965 966 0
-42 -933 967 0
42 -967 0
933 -967 0
-863 -967 -968 0
863 967 -968 0
863 -967 968 0
-863 967 968 0
-968 -966 -969 0
968 966 -969 0
968 -966 969 0
-968 966 969 0
-968 -966 970 0
968 -970 0
966 -970 0
-863 -967 971 0
863 -971 0
967 -971 0
970 971 -972 0
-970 972 0
-971 972 0
-50 -933 973 0
50 -973 0
933 -973 0
-869 -973 -974 0
869 973 -974 0
869 -973 974 0
-869 973 974 0
-974 -972 -975 0
974 972 -975 0
974 -972 975 0
-974 972 975 0
-974 -972 976 0
974 -976 0
972 -976 0
-869 -973 977 0
869 -977 0
973 -977 0
976 977 -978 0
-976 978 0
-977 978 0
-58 -933 979 0
58 -979 0
933 -979 0
-875 -979 -980 0
875 979 -980 0
875 -979 980 0
-875 979 980 0
-980 -978 -981 0
980 978 -981 0
980 -978 981 0
-980 978 981 0
-980 -978 982 0
980 -982 0
978 -982 0
-875 -979 983 0
875 -983 0
979 -983 0
982 983 -984 0
-982 984 0
-983 984 0
-66 -933 985 0
66 -985 0
933 -985 0
-881 -985 -986 0
881 985 -986 0
881 -985 986 0
-881 985 986 0
-986 -984 -987 0
986 984 -987 0
986 -984 987 0
-986 984 987 0
-986 -984 988 0
986 -988 0
984 -988 0
-881 -985 989 0
881 -989 0
985 -989 0
988 989 -990 0
-988 990 0
-989 990 0
-74 -933 991 0
74 -991 0
933 -991 0
-887 -991 -992 0
887 991 -992 0
887 -991 992 0
-887 991 992 0
-992 -990 -993 0
992 990 -993 0
992 -990 993 0
-992 990 993 0
-992 -990 994 0
992 -994 0
990 -994 0
-887 -991 995 0
887 -995 0
991 -995 0
994 995 -996 0
-994 996 0
-995 996 0
-82 -933 997 0
82 -997 0
933 -997 0
-893 -997 -998 0
893 997 -998 0
893 -997 998 0
-893 997 998 0
-998 -996 -999 0
998 996 -999 0
998 -996 999 0
-998 996 999 0
-998 -996 1000 0
998 -1000 0
996 -1000 0
-893 -997 1001 0
893 -1001 0
997 -1001 0
1000 1001 -1002 0
-1000 1002 0
-1001 1002 0
-90 -933 1003 0
90 -1003 0
933 -1003 0
-899 -1003 -1004 0
899 1003 -1004 0
899 -1003 1004 0
-899 1003 1004 0
-1004 -1002 -1005 0
1004 1002 -1005 0
1004 -1002 1005 0
-1004 1002 1005 0
-1004 -1002 1006 0
1004 -1006 0
1002 -1006 0
-899 -1003 1007 0
899 -1007 0
1003 -1007 0
1006 1007 -1008 0
-1006 1008 0
-1007 1008 0
-98 -933 1009 0
98 -1009 0
933 -1009 0
-905 -1009 -1010 0
905 1009 -1010 0
905 -1009 1010 0
-905 1009 1010 0
-1010 -1008 -1011 0
1010 1008 -1011 0
1010 -1008 1011 0
-1010 1008 1011 0
-1010 -1008 1012 0
1010 -1012 0
1008 -1012 0
-905 -1009 1013 0
905 -1013 0
1009 -1013 0
1012 1013 -1014 0
-1012 1014 0
-1013 1014 0
-106 -933 1015 0
106 -1015 0
933 -1015 0
-911 -1015 -1016 0
911 1015 -1016 0
911 -1015 1016 0
-911 1015 1016 0
-1016 -1014 -1017 0
1016 1014 -1017 0
1016 -1014 1017 0
-1016 1014 1017 0
-1016 -1014 1018 0
1016 -1018 0
1014 -1018 0
-911 -1015 1019 0
911 -1019 0
1015 -1019 0
1018 1019 -1020 0
-1018 1020 0
-1019 1020 0
-114 -933 1021 0
114 -1021 0
933 -1021 0
-917 -1021 -1022 0
917 1021 -1022 0
917 -1021 1022 0
-917 1021 1022 0
-1022 -1020 -1023 0
1022 1020 -1023 0
1022 -1020 1023 0
-1022 1020 1023 0
-1022 -1020 1024 0
1022 -1024 0
1020 -1024 0
-917 -1021 1025 0
917 -1025 0
1021 -1025 0
1024 1025 -1026 0
-1024 1026 0
-1025 1026 0
-122 -933 1027 0
122 -1027 0
933 -1027 0
-923 -1027 -1028 0
923 1027 -1028 0
923 -1027 1028 0
-923 1027 1028 0
-1028 -1026 -1029 0
1028 1026 -1029 0
1028 -1026 1029 0
-1028 1026 1029 0
-1028 -1026 1030 0
1028 -1030 0
1026 -1030 0
-923 -1027 1031 0
923 -1031 0
1027 -1031 0
1030 1031 -1032 0
-1030 1032 0
-1031 1032 0
-130 -933 1033 0
130 -1033 0
933 -1033 0
-929 -1033 -1034 0
929 1033 -1034 0
929 -1033 1034 0
-929 1033 1034 0
-1034 -1032 -1035 0
1034 1032 -1035 0
1034 -1032 1035 0
-1034 1032 1035 0
-1034 -1032 1036 0
1034 -1036 0
1032 -1036 0
-929 -1033 1037 0
929 -1037 0
1033 -1037 0
1036 1037 -1038 0
-1036 1038 0
-1037 1038 0
-138 -933 1039 0
138 -1039 0
933 -1039 0
-932 -1039 -1040 0
932 1039 -1040 0
932 -1039 1040 0
-932 1039 1040 0
-1040 -1038 -1041 0
1040 1038 -1041 0
1040 -1038 1041 0
-1040 1038 1041 0
-1040 -1038 1042 0
1040 -1042 0
1038 -1042 0
-932 -1039 1043 0
932 -1043 0
1039 -1043 0
1042 1043 -1044 0
-1042 1044 0
-1043 1044 0
-1 -1045 1046 0
1 -1046 0
1045 -1046 0
-939 -1046 -1047 0
939 1046 -1047 0
939 -1046 1047 0
-939 1046 1047 0
-939 -1046 1048 0
939 -1048 0
1046 -1048 0
-4 -1045 1049 0
4 -1049 0
1045 -1049 0
-945 -1049 -1050 0
945 1049 -1050 0
945 -1049 1050 0
-945 1049 1050 0
-1050 -1048 -1051 0
1050 1048 -1051 0
1050 -1048 1051 0
-1050 1048 1051 0
-1050 -1048 1052 0
1050 -1052 0
1048 -1052 0
-945 -1049 1053 0
945 -1053 0
1049 -1053 0
1052 1053 -1054 0
-1052 1054 0
-1053 1054 0
-10 -1045 1055 0
10 -1055 0
1045 -1055 0
-951 -1055 -1056 0
951 1055 -1056 0
951 -1055 1056 0
-951 1055 1056 0
-1056 -1054 -1057 0
1056 1054 -1057 0
1056 -1054 1057 0
-1056 1054 1057 0
-1056 -1054 1058 0
1056 -1058 0
1054 -1058 0
-951 -1055 1059 0
951 -1059 0
1055 -1059 0
1058 1059 -1060 0
-1058 1060 0
-1059 1060 0
-18 -1045 1061 0
18 -1061 0
1045 -1061 0
-957 -1061 -1062 0
957 1061 -1062 0
957 -1061 1062 0
-957 1061 1062 0
-1062 -1060 -1063 0
1062 1060 -1063 0
1062 -1060 1063 0
-1062 1060 1063 0
-1062 -1060 1064 0
1062 -1064 0
1060 -1064 0
-957 -1061 1065 0
957 -1065 0
1061 -1065 0
1064 1065 -1066 0
-1064 1066 0
-1065 1066 0
-26 -1045 1067 0
26 -1067 0
1045 -1067 0
-963 -1067 -1068 0
963 1067 -1068 0
963 -1067 1068 0
-963 1067 1068 0
-1068 -1066 -1069 0
1068 1066 -1069 0
1068 -1066 1069 0
-1068 1066 1069 0
-1068 -1066 1070 0
1068 -1070 0
1066 -1070 0
-963 -1067 1071 0
963 -1071 0
1067 -1071 0
1070 1071 -1072 0
-1070 1072 0
-1071 1072 0
-34 -1045 1073 0
34 -1073 0
1045 -1073 0
-969 -1073 -1074 0
969 1073 -1074 0
969 -1073 1074 0
-969 1073 1074 0
-1074 -1072 -1075 0
1074 1072 -1075 0
1074 -1072 1075 0
-1074 1072 1075 0
-1074 -1072 1076 0
1074 -1076 0
1072 -1076 0
-969 -1073 1077 0
969 -1077 0
1073 -1077 0
1076 1077 -1078 0
-1076 1078 0
-1077 1078 0
-42 -1045 1079 0
42 -1079 0
1045 -1079 0
-975 -1079 -1080 0
975 1079 -1080 0
975 -1079 1080 0
-975 1079 1080 0
-1080 -1078 -1081 0
1080 1078 -1081 0
1080 -1078 1081 0
-1080 1078 1081 0
-1080 -1078 1082 0
1080 -1082 0
1078 -1082 0
-975 -1079 1083 0
975 -1083 0
1079 -1083 0
1082 1083 -1084 0
-1082 1084 0
-1083 1084 0
-50 -1045 1085 0
50 -1085 0
1045 -1085 0
-981 -1085 -1086 0
981 1085 -1086 0
981 -1085 1086 0
-981 1085 1086 0
-1086 -1084 -1087 0
1086 1084 -1087 0
1086 -1084 1087 0
-1086 1084 1087 0
-1086 -1084 1088 0
1086 -1088 0
1084 -1088 0
-981 -1085 1089 0
981 -1089 0
1085 -1089 0
1088 1089 -1090 0
-1088 1090 0
-1089 1090 0
-58 -1045 1091 0
58 -1091 0
1045 -1091 0
-987 -1091 -1092 0
987 1091 -1092 0
987 -1091 1092 0
-987 1091 1092 0
-1092 -1090 -1093 0
1092 1090 -1093 0
1092 -1090 1093 0
-1092 1090 1093 0
-1092 -1090 1094 0
1092 -1094 0
1090 -1094 0
-987 -1091 1095 0
987 -1095 0
1091 -1095 0
1094 1095 -1096 0
-1094 1096 0
-1095 1096 0
-66 -1045 1097 0
66 -1097 0
1045 -1097 0
-993 -1097 -1098 0
993 1097 -1098 0
993 -1097 1098 0
-993 1097 1098 0
-1098 -1096 -1099 0
1098 1096 -1099 0
1098 -1096 1099 0
-1098 1096 1099 0
-1098 -1096 1100 0
1098 -1100 0
1096 -1100 0
-993 -1097 1101 0
993 -1101 0
1097 -1101 0
1100 1101 -1102 0
-1100 1102 0
-1101 1102 0
-74 -1045 1103 0
74 -1103 0
1045 -1103 0
-999 -1103 -1104 0
999 1103 -1104 0
999 -1103 1104 0
-999 1103 1104 0
-1104 -1102 -1105 0
1104 1102 -1105 0
1104 -1102 1105 0
-1104 1102 1105 0
-1104 -1102 1106 0
1104 -1106 0
1102 -1106 0
-999 -1103 1107 0
999 -1107 0
1103 -1107 0
1106 1107 -1108 0
-1106 1108 0
-1107 1108 0
-82 -1045 1109 0
82 -1109 0
1045 -1109 0
-1005 -1109 -1110 0
1005 1109 -1110 0
1005 -1109 1110 0
-1005 1109 1110 0
-1110 -1108 -1111 0
1110 1108 -1111 0
1110 -1108 1111 0
-1110 1108 1111 0
-1110 -1108 1112 0
1110 -1112 0
1108 -1112 0
-1005 -1109 1113 0
1005 -1113 0
1109 -1113 0
1112 1113 -1114 0
-1112 1114 0
-1113 1114 0
-90 -1045 1115 0
90 -1115 0
1045 -1115 0
-1011 -1115 -1116 0
1011 1115 -1116 0
1011 -1115 1116 0
-1011 1115 1116 0
-1116 -1114 -1117 0
1116 1114 -1117 0
1116 -1114 1117 0
-1116 1114 1117 0
-1116 -1114 1118 0
1116 -1118 0
1114 -1118 0
-1011 -1115 1119 0
1011 -1119 0
1115 -1119 0
1118 1119 -1120 0
-1118 1120 0
-1119 1120 0
-98 -1045 1121 0
98 -1121 0
1045 -1121 0
-1017 -1121 -1122 0
1017 1121 -1122 0
1017 -1121 1122 0
-1017 1121 1122 0
-1122 -1120 -1123 0
1122 1120 -1123 0
1122 -1120 1123 0
-1122 1120 1123 0
-1122 -1120 1124 0
1122 -1124 0
1120 -1124 0
-1017 -1121 1125 0
1017 -1125 0
1121 -1125 0
1124 1125 -1126 0
-1124 1126 0
-1125 1126 0
-106 -1045 1127 0
106 -1127 0
1045 -1127 0
-1023 -1127 -1128 0
1023 1127 -1128 0
1023 -1127 1128 0
-1023 1127 1128 0
-1128 -1126 -1129 0
1128 1126 -1129 0
1128 -1126 1129 0
-1128 1126 1129 0
-1128 -1126 1130 0
1128 -1130 0
1126 -1130 0
-1023 -1127 1131 0
1023 -1131 0
1127 -1131 0
1130 1131 -1132 0
-1130 1132 0
-1131 1132 0
-114 -1045 1133 0
114 -1133 0
1045 -1133 0
-1029 -1133 -1134 0
1029 1133 -1134 0
1029 -1133 1134 0
-1029 1133 1134 0
-1134 -1132 -1135 0
1134 1132 -1135 0
1134 -1132 1135 0
-1134 1132 1135 0
-1134 -1132 1136 0
1134 -1136 0
1132 -1136 0
-1029 -1133 1137 0
1029 -1137 0
1133 -1137 0
1136 1137 -1138 0
-1136 1138 0
-1137 1138 0
-122 -1045 1139 0
122 -1139 0
1045 -1139 0
-1035 -1139 -1140 0
1035 1139 -1140 0
1035 -1139 1140 0
-1035 1139 1140 0
-1140 -1138 -1141 0
1140 1138 -1141 0
1140 -1138 1141 0
-1140 1138 1141 0
-1140 -1138 1142 0
1140 -1142 0
1138 -1142 0
-1035 -1139 1143 0
1035 -1143 0
1139 -1143 0
1142 1143 -1144 0
-1142 1144 0
-1143 1144 0
-130 -1045 1145 0
130 -1145 0
1045 -1145 0
-1041 -1145 -1146 0
1041 1145 -1146 0
1041 -1145 1146 0
-1041 1145 1146 0
-1146 -1144 -1147 0
1146 1144 -1147 0
1146 -1144 1147 0
-1146 1144 1147 0
-1146 -1144 1148 0
1146 -1148 0
1144 -1148 0
-1041 -1145 1149 0
1041 -1149 0
1145 -1149 0
1148 1149 -1150 0
-1148 1150 0
-1149 1150 0
-138 -1045 1151 0
138 -1151 0
1045 -1151 0
-1044 -1151 -1152 0
1044 1151 -1152 0
1044 -1151 1152 0
-1044 1151 1152 0
-1152 -1150 -1153 0
1152 1150 -1153 0
1152 -1150 1153 0
-1152 1150 1153 0
-1152 -1150 1154 0
1152 -1154 0
1150 -1154 0
-1044 -1151 1155 0
1044 -1155 0
1151 -1155 0
1154 1155 -1156 0
-1154 1156 0
-1155 1156 0
-1 -1157 1158 0
1 -1158 0
1157 -1158 0
-1051 -1158 -1159 0
1051 1158 -1159 0
1051 -1158 1159 0
-1051 1158 1159 0
-1051 -1158 1160 0
1051 -1160 0
1158 -1160 0
-4 -1157 1161 0
4 -1161 0
1157 -1161 0
-1057 -1161 -1162 0
1057 1161 -1162 0
1057 -1161 1162 0
-1057 1161 1162 0
-1162 -1160 -1163 0
1162 1160 -1163 0
1162 -1160 1163 0
-1162 1160 1163 0
-1162 -1160 1164 0
1162 -1164 0
1160 -1164 0
-1057 -1161 1165 0
1057 -1165 0
1161 -1165 0
1164 1165 -1166 0
-1164 1166 0
-1165 1166 0
-10 -1157 1167 0
10 -1167 0
1157 -1167 0
-1063 -1167 -1168 0
1063 1167 -1168 0
1063 -1167 1168 0
-1063 1167 1168 0
-1168 -1166 -1169 0
1168 1166 -1169 0
1168 -1166 1169 0
-1168 1166 1169 0
-1168 -1166 1170 0
1168 -1170 0
1166 -1170 0
-1063 -1167 1171 0
1063 -1171 0
1167 -1171 0
1170 1171 -1172 0
-1170 1172 0
-1171 1172 0
-18 -1157 1173 0
18 -1173 0
1157 -1173 0
-1069 -1173 -1174 0
1069 1173 -1174 0
1069 -1173 1174 0
-1069 1173 1174 0
-1174 -1172 -1175 0
1174 1172 -1175 0
1174 -1172 1175 0
-1174 1172 1175 0
-1174 -1172 1176 0
1174 -1176 0
1172 -1176 0
-1069 -1173 1177 0
1069 -1177 0
1173 -1177 0
1176 1177 -1178 0
-1176 1178 0
-1177 1178 0
-26 -1157 1179 0
26 -1179 0
1157 -1179 0
-1075 -1179 -1180 0
1075 1179 -1180 0
1075 -1179 1180 0
-1075 1179 1180 0
-1180 -1178 -1181 0
1180 1178 -1181 0
1180 -1178 1181 0
-1180 1178 1181 0
-1180 -1178 1182 0
1180 -1182 0
1178 -1182 0
-1075 -1179 1183 0
1075 -1183 0
1179 -1183 0
1182 1183 -1184 0
-1182 1184 0
-1183 1184 0
-34 -1157 1185 0
34 -1185 0
1157 -1185 0
-1081 -1185 -1186 0
1081 1185 -1186 0
1081 -1185 1186 0
-1081 1185 1186 0
-1186 -1184 -1187 0
1186 1184 -1187 0
1186 -1184 1187 0
-1186 1184 1187 0
-1186 -1184 1188 0
1186 -1188 0
1184 -1188 0
-1081 -1185 1189 0
1081 -1189 0
1185 -1189 0
1188 1189 -1190 0
-1188 1190 0
-1189 1190 0
-42 -1157 1191 0
42 -1191 0
1157 -1191 0
-1087 -1191 -1192 0
1087 1191 -1192 0
1087 -1191 1192 0
-1087 1191 1192 0
-1192 -1190 -1193 0
1192 1190 -1193 0
1192 -1190 1193 0
-1192 1190 1193 0
-1192 -1190 1194 0
1192 -1194 0
1190 -1194 0
-1087 -1191 1195 0
1087 -1195 0
1191 -1195 0
1194 1195 -1196 0
-1194 1196 0
-1195 1196 0
-50 -1157 1197 0
50 -1197 0
1157 -1197 0
-1093 -1197 -1198 0
1093 1197 -1198 0
1093 -1197 1198 0
-1093 1197 1198 0
-1198 -1196 -1199 0
1198 1196 -1199 0
1198 -1196 1199 0
-1198 1196 1199 0
-1198 -1196 1200 0
1198 -1200 0
1196 -1200 0
-1093 -1197 1201 0
1093 -1201 0
1197 -1201 0
1200 1201 -1202 0
-1200 1202 0
-1201 1202 0
-58 -1157 1203 0
58 -1203 0
1157 -1203 0
-1099 -1203 -1204 0
1099 1203 -1204 0
1099 -1203 1204 0
-1099 1203 1204 0
-1204 -1202 -1205 0
1204 1202 -1205 0
1204 -1202 1205 0
-1204 1202 1205 0
-1204 -1202 1206 0
1204 -1206 0
1202 -1206 0
-1099 -1203 1207 0
1099 -1207 0
1203 -1207 0
1206 1207 -1208 0
-1206 1208 0
-1207 1208 0
-66 -1157 1209 0
66 -1209 0
1157 -1209 0
-1105 -1209 -1210 0
1105 1209 -1210 0
1105 -1209 1210 0
-1105 1209 1210 0
-1210 -1208 -1211 0
1210 1208 -1211 0
1210 -1208 1211 0
-1210 1208 1211 0
-1210 -1208 1212 0
1210 -1212 0
1208 -1212 0
-1105 -1209 1213 0
1105 -1213 0
1209 -1213 0
1212 1213 -1214 0
-1212 1214 0
-1213 1214 0
-74 -1157 1215 0
74 -1215 0
1157 -1215 0
-1111 -1215 -1216 0
1111 1215 -1216 0
1111 -1215 1216 0
-1111 1215 1216 0
-1216 -1214 -1217 0
1216 1214 -1217 0
1216 -1214 1217 0
-1216 1214 1217 0
-1216 -1214 1218 0
1216 -1218 0
1214 -1218 0
-1111 -1215 1219 0
1111 -1219 0
1215 -1219 0
1218 1219 -1220 0
-1218 1220 0
-1219 1220 0
-82 -1157 1221 0
82 -1221 0
1157 -1221 0
-1117 -1221 -1222 0
1117 1221 -1222 0
1117 -1221 1222 0
-1117 1221 1222 0
-1222 -1220 -1223 0
1222 1220 -1223 0
1222 -1220 1223 0
-1222 1220 1223 0
-1222 -1220 1224 0
1222 -1224 0
1220 -1224 0
-1117 -1221 1225 0
1117 -1225 0
1221 -1225 0
1224 1225 -1226 0
-1224 1226 0
-1225 1226 0
-90 -1157 1227 0
90 -1227 0
1157 -1227 0
-1123 -1227 -1228 0
1123 1227 -1228 0
1123 -1227 1228 0
-1123 1227 1228 0
-1228 -1226 -1229 0
1228 1226 -1229 0
1228 -1226 1229 0
-1228 1226 1229 0
-1228 -1226 1230 0
1228 -1230 0
1226 -1230 0
-1123 -1227 1231 0
1123 -1231 0
1227 -1231 0
1230 1231 -1232 0
-1230 1232 0
-1231 1232 0
-98 -1157 1233 0
98 -1233 0
1157 -1233 0
-1129 -1233 -1234 0
1129 1233 -1234 0
1129 -1233 1234 0
-1129 1233 1234 0
-1234 -1232 -1235 0
1234 1232 -1235 0
1234 -1232 1235 0
-1234 1232 1235 0
-1234 -1232 1236 0
1234 -1236 0
1232 -1236 0
-1129 -1233 1237 0
1129 -1237 0
1233 -1237 0
1236 1237 -1238 0
-1236 1238 0
-1237 1238 0
-106 -1157 1239 0
106 -1239 0
1157 -1239 0
-1135 -1239 -1240 0
1135 1239 -1240 0
1135 -1239 1240 0
-1135 1239 1240 0
-1240 -1238 -1241 0
1240 1238 -1241 0
1240 -1238 1241 0
-1240 1238 1241 0
-1240 -1238 1242 0
1240 -1242 0
1238 -1242 0
-1135 -1239 1243 0
1135 -1243 0
1239 -1243 0
1242 1243 -1244 0
-1242 1244 0
-1243 1244 0
-114 -1157 1245 0
114 -1245 0
1157 -1245 0
-1141 -1245 -1246 0
1141 1245 -1246 0
1141 -1245 1246 0
-1141 1245 1246 0
-1246 -1244 -1247 0
1246 1244 -1247 0
1246 -1244 1247 0
-1246 1244 1247 0
-1246 -1244 1248 0
1246 -1248 0
1244 -1248 0
-1141 -1245 1249 0
1141 -1249 0
1245 -1249 0
1248 1249 -1250 0
-1248 1250 0
-1249 1250 0
-122 -1157 1251 0
122 -1251 0
1157 -1251 0
-1147 -1251 -1252 0
1147 1251 -1252 0
1147 -1251 1252 0
-1147 1251 1252 0
-1252 -1250 -1253 0
1252 1250 -1253 0
1252 -1250 1253 0
-1252 1250 1253 0
-1252 -1250 1254 0
1252 -1254 0
1250 -1254 0
-1147 -1251 1255 0
1147 -1255 0
1251 -1255 0
1254 1255 -1256 0
-1254 1256 0
-1255 1256 0
-130 -1157 1257 0
130 -1257 0
1157 -1257 0
-1153 -1257 -1258 0
1153 1257 -1258 0
1153 -1257 1258 0
-1153 1257 1258 0
-1258 -1256 -1259 0
1258 1256 -1259 0
1258 -1256 1259 0
-1258 1256 1259 0
-1258 -1256 1260 0
1258 -1260 0
1256 -1260 0
-1153 -1257 1261 0
1153 -1261 0
1257 -1261 0
1260 1261 -1262 0
-1260 1262 0
-1261 1262 0
-138 -1157 1263 0
138 -1263 0
1157 -1263 0
-1156 -1263 -1264 0
1156 1263 -1264 0
1156 -1263 1264 0
-1156 1263 1264 0
-1264 -1262 -1265 0
1264 1262 -1265 0
1264 -1262 1265 0
-1264 1262 1265 0
-1264 -1262 1266 0
1264 -1266 0
1262 -1266 0
-1156 -1263 1267 0
1156 -1267 0
1263 -1267 0
1266 1267 -1268 0
-1266 1268 0
-1267 1268 0
-1 -1269 1270 0
1 -1270 0
1269 -1270 0
-1163 -1270 -1271 0
1163 1270 -1271 0
1163 -1270 1271 0
-1163 1270 1271 0
-1163 -1270 1272 0
1163 -1272 0
1270 -1272 0
-4 -1269 1273 0
4 -1273 0
1269 -1273 0
-1169 -1273 -1274 0
1169 1273 -1274 0
1169 -1273 1274 0
-1169 1273 1274 0
-1274 -1272 -1275 0
1274 1272 -1275 0
1274 -1272 1275 0
-1274 1272 1275 0
-1274 -1272 1276 0
1274 -1276 0
1272 -1276 0
-1169 -1273 1277 0
1169 -1277 0
1273 -1277 0
1276 1277 -1278 0
-1276 1278 0
-1277 1278 0
-10 -1269 1279 0
10 -1279 0
1269 -1279 0
-1175 -1279 -1280 0
1175 1279 -1280 0
1175 -1279 1280 0
-1175 1279 1280 0
-1280 -1278 -1281 0
1280 1278 -1281 0
1280 -1278 1281 0
-1280 1278 1281 0
-1280 -1278 1282 0
1280 -1282 0
1278 -1282 0
-1175 -1279 1283 0
1175 -1283 0
1279 -1283 0
1282 1283 -1284 0
-1282 1284 0
-1283 1284 0
-18 -1269 1285 0
18 -1285 0
1269 -1285 0
-1181 -1285 -1286 0
1181 1285 -1286 0
1181 -1285 1286 0
-1181 1285 1286 0
-1286 -1284 -1287 0
1286 1284 -1287 0
1286 -1284 1287 0
-1286 1284 1287 0
-1286 -1284 1288 0
1286 -1288 0
1284 -1288 0
-1181 -1285 1289 0
1181 -1289 0
1285 -1289 0
1288 1289 -1290 0
-1288 1290 0
-1289 1290 0
-26 -1269 1291 0
26 -1291 0
1269 -1291 0
-1187 -1291 -1292 0
1187 1291 -1292 0
1187 -1291 1292 0
-1187 1291 1292 0
-1292 -1290 -1293 0
1292 1290 -1293 0
1292 -1290 1293 0
-1292 1290 1293 0
-1292 -1290 1294 0
1292 -1294 0
1290 -1294 0
-1187 -1291 1295 0
1187 -1295 0
1291 -1295 0
1294 1295 -1296 0
-1294 1296 0
-1295 1296 0
-34 -1269 1297 0
34 -1297 0
1269 -1297 0
-1193 -1297 -1298 0
1193 1297 -1298 0
1193 -1297 1298 0
-1193 1297 1298 0
-1298 -1296 -1299 0
1298 1296 -1299 0
1298 -1296 1299 0
-1298 1296 1299 0
-1298 -1296 1300 0
1298 -1300 0
1296 -1300 0
-1193 -1297 1301 0
1193 -1301 0
1297 -1301 0
1300 1301 -1302 0
-1300 1302 0
-1301 1302 0
-42 -1269 1303 0
42 -1303 0
1269 -1303 0
-1199 -1303 -1304 0
1199 1303 -1304 0
1199 -1303 1304 0
-1199 1303 1304 0
-1304 -1302 -1305 0
1304 1302 -1305 0
1304 -1302 1305 0
-1304 1302 1305 0
-1304 -1302 1306 0
1304 -1306 0
1302 -1306 0
-1199 -1303 1307 0
1199 -1307 0
1303 -1307 0
1306 1307 -1308 0
-1306 1308 0
-1307 1308 0
-50 -1269 1309 0
50 -1309 0
1269 -1309 0
-1205 -1309 -1310 0
1205 1309 -1310 0
1205 -1309 1310 0
-1205 1309 1310 0
-1310 -1308 -1311 0
1310 1308 -1311 0
1310 -1308 1311 0
-1310 1308 1311 0
-1310 -1308 1312 0
1310 -1312 0
1308 -1312 0
-1205 -1309 1313 0
1205 -1313 0
1309 -1313 0
1312 1313 -1314 0
-1312 1314 0
-1313 1314 0
-58 -1269 1315 0
58 -1315 0
1269 -1315 0
-1211 -1315 -1316 0
1211 1315 -1316 0
1211 -1315 1316 0
-1211 1315 1316 0
-1316 -1314 -1317 0
1316 1314 -1317 0
1316 -1314 1317 0
-1316 1314 1317 0
-1316 -1314 1318 0
1316 -1318 0
1314 -1318 0
-1211 -1315 1319 0
1211 -1319 0
1315 -1319 0
1318 1319 -1320 0
-1318 1320 0
-1319 1320 0
-66 -1269 1321 0
66 -1321 0
1269 -1321 0
-1217 -1321 -1322 0
1217 1321 -1322 0
1217 -1321 1322 0
-1217 1321 1322 0
-1322 -1320 -1323 0
1322 1320 -1323 0
1322 -1320 1323 0
-1322 1320 1323 0
-1322 -1320 1324 0
1322 -1324 0
1320 -1324 0
-1217 -1321 1325 0
1217 -1325 0
1321 -1325 0
1324 1325 -1326 0
-1324 1326 0
-1325 1326 0
-74 -1269 1327 0
74 -1327 0
1269 -1327 0
-1223 -1327 -1328 0
1223 1327 -1328 0
1223 -1327 1328 0
-1223 1327 1328 0
-1328 -1326 -1329 0
1328 1326 -1329 0
1328 -1326 1329 0
-1328 1326 1329 0
-1328 -1326 1330 0
1328 -1330 0
1326 -1330 0
-1223 -1327 1331 0
1223 -1331 0
1327 -1331 0
1330 1331 -1332 0
-1330 1332 0
-1331 1332 0
-82 -1269 1333 0
82 -1333 0
1269 -1333 0
-1229 -1333 -1334 0
1229 1333 -1334 0
1229 -1333 1334 0
-1229 1333 1334 0
-1334 -1332 -1335 0
1334 1332 -1335 0
1334 -1332 1335 0
-1334 1332 1335 0
-1334 -1332 1336 0
1334 -1336 0
1332 -1336 0
-1229 -1333 1337 0
1229 -1337 0
1333 -1337 0
1336 1337 -1338 0
-1336 1338 0
-1337 1338 0
-90 -1269 1339 0
90 -1339 0
1269 -1339 0
-1235 -1339 -1340 0
1235 1339 -1340 0
1235 -1339 1340 0
-1235 1339 1340 0
-1340 -1338 -1341 0
1340 1338 -1341 0
1340 -1338 1341 0
-1340 1338 1341 0
-1340 -1338 1342 0
1340 -1342 0
1338 -1342 0
-1235 -1339 1343 0
1235 -1343 0
1339 -1343 0
1342 1343 -1344 0
-1342 1344 0
-1343 1344 0
-98 -1269 1345 0
98 -1345 0
1269 -1345 0
-1241 -1345 -1346 0
1241 1345 -1346 0
1241 -1345 1346 0
-1241 1345 1346 0
-1346 -1344 -1347 0
1346 1344 -1347 0
1346 -1344 1347 0
-1346 1344 1347 0
-1346 -1344 1348 0
1346 -1348 0
1344 -1348 0
-1241 -1345 1349 0
1241 -1349 0
1345 -1349 0
1348 1349 -1350 0
-1348 1350 0
-1349 1350 0
-106 -1269 1351 0
106 -1351 0
1269 -1351 0
-1247 -1351 -1352 0
1247 1351 -1352 0
1247 -1351 1352 0
-1247 1351 1352 0
-1352 -1350 -1353 0
1352 1350 -1353 0
1352 -1350 1353 0
-1352 1350 1353 0
-1352 -1350 1354 0
1352 -1354 0
1350 -1354 0
-1247 -1351 1355 0
1247 -1355 0
1351 -1355 0
1354 1355 -1356 0
-1354 1356 0
-1355 1356 0
-114 -1269 1357 0
114 -1357 0
1269 -1357 0
-1253 -1357 -1358 0
1253 1357 -1358 0
1253 -1357 1358 0
-1253 1357 1358 0
-1358 -1356 -1359 0
1358 1356 -1359 0
1358 -1356 1359 0
-1358 1356 1359 0
-1358 -1356 1360 0
1358 -1360 0
1356 -1360 0
-1253 -1357 1361 0
1253 -1361 0
1357 -1361 0
1360 1361 -1362 0
-1360 1362 0
-1361 1362 0
-122 -1269 1363 0
122 -1363 0
1269 -1363 0
-1259 -1363 -1364 0
1259 1363 -1364 0
1259 -1363 1364 0
-1259 1363 1364 0
-1364 -1362 -1365 0
1364 1362 -1365 0
1364 -1362 1365 0
-1364 1362 1365 0
-1364 -1362 1366 0
1364 -1366 0
1362 -1366 0
-1259 -1363 1367 0
1259 -1367 0
1363 -1367 0
1366 1367 -1368 0
-1366 1368 0
-1367 1368 0
-130 -1269 1369 0
130 -1369 0
1269 -1369 0
-1265 -1369 -1370 0
1265 1369 -1370 0
1265 -1369 1370 0
-1265 1369 1370 0
-1370 -1368 -1371 0
1370 1368 -1371 0
1370 -1368 1371 0
-1370 1368 1371 0
-1370 -1368 1372 0
1370 -1372 0
1368 -1372 0
-1265 -1369 1373 0
1265 -1373 0
1369 -1373 0
1372 1373 -1374 0
-1372 1374 0
-1373 1374 0
-138 -1269 1375 0
138 -1375 0
1269 -1375 0
-1268 -1375 -1376 0
1268 1375 -1376 0
1268 -1375 1376 0
-1268 1375 1376 0
-1376 -1374 -1377 0
1376 1374 -1377 0
1376 -1374 1377 0
-1376 1374 1377 0
-1376 -1374 1378 0
1376 -1378 0
1374 -1378 0
-1268 -1375 1379 0
1268 -1379 0
1375 -1379 0
1378 1379 -1380 0
-1378 1380 0
-1379 1380 0
-1 -1381 1382 0
1 -1382 0
1381 -1382 0
-1275 -1382 -1383 0
1275 1382 -1383 0
1275 -1382 1383 0
-1275 1382 1383 0
-1275 -1382 1384 0
1275 -1384 0
1382 -1384 0
-4 -1381 1385 0
4 -1385 0
1381 -1385 0
-1281 -1385 -1386 0
1281 1385 -1386 0
1281 -1385 1386 0
-1281 1385 1386 0
-1386 -1384 -1387 0
1386 1384 -1387 0
1386 -1384 1387 0
-1386 1384 1387 0
-1386 -1384 1388 0
1386 -1388 0
1384 -1388 0
-1281 -1385 1389 0
1281 -1389 0
1385 -1389 0
1388 1389 -1390 0
-1388 1390 0
-1389 1390 0
-10 -1381 1391 0
10 -1391 0
1381 -1391 0
-1287 -1391 -1392 0
1287 1391 -1392 0
1287 -1391 1392 0
-1287 1391 1392 0
-1392 -1390 -1393 0
1392 1390 -1393 0
1392 -1390 1393 0
-1392 1390 1393 0
-1392 -1390 1394 0
1392 -1394 0
1390 -1394 0
-1287 -1391 1395 0
1287 -1395 0
1391 -1395 0
1394 1395 -1396 0
-1394 1396 0
-1395 1396 0
-18 -1381 1397 0
18 -1397 0
1381 -1397 0
-1293 -1397 -1398 0
1293 1397 -1398 0
1293 -1397 1398 0
-1293 1397 1398 0
-1398 -1396 -1399 0
1398 1396 -1399 0
1398 -1396 1399 0
-1398 1396 1399 0
-1398 -1396 1400 0
1398 -1400 0
1396 -1400 0
-1293 -1397 1401 0
1293 -1401 0
1397 -1401 0
1400 1401 -1402 0
-1400 1402 0
-1401 1402 0
-26 -1381 1403 0
26 -1403 0
1381 -1403 0
-1299 -1403 -1404 0
1299 1403 -1404 0
1299 -1403 1404 0
-1299 1403 1404 0
-1404 -1402 -1405 0
1404 1402 -1405 0
1404 -1402 1405 0
-1404 1402 1405 0
-1404 -1402 1406 0
1404 -1406 0
1402 -1406 0
-1299 -1403 1407 0
1299 -1407 0
1403 -1407 0
1406 1407 -1408 0
-1406 1408 0
-1407 1408 0
-34 -1381 1409 0
34 -1409 0
1381 -1409 0
-1305 -1409 -1410 0
1305 1409 -1410 0
1305 -1409 1410 0
-1305 1409 1410 0
-1410 -1408 -1411 0
1410 1408 -1411 0
1410 -1408 1411 0
-1410 1408 1411 0
-1410 -1408 1412 0
1410 -1412 0
1408 -1412 0
-1305 -1409 1413 0
1305 -1413 0
1409 -1413 0
1412 1413 -1414 0
-1412 1414 0
-1413 1414 0
-42 -1381 1415 0
42 -1415 0
1381 -1415 0
-1311 -1415 -1416 0
1311 1415 -1416 0
1311 -1415 1416 0
-1311 1415 1416 0
-1416 -1414 -1417 0
1416 1414 -1417 0
1416 -1414 1417 0
-1416 1414 1417 0
-1416 -1414 1418 0
1416 -1418 0
1414 -1418 0
-1311 -1415 1419 0
1311 -1419 0
1415 -1419 0
1418 1419 -1420 0
-1418 1420 0
-1419 1420 0
-50 -1381 1421 0
50 -1421 0
1381 -1421 0
-1317 -1421 -1422 0
1317 1421 -1422 0
1317 -1421 1422 0
-1317 1421 1422 0
-1422 -1420 -1423 0
1422 1420 -1423 0
1422 -1420 1423 0
-1422 1420 1423 0
-1422 -1420 1424 0
1422 -1424 0
1420 -1424 0
-1317 -1421 1425 0
1317 -1425 0
1421 -1425 0
1424 1425 -1426 0
-1424 1426 0
-1425 1426 0
-58 -1381 1427 0
58 -1427 0
1381 -1427 0
-1323 -1427 -1428 0
1323 1427 -1428 0
1323 -1427 1428 0
-1323 1427 1428 0
-1428 -1426 -1429 0
1428 1426 -1429 0
1428 -1426 1429 0
-1428 1426 1429 0
-1428 -1426 1430 0
1428 -1430 0
1426 -1430 0
-1323 -1427 1431 0
1323 -1431 0
1427 -1431 0
1430 1431 -1432 0
-1430 1432 0
-1431 1432 0
-66 -1381 1433 0
66 -1433 0
1381 -1433 0
-1329 -1433 -1434 0
1329 1433 -1434 0
1329 -1433 1434 0
-1329 1433 1434 0
-1434 -1432 -1435 0
1434 1432 -1435 0
1434 -1432 1435 0
-1434 1432 1435 0
-1434 -1432 1436 0
1434 -1436 0
1432 -1436 0
-1329 -1433 1437 0
1329 -1437 0
1433 -1437 0
1436 1437 -1438 0
-1436 1438 0
-1437 1438 0
-74 -1381 1439 0
74 -1439 0
1381 -1439 0
-1335 -1439 -1440 0
1335 1439 -1440 0
1335 -1439 1440 0
-1335 1439 1440 0
-1440 -1438 -1441 0
1440 1438 -1441 0
1440 -1438 1441 0
-1440 1438 1441 0
-1440 -1438 1442 0
1440 -1442 0
1438 -1442 0
-1335 -1439 1443 0
1335 -1443 0
1439 -1443 0
1442 1443 -1444 0
-1442 1444 0
-1443 1444 0
-82 -1381 1445 0
82 -1445 0
1381 -1445 0
-1341 -1445 -1446 0
1341 1445 -1446 0
1341 -1445 1446 0
-1341 1445 1446 0
-1446 -1444 -1447 0
1446 1444 -1447 0
1446 -1444 1447 0
-1446 1444 1447 0
-1446 -1444 1448 0
1446 -1448 0
1444 -1448 0
-1341 -1445 1449 0
1341 -1449 0
1445 -1449 0
1448 1449 -1450 0
-1448 1450 0
-1449 1450 0
-90 -1381 1451 0
90 -1451 0
1381 -1451 0
-1347 -1451 -1452 0
1347 1451 -1452 0
1347 -1451 1452 0
-1347 1451 1452 0
-1452 -1450 -1453 0
1452 1450 -1453 0
1452 -1450 1453 0
-1452 1450 1453 0
-1452 -1450 1454 0
1452 -1454 0
1450 -1454 0
-1347 -1451 1455 0
1347 -1455 0
1451 -1455 0
1454 1455 -1456 0
-1454 1456 0
-1455 1456 0
-98 -1381 1457 0
98 -1457 0
1381 -1457 0
-1353 -1457 -1458 0
1353 1457 -1458 0
1353 -1457 1458 0
-1353 1457 1458 0
-1458 -1456 -1459 0
1458 1456 -1459 0
1458 -1456 1459 0
-1458 1456 1459 0
-1458 -1456 1460 0
1458 -1460 0
1456 -1460 0
-1353 -1457 1461 0
1353 -1461 0
1457 -1461 0
1460 1461 -1462 0
-1460 1462 0
-1461 1462 0
-106 -1381 1463 0
106 -1463 0
1381 -1463 0
-1359 -1463 -1464 0
1359 1463 -1464 0
1359 -1463 1464 0
-1359 1463 1464 0
-1464 -1462 -1465 0
1464 1462 -1465 0
1464 -1462 1465 0
-1464 1462 1465 0
-1464 -1462 1466 0
1464 -1466 0
1462 -1466 0
-1359 -1463 1467 0
1359 -1467 0
1463 -1467 0
1466 1467 -1468 0
-1466 1468 0
-1467 1468 0
-114 -1381 1469 0
114 -1469 0
1381 -1469 0
-1365 -1469 -1470 0
1365 1469 -1470 0
1365 -1469 1470 0
-1365 1469 1470 0
-1470 -1468 -1471 0
1470 1468 -1471 0
1470 -1468 1471 0
-1470 1468 1471 0
-1470 -1468 1472 0
1470 -1472 0
1468 -1472 0
-1365 -1469 1473 0
1365 -1473 0
1469 -1473 0
1472 1473 -1474 0
-1472 1474 0
-1473 1474 0
-122 -1381 1475 0
122 -1475 0
1381 -1475 0
-1371 -1475 -1476 0
1371 1475 -1476 0
1371 -1475 1476 0
-1371 1475 1476 0
-1476 -1474 -1477 0
1476 1474 -1477 0
1476 -1474 1477 0
-1476 1474 1477 0
-1476 -1474 1478 0
1476 -1478 0
1474 -1478 0
-1371 -1475 1479 0
1371 -1479 0
1475 -1479 0
1478 1479 -1480 0
-1478 1480 0
-1479 1480 0
-130 -1381 1481 0
130 -1481 0
1381 -1481 0
-1377 -1481 -1482 0
1377 1481 -1482 0
1377 -1481 1482 0
-1377 1481 1482 0
-1482 -1480 -1483 0
1482 1480 -1483 0
1482 -1480 1483 0
-1482 1480 1483 0
-1482 -1480 1484 0
1482 -1484 0
1480 -1484 0
-1377 -1481 1485 0
1377 -1485 0
1481 -1485 0
1484 1485 -1486 0
-1484 1486 0
-1485 1486 0
-138 -1381 1487 0
138 -1487 0
1381 -1487 0
-1380 -1487 -1488 0
1380 1487 -1488 0
1380 -1487 1488 0
-1380 1487 1488 0
-1488 -1486 -1489 0
1488 1486 -1489 0
1488 -1486 1489 0
-1488 1486 1489 0
-1488 -1486 1490 0
1488 -1490 0
1486 -1490 0
-1380 -1487 1491 0
1380 -1491 0
1487 -1491 0
1490 1491 -1492 0
-1490 1492 0
-1491 1492 0
-1 -1493 1494 0
1 -1494 0
1493 -1494 0
-1387 -1494 -1495 0
1387 1494 -1495 0
1387 -1494 1495 0
-1387 1494 1495 0
-1387 -1494 1496 0
1387 -1496 0
1494 -1496 0
-4 -1493 1497 0
4 -1497 0
1493 -1497 0
-1393 -1497 -1498 0
1393 1497 -1498 0
1393 -1497 1498 0
-1393 1497 1498 0
-1498 -1496 -1499 0
1498 1496 -1499 0
1498 -1496 1499 0
-1498 1496 1499 0
-1498 -1496 1500 0
1498 -1500 0
1496 -1500 0
-1393 -1497 1501 0
1393 -1501 0
1497 -1501 0
1500 1501 -1502 0
-1500 1502 0
-1501 1502 0
-10 -1493 1503 0
10 -1503 0
1493 -1503 0
-1399 -1503 -1504 0
1399 1503 -1504 0
1399 -1503 1504 0
-1399 1503 1504 0
-1504 -1502 -1505 0
1504 1502 -1505 0
1504 -1502 1505 0
-1504 1502 1505 0
-1504 -1502 1506 0
1504 -1506 0
1502 -1506 0
-1399 -1503 1507 0
1399 -1507 0
1503 -1507 0
1506 1507 -1508 0
-1506 1508 0
-1507 1508 0
-18 -1493 1509 0
18 -1509 0
1493 -1509 0
-1405 -1509 -1510 0
1405 1509 -1510 0
1405 -1509 1510 0
-1405 1509 1510 0
-1510 -1508 -1511 0
1510 1508 -1511 0
1510 -1508 1511 0
-1510 1508 1511 0
-1510 -1508 1512 0
1510 -1512 0
1508 -1512 0
-1405 -1509 1513 0
1405 -1513 0
1509 -1513 0
1512 1513 -1514 0
-1512 1514 0
-1513 1514 0
-26 -1493 1515 0
26 -1515 0
1493 -1515 0
-1411 -1515 -1516 0
1411 1515 -1516 0
1411 -1515 1516 0
-1411 1515 1516 0
-1516 -1514 -1517 0
1516 1514 -1517 0
1516 -1514 1517 0
-1516 1514 1517 0
-1516 -1514 1518 0
1516 -1518 0
1514 -1518 0
-1411 -1515 1519 0
1411 -1519 0
1515 -1519 0
1518 1519 -1520 0
-1518 1520 0
-1519 1520 0
-34 -1493 1521 0
34 -1521 0
1493 -1521 0
-1417 -1521 -1522 0
1417 1521 -1522 0
1417 -1521 1522 0
-1417 1521 1522 0
-1522 -1520 -1523 0
1522 1520 -1523 0
1522 -1520 1523 0
-1522 1520 1523 0
-1522 -1520 1524 0
1522 -1524 0
1520 -1524 0
-1417 -1521 1525 0
1417 -1525 0
1521 -1525 0
1524 1525 -1526 0
-1524 1526 0
-1525 1526 0
-42 -1493 1527 0
42 -1527 0
1493 -1527 0
-1423 -1527 -1528 0
1423 1527 -1528 0
1423 -1527 1528 0
-1423 1527 1528 0
-1528 -1526 -1529 0
1528 1526 -1529 0
1528 -1526 1529 0
-1528 1526 1529 0
-1528 -1526 1530 0
1528 -1530 0
1526 -1530 0
-1423 -1527 1531 0
1423 -1531 0
1527 -1531 0
1530 1531 -1532 0
-1530 1532 0
-1531 1532 0
-50 -1493 1533 0
50 -1533 0
1493 -1533 0
-1429 -1533 -1534 0
1429 1533 -1534 0
1429 -1533 1534 0
-1429 1533 1534 0
-1534 -1532 -1535 0
1534 1532 -1535 0
1534 -1532 1535 0
-1534 1532 1535 0
-1534 -1532 1536 0
1534 -1536 0
1532 -1536 0
-1429 -1533 1537 0
1429 -1537 0
1533 -1537 0
1536 1537 -1538 0
-1536 1538 0
-1537 1538 0
-58 -1493 1539 0
58 -1539 0
1493 -1539 0
-1435 -1539 -1540 0
1435 1539 -1540 0
1435 -1539 1540 0
-1435 1539 1540 0
-1540 -1538 -1541 0
1540 1538 -1541 0
1540 -1538 1541 0
-1540 1538 1541 0
-1540 -1538 1542 0
1540 -1542 0
1538 -1542 0
-1435 -1539 1543 0
1435 -1543 0
1539 -1543 0
1542 1543 -1544 0
-1542 1544 0
-1543 1544 0
-66 -1493 1545 0
66 -1545 0
1493 -1545 0
-1441 -1545 -1546 0
1441 1545 -1546 0
1441 -1545 1546 0
-1441 1545 1546 0
-1546 -1544 -1547 0
1546 1544 -1547 0
1546 -1544 1547 0
-1546 1544 1547 0
-1546 -1544 1548 0
1546 -1548 0
1544 -1548 0
-1441 -1545 1549 0
1441 -1549 0
1545 -1549 0
1548 1549 -1550 0
-1548 1550 0
-1549 1550 0
-74 -1493 1551 0
74 -1551 0
1493 -1551 0
-1447 -1551 -1552 0
1447 1551 -1552 0
1447 -1551 1552 0
-1447 1551 1552 0
-1552 -1550 -1553 0
1552 1550 -1553 0
1552 -1550 1553 0
-1552 1550 1553 0
-1552 -1550 1554 0
1552 -1554 0
1550 -1554 0
-1447 -1551 1555 0
1447 -1555 0
1551 -1555 0
1554 1555 -1556 0
-1554 1556 0
-1555 1556 0
-82 -1493 1557 0
82 -1557 0
1493 -1557 0
-1453 -1557 -1558 0
1453 1557 -1558 0
1453 -1557 1558 0
-1453 1557 1558 0
-1558 -1556 -1559 0
1558 1556 -1559 0
1558 -1556 1559 0
-1558 1556 1559 0
-1558 -1556 1560 0
1558 -1560 0
1556 -1560 0
-1453 -1557 1561 0
1453 -1561 0
1557 -1561 0
1560 1561 -1562 0
-1560 1562 0
-1561 1562 0
-90 -1493 1563 0
90 -1563 0
1493 -1563 0
-1459 -1563 -1564 0
1459 1563 -1564 0
1459 -1563 1564 0
-1459 1563 1564 0
-1564 -1562 -1565 0
1564 1562 -1565 0
1564 -1562 1565 0
-1564 1562 1565 0
-1564 -1562 1566 0
1564 -1566 0
1562 -1566 0
-1459 -1563 1567 0
1459 -1567 0
1563 -1567 0
1566 1567 -1568 0
-1566 1568 0
-1567 1568 0
-98 -1493 1569 0
98 -1569 0
1493 -1569 0
-1465 -1569 -1570 0
1465 1569 -1570 0
1465 -1569 1570 0
-1465 1569 1570 0
-1570 -1568 -1571 0
1570 1568 -1571 0
1570 -1568 1571 0
-1570 1568 1571 0
-1570 -1568 1572 0
1570 -1572 0
1568 -1572 0
-1465 -1569 1573 0
1465 -1573 0
1569 -1573 0
1572 1573 -1574 0
-1572 1574 0
-1573 1574 0
-106 -1493 1575 0
106 -1575 0
1493 -1575 0
-1471 -1575 -1576 0
1471 1575 -1576 0
1471 -1575 1576 0
-1471 1575 1576 0
-1576 -1574 -1577 0
1576 1574 -1577 0
1576 -1574 1577 0
-1576 1574 1577 0
-1576 -1574 1578 0
1576 -1578 0
1574 -1578 0
-1471 -1575 1579 0
1471 -1579 0
1575 -1579 0
1578 1579 -1580 0
-1578 1580 0
-1579 1580 0
-114 -1493 1581 0
114 -1581 0
1493 -1581 0
-1477 -1581 -1582 0
1477 1581 -1582 0
1477 -1581 1582 0
-1477 1581 1582 0
-1582 -1580 -1583 0
1582 1580 -1583 0
1582 -1580 1583 0
-1582 1580 1583 0
-1582 -1580 1584 0
1582 -1584 0
1580 -1584 0
-1477 -1581 1585 0
1477 -1585 0
1581 -1585 0
1584 1585 -1586 0
-1584 1586 0
-1585 1586 0
-122 -1493 1587 0
122 -1587 0
1493 -1587 0
-1483 -1587 -1588 0
1483 1587 -1588 0
1483 -1587 1588 0
-1483 1587 1588 0
-1588 -1586 -1589 0
1588 1586 -1589 0
1588 -1586 1589 0
-1588 1586 1589 0
-1588 -1586 1590 0
1588 -1590 0
1586 -1590 0
-1483 -1587 1591 0
1483 -1591 0
1587 -1591 0
1590 1591 -1592 0
-1590 1592 0
-1591 1592 0
-130 -1493 1593 0
130 -1593 0
1493 -1593 0
-1489 -1593 -1594 0
1489 1593 -1594 0
1489 -1593 1594 0
-1489 1593 1594 0
-1594 -1592 -1595 0
1594 1592 -1595 0
1594 -1592 1595 0
-1594 1592 1595 0
-1594 -1592 1596 0
1594 -1596 0
1592 -1596 0
-1489 -1593 1597 0
1489 -1597 0
1593 -1597 0
1596 1597 -1598 0
-1596 1598 0
-1597 1598 0
-138 -1493 1599 0
138 -1599 0
1493 -1599 0
-1492 -1599 -1600 0
1492 1599 -1600 0
1492 -1599 1600 0
-1492 1599 1600 0
-1600 -1598 -1601 0
1600 1598 -1601 0
1600 -1598 1601 0
-1600 1598 1601 0
-1600 -1598 1602 0
1600 -1602 0
1598 -1602 0
-1492 -1599 1603 0
1492 -1603 0
1599 -1603 0
1602 1603 -1604 0
-1602 1604 0
-1603 1604 0
-1 -1605 1606 0
1 -1606 0
1605 -1606 0
-1499 -1606 -1607 0
1499 1606 -1607 0
1499 -1606 1607 0
-1499 1606 1607 0
-1499 -1606 1608 0
1499 -1608 0
1606 -1608 0
-4 -1605 1609 0
4 -1609 0
1605 -1609 0
-1505 -1609 -1610 0
1505 1609 -1610 0
1505 -1609 1610 0
-1505 1609 1610 0
-1610 -1608 -1611 0
1610 1608 -1611 0
1610 -1608 1611 0
-1610 1608 1611 0
-1610 -1608 1612 0
1610 -1612 0
1608 -1612 0
-1505 -1609 1613 0
1505 -1613 0
1609 -1613 0
1612 1613 -1614 0
-1612 1614 0
-1613 1614 0
-10 -1605 1615 0
10 -1615 0
1605 -1615 0
-1511 -1615 -1616 0
1511 1615 -1616 0
1511 -1615 1616 0
-1511 1615 1616 0
-1616 -1614 -1617 0
1616 1614 -1617 0
1616 -1614 1617 0
-1616 1614 1617 0
-1616 -1614 1618 0
1616 -1618 0
1614 -1618 0
-1511 -1615 1619 0
1511 -1619 0
1615 -1619 0
1618 1619 -1620 0
-1618 1620 0
-1619 1620 0
-18 -1605 1621 0
18 -1621 0
1605 -1621 0
-1517 -1621 -1622 0
1517 1621 -1622 0
1517 -1621 1622 0
-1517 1621 1622 0
-1622 -1620 -1623 0
1622 1620 -1623 0
1622 -1620 1623 0
-1622 1620 1623 0
-1622 -1620 1624 0
1622 -1624 0
1620 -1624 0
-1517 -1621 1625 0
1517 -1625 0
1621 -1625 0
1624 1625 -1626 0
-1624 1626 0
-1625 1626 0
-26 -1605 1627 0
26 -1627 0
1605 -1627 0
-1523 -1627 -1628 0
1523 1627 -1628 0
1523 -1627 1628 0
-1523 1627 1628 0
-1628 -1626 -1629 0
1628 1626 -1629 0
1628 -1626 1629 0
-1628 1626 1629 0
-1628 -1626 1630 0
1628 -1630 0
1626 -1630 0
-1523 -1627 1631 0
1523 -1631 0
1627 -1631 0
1630 1631 -1632 0
-1630 1632 0
-1631 1632 0
-34 -1605 1633 0
34 -1633 0
1605 -1633 0
-1529 -1633 -1634 0
1529 1633 -1634 0
1529 -1633 1634 0
-1529 1633 1634 0
-1634 -1632 -1635 0
1634 1632 -1635 0
1634 -1632 1635 0
-1634 1632 1635 0
-1634 -1632 1636 0
1634 -1636 0
1632 -1636 0
-1529 -1633 1637 0
1529 -1637 0
1633 -1637 0
1636 1637 -1638 0
-1636 1638 0
-1637 1638 0
-42 -1605 1639 0
42 -1639 0
1605 -1639 0
-1535 -1639 -1640 0
1535 1639 -1640 0
1535 -1639 1640 0
-1535 1639 1640 0
-1640 -1638 -1641 0
1640 1638 -1641 0
1640 -1638 1641 0
-1640 1638 1641 0
-1640 -1638 1642 0
1640 -1642 0
1638 -1642 0
-1535 -1639 1643 0
1535 -1643 0
1639 -1643 0
1642 1643 -1644 0
-1642 1644 0
-1643 1644 0
-50 -1605 1645 0
50 -1645 0
1605 -1645 0
-1541 -1645 -1646 0
1541 1645 -1646 0
1541 -1645 1646 0
-1541 1645 1646 0
-1646 -1644 -1647 0
1646 1644 -1647 0
1646 -1644 1647 0
-1646 1644 1647 0
-1646 -1644 1648 0
1646 -1648 0
1644 -1648 0
-1541 -1645 1649 0
1541 -1649 0
1645 -1649 0
1648 1649 -1650 0
-1648 1650 0
-1649 1650 0
-58 -1605 1651 0
58 -1651 0
1605 -1651 0
-1547 -1651 -1652 0
1547 1651 -1652 0
1547 -1651 1652 0
-1547 1651 1652 0
-1652 -1650 -1653 0
1652 1650 -1653 0
1652 -1650 1653 0
-1652 1650 1653 0
-1652 -1650 1654 0
1652 -1654 0
1650 -1654 0
-1547 -1651 1655 0
1547 -1655 0
1651 -1655 0
1654 1655 -1656 0
-1654 1656 0
-1655 1656 0
-66 -1605 1657 0
66 -1657 0
1605 -1657 0
-1553 -1657 -1658 0
1553 1657 -1658 0
1553 -1657 1658 0
-1553 1657 1658 0
-1658 -1656 -1659 0
1658 1656 -1659 0
1658 -1656 1659 0
-1658 1656 1659 0
-1658 -1656 1660 0
1658 -1660 0
1656 -1660 0
-1553 -1657 1661 0
1553 -1661 0
1657 -1661 0
1660 1661 -1662 0
-1660 1662 0
-1661 1662 0
-74 -1605 1663 0
74 -1663 0
1605 -1663 0
-1559 -1663 -1664 0
1559 1663 -1664 0
1559 -1663 1664 0
-1559 1663 1664 0
-1664 -1662 -1665 0
1664 1662 -1665 0
1664 -1662 1665 0
-1664 1662 1665 0
-1664 -1662 1666 0
1664 -1666 0
1662 -1666 0
-1559 -1663 1667 0
1559 -1667 0
1663 -1667 0
1666 1667 -1668 0
-1666 1668 0
-1667 1668 0
-82 -1605 1669 0
82 -1669 0
1605 -1669 0
-1565 -1669 -1670 0
1565 1669 -1670 0
1565 -1669 1670 0
-1565 1669 1670 0
-1670 -1668 -1671 0
1670 1668 -1671 0
1670 -1668 1671 0
-1670 1668 1671 0
-1670 -1668 1672 0
1670 -1672 0
1668 -1672 0
-1565 -1669 1673 0
1565 -1673 0
1669 -1673 0
1672 1673 -1674 0
-1672 1674 0
-1673 1674 0
-90 -1605 1675 0
90 -1675 0
1605 -1675 0
-1571 -1675 -1676 0
1571 1675 -1676 0
1571 -1675 1676 0
-1571 1675 1676 0
-1676 -1674 -1677 0
1676 1674 -1677 0
1676 -1674 1677 0
-1676 1674 1677 0
-1676 -1674 1678 0
1676 -1678 0
1674 -1678 0
-1571 -1675 1679 0
1571 -1679 0
1675 -1679 0
1678 1679 -1680 0
-1678 1680 0
-1679 1680 0
-98 -1605 1681 0
98 -1681 0
1605 -1681 0
-1577 -1681 -1682 0
1577 1681 -1682 0
1577 -1681 1682 0
-1577 1681 1682 0
-1682 -1680 -1683 0
1682 1680 -1683 0
1682 -1680 1683 0
-1682 1680 1683 0
-1682 -1680 1684 0
1682 -1684 0
1680 -1684 0
-1577 -1681 1685 0
1577 -1685 0
1681 -1685 0
1684 1685 -1686 0
-1684 1686 0
-1685 1686 0
-106 -1605 1687 0
106 -1687 0
1605 -1687 0
-1583 -1687 -1688 0
1583 1687 -1688 0
1583 -1687 1688 0
-1583 1687 1688 0
-1688 -1686 -1689 0
1688 1686 -1689 0
1688 -1686 1689 0
-1688 1686 1689 0
-1688 -1686 1690 0
1688 -1690 0
1686 -1690 0
-1583 -1687 1691 0
1583 -1691 0
1687 -1691 0
1690 1691 -1692 0
-1690 1692 0
-1691 1692 0
-114 -1605 1693 0
114 -1693 0
1605 -1693 0
-1589 -1693 -1694 0
1589 1693 -1694 0
1589 -1693 1694 0
-1589 1693 1694 0
-1694 -1692 -1695 0
1694 1692 -1695 0
1694 -1692 1695 0
-1694 1692 1695 0
-1694 -1692 1696 0
1694 -1696 0
1692 -1696 0
-1589 -1693 1697 0
1589 -1697 0
1693 -1697 0
1696 1697 -1698 0
-1696 1698 0
-1697 1698 0
-122 -1605 1699 0
122 -1699 0
1605 -1699 0
-1595 -1699 -1700 0
1595 1699 -1700 0
1595 -1699 1700 0
-1595 1699 1700 0
-1700 -1698 -1701 0
1700 1698 -1701 0
1700 -1698 1701 0
-1700 1698 1701 0
-1700 -1698 1702 0
1700 -1702 0
1698 -1702 0
-1595 -1699 1703 0
1595 -1703 0
1699 -1703 0
1702 1703 -1704 0
-1702 1704 0
-1703 1704 0
-130 -1605 1705 0
130 -1705 0
1605 -1705 0
-1601 -1705 -1706 0
1601 1705 -1706 0
1601 -1705 1706 0
-1601 1705 1706 0
-1706 -1704 -1707 0
1706 1704 -1707 0
1706 -1704 1707 0
-1706 1704 1707 0
-1706 -1704 1708 0
1706 -1708 0
1704 -1708 0
-1601 -1705 1709 0
1601 -1709 0
1705 -1709 0
1708 1709 -1710 0
-1708 1710 0
-1709 1710 0
-138 -1605 1711 0
138 -1711 0
1605 -1711 0
-1604 -1711 -1712 0
1604 1711 -1712 0
1604 -1711 1712 0
-1604 1711 1712 0
-1712 -1710 -1713 0
1712 1710 -1713 0
1712 -1710 1713 0
-1712 1710 1713 0
-1712 -1710 1714 0
1712 -1714 0
1710 -1714 0
-1604 -1711 1715 0
1604 -1715 0
1711 -1715 0
1714 1715 -1716 0
-1714 1716 0
-1715 1716 0
-1 -1717 1718 0
1 -1718 0
1717 -1718 0
-1611 -1718 -1719 0
1611 1718 -1719 0
1611 -1718 1719 0
-1611 1718 1719 0
-1611 -1718 1720 0
1611 -1720 0
1718 -1720 0
-4 -1717 1721 0
4 -1721 0
1717 -1721 0
-1617 -1721 -1722 0
1617 1721 -1722 0
1617 -1721 1722 0
-1617 1721 1722 0
-1722 -1720 -1723 0
1722 1720 -1723 0
1722 -1720 1723 0
-1722 1720 1723 0
-1722 -1720 1724 0
1722 -1724 0
1720 -1724 0
-1617 -1721 1725 0
1617 -1725 0
1721 -1725 0
1724 1725 -1726 0
-1724 1726 0
-1725 1726 0
-10 -1717 1727 0
10 -1727 0
1717 -1727 0
-1623 -1727 -1728 0
1623 1727 -1728 0
1623 -1727 1728 0
-1623 1727 1728 0
-1728 -1726 -1729 0
1728 1726 -1729 0
1728 -1726 1729 0
-1728 1726 1729 0
-1728 -1726 1730 0
1728 -1730 0
1726 -1730 0
-1623 -1727 1731 0
1623 -1731 0
1727 -1731 0
1730 1731 -1732 0
-1730 1732 0
-1731 1732 0
-18 -1717 1733 0
18 -1733 0
1717 -1733 0
-1629 -1733 -1734 0
1629 1733 -1734 0
1629 -1733 1734 0
-1629 1733 1734 0
-1734 -1732 -1735 0
1734 1732 -1735 0
1734 -1732 1735 0
-1734 1732 1735 0
-1734 -1732 1736 0
1734 -1736 0
1732 -1736 0
-1629 -1733 1737 0
1629 -1737 0
1733 -1737 0
1736 1737 -1738 0
-1736 1738 0
-1737 1738 0
-26 -1717 1739 0
26 -1739 0
1717 -1739 0
-1635 -1739 -1740 0
1635 1739 -1740 0
1635 -1739 1740 0
-1635 1739 1740 0
-1740 -1738 -1741 0
1740 1738 -1741 0
1740 -1738 1741 0
-1740 1738 1741 0
-1740 -1738 1742 0
1740 -1742 0
1738 -1742 0
-1635 -1739 1743 0
1635 -1743 0
1739 -1743 0
1742 1743 -1744 0
-1742 1744 0
-1743 1744 0
-34 -1717 1745 0
34 -1745 0
1717 -1745 0
-1641 -1745 -1746 0
1641 1745 -1746 0
1641 -1745 1746 0
-1641 1745 1746 0
-1746 -1744 -1747 0
1746 1744 -1747 0
1746 -1744 1747 0
-1746 1744 1747 0
-1746 -1744 1748 0
1746 -1748 0
1744 -1748 0
-1641 -1745 1749 0
1641 -1749 0
1745 -1749 0
1748 1749 -1750 0
-1748 1750 0
-1749 1750 0
-42 -1717 1751 0
42 -1751 0
1717 -1751 0
-1647 -1751 -1752 0
1647 1751 -1752 0
1647 -1751 1752 0
-1647 1751 1752 0
-1752 -1750 -1753 0
1752 1750 -1753 0
1752 -1750 1753 0
-1752 1750 1753 0
-1752 -1750 1754 0
1752 -1754 0
1750 -1754 0
-1647 -1751 1755 0
1647 -1755 0
1751 -1755 0
1754 1755 -1756 0
-1754 1756 0
-1755 1756 0
-50 -1717 1757 0
50 -1757 0
1717 -1757 0
-1653 -1757 -1758 0
1653 1757 -1758 0
1653 -1757 1758 0
-1653 1757 1758 0
-1758 -1756 -1759 0
1758 1756 -1759 0
1758 -1756 1759 0
-1758 1756 1759 0
-1758 -1756 1760 0
1758 -1760 0
1756 -1760 0
-1653 -1757 1761 0
1653 -1761 0
1757 -1761 0
1760 1761 -1762 0
-1760 1762 0
-1761 1762 0
-58 -1717 1763 0
58 -1763 0
1717 -1763 0
-1659 -1763 -1764 0
1659 1763 -1764 0
1659 -1763 1764 0
-1659 1763 1764 0
-1764 -1762 -1765 0
1764 1762 -1765 0
1764 -1762 1765 0
-1764 1762 1765 0
-1764 -1762 1766 0
1764 -1766 0
1762 -1766 0
-1659 -1763 1767 0
1659 -1767 0
1763 -1767 0
1766 1767 -1768 0
-1766 1768 0
-1767 1768 0
-66 -1717 1769 0
66 -1769 0
1717 -1769 0
-1665 -1769 -1770 0
1665 1769 -1770 0
1665 -1769 1770 0
-1665 1769 1770 0
-1770 -1768 -1771 0
1770 1768 -1771 0
1770 -1768 1771 0
-1770 1768 1771 0
-1770 -1768 1772 0
1770 -1772 0
1768 -1772 0
-1665 -1769 1773 0
1665 -1773 0
1769 -1773 0
1772 1773 -1774 0
-1772 1774 0
-1773 1774 0
-74 -1717 1775 0
74 -1775 0
1717 -1775 0
-1671 -1775 -1776 0
1671 1775 -1776 0
1671 -1775 1776 0
-1671 1775 1776 0
-1776 -1774 -1777 0
1776 1774 -1777 0
1776 -1774 1777 0
-1776 1774 1777 0
-1776 -1774 1778 0
1776 -1778 0
1774 -1778 0
-1671 -1775 1779 0
1671 -1779 0
1775 -1779 0
1778 1779 -1780 0
-1778 1780 0
-1779 1780 0
-82 -1717 1781 0
82 -1781 0
1717 -1781 0
-1677 -1781 -1782 0
1677 1781 -1782 0
1677 -1781 1782 0
-1677 1781 1782 0
-1782 -1780 -1783 0
1782 1780 -1783 0
1782 -1780 1783 0
-1782 1780 1783 0
-1782 -1780 1784 0
1782 -1784 0
1780 -1784 0
-1677 -1781 1785 0
1677 -1785 0
1781 -1785 0
1784 1785 -1786 0
-1784 1786 0
-1785 1786 0
-90 -1717 1787 0
90 -1787 0
1717 -1787 0
-1683 -1787 -1788 0
1683 1787 -1788 0
1683 -1787 1788 0
-1683 1787 1788 0
-1788 -1786 -1789 0
1788 1786 -1789 0
1788 -1786 1789 0
-1788 1786 1789 0
-1788 -1786 1790 0
1788 -1790 0
1786 -1790 0
-1683 -1787 1791 0
1683 -1791 0
1787 -1791 0
1790 1791 -1792 0
-1790 1792 0
-1791 1792 0
-98 -1717 1793 0
98 -1793 0
1717 -1793 0
-1689 -1793 -1794 0
1689 1793 -1794 0
1689 -1793 1794 0
-1689 1793 1794 0
-1794 -1792 -1795 0
1794 1792 -1795 0
1794 -1792 1795 0
-1794 1792 1795 0
-1794 -1792 1796 0
1794 -1796 0
1792 -1796 0
-1689 -1793 1797 0
1689 -1797 0
1793 -1797 0
1796 1797 -1798 0
-1796 1798 0
-1797 1798 0
-106 -1717 1799 0
106 -1799 0
1717 -1799 0
-1695 -1799 -1800 0
1695 1799 -1800 0
1695 -1799 1800 0
-1695 1799 1800 0
-1800 -1798 -1801 0
1800 1798 -1801 0
1800 -1798 1801 0
-1800 1798 1801 0
-1800 -1798 1802 0
1800 -1802 0
1798 -1802 0
-1695 -1799 1803 0
1695 -1803 0
1799 -1803 0
1802 1803 -1804 0
-1802 1804 0
-1803 1804 0
-114 -1717 1805 0
114 -1805 0
1717 -1805 0
-1701 -1805 -1806 0
1701 1805 -1806 0
1701 -1805 1806 0
-1701 1805 1806 0
-1806 -1804 -1807 0
1806 1804 -1807 0
1806 -1804 1807 0
-1806 1804 1807 0
-1806 -1804 1808 0
1806 -1808 0
1804 -1808 0
-1701 -1805 1809 0
1701 -1809 0
1805 -1809 0
1808 1809 -1810 0
-1808 1810 0
-1809 1810 0
-122 -1717 1811 0
122 -1811 0
1717 -1811 0
-1707 -1811 -1812 0
1707 1811 -1812 0
1707 -1811 1812 0
-1707 1811 1812 0
-1812 -1810 -1813 0
1812 1810 -1813 0
1812 -1810 1813 0
-1812 1810 1813 0
-1812 -1810 1814 0
1812 -1814 0
1810 -1814 0
-1707 -1811 1815 0
1707 -1815 0
1811 -1815 0
1814 1815 -1816 0
-1814 1816 0
-1815 1816 0
-130 -1717 1817 0
130 -1817 0
1717 -1817 0
-1713 -1817 -1818 0
1713 1817 -1818 0
1713 -1817 1818 0
-1713 1817 1818 0
-1818 -1816 -1819 0
1818 1816 -1819 0
1818 -1816 1819 0
-1818 1816 1819 0
-1818 -1816 1820 0
1818 -1820 0
1816 -1820 0
-1713 -1817 1821 0
1713 -1821 0
1817 -1821 0
1820 1821 -1822 0
-1820 1822 0
-1821 1822 0
-138 -1717 1823 0
138 -1823 0
1717 -1823 0
-1716 -1823 -1824 0
1716 1823 -1824 0
1716 -1823 1824 0
-1716 1823 1824 0
-1824 -1822 -1825 0
1824 1822 -1825 0
1824 -1822 1825 0
-1824 1822 1825 0
-1824 -1822 1826 0
1824 -1826 0
1822 -1826 0
-1716 -1823 1827 0
1716 -1827 0
1823 -1827 0
1826 1827 -1828 0
-1826 1828 0
-1827 1828 0
-1 -1829 1830 0
1 -1830 0
1829 -1830 0
-1723 -1830 -1831 0
1723 1830 -1831 0
1723 -1830 1831 0
-1723 1830 1831 0
-1723 -1830 1832 0
1723 -1832 0
1830 -1832 0
-4 -1829 1833 0
4 -1833 0
1829 -1833 0
-1729 -1833 -1834 0
1729 1833 -1834 0
1729 -1833 1834 0
-1729 1833 1834 0
-1834 -1832 -1835 0
1834 1832 -1835 0
1834 -1832 1835 0
-1834 1832 1835 0
-1834 -1832 1836 0
1834 -1836 0
1832 -1836 0
-1729 -1833 1837 0
1729 -1837 0
1833 -1837 0
1836 1837 -1838 0
-1836 1838 0
-1837 1838 0
-10 -1829 1839 0
10 -1839 0
1829 -1839 0
-1735 -1839 -1840 0
1735 1839 -1840 0
1735 -1839 1840 0
-1735 1839 1840 0
-1840 -1838 -1841 0
1840 1838 -1841 0
1840 -1838 1841 0
-1840 1838 1841 0
-1840 -1838 1842 0
1840 -1842 0
1838 -1842 0
-1735 -1839 1843 0
1735 -1843 0
1839 -1843 0
1842 1843 -1844 0
-1842 1844 0
-1843 1844 0
-18 -1829 1845 0
18 -1845 0
1829 -1845 0
-1741 -1845 -1846 0
1741 1845 -1846 0
1741 -1845 1846 0
-1741 1845 1846 0
-1846 -1844 -1847 0
1846 1844 -1847 0
1846 -1844 1847 0
-1846 1844 1847 0
-1846 -1844 1848 0
1846 -1848 0
1844 -1848 0
-1741 -1845 1849 0
1741 -1849 0
1845 -1849 0
1848 1849 -1850 0
-1848 1850 0
-1849 1850 0
-26 -1829 1851 0
26 -1851 0
1829 -1851 0
-1747 -1851 -1852 0
1747 1851 -1852 0
1747 -1851 1852 0
-1747 1851 1852 0
-1852 -1850 -1853 0
1852 1850 -1853 0
1852 -1850 1853 0
-1852 1850 1853 0
-1852 -1850 1854 0
1852 -1854 0
1850 -1854 0
-1747 -1851 1855 0
1747 -1855 0
1851 -1855 0
1854 1855 -1856 0
-1854 1856 0
-1855 1856 0
-34 -1829 1857 0
34 -1857 0
1829 -1857 0
-1753 -1857 -1858 0
1753 1857 -1858 0
1753 -1857 1858 0
-1753 1857 1858 0
-1858 -1856 -1859 0
1858 1856 -1859 0
1858 -1856 1859 0
-1858 1856 1859 0
-1858 -1856 1860 0
1858 -1860 0
1856 -1860 0
-1753 -1857 1861 0
1753 -1861 0
1857 -1861 0
1860 1861 -1862 0
-1860 1862 0
-1861 1862 0
-42 -1829 1863 0
42 -1863 0
1829 -1863 0
-1759 -1863 -1864 0
1759 1863 -1864 0
1759 -1863 1864 0
-1759 1863 1864 0
-1864 -1862 -1865 0
1864 1862 -1865 0
1864 -1862 1865 0
-1864 1862 1865 0
-1864 -1862 1866 0
1864 -1866 0
1862 -1866 0
-1759 -1863 1867 0
1759 -1867 0
1863 -1867 0
1866 1867 -1868 0
-1866 1868 0
-1867 1868 0
-50 -1829 1869 0
50 -1869 0
1829 -1869 0
-1765 -1869 -1870 0
1765 1869 -1870 0
1765 -1869 1870 0
-1765 1869 1870 0
-1870 -1868 -1871 0
1870 1868 -1871 0
1870 -1868 1871 0
-1870 1868 1871 0
-1870 -1868 1872 0
1870 -1872 0
1868 -1872 0
-1765 -1869 1873 0
1765 -1873 0
1869 -1873 0
1872 1873 -1874 0
-1872 1874 0
-1873 1874 0
-58 -1829 1875 0
58 -1875 0
1829 -1875 0
-1771 -1875 -1876 0
1771 1875 -1876 0
1771 -1875 1876 0
-1771 1875 1876 0
-1876 -1874 -1877 0
1876 1874 -1877 0
1876 -1874 1877 0
-1876 1874 1877 0
-1876 -1874 1878 0
1876 -1878 0
1874 -1878 0
-1771 -1875 1879 0
1771 -1879 0
1875 -1879 0
1878 1879 -1880 0
-1878 1880 0
-1879 1880 0
-66 -1829 1881 0
66 -1881 0
1829 -1881 0
-1777 -1881 -1882 0
1777 1881 -1882 0
1777 -1881 1882 0
-1777 1881 1882 0
-1882 -1880 -1883 0
1882 1880 -1883 0
1882 -1880 1883 0
-1882 1880 1883 0
-1882 -1880 1884 0
1882 -1884 0
1880 -1884 0
-1777 -1881 1885 0
1777 -1885 0
1881 -1885 0
1884 1885 -1886 0
-1884 1886 0
-1885 1886 0
-74 -1829 1887 0
74 -1887 0
1829 -1887 0
-1783 -1887 -1888 0
1783 1887 -1888 0
1783 -1887 1888 0
-1783 1887 1888 0
-1888 -1886 -1889 0
1888 1886 -1889 0
1888 -1886 1889 0
-1888 1886 1889 0
-1888 -1886 1890 0
1888 -1890 0
1886 -1890 0
-1783 -1887 1891 0
1783 -1891 0
1887 -1891 0
1890 1891 -1892 0
-1890 1892 0
-1891 1892 0
-82 -1829 1893 0
82 -1893 0
1829 -1893 0
-1789 -1893 -1894 0
1789 1893 -1894 0
1789 -1893 1894 0
-1789 1893 1894 0
-1894 -1892 -1895 0
1894 1892 -1895 0
1894 -1892 1895 0
-1894 1892 1895 0
-1894 -1892 1896 0
1894 -1896 0
1892 -1896 0
-1789 -1893 1897 0
1789 -1897 0
1893 -1897 0
1896 1897 -1898 0
-1896 1898 0
-1897 1898 0
-90 -1829 1899 0
90 -1899 0
1829 -1899 0
-1795 -1899 -1900 0
1795 1899 -1900 0
1795 -1899 1900 0
-1795 1899 1900 0
-1900 -1898 -1901 0
1900 1898 -1901 0
1900 -1898 1901 0
-1900 1898 1901 0
-1900 -1898 1902 0
1900 -1902 0
1898 -1902 0
-1795 -1899 1903 0
1795 -1903 0
1899 -1903 0
1902 1903 -1904 0
-1902 1904 0
-1903 1904 0
-98 -1829 1905 0
98 -1905 0
1829 -1905 0
-1801 -1905 -1906 0
1801 1905 -1906 0
1801 -1905 1906 0
-1801 1905 1906 0
-1906 -1904 -1907 0
1906 1904 -1907 0
1906 -1904 1907 0
-1906 1904 1907 0
-1906 -1904 1908 0
1906 -1908 0
1904 -1908 0
-1801 -1905 1909 0
1801 -1909 0
1905 -1909 0
1908 1909 -1910 0
-1908 1910 0
-1909 1910 0
-106 -1829 1911 0
106 -1911 0
1829 -1911 0
-1807 -1911 -1912 0
1807 1911 -1912 0
1807 -1911 1912 0
-1807 1911 1912 0
-1912 -1910 -1913 0
1912 1910 -1913 0
1912 -1910 1913 0
-1912 1910 1913 0
-1912 -1910 1914 0
1912 -1914 0
1910 -1914 0
-1807 -1911 1915 0
1807 -1915 0
1911 -1915 0
1914 1915 -1916 0
-1914 1916 0
-1915 1916 0
-114 -1829 1917 0
114 -1917 0
1829 -1917 0
-1813 -1917 -1918 0
1813 1917 -1918 0
1813 -1917 1918 0
-1813 1917 1918 0
-1918 -1916 -1919 0
1918 1916 -1919 0
1918 -1916 1919 0
-1918 1916 1919 0
-1918 -1916 1920 0
1918 -1920 0
1916 -1920 0
-1813 -1917 1921 0
1813 -1921 0
1917 -1921 0
1920 1921 -1922 0
-1920 1922 0
-1921 1922 0
-122 -1829 1923 0
122 -1923 0
1829 -1923 0
-1819 -1923 -1924 0
1819 1923 -1924 0
1819 -1923 1924 0
-1819 1923 1924 0
-1924 -1922 -1925 0
1924 1922 -1925 0
1924 -1922 1925 0
-1924 1922 1925 0
-1924 -1922 1926 0
1924 -1926 0
1922 -1926 0
-1819 -1923 1927 0
1819 -1927 0
1923 -1927 0
1926 1927 -1928 0
-1926 1928 0
-1927 1928 0
-130 -1829 1929 0
130 -1929 0
1829 -1929 0
-1825 -1929 -1930 0
1825 1929 -1930 0
1825 -1929 1930 0
-1825 1929 1930 0
-1930 -1928 -1931 0
1930 1928 -1931 0
1930 -1928 1931 0
-1930 1928 1931 0
-1930 -1928 1932 0
1930 -1932 0
1928 -1932 0
-1825 -1929 1933 0
1825 -1933 0
1929 -1933 0
1932 1933 -1934 0
-1932 1934 0
-1933 1934 0
-138 -1829 1935 0
138 -1935 0
1829 -1935 0
-1828 -1935 -1936 0
1828 1935 -1936 0
1828 -1935 1936 0
-1828 1935 1936 0
-1936 -1934 -1937 0
1936 1934 -1937 0
1936 -1934 1937 0
-1936 1934 1937 0
-1936 -1934 1938 0
1936 -1938 0
1934 -1938 0
-1828 -1935 1939 0
1828 -1939 0
1935 -1939 0
1938 1939 -1940 0
-1938 1940 0
-1939 1940 0
-1 -1941 1942 0
1 -1942 0
1941 -1942 0
-1835 -1942 -1943 0
1835 1942 -1943 0
1835 -1942 1943 0
-1835 1942 1943 0
-1835 -1942 1944 0
1835 -1944 0
1942 -1944 0
-4 -1941 1945 0
4 -1945 0
1941 -1945 0
-1841 -1945 -1946 0
1841 1945 -1946 0
1841 -1945 1946 0
-1841 1945 1946 0
-1946 -1944 -1947 0
1946 1944 -1947 0
1946 -1944 1947 0
-1946 1944 1947 0
-1946 -1944 1948 0
1946 -1948 0
1944 -1948 0
-1841 -1945 1949 0
1841 -1949 0
1945 -1949 0
1948 1949 -1950 0
-1948 1950 0
-1949 1950 0
-10 -1941 1951 0
10 -1951 0
1941 -1951 0
-1847 -1951 -1952 0
1847 1951 -1952 0
1847 -1951 1952 0
-1847 1951 1952 0
-1952 -1950 -1953 0
1952 1950 -1953 0
1952 -1950 1953 0
-1952 1950 1953 0
-1952 -1950 1954 0
1952 -1954 0
1950 -1954 0
-1847 -1951 1955 0
1847 -1955 0
1951 -1955 0
1954 1955 -1956 0
-1954 1956 0
-1955 1956 0
-18 -1941 1957 0
18 -1957 0
1941 -1957 0
-1853 -1957 -1958 0
1853 1957 -1958 0
1853 -1957 1958 0
-1853 1957 1958 0
-1958 -1956 -1959 0
1958 1956 -1959 0
1958 -1956 1959 0
-1958 1956 1959 0
-1958 -1956 1960 0
1958 -1960 0
1956 -1960 0
-1853 -1957 1961 0
1853 -1961 0
1957 -1961 0
1960 1961 -1962 0
-1960 1962 0
-1961 1962 0
-26 -1941 1963 0
26 -1963 0
1941 -1963 0
-1859 -1963 -1964 0
1859 1963 -1964 0
1859 -1963 1964 0
-1859 1963 1964 0
-1964 -1962 -1965 0
1964 1962 -1965 0
1964 -1962 1965 0
-1964 1962 1965 0
-1964 -1962 1966 0
1964 -1966 0
1962 -1966 0
-1859 -1963 1967 0
1859 -1967 0
1963 -1967 0
1966 1967 -1968 0
-1966 1968 0
-1967 1968 0
-34 -1941 1969 0
34 -1969 0
1941 -1969 0
-1865 -1969 -1970 0
1865 1969 -1970 0
1865 -1969 1970 0
-1865 1969 1970 0
-1970 -1968 -1971 0
1970 1968 -1971 0
1970 -1968 1971 0
-1970 1968 1971 0
-1970 -1968 1972 0
1970 -1972 0
1968 -1972 0
-1865 -1969 1973 0
1865 -1973 0
1969 -1973 0
1972 1973 -1974 0
-1972 1974 0
-1973 1974 0
-42 -1941 1975 0
42 -1975 0
1941 -1975 0
-1871 -1975 -1976 0
1871 1975 -1976 0
1871 -1975 1976 0
-1871 1975 1976 0
-1976 -1974 -1977 0
1976 1974 -1977 0
1976 -1974 1977 0
-1976 1974 1977 0
-1976 -1974 1978 0
1976 -1978 0
1974 -1978 0
-1871 -1975 1979 0
1871 -1979 0
1975 -1979 0
1978 1979 -1980 0
-1978 1980 0
-1979 1980 0
-50 -1941 1981 0
50 -1981 0
1941 -1981 0
-1877 -1981 -1982 0
1877 1981 -1982 0
1877 -1981 1982 0
-1877 1981 1982 0
-1982 -1980 -1983 0
1982 1980 -1983 0
1982 -1980 1983 0
-1982 1980 1983 0
-1982 -1980 1984 0
1982 -1984 0
1980 -1984 0
-1877 -1981 1985 0
1877 -1985 0
1981 -1985 0
1984 1985 -1986 0
-1984 1986 0
-1985 1986 0
-58 -1941 1987 0
58 -1987 0
1941 -1987 0
-1883 -1987 -1988 0
1883 1987 -1988 0
1883 -1987 1988 0
-1883 1987 1988 0
-1988 -1986 -1989 0
1988 1986 -1989 0
1988 -1986 1989 0
-1988 1986 1989 0
-1988 -1986 1990 0
1988 -1990 0
1986 -1990 0
-1883 -1987 1991 0
1883 -1991 0
1987 -1991 0
1990 1991 -1992 0
-1990 1992 0
-1991 1992 0
-66 -1941 1993 0
66 -1993 0
1941 -1993 0
-1889 -1993 -1994 0
1889 1993 -1994 0
1889 -1993 1994 0
-1889 1993 1994 0
-1994 -1992 -1995 0
1994 1992 -1995 0
1994 -1992 1995 0
-1994 1992 1995 0
-1994 -1992 1996 0
1994 -1996 0
1992 -1996 0
-1889 -1993 1997 0
1889 -1997 0
1993 -1997 0
1996 1997 -1998 0
-1996 1998 0
-1997 1998 0
-74 -1941 1999 0
74 -1999 0
1941 -1999 0
-1895 -1999 -2000 0
1895 1999 -2000 0
1895 -1999 2000 0
-1895 1999 2000 0
-2000 -1998 -2001 0
2000 1998 -2001 0
2000 -1998 2001 0
-2000 1998 2001 0
-2000 -1998 2002 0
2000 -2002 0
1998 -2002 0
-1895 -1999 2003 0
1895 -2003 0
1999 -2003 0
2002 2003 -2004 0
-2002 2004 0
-2003 2004 0
-82 -1941 2005 0
82 -2005 0
1941 -2005 0
-1901 -2005 -2006 0
1901 2005 -2006 0
1901 -2005 2006 0
-1901 2005 2006 0
-2006 -2004 -2007 0
2006 2004 -2007 0
2006 -2004 2007 0
-2006 2004 2007 0
-2006 -2004 2008 0
2006 -2008 0
2004 -2008 0
-1901 -2005 2009 0
1901 -2009 0
2005 -2009 0
2008 2009 -2010 0
-2008 2010 0
-2009 2010 0
-90 -1941 2011 0
90 -2011 0
1941 -2011 0
-1907 -2011 -2012 0
1907 2011 -2012 0
1907 -2011 2012 0
-1907 2011 2012 0
-2012 -2010 -2013 0
2012 2010 -2013 0
2012 -2010 2013 0
-2012 2010 2013 0
-2012 -2010 2014 0
2012 -2014 0
2010 -2014 0
-1907 -2011 2015 0
1907 -2015 0
2011 -2015 0
2014 2015 -2016 0
-2014 2016 0
-2015 2016 0
-98 -1941 2017 0
98 -2017 0
1941 -2017 0
-1913 -2017 -2018 0
1913 2017 -2018 0
1913 -2017 2018 0
-1913 2017 2018 0
-2018 -2016 -2019 0
2018 2016 -2019 0
2018 -2016 2019 0
-2018 2016 2019 0
-2018 -2016 2020 0
2018 -2020 0
2016 -2020 0
-1913 -2017 2021 0
1913 -2021 0
2017 -2021 0
2020 2021 -2022 0
-2020 2022 0
-2021 2022 0
-106 -1941 2023 0
106 -2023 0
1941 -2023 0
-1919 -2023 -2024 0
1919 2023 -2024 0
1919 -2023 2024 0
-1919 2023 2024 0
-2024 -2022 -2025 0
2024 2022 -2025 0
2024 -2022 2025 0
-2024 2022 2025 0
-2024 -2022 2026 0
2024 -2026 0
2022 -2026 0
-1919 -2023 2027 0
1919 -2027 0
2023 -2027 0
2026 2027 -2028 0
-2026 2028 0
-2027 2028 0
-114 -1941 2029 0
114 -2029 0
1941 -2029 0
-1925 -2029 -2030 0
1925 2029 -2030 0
1925 -2029 2030 0
-1925 2029 2030 0
-2030 -2028 -2031 0
2030 2028 -2031 0
2030 -2028 2031 0
-2030 2028 2031 0
-2030 -2028 2032 0
2030 -2032 0
2028 -2032 0
-1925 -2029 2033 0
1925 -2033 0
2029 -2033 0
2032 2033 -2034 0
-2032 2034 0
-2033 2034 0
-122 -1941 2035 0
122 -2035 0
1941 -2035 0
-1931 -2035 -2036 0
1931 2035 -2036 0
1931 -2035 2036 0
-1931 2035 2036 0
-2036 -2034 -2037 0
2036 2034 -2037 0
2036 -2034 2037 0
-2036 2034 2037 0
-2036 -2034 2038 0
2036 -2038 0
2034 -2038 0
-1931 -2035 2039 0
1931 -2039 0
2035 -2039 0
2038 2039 -2040 0
-2038 2040 0
-2039 2040 0
-130 -1941 2041 0
130 -2041 0
1941 -2041 0
-1937 -2041 -2042 0
1937 2041 -2042 0
1937 -2041 2042 0
-1937 2041 2042 0
-2042 -2040 -2043 0
2042 2040 -2043 0
2042 -2040 2043 0
-2042 2040 2043 0
-2042 -2040 2044 0
2042 -2044 0
2040 -2044 0
-1937 -2041 2045 0
1937 -2045 0
2041 -2045 0
2044 2045 -2046 0
-2044 2046 0
-2045 2046 0
-138 -1941 2047 0
138 -2047 0
1941 -2047 0
-1940 -2047 -2048 0
1940 2047 -2048 0
1940 -2047 2048 0
-1940 2047 2048 0
-2048 -2046 -2049 0
2048 2046 -2049 0
2048 -2046 2049 0
-2048 2046 2049 0
-2048 -2046 2050 0
2048 -2050 0
2046 -2050 0
-1940 -2047 2051 0
1940 -2051 0
2047 -2051 0
2050 2051 -2052 0
-2050 2052 0
-2051 2052 0
3 0
-8 0
151 0
-263 0
375 0
-487 0
-599 0
-711 0
-823 0
-935 0
-1047 0
-1159 0
-1271 0
-1383 0
-1495 0
-1607 0
-1719 0
-1831 0
-1943 0
1947 0
-1953 0
1959 0
-1965 0
-1971 0
-1977 0
-1983 0
-1989 0
-1995 0
-2001 0
-2007 0
-2013 0
-2019 0
-2025 0
-2031 0
-2037 0
-2043 0
2049 0
-2052 0
