p cnf 2280 7500
-2 3 -1 0
1 -3 0
-3 2 0
5 -4 -2 0
-5 4 0
-5 2 0
-6 7 -1 0
1 -7 0
6 -7 0
-8 -7 -5 0
-8 5 7 0
8 5 -7 0
8 -5 7 0
-7 9 -5 0
-9 5 0
-9 7 0
-10 11 -2 0
-11 10 0
-11 2 0
-6 -4 12 0
-12 4 0
-12 6 0
-12 -11 -13 0
11 -13 12 0
-12 11 13 0
-11 13 12 0
-9 -14 -13 0
-14 9 13 0
-9 14 13 0
14 9 -13 0
-9 15 -13 0
-15 13 0
9 -15 0
-12 -11 16 0
11 -16 0
-16 12 0
15 16 -17 0
-15 17 0
-16 17 0
-2 19 -18 0
-19 18 0
-19 2 0
-10 -6 20 0
10 -20 0
6 -20 0
-21 -19 -20 0
-21 19 20 0
21 19 -20 0
21 -19 20 0
-17 -21 -22 0
21 -22 17 0
21 22 -17 0
22 -21 17 0
23 -17 -21 0
21 -23 0
-23 17 0
-19 24 -20 0
-24 19 0
-24 20 0
23 24 -25 0
25 -23 0
-24 25 0
-26 27 -2 0
26 -27 0
-27 2 0
-6 28 -18 0
-28 18 0
6 -28 0
-27 -29 -28 0
27 -29 28 0
27 29 -28 0
-27 28 29 0
-30 -29 -25 0
-30 25 29 0
30 29 -25 0
-29 25 30 0
-29 31 -25 0
29 -31 0
25 -31 0
-27 32 -28 0
27 -32 0
-32 28 0
-33 32 31 0
33 -31 0
-32 33 0
35 -2 -34 0
-35 34 0
-35 2 0
-26 -6 36 0
26 -36 0
-36 6 0
-36 -37 -35 0
36 35 -37 0
-36 35 37 0
36 37 -35 0
-38 -37 -33 0
37 -38 33 0
37 -33 38 0
-37 33 38 0
39 -37 -33 0
37 -39 0
-39 33 0
40 -36 -35 0
-40 35 0
36 -40 0
40 39 -41 0
-39 41 0
-40 41 0
-42 43 -2 0
-43 42 0
-43 2 0
-6 44 -34 0
-44 34 0
-44 6 0
-45 -44 -43 0
-45 44 43 0
-44 43 45 0
44 -43 45 0
-45 -46 -41 0
-46 45 41 0
46 -41 45 0
-45 46 41 0
-45 -41 47 0
-47 45 0
-47 41 0
-44 -43 48 0
-48 43 0
44 -48 0
48 -49 47 0
49 -47 0
49 -48 0
-50 51 -2 0
-51 50 0
-51 2 0
-42 -6 52 0
-52 42 0
-52 6 0
-52 -51 -53 0
51 -53 52 0
-52 51 53 0
-51 53 52 0
-49 -53 -54 0
49 53 -54 0
-49 53 54 0
54 49 -53 0
55 -49 -53 0
53 -55 0
49 -55 0
-52 -51 56 0
51 -56 0
-56 52 0
55 -57 56 0
57 -55 0
57 -56 0
-58 59 -2 0
-59 58 0
-59 2 0
-50 -6 60 0
-60 50 0
6 -60 0
-61 -59 -60 0
-61 60 59 0
61 -60 59 0
61 -59 60 0
-62 -61 -57 0
-62 57 61 0
61 62 -57 0
57 -61 62 0
-61 63 -57 0
-63 61 0
57 -63 0
64 -59 -60 0
-64 59 0
-64 60 0
-65 64 63 0
65 -63 0
65 -64 0
-2 67 -66 0
-67 66 0
-67 2 0
-6 -58 68 0
-68 58 0
6 -68 0
-68 -67 -69 0
68 -69 67 0
-68 69 67 0
-67 69 68 0
-70 -65 -69 0
-70 65 69 0
-65 70 69 0
65 70 -69 0
-65 71 -69 0
-71 69 0
65 -71 0
72 -68 -67 0
-72 67 0
-72 68 0
72 -73 71 0
73 -71 0
73 -72 0
-74 75 -2 0
-75 74 0
-75 2 0
-6 76 -66 0
-76 66 0
-76 6 0
-75 -77 -76 0
-77 75 76 0
-76 77 75 0
-75 77 76 0
-77 -73 -78 0
73 77 -78 0
77 -73 78 0
73 -77 78 0
-77 -73 79 0
77 -79 0
73 -79 0
-75 -76 80 0
75 -80 0
76 -80 0
79 80 -81 0
81 -79 0
81 -80 0
83 -2 -82 0
82 -83 0
-83 2 0
-74 -6 84 0
74 -84 0
6 -84 0
-84 -83 -85 0
83 -85 84 0
83 85 -84 0
85 -83 84 0
-81 -85 -86 0
81 85 -86 0
85 -81 86 0
81 -85 86 0
-81 -85 87 0
85 -87 0
81 -87 0
-84 -83 88 0
83 -88 0
84 -88 0
-89 88 87 0
89 -87 0
89 -88 0
-90 91 -2 0
90 -91 0
-91 2 0
-6 92 -82 0
-92 82 0
-92 6 0
-92 -93 -91 0
-93 92 91 0
-92 91 93 0
93 92 -91 0
-89 -93 -94 0
93 89 -94 0
93 94 -89 0
94 89 -93 0
-89 -93 95 0
93 -95 0
89 -95 0
-92 96 -91 0
91 -96 0
92 -96 0
96 -97 95 0
97 -95 0
-96 97 0
99 -98 -2 0
98 -99 0
-99 2 0
-90 -6 100 0
-100 90 0
-100 6 0
-101 -100 -99 0
99 100 -101 0
99 -100 101 0
100 101 -99 0
-97 -102 -101 0
-102 101 97 0
-97 101 102 0
-101 97 102 0
-97 -101 103 0
101 -103 0
97 -103 0
104 -100 -99 0
99 -104 0
-104 100 0
104 103 -105 0
105 -103 0
-104 105 0
107 -106 -2 0
106 -107 0
-107 2 0
108 -6 -98 0
98 -108 0
6 -108 0
-109 -107 -108 0
108 107 -109 0
109 107 -108 0
109 108 -107 0
-109 -105 -110 0
109 -110 105 0
109 -105 110 0
110 -109 105 0
111 -109 -105 0
109 -111 0
-111 105 0
112 -107 -108 0
107 -112 0
108 -112 0
112 111 -113 0
113 -111 0
-112 113 0
-114 115 -2 0
114 -115 0
-115 2 0
-6 -106 116 0
106 -116 0
-116 6 0
-117 -116 -115 0
-117 116 115 0
-116 115 117 0
116 -115 117 0
-117 -118 -113 0
-118 113 117 0
118 117 -113 0
-117 113 118 0
-117 119 -113 0
-119 117 0
113 -119 0
-116 120 -115 0
-120 115 0
-120 116 0
-121 119 120 0
-119 121 0
-120 121 0
-122 123 -2 0
-123 122 0
-123 2 0
124 -6 -114 0
-124 114 0
-124 6 0
-124 -123 -125 0
124 123 -125 0
-124 125 123 0
124 -123 125 0
-121 -126 -125 0
-126 125 121 0
-121 125 126 0
121 126 -125 0
-121 127 -125 0
-127 125 0
-127 121 0
-124 -123 128 0
-128 123 0
124 -128 0
127 -129 128 0
-127 129 0
-128 129 0
-130 131 -2 0
130 -131 0
-131 2 0
-122 -6 132 0
-132 122 0
-132 6 0
-132 -131 -133 0
-133 131 132 0
-132 131 133 0
-131 132 133 0
-133 -129 -134 0
-134 133 129 0
134 -129 133 0
-133 134 129 0
-133 -129 135 0
-135 133 0
-135 129 0
-132 -131 136 0
131 -136 0
-136 132 0
-137 136 135 0
137 -135 0
137 -136 0
139 -138 -2 0
138 -139 0
-139 2 0
-130 -6 140 0
130 -140 0
6 -140 0
-139 -141 -140 0
139 -141 140 0
139 -140 141 0
-139 141 140 0
-141 -137 -142 0
137 141 -142 0
142 141 -137 0
142 137 -141 0
-141 -137 143 0
141 -143 0
137 -143 0
-139 144 -140 0
139 -144 0
140 -144 0
144 -145 143 0
145 -143 0
145 -144 0
-146 147 -2 0
146 -147 0
-147 2 0
-6 -138 148 0
138 -148 0
-148 6 0
-148 -147 -149 0
148 147 -149 0
-148 147 149 0
148 -147 149 0
-150 -145 -149 0
-150 145 149 0
150 -145 149 0
150 145 -149 0
-145 151 -149 0
-151 149 0
-151 145 0
-148 -147 152 0
-152 147 0
148 -152 0
-153 152 151 0
153 -151 0
153 -152 0
-146 -6 154 0
146 -154 0
6 -154 0
-155 -153 -154 0
153 -155 154 0
153 155 -154 0
-153 154 155 0
-153 156 -154 0
153 -156 0
-156 154 0
-157 158 -1 0
1 -158 0
157 -158 0
-158 -14 -159 0
14 158 -159 0
-158 14 159 0
-14 159 158 0
160 -158 -14 0
14 -160 0
-160 158 0
-157 -4 161 0
-161 4 0
157 -161 0
-162 -22 -161 0
-162 22 161 0
162 22 -161 0
162 -22 161 0
-162 -160 -163 0
162 160 -163 0
162 -160 163 0
-162 160 163 0
-162 -160 164 0
162 -164 0
-164 160 0
165 -22 -161 0
-165 22 0
-165 161 0
165 -166 164 0
-164 166 0
-165 166 0
-157 -10 167 0
-167 10 0
157 -167 0
-30 -167 -168 0
-168 30 167 0
-167 30 168 0
-30 168 167 0
-169 -168 -166 0
166 -169 168 0
169 -166 168 0
169 166 -168 0
-168 -166 170 0
-170 168 0
166 -170 0
-30 -167 171 0
30 -171 0
-171 167 0
-172 171 170 0
-170 172 0
172 -171 0
-157 173 -18 0
-173 18 0
157 -173 0
-174 -38 -173 0
-174 38 173 0
174 -173 38 0
-38 174 173 0
-174 -175 -172 0
-175 174 172 0
175 174 -172 0
-174 175 172 0
-174 176 -172 0
174 -176 0
172 -176 0
-38 -173 177 0
38 -177 0
173 -177 0
-178 176 177 0
178 -176 0
178 -177 0
-157 -26 179 0
26 -179 0
157 -179 0
-180 -46 -179 0
-180 179 46 0
180 -179 46 0
180 -46 179 0
-180 -178 -181 0
178 180 -181 0
181 180 -178 0
-180 178 181 0
-180 -178 182 0
180 -182 0
178 -182 0
183 -46 -179 0
-183 46 0
-183 179 0
183 182 -184 0
-182 184 0
-183 184 0
-157 185 -34 0
-185 34 0
157 -185 0
-186 -185 -54 0
54 185 -186 0
54 -185 186 0
185 186 -54 0
-187 -186 -184 0
-187 186 184 0
187 186 -184 0
187 -186 184 0
188 -186 -184 0
-188 186 0
-188 184 0
189 -185 -54 0
54 -189 0
185 -189 0
188 -190 189 0
190 -188 0
190 -189 0
-42 -157 191 0
-191 42 0
157 -191 0
-192 -62 -191 0
-192 62 191 0
192 62 -191 0
-62 192 191 0
-192 -193 -190 0
190 192 -193 0
193 192 -190 0
-192 193 190 0
-192 194 -190 0
192 -194 0
190 -194 0
-62 195 -191 0
62 -195 0
191 -195 0
195 194 -196 0
196 -194 0
196 -195 0
-157 -50 197 0
-197 50 0
157 -197 0
-70 -197 -198 0
197 70 -198 0
-197 70 198 0
-70 197 198 0
-199 -198 -196 0
196 -199 198 0
199 -196 198 0
-198 199 196 0
200 -198 -196 0
-200 198 0
-200 196 0
-70 201 -197 0
70 -201 0
197 -201 0
200 201 -202 0
-200 202 0
202 -201 0
-157 -58 203 0
-203 58 0
157 -203 0
-78 -204 -203 0
203 -204 78 0
204 -203 78 0
203 -78 204 0
-204 -205 -202 0
204 -205 202 0
205 204 -202 0
205 -204 202 0
-204 206 -202 0
204 -206 0
-206 202 0
-78 -203 207 0
-207 78 0
203 -207 0
207 -208 206 0
208 -206 0
208 -207 0
-157 209 -66 0
-209 66 0
-209 157 0
-209 -210 -86 0
209 -210 86 0
-209 210 86 0
209 -86 210 0
-211 -210 -208 0
-211 208 210 0
211 -208 210 0
211 208 -210 0
212 -210 -208 0
-212 210 0
208 -212 0
-209 213 -86 0
-213 86 0
209 -213 0
212 -214 213 0
214 -212 0
-213 214 0
-157 -74 215 0
-215 74 0
-215 157 0
-215 -216 -94 0
94 215 -216 0
94 -215 216 0
215 216 -94 0
-214 -216 -217 0
214 -217 216 0
217 -214 216 0
217 -216 214 0
-214 -216 218 0
-218 216 0
-218 214 0
-215 219 -94 0
94 -219 0
215 -219 0
219 -220 218 0
220 -218 0
-219 220 0
-157 221 -82 0
82 -221 0
157 -221 0
-222 -102 -221 0
-222 221 102 0
222 -221 102 0
222 221 -102 0
-222 -223 -220 0
222 -223 220 0
222 223 -220 0
-222 220 223 0
-222 -220 224 0
222 -224 0
220 -224 0
225 -102 -221 0
-225 102 0
221 -225 0
225 -226 224 0
226 -224 0
226 -225 0
-90 -157 227 0
-227 90 0
157 -227 0
-227 -110 -228 0
227 110 -228 0
-227 228 110 0
227 228 -110 0
-229 -226 -228 0
-229 226 228 0
229 -226 228 0
226 -228 229 0
-226 -228 230 0
228 -230 0
226 -230 0
231 -227 -110 0
-231 110 0
-231 227 0
231 -232 230 0
232 -230 0
232 -231 0
-157 -98 233 0
98 -233 0
157 -233 0
-118 -234 -233 0
-234 118 233 0
-233 234 118 0
-118 234 233 0
-234 -235 -232 0
232 234 -235 0
234 235 -232 0
232 -234 235 0
-234 -232 236 0
-236 234 0
232 -236 0
-118 -233 237 0
118 -237 0
-237 233 0
-238 237 236 0
-236 238 0
238 -237 0
-157 -106 239 0
106 -239 0
157 -239 0
-126 -239 -240 0
-240 239 126 0
-239 240 126 0
-126 239 240 0
-238 -240 -241 0
238 240 -241 0
-238 241 240 0
238 -240 241 0
-238 -240 242 0
240 -242 0
238 -242 0
-126 -239 243 0
-243 126 0
239 -243 0
-244 243 242 0
244 -242 0
244 -243 0
-157 245 -114 0
114 -245 0
157 -245 0
-246 -245 -134 0
-246 245 134 0
246 -245 134 0
245 -134 246 0
-246 -244 -247 0
246 244 -247 0
247 246 -244 0
-246 247 244 0
-246 -244 248 0
246 -248 0
244 -248 0
-245 -134 249 0
-249 134 0
245 -249 0
248 -250 249 0
250 -248 0
-249 250 0
-122 -157 251 0
-251 122 0
157 -251 0
-251 -142 -252 0
142 251 -252 0
142 -251 252 0
251 -142 252 0
-253 -250 -252 0
-253 250 252 0
253 -250 252 0
253 250 -252 0
254 -250 -252 0
-254 252 0
-254 250 0
-251 -142 255 0
142 -255 0
-255 251 0
254 255 -256 0
-254 256 0
-255 256 0
-130 -157 257 0
130 -257 0
-257 157 0
-150 -257 -258 0
257 150 -258 0
-257 150 258 0
-150 257 258 0
-258 -259 -256 0
-259 258 256 0
258 259 -256 0
-258 259 256 0
-258 260 -256 0
-260 258 0
-260 256 0
-150 -257 261 0
150 -261 0
257 -261 0
260 261 -262 0
262 -260 0
262 -261 0
-157 -138 263 0
138 -263 0
157 -263 0
-155 -264 -263 0
263 -264 155 0
264 -263 155 0
-155 263 264 0
-265 -264 -262 0
264 262 -265 0
265 264 -262 0
265 262 -264 0
-264 -262 266 0
264 -266 0
262 -266 0
-155 267 -263 0
155 -267 0
263 -267 0
267 -268 266 0
268 -266 0
268 -267 0
-146 -157 269 0
146 -269 0
157 -269 0
-156 -270 -269 0
-270 156 269 0
156 270 -269 0
-156 270 269 0
-270 -271 -268 0
270 268 -271 0
270 271 -268 0
-270 268 271 0
-270 272 -268 0
-272 270 0
-272 268 0
-156 273 -269 0
156 -273 0
269 -273 0
273 272 -274 0
-272 274 0
274 -273 0
276 -275 -1 0
1 -276 0
-276 275 0
-277 -276 -163 0
-277 276 163 0
277 -276 163 0
276 277 -163 0
278 -276 -163 0
-278 163 0
-278 276 0
279 -275 -4 0
-279 4 0
-279 275 0
-279 -280 -169 0
-280 169 279 0
-279 280 169 0
280 -169 279 0
-278 -280 -281 0
280 278 -281 0
281 -278 280 0
281 278 -280 0
-278 -280 282 0
-282 280 0
-282 278 0
-279 283 -169 0
169 -283 0
-283 279 0
-284 283 282 0
-282 284 0
284 -283 0
-10 285 -275 0
10 -285 0
-285 275 0
-175 -285 -286 0
175 285 -286 0
175 -285 286 0
-175 285 286 0
-284 -287 -286 0
-287 284 286 0
-284 287 286 0
284 287 -286 0
288 -284 -286 0
-288 286 0
284 -288 0
-175 289 -285 0
175 -289 0
-289 285 0
288 289 -290 0
290 -288 0
-289 290 0
291 -275 -18 0
-291 18 0
-291 275 0
-292 -291 -181 0
291 181 -292 0
292 181 -291 0
292 291 -181 0
-293 -290 -292 0
-293 292 290 0
292 293 -290 0
290 293 -292 0
294 -290 -292 0
292 -294 0
290 -294 0
295 -291 -181 0
181 -295 0
291 -295 0
294 -296 295 0
-294 296 0
296 -295 0
-26 -275 297 0
26 -297 0
275 -297 0
-187 -298 -297 0
-298 187 297 0
187 298 -297 0
-187 298 297 0
-298 -299 -296 0
298 -299 296 0
299 298 -296 0
-298 299 296 0
-298 300 -296 0
-300 298 0
-300 296 0
-187 301 -297 0
187 -301 0
-301 297 0
-302 300 301 0
-300 302 0
302 -301 0
303 -275 -34 0
-303 34 0
-303 275 0
-304 -303 -193 0
193 -304 303 0
193 -303 304 0
-193 304 303 0
-302 -304 -305 0
-305 302 304 0
-302 305 304 0
305 -304 302 0
-302 -304 306 0
304 -306 0
302 -306 0
-303 307 -193 0
-307 193 0
-307 303 0
-308 307 306 0
308 -306 0
-307 308 0
-42 309 -275 0
-309 42 0
-309 275 0
-310 -199 -309 0
309 -310 199 0
310 -309 199 0
309 -199 310 0
-310 -308 -311 0
310 308 -311 0
310 -308 311 0
-310 311 308 0
-310 -308 312 0
310 -312 0
-312 308 0
-199 313 -309 0
-313 199 0
309 -313 0
-314 313 312 0
-312 314 0
-313 314 0
-50 315 -275 0
50 -315 0
-315 275 0
-316 -205 -315 0
-316 205 315 0
205 -315 316 0
315 -205 316 0
-316 -314 -317 0
-317 316 314 0
-314 317 316 0
-316 317 314 0
-316 318 -314 0
-318 316 0
-318 314 0
-205 319 -315 0
205 -319 0
315 -319 0
-320 318 319 0
320 -318 0
320 -319 0
-58 -275 321 0
-321 58 0
-321 275 0
-211 -321 -322 0
211 -322 321 0
211 -321 322 0
-211 322 321 0
-320 -322 -323 0
322 320 -323 0
323 322 -320 0
323 320 -322 0
-320 -322 324 0
322 -324 0
320 -324 0
-211 -321 325 0
211 -325 0
-325 321 0
324 -326 325 0
326 -324 0
326 -325 0
-275 327 -66 0
66 -327 0
275 -327 0
-217 -328 -327 0
217 -328 327 0
217 328 -327 0
328 -217 327 0
-329 -328 -326 0
328 -329 326 0
328 329 -326 0
326 -328 329 0
330 -328 -326 0
328 -330 0
-330 326 0
-217 331 -327 0
217 -331 0
-331 327 0
330 331 -332 0
-330 332 0
332 -331 0
-74 333 -275 0
74 -333 0
-333 275 0
-334 -223 -333 0
-334 333 223 0
-333 223 334 0
-223 333 334 0
-334 -335 -332 0
332 334 -335 0
335 334 -332 0
-334 332 335 0
-334 336 -332 0
334 -336 0
332 -336 0
-223 -333 337 0
-337 223 0
-337 333 0
336 -338 337 0
338 -336 0
-337 338 0
339 -275 -82 0
82 -339 0
-339 275 0
-229 -339 -340 0
229 339 -340 0
229 -339 340 0
-229 339 340 0
-341 -338 -340 0
-341 340 338 0
341 -338 340 0
341 -340 338 0
342 -338 -340 0
-342 340 0
-342 338 0
-229 -339 343 0
229 -343 0
339 -343 0
-344 342 343 0
-342 344 0
-343 344 0
-90 345 -275 0
-345 90 0
-345 275 0
-345 -235 -346 0
345 -346 235 0
346 -345 235 0
345 346 -235 0
-347 -346 -344 0
346 -347 344 0
346 347 -344 0
-346 344 347 0
-346 348 -344 0
346 -348 0
344 -348 0
-345 -235 349 0
-349 235 0
345 -349 0
349 348 -350 0
350 -348 0
350 -349 0
351 -275 -98 0
98 -351 0
-351 275 0
-352 -241 -351 0
-352 351 241 0
241 352 -351 0
351 -241 352 0
-352 -350 -353 0
350 -353 352 0
-350 353 352 0
-352 350 353 0
-352 -350 354 0
-354 352 0
-354 350 0
355 -241 -351 0
241 -355 0
351 -355 0
355 354 -356 0
-354 356 0
-355 356 0
357 -106 -275 0
106 -357 0
275 -357 0
-358 -247 -357 0
247 357 -358 0
247 358 -357 0
358 357 -247 0
-359 -356 -358 0
-359 358 356 0
359 358 -356 0
359 356 -358 0
360 -356 -358 0
-360 358 0
-360 356 0
361 -247 -357 0
247 -361 0
357 -361 0
360 -362 361 0
-360 362 0
362 -361 0
-114 -275 363 0
-363 114 0
-363 275 0
-363 -253 -364 0
253 -364 363 0
-363 253 364 0
364 -253 363 0
-362 -364 -365 0
364 362 -365 0
364 365 -362 0
365 -364 362 0
366 -362 -364 0
364 -366 0
-366 362 0
-363 -253 367 0
253 -367 0
-367 363 0
367 366 -368 0
-366 368 0
368 -367 0
-122 369 -275 0
122 -369 0
-369 275 0
-259 -370 -369 0
369 -370 259 0
370 -369 259 0
-259 369 370 0
-368 -370 -371 0
-371 368 370 0
-368 371 370 0
368 -370 371 0
-368 372 -370 0
-372 370 0
-372 368 0
-259 373 -369 0
-373 259 0
369 -373 0
372 373 -374 0
374 -372 0
374 -373 0
-130 375 -275 0
130 -375 0
275 -375 0
-265 -376 -375 0
-376 265 375 0
376 265 -375 0
376 -265 375 0
-377 -374 -376 0
376 -377 374 0
376 -374 377 0
374 -376 377 0
378 -374 -376 0
376 -378 0
374 -378 0
-265 379 -375 0
265 -379 0
375 -379 0
-380 378 379 0
380 -378 0
380 -379 0
-138 381 -275 0
-381 138 0
-381 275 0
-382 -381 -271 0
-382 381 271 0
382 -381 271 0
382 381 -271 0
-382 -380 -383 0
382 380 -383 0
382 -380 383 0
-382 380 383 0
-382 -380 384 0
382 -384 0
380 -384 0
-381 385 -271 0
-385 271 0
381 -385 0
-386 385 384 0
386 -384 0
386 -385 0
-146 387 -275 0
146 -387 0
-387 275 0
-274 -387 -388 0
387 -388 274 0
388 -387 274 0
-274 387 388 0
-386 -388 -389 0
386 388 -389 0
-386 388 389 0
386 -388 389 0
-386 390 -388 0
388 -390 0
386 -390 0
-274 -387 391 0
-391 274 0
-391 387 0
-392 390 391 0
392 -390 0
-391 392 0
-393 394 -1 0
1 -394 0
393 -394 0
-395 -394 -281 0
281 -395 394 0
281 395 -394 0
394 395 -281 0
-394 396 -281 0
281 -396 0
394 -396 0
-393 397 -4 0
-397 4 0
393 -397 0
-287 -398 -397 0
397 287 -398 0
398 287 -397 0
-287 397 398 0
-398 -399 -396 0
-399 398 396 0
399 -396 398 0
-398 399 396 0
-398 -396 400 0
-400 398 0
-400 396 0
-287 401 -397 0
-401 287 0
397 -401 0
-402 401 400 0
402 -400 0
402 -401 0
-393 -10 403 0
-403 10 0
393 -403 0
-293 -404 -403 0
403 -404 293 0
-403 404 293 0
-293 404 403 0
-402 -404 -405 0
404 402 -405 0
404 405 -402 0
402 -404 405 0
-402 -404 406 0
404 -406 0
402 -406 0
-293 -403 407 0
-407 293 0
-407 403 0
-408 406 407 0
-406 408 0
408 -407 0
-393 409 -18 0
-409 18 0
-409 393 0
-299 -409 -410 0
409 299 -410 0
299 -409 410 0
409 -299 410 0
-408 -411 -410 0
408 410 -411 0
-408 410 411 0
408 411 -410 0
412 -408 -410 0
410 -412 0
408 -412 0
413 -299 -409 0
299 -413 0
409 -413 0
413 -414 412 0
-412 414 0
-413 414 0
-393 -26 415 0
26 -415 0
-415 393 0
-415 -305 -416 0
305 415 -416 0
-415 305 416 0
416 415 -305 0
-417 -414 -416 0
416 -417 414 0
416 417 -414 0
417 -416 414 0
-414 -416 418 0
416 -418 0
-418 414 0
-415 -305 419 0
305 -419 0
415 -419 0
418 -420 419 0
420 -418 0
420 -419 0
-393 421 -34 0
-421 34 0
393 -421 0
-422 -311 -421 0
311 -422 421 0
422 311 -421 0
422 -311 421 0
-423 -420 -422 0
422 -423 420 0
422 423 -420 0
423 420 -422 0
424 -420 -422 0
422 -424 0
420 -424 0
425 -311 -421 0
311 -425 0
-425 421 0
424 425 -426 0
426 -424 0
426 -425 0
-42 -393 427 0
-427 42 0
-427 393 0
-427 -428 -317 0
317 -428 427 0
317 428 -427 0
427 428 -317 0
-428 -426 -429 0
426 428 -429 0
428 429 -426 0
426 -428 429 0
430 -428 -426 0
428 -430 0
426 -430 0
-427 431 -317 0
317 -431 0
-431 427 0
430 431 -432 0
432 -430 0
432 -431 0
-393 -50 433 0
-433 50 0
393 -433 0
-434 -433 -323 0
323 -434 433 0
323 434 -433 0
434 433 -323 0
-435 -434 -432 0
-435 432 434 0
434 435 -432 0
432 -434 435 0
436 -434 -432 0
434 -436 0
432 -436 0
437 -433 -323 0
323 -437 0
-437 433 0
436 -438 437 0
438 -436 0
438 -437 0
-393 -58 439 0
-439 58 0
-439 393 0
-329 -440 -439 0
-440 439 329 0
-439 440 329 0
-329 440 439 0
-441 -440 -438 0
-441 438 440 0
-438 441 440 0
-440 438 441 0
-440 442 -438 0
-442 440 0
438 -442 0
-329 443 -439 0
-443 329 0
-443 439 0
-444 442 443 0
444 -442 0
444 -443 0
-393 445 -66 0
-445 66 0
-445 393 0
-335 -446 -445 0
335 -446 445 0
335 -445 446 0
-335 445 446 0
-444 -447 -446 0
-447 444 446 0
-444 447 446 0
-446 444 447 0
-444 -446 448 0
-448 446 0
-448 444 0
-335 -445 449 0
335 -449 0
-449 445 0
448 -450 449 0
450 -448 0
450 -449 0
-393 -74 451 0
74 -451 0
-451 393 0
-341 -452 -451 0
341 451 -452 0
341 -451 452 0
-341 451 452 0
-453 -452 -450 0
450 -453 452 0
453 -450 452 0
450 453 -452 0
-452 454 -450 0
-454 452 0
450 -454 0
-341 455 -451 0
341 -455 0
451 -455 0
455 454 -456 0
-454 456 0
-455 456 0
-393 457 -82 0
-457 82 0
-457 393 0
-457 -458 -347 0
-458 457 347 0
-457 458 347 0
458 -347 457 0
-459 -458 -456 0
-459 458 456 0
459 458 -456 0
459 -458 456 0
-458 460 -456 0
458 -460 0
-460 456 0
-457 461 -347 0
-461 347 0
-461 457 0
461 460 -462 0
462 -460 0
-461 462 0
-90 -393 463 0
-463 90 0
-463 393 0
-463 -353 -464 0
463 353 -464 0
-463 464 353 0
463 -353 464 0
-465 -462 -464 0
-465 464 462 0
465 464 -462 0
465 462 -464 0
466 -462 -464 0
-466 464 0
-466 462 0
-463 467 -353 0
-467 353 0
463 -467 0
466 467 -468 0
-466 468 0
468 -467 0
-393 469 -98 0
98 -469 0
393 -469 0
-470 -359 -469 0
359 469 -470 0
359 470 -469 0
469 -359 470 0
-471 -470 -468 0
-471 468 470 0
470 -468 471 0
468 -470 471 0
472 -470 -468 0
-472 470 0
-472 468 0
-359 473 -469 0
359 -473 0
469 -473 0
472 -474 473 0
-472 474 0
474 -473 0
-393 -106 475 0
106 -475 0
393 -475 0
-476 -475 -365 0
-476 365 475 0
365 -475 476 0
476 475 -365 0
-476 -474 -477 0
474 -477 476 0
477 -474 476 0
-476 474 477 0
478 -476 -474 0
-478 476 0
-478 474 0
-475 479 -365 0
365 -479 0
475 -479 0
478 -480 479 0
-478 480 0
480 -479 0
-393 481 -114 0
-481 114 0
-481 393 0
-481 -482 -371 0
-482 481 371 0
-481 371 482 0
482 481 -371 0
-483 -482 -480 0
480 -483 482 0
-480 483 482 0
480 -482 483 0
484 -482 -480 0
-484 482 0
480 -484 0
-481 485 -371 0
-485 371 0
-485 481 0
-486 485 484 0
-484 486 0
-485 486 0
-122 -393 487 0
-487 122 0
-487 393 0
-377 -487 -488 0
377 -488 487 0
488 -487 377 0
488 -377 487 0
-486 -489 -488 0
488 -489 486 0
488 -486 489 0
486 489 -488 0
-486 490 -488 0
488 -490 0
-490 486 0
-377 -487 491 0
377 -491 0
-491 487 0
-492 491 490 0
492 -490 0
492 -491 0
-130 -393 493 0
130 -493 0
393 -493 0
-493 -494 -383 0
383 -494 493 0
494 383 -493 0
494 493 -383 0
-492 -495 -494 0
492 -495 494 0
-492 494 495 0
495 492 -494 0
-492 496 -494 0
494 -496 0
492 -496 0
497 -493 -383 0
-497 383 0
-497 493 0
-498 496 497 0
-496 498 0
-497 498 0
-393 499 -138 0
138 -499 0
393 -499 0
-500 -389 -499 0
499 -500 389 0
500 389 -499 0
499 500 -389 0
-500 -501 -498 0
500 498 -501 0
500 501 -498 0
-500 498 501 0
-500 502 -498 0
500 -502 0
-502 498 0
503 -389 -499 0
-503 389 0
499 -503 0
503 -504 502 0
-502 504 0
504 -503 0
-146 -393 505 0
146 -505 0
-505 393 0
-392 -506 -505 0
505 392 -506 0
392 -505 506 0
-392 506 505 0
-506 -504 -507 0
506 504 -507 0
506 -504 507 0
-506 507 504 0
-506 -504 508 0
506 -508 0
504 -508 0
-392 -505 509 0
392 -509 0
505 -509 0
509 -510 508 0
510 -508 0
-509 510 0
512 -511 -1 0
1 -512 0
511 -512 0
-513 -399 -512 0
-513 399 512 0
399 513 -512 0
-399 513 512 0
-399 514 -512 0
399 -514 0
-514 512 0
515 -511 -4 0
-515 4 0
511 -515 0
-516 -515 -405 0
515 405 -516 0
516 -515 405 0
516 515 -405 0
-517 -514 -516 0
516 -517 514 0
516 517 -514 0
514 517 -516 0
518 -514 -516 0
516 -518 0
514 -518 0
-515 519 -405 0
-519 405 0
-519 515 0
518 -520 519 0
520 -518 0
520 -519 0
-10 521 -511 0
10 -521 0
511 -521 0
-522 -521 -411 0
521 -522 411 0
522 -521 411 0
522 521 -411 0
-523 -522 -520 0
522 -523 520 0
522 523 -520 0
520 523 -522 0
-522 -520 524 0
522 -524 0
520 -524 0
525 -521 -411 0
-525 411 0
521 -525 0
525 524 -526 0
526 -524 0
526 -525 0
527 -511 -18 0
-527 18 0
511 -527 0
-527 -417 -528 0
527 417 -528 0
-527 417 528 0
-417 528 527 0
-529 -528 -526 0
-529 526 528 0
529 528 -526 0
-528 526 529 0
-528 530 -526 0
-530 528 0
-530 526 0
-527 -417 531 0
417 -531 0
527 -531 0
-532 531 530 0
-530 532 0
-531 532 0
-26 -511 533 0
26 -533 0
511 -533 0
-534 -423 -533 0
533 -534 423 0
423 534 -533 0
-423 533 534 0
-534 -532 -535 0
-535 534 532 0
535 -532 534 0
535 -534 532 0
-534 -532 536 0
-536 534 0
-536 532 0
-423 537 -533 0
423 -537 0
533 -537 0
537 536 -538 0
538 -536 0
538 -537 0
539 -511 -34 0
-539 34 0
-539 511 0
-539 -540 -429 0
539 429 -540 0
-539 540 429 0
539 540 -429 0
-541 -538 -540 0
-541 538 540 0
541 540 -538 0
538 541 -540 0
542 -538 -540 0
-542 540 0
538 -542 0
-539 543 -429 0
-543 429 0
539 -543 0
542 543 -544 0
544 -542 0
-543 544 0
-42 -511 545 0
42 -545 0
511 -545 0
-435 -546 -545 0
545 435 -546 0
546 435 -545 0
-435 546 545 0
-546 -547 -544 0
546 544 -547 0
546 547 -544 0
544 547 -546 0
548 -546 -544 0
546 -548 0
544 -548 0
-435 549 -545 0
-549 435 0
545 -549 0
-550 549 548 0
-548 550 0
-549 550 0
-50 551 -511 0
50 -551 0
511 -551 0
-441 -552 -551 0
-552 551 441 0
552 441 -551 0
-441 552 551 0
-550 -552 -553 0
552 -553 550 0
-550 552 553 0
-552 553 550 0
-550 554 -552 0
552 -554 0
-554 550 0
-441 555 -551 0
-555 441 0
-555 551 0
554 555 -556 0
556 -554 0
-555 556 0
557 -58 -511 0
-557 58 0
-557 511 0
-557 -447 -558 0
557 -558 447 0
-557 558 447 0
558 -447 557 0
-559 -558 -556 0
558 -559 556 0
558 -556 559 0
559 -558 556 0
560 -558 -556 0
558 -560 0
-560 556 0
-557 -447 561 0
-561 447 0
557 -561 0
560 -562 561 0
562 -560 0
-561 562 0
563 -511 -66 0
66 -563 0
511 -563 0
-564 -453 -563 0
-564 453 563 0
564 453 -563 0
564 -453 563 0
-564 -562 -565 0
564 -565 562 0
564 565 -562 0
-564 565 562 0
-564 566 -562 0
564 -566 0
-566 562 0
567 -453 -563 0
453 -567 0
563 -567 0
566 -568 567 0
568 -566 0
568 -567 0
-74 -511 569 0
74 -569 0
511 -569 0
-459 -570 -569 0
459 569 -570 0
459 570 -569 0
-459 569 570 0
-568 -570 -571 0
570 568 -571 0
570 571 -568 0
571 568 -570 0
-568 -570 572 0
570 -572 0
-572 568 0
-459 -569 573 0
459 -573 0
569 -573 0
-574 572 573 0
574 -572 0
-573 574 0
-511 575 -82 0
82 -575 0
511 -575 0
-576 -575 -465 0
-576 465 575 0
-575 465 576 0
-465 575 576 0
-576 -577 -574 0
-577 574 576 0
-574 576 577 0
-576 574 577 0
-576 578 -574 0
-578 576 0
-578 574 0
-575 -465 579 0
465 -579 0
575 -579 0
-580 579 578 0
-578 580 0
580 -579 0
-90 -511 581 0
-581 90 0
511 -581 0
-471 -581 -582 0
581 471 -582 0
582 -581 471 0
-471 582 581 0
-580 -583 -582 0
582 580 -583 0
583 -580 582 0
583 580 -582 0
-580 584 -582 0
582 -584 0
580 -584 0
-471 -581 585 0
-585 471 0
-585 581 0
585 584 -586 0
586 -584 0
-585 586 0
-511 -98 587 0
-587 98 0
-587 511 0
-587 -477 -588 0
-588 477 587 0
-587 477 588 0
-477 588 587 0
-589 -588 -586 0
-589 586 588 0
589 588 -586 0
586 -588 589 0
590 -588 -586 0
588 -590 0
586 -590 0
-587 -477 591 0
-591 477 0
-591 587 0
-592 591 590 0
592 -590 0
-591 592 0
-106 -511 593 0
106 -593 0
511 -593 0
-483 -594 -593 0
-594 483 593 0
594 483 -593 0
-483 594 593 0
-592 -595 -594 0
594 -595 592 0
594 595 -592 0
592 595 -594 0
-592 -594 596 0
594 -596 0
592 -596 0
-483 597 -593 0
-597 483 0
-597 593 0
597 -598 596 0
598 -596 0
-597 598 0
599 -511 -114 0
114 -599 0
511 -599 0
-600 -489 -599 0
599 -600 489 0
489 600 -599 0
599 -489 600 0
-600 -601 -598 0
598 -601 600 0
601 -598 600 0
601 -600 598 0
602 -600 -598 0
-602 600 0
598 -602 0
603 -489 -599 0
489 -603 0
599 -603 0
602 -604 603 0
-602 604 0
-603 604 0
-122 -511 605 0
-605 122 0
511 -605 0
-606 -495 -605 0
-606 495 605 0
495 -605 606 0
-495 606 605 0
-606 -607 -604 0
-607 604 606 0
607 -604 606 0
-606 607 604 0
-606 -604 608 0
606 -608 0
604 -608 0
609 -495 -605 0
495 -609 0
605 -609 0
609 608 -610 0
610 -608 0
610 -609 0
-130 611 -511 0
130 -611 0
-611 511 0
-611 -612 -501 0
-612 611 501 0
-611 612 501 0
612 611 -501 0
-612 -613 -610 0
-613 610 612 0
613 612 -610 0
-612 613 610 0
-612 614 -610 0
612 -614 0
610 -614 0
-611 615 -501 0
-615 501 0
-615 611 0
615 614 -616 0
616 -614 0
-615 616 0
617 -138 -511 0
138 -617 0
511 -617 0
-617 -618 -507 0
617 507 -618 0
618 507 -617 0
617 618 -507 0
-619 -616 -618 0
618 616 -619 0
618 619 -616 0
619 616 -618 0
620 -616 -618 0
618 -620 0
616 -620 0
-617 621 -507 0
-621 507 0
617 -621 0
621 620 -622 0
622 -620 0
622 -621 0
-146 623 -511 0
-623 146 0
-623 511 0
-623 -510 -624 0
623 510 -624 0
-623 624 510 0
623 624 -510 0
-625 -622 -624 0
622 624 -625 0
624 -622 625 0
622 625 -624 0
626 -622 -624 0
624 -626 0
622 -626 0
-623 -510 627 0
-627 510 0
623 -627 0
626 -628 627 0
628 -626 0
-627 628 0
630 -629 -1 0
1 -630 0
-630 629 0
-517 -630 -631 0
630 -631 517 0
-630 631 517 0
-517 631 630 0
-517 -630 632 0
-632 517 0
-632 630 0
633 -629 -4 0
-633 4 0
-633 629 0
-634 -523 -633 0
523 -634 633 0
523 -633 634 0
-523 633 634 0
-635 -634 -632 0
632 -635 634 0
635 -632 634 0
-634 635 632 0
-634 636 -632 0
-636 634 0
-636 632 0
637 -523 -633 0
523 -637 0
-637 633 0
637 636 -638 0
-636 638 0
638 -637 0
639 -10 -629 0
10 -639 0
629 -639 0
-529 -640 -639 0
639 -640 529 0
640 -639 529 0
639 -529 640 0
-640 -641 -638 0
640 638 -641 0
641 640 -638 0
-640 641 638 0
-640 642 -638 0
-642 640 0
-642 638 0
-529 643 -639 0
-643 529 0
639 -643 0
642 -644 643 0
-642 644 0
644 -643 0
645 -629 -18 0
-645 18 0
-645 629 0
-646 -645 -535 0
535 645 -646 0
535 646 -645 0
645 646 -535 0
-647 -646 -644 0
644 -647 646 0
647 646 -644 0
644 -646 647 0
648 -646 -644 0
-648 646 0
-648 644 0
-645 -535 649 0
535 -649 0
645 -649 0
648 649 -650 0
650 -648 0
650 -649 0
-26 651 -629 0
26 -651 0
-651 629 0
-651 -541 -652 0
541 -652 651 0
-651 541 652 0
-541 652 651 0
-652 -653 -650 0
650 -653 652 0
652 -650 653 0
650 -652 653 0
654 -652 -650 0
-654 652 0
650 -654 0
-651 -541 655 0
-655 541 0
-655 651 0
654 -656 655 0
-654 656 0
-655 656 0
657 -629 -34 0
-657 34 0
-657 629 0
-657 -547 -658 0
547 657 -658 0
-657 547 658 0
658 657 -547 0
-659 -656 -658 0
658 656 -659 0
658 -656 659 0
656 659 -658 0
-656 660 -658 0
658 -660 0
-660 656 0
-657 661 -547 0
-661 547 0
-661 657 0
-662 661 660 0
-660 662 0
-661 662 0
-42 663 -629 0
-663 42 0
-663 629 0
-663 -664 -553 0
663 -664 553 0
664 -663 553 0
663 664 -553 0
-662 -664 -665 0
664 662 -665 0
664 -662 665 0
662 -664 665 0
-662 -664 666 0
664 -666 0
662 -666 0
-663 667 -553 0
553 -667 0
663 -667 0
666 667 -668 0
668 -666 0
668 -667 0
-50 669 -629 0
-669 50 0
-669 629 0
-669 -670 -559 0
-670 669 559 0
-669 670 559 0
670 -559 669 0
-670 -668 -671 0
670 668 -671 0
670 -668 671 0
668 -670 671 0
672 -670 -668 0
670 -672 0
668 -672 0
-669 -559 673 0
-673 559 0
-673 669 0
672 -674 673 0
-672 674 0
-673 674 0
675 -58 -629 0
-675 58 0
-675 629 0
-676 -675 -565 0
565 675 -676 0
565 -675 676 0
676 675 -565 0
-674 -676 -677 0
-677 676 674 0
-674 677 676 0
-676 677 674 0
-674 -676 678 0
-678 676 0
-678 674 0
679 -675 -565 0
565 -679 0
675 -679 0
679 678 -680 0
-678 680 0
680 -679 0
681 -629 -66 0
-681 66 0
-681 629 0
-682 -681 -571 0
681 -682 571 0
-681 571 682 0
681 682 -571 0
-682 -680 -683 0
-683 680 682 0
683 -680 682 0
-682 683 680 0
-682 684 -680 0
-684 682 0
-684 680 0
685 -681 -571 0
-685 571 0
681 -685 0
-686 684 685 0
-684 686 0
-685 686 0
687 -74 -629 0
-687 74 0
-687 629 0
-577 -688 -687 0
687 -688 577 0
-687 688 577 0
-577 688 687 0
-686 -688 -689 0
688 686 -689 0
-686 688 689 0
689 -688 686 0
-686 -688 690 0
688 -690 0
686 -690 0
-577 691 -687 0
577 -691 0
687 -691 0
-692 691 690 0
-690 692 0
-691 692 0
693 -629 -82 0
82 -693 0
-693 629 0
-693 -694 -583 0
583 693 -694 0
583 -693 694 0
693 694 -583 0
-692 -694 -695 0
-695 694 692 0
-692 695 694 0
-694 695 692 0
-692 696 -694 0
694 -696 0
-696 692 0
-693 697 -583 0
583 -697 0
693 -697 0
-698 696 697 0
-696 698 0
-697 698 0
-90 699 -629 0
90 -699 0
-699 629 0
-589 -700 -699 0
-700 699 589 0
700 -699 589 0
-589 699 700 0
-698 -700 -701 0
700 -701 698 0
-698 701 700 0
701 -700 698 0
-698 -700 702 0
-702 700 0
-702 698 0
-589 703 -699 0
-703 589 0
699 -703 0
702 -704 703 0
-702 704 0
704 -703 0
-629 -98 705 0
98 -705 0
-705 629 0
-706 -595 -705 0
-706 595 705 0
706 -705 595 0
706 -595 705 0
-707 -704 -706 0
704 706 -707 0
706 -704 707 0
704 707 -706 0
708 -704 -706 0
706 -708 0
704 -708 0
709 -595 -705 0
595 -709 0
-709 705 0
-710 708 709 0
-708 710 0
710 -709 0
711 -106 -629 0
106 -711 0
-711 629 0
-711 -712 -601 0
711 601 -712 0
601 712 -711 0
711 712 -601 0
-710 -712 -713 0
712 -713 710 0
712 -710 713 0
713 -712 710 0
714 -710 -712 0
712 -714 0
-714 710 0
715 -711 -601 0
-715 601 0
711 -715 0
715 714 -716 0
-714 716 0
-715 716 0
717 -114 -629 0
114 -717 0
629 -717 0
-607 -718 -717 0
717 607 -718 0
607 718 -717 0
717 -607 718 0
-719 -716 -718 0
-719 718 716 0
718 -716 719 0
719 -718 716 0
720 -716 -718 0
-720 718 0
-720 716 0
721 -607 -717 0
607 -721 0
717 -721 0
720 721 -722 0
-720 722 0
722 -721 0
-122 723 -629 0
122 -723 0
629 -723 0
-724 -613 -723 0
723 613 -724 0
613 724 -723 0
723 -613 724 0
-724 -725 -722 0
722 -725 724 0
725 -722 724 0
-724 722 725 0
-724 -722 726 0
-726 724 0
-726 722 0
727 -613 -723 0
613 -727 0
723 -727 0
727 -728 726 0
-726 728 0
728 -727 0
-130 729 -629 0
130 -729 0
-729 629 0
-619 -729 -730 0
619 -730 729 0
619 -729 730 0
-619 729 730 0
-728 -730 -731 0
730 728 -731 0
731 -728 730 0
731 -730 728 0
-728 -730 732 0
730 -732 0
728 -732 0
-619 -729 733 0
619 -733 0
729 -733 0
733 -734 732 0
734 -732 0
-733 734 0
-138 735 -629 0
138 -735 0
-735 629 0
-736 -735 -625 0
735 625 -736 0
736 625 -735 0
735 736 -625 0
-737 -736 -734 0
-737 736 734 0
736 -734 737 0
-736 734 737 0
738 -736 -734 0
736 -738 0
-738 734 0
739 -735 -625 0
625 -739 0
735 -739 0
738 739 -740 0
740 -738 0
740 -739 0
-146 741 -629 0
-741 146 0
-741 629 0
-741 -742 -628 0
628 741 -742 0
-741 628 742 0
741 -628 742 0
-742 -743 -740 0
740 -743 742 0
-740 743 742 0
-742 740 743 0
744 -742 -740 0
-744 742 0
740 -744 0
-741 745 -628 0
628 -745 0
741 -745 0
745 744 -746 0
-744 746 0
-745 746 0
-747 748 -1 0
1 -748 0
-748 747 0
-635 -748 -749 0
635 748 -749 0
-748 635 749 0
-635 748 749 0
-635 -748 750 0
635 -750 0
-750 748 0
751 -747 -4 0
-751 4 0
-751 747 0
-751 -641 -752 0
641 751 -752 0
-751 641 752 0
752 751 -641 0
-753 -750 -752 0
-753 752 750 0
753 -750 752 0
753 750 -752 0
754 -750 -752 0
-754 752 0
-754 750 0
-751 -641 755 0
-755 641 0
-755 751 0
755 754 -756 0
-754 756 0
-755 756 0
-10 -747 757 0
10 -757 0
747 -757 0
-647 -758 -757 0
-758 647 757 0
647 758 -757 0
758 -647 757 0
-759 -758 -756 0
758 756 -759 0
759 758 -756 0
756 -758 759 0
-758 -756 760 0
758 -760 0
-760 756 0
761 -647 -757 0
-761 647 0
-761 757 0
-762 761 760 0
-760 762 0
-761 762 0
763 -747 -18 0
-763 18 0
-763 747 0
-763 -653 -764 0
763 653 -764 0
-763 653 764 0
-653 764 763 0
-762 -765 -764 0
-765 764 762 0
-762 764 765 0
-764 765 762 0
-762 -764 766 0
-766 764 0
-766 762 0
-763 -653 767 0
653 -767 0
763 -767 0
766 767 -768 0
-766 768 0
768 -767 0
769 -26 -747 0
26 -769 0
-769 747 0
-659 -770 -769 0
769 -770 659 0
-769 770 659 0
-659 769 770 0
-771 -770 -768 0
770 -771 768 0
770 771 -768 0
-770 771 768 0
-770 772 -768 0
770 -772 0
-772 768 0
-659 -769 773 0
659 -773 0
769 -773 0
-774 773 772 0
-772 774 0
774 -773 0
-747 775 -34 0
-775 34 0
-775 747 0
-775 -665 -776 0
665 775 -776 0
776 -775 665 0
776 -665 775 0
-777 -774 -776 0
776 -777 774 0
776 777 -774 0
777 774 -776 0
778 -774 -776 0
776 -778 0
-778 774 0
-775 -665 779 0
-779 665 0
-779 775 0
-780 779 778 0
-778 780 0
780 -779 0
-42 781 -747 0
42 -781 0
747 -781 0
-671 -782 -781 0
781 -782 671 0
782 671 -781 0
782 781 -671 0
-783 -782 -780 0
782 780 -783 0
782 -780 783 0
780 -782 783 0
784 -782 -780 0
782 -784 0
780 -784 0
785 -671 -781 0
-785 671 0
781 -785 0
785 784 -786 0
786 -784 0
786 -785 0
-50 -747 787 0
50 -787 0
747 -787 0
-787 -788 -677 0
677 787 -788 0
788 677 -787 0
788 787 -677 0
-789 -788 -786 0
788 786 -789 0
788 789 -786 0
789 786 -788 0
-788 -786 790 0
788 -790 0
786 -790 0
791 -787 -677 0
677 -791 0
787 -791 0
-792 791 790 0
-790 792 0
792 -791 0
-58 -747 793 0
58 -793 0
747 -793 0
-794 -793 -683 0
793 -794 683 0
683 794 -793 0
793 794 -683 0
-792 -794 -795 0
792 -795 794 0
-792 795 794 0
-794 795 792 0
-792 -794 796 0
794 -796 0
792 -796 0
-793 797 -683 0
-797 683 0
-797 793 0
-798 797 796 0
798 -796 0
-797 798 0
799 -747 -66 0
-799 66 0
-799 747 0
-799 -800 -689 0
799 689 -800 0
-799 800 689 0
799 800 -689 0
-801 -798 -800 0
-801 798 800 0
801 800 -798 0
798 801 -800 0
802 -798 -800 0
-802 800 0
-802 798 0
-799 803 -689 0
689 -803 0
799 -803 0
802 803 -804 0
-802 804 0
804 -803 0
-74 805 -747 0
74 -805 0
747 -805 0
-806 -695 -805 0
805 695 -806 0
806 695 -805 0
806 805 -695 0
-804 -806 -807 0
806 804 -807 0
806 -804 807 0
-806 804 807 0
808 -804 -806 0
806 -808 0
804 -808 0
809 -695 -805 0
695 -809 0
805 -809 0
809 808 -810 0
810 -808 0
810 -809 0
-747 811 -82 0
-811 82 0
-811 747 0
-811 -701 -812 0
701 -812 811 0
701 812 -811 0
812 -701 811 0
-813 -810 -812 0
-813 812 810 0
813 812 -810 0
813 810 -812 0
814 -810 -812 0
812 -814 0
810 -814 0
-811 -701 815 0
701 -815 0
-815 811 0
-816 814 815 0
816 -814 0
816 -815 0
-90 817 -747 0
-817 90 0
-817 747 0
-817 -818 -707 0
817 707 -818 0
-817 707 818 0
817 -707 818 0
-818 -819 -816 0
816 818 -819 0
-816 818 819 0
816 -818 819 0
-818 820 -816 0
-820 818 0
816 -820 0
-817 -707 821 0
707 -821 0
817 -821 0
821 -822 820 0
-820 822 0
822 -821 0
-747 -98 823 0
98 -823 0
747 -823 0
-824 -713 -823 0
-824 823 713 0
824 713 -823 0
824 -713 823 0
-825 -822 -824 0
-825 824 822 0
-822 824 825 0
-824 822 825 0
-822 -824 826 0
824 -826 0
822 -826 0
827 -713 -823 0
-827 713 0
-827 823 0
-828 827 826 0
828 -826 0
-827 828 0
-106 -747 829 0
106 -829 0
747 -829 0
-719 -830 -829 0
719 -830 829 0
719 -829 830 0
-719 829 830 0
-828 -831 -830 0
828 -831 830 0
-828 831 830 0
828 -830 831 0
-828 -830 832 0
-832 830 0
828 -832 0
-719 833 -829 0
-833 719 0
-833 829 0
833 832 -834 0
-832 834 0
-833 834 0
-747 -114 835 0
-835 114 0
-835 747 0
-835 -725 -836 0
-836 725 835 0
-835 836 725 0
-725 836 835 0
-837 -836 -834 0
-837 836 834 0
836 -834 837 0
-836 837 834 0
838 -836 -834 0
836 -838 0
-838 834 0
839 -835 -725 0
725 -839 0
-839 835 0
839 -840 838 0
840 -838 0
840 -839 0
-122 -747 841 0
-841 122 0
-841 747 0
-841 -842 -731 0
731 -842 841 0
842 731 -841 0
842 841 -731 0
-840 -842 -843 0
842 840 -843 0
842 -840 843 0
840 -842 843 0
-840 -842 844 0
842 -844 0
840 -844 0
-841 845 -731 0
731 -845 0
-845 841 0
844 845 -846 0
846 -844 0
846 -845 0
-130 -747 847 0
130 -847 0
-847 747 0
-737 -847 -848 0
-848 847 737 0
848 -847 737 0
-737 848 847 0
-849 -846 -848 0
846 -849 848 0
849 848 -846 0
846 849 -848 0
-846 -848 850 0
848 -850 0
846 -850 0
-737 851 -847 0
-851 737 0
847 -851 0
-852 851 850 0
852 -850 0
852 -851 0
-138 -747 853 0
138 -853 0
-853 747 0
-854 -853 -743 0
-854 743 853 0
-853 854 743 0
854 -743 853 0
-854 -852 -855 0
-855 852 854 0
855 -852 854 0
855 -854 852 0
-854 -852 856 0
854 -856 0
852 -856 0
-853 -743 857 0
-857 743 0
-857 853 0
-858 857 856 0
858 -856 0
-857 858 0
-146 -747 859 0
146 -859 0
-859 747 0
-860 -859 -746 0
-860 859 746 0
860 -859 746 0
860 -746 859 0
-861 -860 -858 0
-861 860 858 0
860 -858 861 0
-860 858 861 0
862 -860 -858 0
860 -862 0
858 -862 0
-859 863 -746 0
-863 746 0
-863 859 0
862 -864 863 0
-862 864 0
-863 864 0
866 -865 -1 0
1 -866 0
865 -866 0
-867 -753 -866 0
-867 753 866 0
867 753 -866 0
867 -753 866 0
868 -753 -866 0
-868 753 0
-868 866 0
869 -4 -865 0
-869 4 0
-869 865 0
-869 -759 -870 0
759 -870 869 0
759 -869 870 0
870 -759 869 0
-868 -871 -870 0
868 870 -871 0
-868 870 871 0
868 871 -870 0
-868 872 -870 0
870 -872 0
868 -872 0
-869 -759 873 0
759 -873 0
-873 869 0
-874 873 872 0
-872 874 0
-873 874 0
-10 875 -865 0
10 -875 0
865 -875 0
-765 -876 -875 0
875 765 -876 0
876 765 -875 0
-765 875 876 0
-874 -877 -876 0
-877 876 874 0
-874 876 877 0
874 -876 877 0
-874 878 -876 0
876 -878 0
874 -878 0
-765 879 -875 0
-879 765 0
-879 875 0
879 -880 878 0
880 -878 0
880 -879 0
881 -865 -18 0
-881 18 0
-881 865 0
-771 -882 -881 0
881 771 -882 0
882 -881 771 0
882 -771 881 0
-883 -880 -882 0
882 880 -883 0
882 -880 883 0
880 883 -882 0
884 -880 -882 0
882 -884 0
880 -884 0
-771 885 -881 0
-885 771 0
881 -885 0
-886 884 885 0
886 -884 0
886 -885 0
-26 887 -865 0
26 -887 0
-887 865 0
-887 -888 -777 0
777 887 -888 0
-887 777 888 0
-777 887 888 0
-886 -889 -888 0
886 -889 888 0
-886 889 888 0
886 889 -888 0
-886 -888 890 0
-890 888 0
886 -890 0
-887 -777 891 0
-891 777 0
-891 887 0
-892 890 891 0
892 -890 0
-891 892 0
893 -865 -34 0
-893 34 0
-893 865 0
-893 -783 -894 0
-894 893 783 0
894 -893 783 0
893 894 -783 0
-895 -892 -894 0
894 -895 892 0
894 -892 895 0
895 892 -894 0
-892 896 -894 0
894 -896 0
892 -896 0
897 -893 -783 0
-897 783 0
-897 893 0
897 -898 896 0
898 -896 0
898 -897 0
-42 899 -865 0
-899 42 0
-899 865 0
-789 -899 -900 0
789 -900 899 0
900 -899 789 0
900 -789 899 0
-901 -898 -900 0
900 898 -901 0
900 901 -898 0
898 901 -900 0
902 -898 -900 0
900 -902 0
898 -902 0
-789 -899 903 0
-903 789 0
-903 899 0
902 903 -904 0
-902 904 0
-903 904 0
-50 905 -865 0
-905 50 0
-905 865 0
-905 -906 -795 0
905 795 -906 0
-905 906 795 0
906 905 -795 0
-906 -907 -904 0
906 904 -907 0
906 -904 907 0
-906 907 904 0
-906 908 -904 0
906 -908 0
904 -908 0
-905 909 -795 0
-909 795 0
905 -909 0
909 908 -910 0
-908 910 0
-909 910 0
-58 -865 911 0
-911 58 0
-911 865 0
-801 -911 -912 0
801 -912 911 0
912 -911 801 0
912 -801 911 0
-910 -913 -912 0
912 -913 910 0
912 913 -910 0
913 910 -912 0
914 -910 -912 0
912 -914 0
-914 910 0
-801 -911 915 0
-915 801 0
-915 911 0
915 914 -916 0
-914 916 0
-915 916 0
917 -865 -66 0
-917 66 0
-917 865 0
-917 -918 -807 0
-918 807 917 0
-917 807 918 0
918 917 -807 0
-919 -918 -916 0
916 918 -919 0
919 918 -916 0
916 -918 919 0
920 -918 -916 0
-920 918 0
916 -920 0
-917 921 -807 0
807 -921 0
-921 917 0
-922 920 921 0
-920 922 0
-921 922 0
-74 923 -865 0
74 -923 0
-923 865 0
-813 -924 -923 0
813 -924 923 0
813 924 -923 0
-813 924 923 0
-922 -925 -924 0
924 -925 922 0
924 -922 925 0
925 -924 922 0
-922 926 -924 0
924 -926 0
-926 922 0
-813 927 -923 0
813 -927 0
923 -927 0
-928 927 926 0
928 -926 0
928 -927 0
929 -865 -82 0
82 -929 0
-929 865 0
-930 -819 -929 0
-930 819 929 0
930 -929 819 0
930 -819 929 0
-930 -928 -931 0
928 930 -931 0
-928 930 931 0
928 -930 931 0
932 -930 -928 0
930 -932 0
928 -932 0
933 -819 -929 0
-933 819 0
-933 929 0
932 933 -934 0
-932 934 0
-933 934 0
-90 -865 935 0
90 -935 0
865 -935 0
-825 -936 -935 0
935 -936 825 0
-935 936 825 0
-825 936 935 0
-937 -934 -936 0
936 -937 934 0
936 937 -934 0
934 937 -936 0
938 -934 -936 0
936 -938 0
-938 934 0
-825 939 -935 0
-939 825 0
-939 935 0
939 938 -940 0
-938 940 0
-939 940 0
941 -98 -865 0
98 -941 0
-941 865 0
-831 -941 -942 0
941 831 -942 0
942 -941 831 0
941 942 -831 0
-940 -943 -942 0
942 -943 940 0
942 943 -940 0
943 940 -942 0
-940 944 -942 0
942 -944 0
940 -944 0
-831 -941 945 0
831 -945 0
941 -945 0
944 945 -946 0
946 -944 0
946 -945 0
-106 947 -865 0
106 -947 0
-947 865 0
-837 -948 -947 0
-948 947 837 0
948 -947 837 0
-837 948 947 0
-948 -949 -946 0
948 946 -949 0
949 948 -946 0
-948 949 946 0
-948 950 -946 0
-950 948 0
-950 946 0
-837 -947 951 0
-951 837 0
947 -951 0
-952 950 951 0
-950 952 0
952 -951 0
-114 953 -865 0
114 -953 0
865 -953 0
-954 -953 -843 0
-954 843 953 0
843 954 -953 0
954 953 -843 0
-954 -952 -955 0
952 954 -955 0
-952 954 955 0
-954 952 955 0
-954 -952 956 0
-956 954 0
952 -956 0
957 -953 -843 0
843 -957 0
-957 953 0
957 -958 956 0
-956 958 0
-957 958 0
-122 959 -865 0
-959 122 0
-959 865 0
-959 -849 -960 0
849 959 -960 0
-959 849 960 0
-849 959 960 0
-961 -958 -960 0
958 -961 960 0
961 -958 960 0
961 958 -960 0
-958 -960 962 0
-962 960 0
-962 958 0
-959 -849 963 0
849 -963 0
-963 959 0
963 -964 962 0
-962 964 0
-963 964 0
-130 965 -865 0
130 -965 0
-965 865 0
-855 -965 -966 0
855 -966 965 0
966 855 -965 0
-855 966 965 0
-964 -967 -966 0
966 -967 964 0
966 967 -964 0
967 -966 964 0
-964 -966 968 0
966 -968 0
-968 964 0
-855 -965 969 0
855 -969 0
-969 965 0
-970 969 968 0
-968 970 0
970 -969 0
971 -138 -865 0
138 -971 0
-971 865 0
-861 -971 -972 0
861 971 -972 0
861 -971 972 0
-861 971 972 0
-970 -973 -972 0
972 970 -973 0
-970 972 973 0
973 970 -972 0
-970 974 -972 0
972 -974 0
970 -974 0
-861 -971 975 0
861 -975 0
971 -975 0
974 -976 975 0
976 -974 0
-975 976 0
-146 977 -865 0
-977 146 0
-977 865 0
-977 -864 -978 0
977 864 -978 0
-977 978 864 0
-864 978 977 0
-979 -976 -978 0
-979 976 978 0
979 978 -976 0
979 976 -978 0
-976 980 -978 0
-980 978 0
976 -980 0
-977 -864 981 0
-981 864 0
977 -981 0
980 981 -982 0
-980 982 0
-981 982 0
-983 984 -1 0
1 -984 0
983 -984 0
-985 -871 -984 0
-985 871 984 0
985 871 -984 0
985 -871 984 0
-871 986 -984 0
-986 871 0
-986 984 0
-983 -4 987 0
-987 4 0
983 -987 0
-877 -988 -987 0
987 -988 877 0
988 -987 877 0
-877 988 987 0
-986 -989 -988 0
988 -989 986 0
988 -986 989 0
989 986 -988 0
990 -986 -988 0
988 -990 0
-990 986 0
-877 991 -987 0
-991 877 0
-991 987 0
990 -992 991 0
-990 992 0
-991 992 0
-10 -983 993 0
-993 10 0
983 -993 0
-883 -994 -993 0
-994 993 883 0
994 -993 883 0
-883 993 994 0
-994 -992 -995 0
994 992 -995 0
-992 994 995 0
-994 992 995 0
996 -994 -992 0
-996 994 0
-996 992 0
-883 -993 997 0
-997 883 0
993 -997 0
996 997 -998 0
-996 998 0
998 -997 0
-983 999 -18 0
-999 18 0
983 -999 0
-889 -1000 -999 0
889 999 -1000 0
1000 889 -999 0
1000 -889 999 0
-998 -1001 -1000 0
1000 998 -1001 0
1000 1001 -998 0
998 1001 -1000 0
-998 1002 -1000 0
1000 -1002 0
998 -1002 0
1003 -889 -999 0
889 -1003 0
-1003 999 0
1003 -1004 1002 0
-1002 1004 0
-1003 1004 0
-26 -983 1005 0
26 -1005 0
-1005 983 0
-1005 -895 -1006 0
1005 -1006 895 0
-1005 1006 895 0
1005 -895 1006 0
-1006 -1004 -1007 0
-1007 1004 1006 0
1007 -1004 1006 0
1007 -1006 1004 0
-1006 -1004 1008 0
-1008 1006 0
-1008 1004 0
-1005 -895 1009 0
-1009 895 0
1005 -1009 0
1009 -1010 1008 0
-1008 1010 0
1010 -1009 0
1011 -983 -34 0
-1011 34 0
983 -1011 0
-901 -1011 -1012 0
901 -1012 1011 0
1012 901 -1011 0
-901 1012 1011 0
-1013 -1010 -1012 0
1012 1010 -1013 0
1013 1012 -1010 0
1013 1010 -1012 0
-1010 1014 -1012 0
1012 -1014 0
-1014 1010 0
-901 -1011 1015 0
901 -1015 0
-1015 1011 0
-1016 1014 1015 0
1016 -1014 0
1016 -1015 0
-42 -983 1017 0
-1017 42 0
-1017 983 0
-1017 -907 -1018 0
907 -1018 1017 0
-1017 907 1018 0
1017 -907 1018 0
-1016 -1019 -1018 0
-1019 1016 1018 0
-1016 1019 1018 0
1019 1016 -1018 0
1020 -1016 -1018 0
1018 -1020 0
1016 -1020 0
-1017 1021 -907 0
-1021 907 0
-1021 1017 0
1020 1021 -1022 0
1022 -1020 0
1022 -1021 0
-50 -983 1023 0
-1023 50 0
-1023 983 0
-1024 -1023 -913 0
-1024 913 1023 0
-1023 913 1024 0
1024 1023 -913 0
-1024 -1025 -1022 0
1022 1024 -1025 0
1024 -1022 1025 0
-1024 1022 1025 0
-1024 1026 -1022 0
1024 -1026 0
1022 -1026 0
1027 -1023 -913 0
913 -1027 0
1023 -1027 0
1026 1027 -1028 0
1028 -1026 0
1028 -1027 0
1029 -58 -983 0
58 -1029 0
983 -1029 0
-919 -1030 -1029 0
1029 -1030 919 0
1030 -1029 919 0
-919 1029 1030 0
-1031 -1028 -1030 0
-1031 1028 1030 0
1031 -1028 1030 0
1028 1031 -1030 0
-1028 -1030 1032 0
-1032 1030 0
1028 -1032 0
-919 1033 -1029 0
-1033 919 0
-1033 1029 0
-1034 1033 1032 0
-1032 1034 0
-1033 1034 0
-983 1035 -66 0
-1035 66 0
983 -1035 0
-1036 -925 -1035 0
-1036 1035 925 0
1036 -1035 925 0
1036 -925 1035 0
-1037 -1034 -1036 0
-1037 1036 1034 0
1036 -1034 1037 0
1037 -1036 1034 0
1038 -1034 -1036 0
1036 -1038 0
-1038 1034 0
-925 -1035 1039 0
-1039 925 0
1035 -1039 0
1038 -1040 1039 0
-1038 1040 0
1040 -1039 0
-74 -983 1041 0
74 -1041 0
-1041 983 0
-1042 -1041 -931 0
-1042 1041 931 0
-1041 931 1042 0
1042 1041 -931 0
-1043 -1042 -1040 0
-1043 1042 1040 0
1043 -1040 1042 0
1043 -1042 1040 0
-1042 -1040 1044 0
-1044 1042 0
-1044 1040 0
-1041 1045 -931 0
-1045 931 0
-1045 1041 0
-1046 1045 1044 0
-1044 1046 0
-1045 1046 0
1047 -983 -82 0
82 -1047 0
983 -1047 0
-1047 -937 -1048 0
1047 -1048 937 0
1048 -1047 937 0
1048 1047 -937 0
-1048 -1046 -1049 0
1048 1046 -1049 0
1048 1049 -1046 0
1049 -1048 1046 0
-1048 -1046 1050 0
1048 -1050 0
-1050 1046 0
-1047 -937 1051 0
-1051 937 0
1047 -1051 0
-1052 1051 1050 0
-1050 1052 0
-1051 1052 0
-90 -983 1053 0
-1053 90 0
983 -1053 0
-1053 -943 -1054 0
943 1053 -1054 0
-1053 1054 943 0
1054 -943 1053 0
-1052 -1055 -1054 0
-1055 1054 1052 0
-1052 1054 1055 0
1055 1052 -1054 0
-1052 1056 -1054 0
-1056 1054 0
-1056 1052 0
1057 -1053 -943 0
943 -1057 0
1053 -1057 0
1056 -1058 1057 0
-1056 1058 0
1058 -1057 0
1059 -983 -98 0
98 -1059 0
983 -1059 0
-1059 -949 -1060 0
1059 949 -1060 0
1060 949 -1059 0
1059 1060 -949 0
-1058 -1061 -1060 0
1060 -1061 1058 0
1060 -1058 1061 0
1058 1061 -1060 0
-1058 1062 -1060 0
1060 -1062 0
-1062 1058 0
1063 -1059 -949 0
-1063 949 0
-1063 1059 0
1063 1062 -1064 0
-1062 1064 0
-1063 1064 0
1065 -106 -983 0
106 -1065 0
-1065 983 0
-1065 -1066 -955 0
1065 -1066 955 0
1066 -1065 955 0
1065 1066 -955 0
-1067 -1066 -1064 0
-1067 1066 1064 0
1066 1067 -1064 0
1064 1067 -1066 0
1068 -1066 -1064 0
1066 -1068 0
1064 -1068 0
1069 -1065 -955 0
-1069 955 0
1065 -1069 0
1069 -1070 1068 0
1070 -1068 0
-1069 1070 0
-983 -114 1071 0
114 -1071 0
983 -1071 0
-1072 -961 -1071 0
-1072 961 1071 0
1072 961 -1071 0
1072 -961 1071 0
-1073 -1070 -1072 0
-1073 1072 1070 0
1072 -1070 1073 0
-1072 1073 1070 0
-1070 -1072 1074 0
1072 -1074 0
-1074 1070 0
1075 -961 -1071 0
961 -1075 0
-1075 1071 0
1075 1074 -1076 0
1076 -1074 0
1076 -1075 0
-122 -983 1077 0
122 -1077 0
983 -1077 0
-1078 -967 -1077 0
-1078 1077 967 0
1078 967 -1077 0
1078 -967 1077 0
-1078 -1079 -1076 0
1078 -1079 1076 0
1078 -1076 1079 0
-1078 1076 1079 0
-1078 1080 -1076 0
1078 -1080 0
-1080 1076 0
-967 1081 -1077 0
967 -1081 0
1077 -1081 0
1080 -1082 1081 0
-1080 1082 0
1082 -1081 0
-130 -983 1083 0
130 -1083 0
-1083 983 0
-1083 -973 -1084 0
1083 973 -1084 0
1084 -1083 973 0
1084 1083 -973 0
-1082 -1085 -1084 0
1084 1082 -1085 0
1084 -1082 1085 0
1082 1085 -1084 0
-1082 1086 -1084 0
1084 -1086 0
-1086 1082 0
-1083 1087 -973 0
973 -1087 0
1083 -1087 0
1087 -1088 1086 0
-1086 1088 0
1088 -1087 0
-138 -983 1089 0
-1089 138 0
-1089 983 0
-1089 -979 -1090 0
979 1089 -1090 0
979 1090 -1089 0
1090 -979 1089 0
-1088 -1090 -1091 0
1090 1088 -1091 0
1090 1091 -1088 0
1088 1091 -1090 0
-1088 -1090 1092 0
1090 -1092 0
1088 -1092 0
-1089 -979 1093 0
979 -1093 0
1089 -1093 0
1093 -1094 1092 0
1094 -1092 0
1094 -1093 0
-146 -983 1095 0
-1095 146 0
-1095 983 0
-1095 -1096 -982 0
1095 982 -1096 0
1096 -1095 982 0
1095 1096 -982 0
-1097 -1094 -1096 0
1096 1094 -1097 0
1096 1097 -1094 0
1094 1097 -1096 0
1098 -1094 -1096 0
1096 -1098 0
1094 -1098 0
-1095 1099 -982 0
-1099 982 0
1095 -1099 0
1098 -1100 1099 0
1100 -1098 0
-1099 1100 0
-1101 1102 -1 0
1 -1102 0
1101 -1102 0
-1103 -1102 -989 0
-1103 1102 989 0
989 -1102 1103 0
1102 1103 -989 0
-1102 -989 1104 0
989 -1104 0
1102 -1104 0
-1101 1105 -4 0
-1105 4 0
-1105 1101 0
-1105 -1106 -995 0
-1106 1105 995 0
-1105 1106 995 0
1105 1106 -995 0
-1107 -1104 -1106 0
1106 -1107 1104 0
1106 -1104 1107 0
1104 1107 -1106 0
1108 -1104 -1106 0
1106 -1108 0
1104 -1108 0
-1105 1109 -995 0
-1109 995 0
-1109 1105 0
-1110 1108 1109 0
-1108 1110 0
-1109 1110 0
-1101 -10 1111 0
10 -1111 0
1101 -1111 0
-1112 -1001 -1111 0
1111 -1112 1001 0
1112 1001 -1111 0
1112 1111 -1001 0
-1113 -1110 -1112 0
1112 -1113 1110 0
1112 -1110 1113 0
-1112 1113 1110 0
-1110 -1112 1114 0
1112 -1114 0
-1114 1110 0
-1001 -1111 1115 0
-1115 1001 0
-1115 1111 0
-1116 1114 1115 0
1116 -1114 0
1116 -1115 0
-1101 1117 -18 0
-1117 18 0
1101 -1117 0
-1117 -1118 -1007 0
1007 -1118 1117 0
1007 1118 -1117 0
1118 -1007 1117 0
-1118 -1119 -1116 0
1116 -1119 1118 0
-1116 1118 1119 0
1116 -1118 1119 0
-1118 1120 -1116 0
-1120 1118 0
1116 -1120 0
-1117 -1007 1121 0
1007 -1121 0
-1121 1117 0
1120 -1122 1121 0
-1120 1122 0
1122 -1121 0
-1101 -26 1123 0
26 -1123 0
1101 -1123 0
-1124 -1013 -1123 0
1013 -1124 1123 0
1013 -1123 1124 0
1123 -1013 1124 0
-1124 -1125 -1122 0
1122 -1125 1124 0
1125 -1122 1124 0
-1124 1122 1125 0
-1124 1126 -1122 0
-1126 1124 0
-1126 1122 0
1127 -1013 -1123 0
1013 -1127 0
1123 -1127 0
1126 1127 -1128 0
-1126 1128 0
1128 -1127 0
-1101 1129 -34 0
-1129 34 0
1101 -1129 0
-1130 -1019 -1129 0
1019 1129 -1130 0
1019 1130 -1129 0
1129 -1019 1130 0
-1131 -1130 -1128 0
-1131 1128 1130 0
1131 -1128 1130 0
1128 -1130 1131 0
-1130 -1128 1132 0
-1132 1130 0
-1132 1128 0
1133 -1019 -1129 0
1019 -1133 0
1129 -1133 0
-1134 1133 1132 0
1134 -1132 0
1134 -1133 0
-42 1135 -1101 0
-1135 42 0
1101 -1135 0
-1135 -1025 -1136 0
1135 1025 -1136 0
1136 -1135 1025 0
1135 1136 -1025 0
-1134 -1137 -1136 0
1136 1134 -1137 0
1136 1137 -1134 0
1134 1137 -1136 0
1138 -1134 -1136 0
1136 -1138 0
-1138 1134 0
-1135 -1025 1139 0
-1139 1025 0
1135 -1139 0
-1140 1138 1139 0
-1138 1140 0
1140 -1139 0
-1101 -50 1141 0
-1141 50 0
1101 -1141 0
-1031 -1142 -1141 0
-1142 1031 1141 0
1142 1031 -1141 0
1142 -1031 1141 0
-1142 -1140 -1143 0
1142 1140 -1143 0
1142 -1140 1143 0
-1142 1143 1140 0
1144 -1142 -1140 0
1142 -1144 0
1140 -1144 0
-1031 1145 -1141 0
1031 -1145 0
1141 -1145 0
1144 1145 -1146 0
1146 -1144 0
1146 -1145 0
-1101 -58 1147 0
-1147 58 0
1101 -1147 0
-1037 -1148 -1147 0
1147 1037 -1148 0
1037 -1147 1148 0
-1037 1147 1148 0
-1146 -1149 -1148 0
1146 -1149 1148 0
-1146 1149 1148 0
1146 -1148 1149 0
-1146 1150 -1148 0
-1150 1148 0
1146 -1150 0
-1037 1151 -1147 0
1037 -1151 0
1147 -1151 0
1150 1151 -1152 0
-1150 1152 0
1152 -1151 0
-1101 1153 -66 0
66 -1153 0
1101 -1153 0
-1154 -1043 -1153 0
1043 1153 -1154 0
1043 1154 -1153 0
1153 -1043 1154 0
-1155 -1152 -1154 0
-1155 1152 1154 0
1155 -1152 1154 0
1155 -1154 1152 0
-1152 -1154 1156 0
-1156 1154 0
1152 -1156 0
-1043 1157 -1153 0
1043 -1157 0
1153 -1157 0
-1158 1157 1156 0
1158 -1156 0
-1157 1158 0
-1101 -74 1159 0
74 -1159 0
1101 -1159 0
-1159 -1049 -1160 0
1049 1159 -1160 0
1049 -1159 1160 0
1159 -1049 1160 0
-1158 -1161 -1160 0
1158 -1161 1160 0
-1158 1161 1160 0
1161 1158 -1160 0
-1158 1162 -1160 0
-1162 1160 0
1158 -1162 0
-1159 1163 -1049 0
1049 -1163 0
1159 -1163 0
-1164 1163 1162 0
1164 -1162 0
1164 -1163 0
-1101 1165 -82 0
82 -1165 0
1101 -1165 0
-1166 -1055 -1165 0
1165 1055 -1166 0
1055 1166 -1165 0
1165 -1055 1166 0
-1164 -1167 -1166 0
1164 -1167 1166 0
-1164 1167 1166 0
1164 -1166 1167 0
-1164 1168 -1166 0
-1168 1166 0
1164 -1168 0
1169 -1055 -1165 0
-1169 1055 0
1165 -1169 0
1168 -1170 1169 0
1170 -1168 0
-1169 1170 0
-90 1171 -1101 0
90 -1171 0
1101 -1171 0
-1171 -1061 -1172 0
1171 1061 -1172 0
1172 1061 -1171 0
1171 1172 -1061 0
-1173 -1172 -1170 0
-1173 1172 1170 0
1172 -1170 1173 0
-1172 1170 1173 0
1174 -1172 -1170 0
1172 -1174 0
1170 -1174 0
-1171 -1061 1175 0
1061 -1175 0
1171 -1175 0
-1176 1174 1175 0
1176 -1174 0
1176 -1175 0
-1101 -98 1177 0
98 -1177 0
1101 -1177 0
-1067 -1178 -1177 0
1067 -1178 1177 0
1067 1178 -1177 0
-1067 1178 1177 0
-1178 -1179 -1176 0
-1179 1176 1178 0
1179 1178 -1176 0
1179 -1178 1176 0
-1178 1180 -1176 0
-1180 1178 0
1176 -1180 0
-1067 1181 -1177 0
-1181 1067 0
-1181 1177 0
1181 1180 -1182 0
1182 -1180 0
-1181 1182 0
-1101 -106 1183 0
106 -1183 0
1101 -1183 0
-1073 -1183 -1184 0
1183 -1184 1073 0
1184 -1183 1073 0
-1073 1184 1183 0
-1185 -1184 -1182 0
1182 1184 -1185 0
1184 -1182 1185 0
1182 -1184 1185 0
1186 -1184 -1182 0
1184 -1186 0
1182 -1186 0
-1073 -1183 1187 0
1073 -1187 0
1183 -1187 0
1186 -1188 1187 0
1188 -1186 0
1188 -1187 0
-1101 1189 -114 0
114 -1189 0
1101 -1189 0
-1079 -1190 -1189 0
-1190 1189 1079 0
1190 1079 -1189 0
-1079 1190 1189 0
-1188 -1190 -1191 0
1190 -1191 1188 0
1191 1190 -1188 0
1191 1188 -1190 0
1192 -1188 -1190 0
-1192 1190 0
-1192 1188 0
-1079 1193 -1189 0
-1193 1079 0
1189 -1193 0
1192 -1194 1193 0
1194 -1192 0
1194 -1193 0
-122 1195 -1101 0
-1195 122 0
-1195 1101 0
-1196 -1195 -1085 0
-1196 1195 1085 0
1196 -1195 1085 0
1196 1195 -1085 0
-1196 -1194 -1197 0
1194 1196 -1197 0
1197 1196 -1194 0
1194 -1196 1197 0
-1196 -1194 1198 0
-1198 1196 0
1194 -1198 0
-1195 1199 -1085 0
-1199 1085 0
-1199 1195 0
-1200 1199 1198 0
-1198 1200 0
-1199 1200 0
-130 1201 -1101 0
130 -1201 0
1101 -1201 0
-1202 -1201 -1091 0
-1202 1091 1201 0
1202 1091 -1201 0
1202 1201 -1091 0
-1202 -1203 -1200 0
1202 -1203 1200 0
1202 1203 -1200 0
-1202 1203 1200 0
1204 -1202 -1200 0
1202 -1204 0
-1204 1200 0
1205 -1201 -1091 0
1091 -1205 0
-1205 1201 0
-1206 1204 1205 0
1206 -1204 0
1206 -1205 0
-1101 -138 1207 0
138 -1207 0
1101 -1207 0
-1208 -1097 -1207 0
-1208 1097 1207 0
1097 1208 -1207 0
-1097 1208 1207 0
-1208 -1206 -1209 0
1206 1208 -1209 0
1209 -1206 1208 0
1206 -1208 1209 0
-1208 -1206 1210 0
-1210 1208 0
1206 -1210 0
1211 -1097 -1207 0
1097 -1211 0
1207 -1211 0
1211 1210 -1212 0
-1210 1212 0
1212 -1211 0
-146 -1101 1213 0
-1213 146 0
-1213 1101 0
-1213 -1214 -1100 0
-1214 1100 1213 0
-1213 1214 1100 0
1214 -1100 1213 0
-1214 -1212 -1215 0
-1215 1214 1212 0
1215 -1212 1214 0
1215 -1214 1212 0
-1214 -1212 1216 0
-1216 1214 0
-1216 1212 0
-1213 -1100 1217 0
-1217 1100 0
-1217 1213 0
1216 1217 -1218 0
-1216 1218 0
1218 -1217 0
1220 -1219 -1 0
1 -1220 0
1219 -1220 0
-1220 -1221 -1107 0
-1221 1220 1107 0
1221 -1220 1107 0
1221 -1107 1220 0
-1220 1222 -1107 0
-1222 1107 0
-1222 1220 0
1223 -1219 -4 0
-1223 4 0
1219 -1223 0
-1113 -1224 -1223 0
-1224 1223 1113 0
-1223 1224 1113 0
1224 -1113 1223 0
-1222 -1225 -1224 0
-1225 1224 1222 0
1224 1225 -1222 0
1222 -1224 1225 0
-1222 1226 -1224 0
1224 -1226 0
1222 -1226 0
1227 -1113 -1223 0
-1227 1113 0
-1227 1223 0
1227 1226 -1228 0
1228 -1226 0
1228 -1227 0
-10 -1219 1229 0
-1229 10 0
1219 -1229 0
-1119 -1229 -1230 0
-1230 1229 1119 0
1230 -1229 1119 0
-1119 1230 1229 0
-1231 -1230 -1228 0
-1231 1228 1230 0
1231 1230 -1228 0
1228 -1230 1231 0
1232 -1230 -1228 0
-1232 1230 0
-1232 1228 0
-1119 -1229 1233 0
-1233 1119 0
1229 -1233 0
1232 -1234 1233 0
-1232 1234 0
1234 -1233 0
1235 -1219 -18 0
-1235 18 0
1219 -1235 0
-1236 -1235 -1125 0
1235 -1236 1125 0
-1235 1236 1125 0
1235 -1125 1236 0
-1237 -1236 -1234 0
-1237 1234 1236 0
-1234 1237 1236 0
-1236 1237 1234 0
-1236 -1234 1238 0
-1238 1236 0
-1238 1234 0
-1235 -1125 1239 0
-1239 1125 0
-1239 1235 0
1239 -1240 1238 0
1240 -1238 0
-1239 1240 0
-26 -1219 1241 0
26 -1241 0
-1241 1219 0
-1241 -1131 -1242 0
-1242 1131 1241 0
-1241 1131 1242 0
-1131 1242 1241 0
-1242 -1240 -1243 0
1240 1242 -1243 0
1242 -1240 1243 0
-1242 1240 1243 0
-1242 1244 -1240 0
1242 -1244 0
1240 -1244 0
-1241 -1131 1245 0
-1245 1131 0
-1245 1241 0
1244 -1246 1245 0
1246 -1244 0
-1245 1246 0
1247 -1219 -34 0
-1247 34 0
1219 -1247 0
-1248 -1137 -1247 0
1137 1247 -1248 0
1248 1137 -1247 0
1248 1247 -1137 0
-1249 -1246 -1248 0
1248 -1249 1246 0
1248 -1246 1249 0
1246 -1248 1249 0
1250 -1246 -1248 0
1248 -1250 0
-1250 1246 0
1251 -1137 -1247 0
-1251 1137 0
-1251 1247 0
-1252 1251 1250 0
-1250 1252 0
-1251 1252 0
-42 -1219 1253 0
-1253 42 0
1219 -1253 0
-1253 -1143 -1254 0
1143 1253 -1254 0
1254 1143 -1253 0
1254 -1143 1253 0
-1252 -1255 -1254 0
1254 1252 -1255 0
-1252 1254 1255 0
1255 1252 -1254 0
-1252 1256 -1254 0
-1256 1254 0
-1256 1252 0
1257 -1253 -1143 0
1143 -1257 0
-1257 1253 0
1257 1256 -1258 0
-1256 1258 0
-1257 1258 0
-50 1259 -1219 0
-1259 50 0
-1259 1219 0
-1260 -1259 -1149 0
1149 -1260 1259 0
1149 -1259 1260 0
1260 1259 -1149 0
-1260 -1258 -1261 0
1260 1258 -1261 0
-1258 1260 1261 0
-1260 1258 1261 0
-1260 -1258 1262 0
1260 -1262 0
1258 -1262 0
-1259 1263 -1149 0
1149 -1263 0
-1263 1259 0
-1264 1262 1263 0
1264 -1262 0
-1263 1264 0
-58 -1219 1265 0
-1265 58 0
-1265 1219 0
-1265 -1155 -1266 0
-1266 1155 1265 0
-1265 1155 1266 0
-1155 1266 1265 0
-1266 -1267 -1264 0
-1267 1264 1266 0
-1264 1267 1266 0
-1266 1267 1264 0
-1266 -1264 1268 0
-1268 1266 0
-1268 1264 0
-1265 -1155 1269 0
1155 -1269 0
-1269 1265 0
-1270 1268 1269 0
1270 -1268 0
1270 -1269 0
1271 -1219 -66 0
-1271 66 0
-1271 1219 0
-1271 -1272 -1161 0
1161 1271 -1272 0
1161 1272 -1271 0
1271 1272 -1161 0
-1270 -1273 -1272 0
1272 1270 -1273 0
1272 -1270 1273 0
1270 -1272 1273 0
-1270 -1272 1274 0
-1274 1272 0
-1274 1270 0
-1271 1275 -1161 0
1161 -1275 0
-1275 1271 0
-1276 1275 1274 0
-1274 1276 0
-1275 1276 0
-74 1277 -1219 0
74 -1277 0
1219 -1277 0
-1277 -1167 -1278 0
-1278 1277 1167 0
1278 -1277 1167 0
1278 -1167 1277 0
-1279 -1278 -1276 0
1278 1276 -1279 0
1278 -1276 1279 0
1279 1276 -1278 0
-1278 1280 -1276 0
1278 -1280 0
1276 -1280 0
-1277 -1167 1281 0
-1281 1167 0
-1281 1277 0
1280 -1282 1281 0
1282 -1280 0
-1281 1282 0
1283 -1219 -82 0
82 -1283 0
-1283 1219 0
-1173 -1283 -1284 0
1283 -1284 1173 0
-1283 1284 1173 0
-1173 1283 1284 0
-1285 -1284 -1282 0
-1285 1282 1284 0
1285 1284 -1282 0
1285 -1284 1282 0
1286 -1284 -1282 0
1284 -1286 0
1282 -1286 0
-1173 -1283 1287 0
-1287 1173 0
1283 -1287 0
1286 -1288 1287 0
-1286 1288 0
-1287 1288 0
-90 1289 -1219 0
90 -1289 0
1219 -1289 0
-1290 -1179 -1289 0
1179 1289 -1290 0
1179 1290 -1289 0
1290 1289 -1179 0
-1291 -1288 -1290 0
-1291 1288 1290 0
1291 -1288 1290 0
1291 1288 -1290 0
1292 -1288 -1290 0
-1292 1290 0
-1292 1288 0
1293 -1179 -1289 0
1179 -1293 0
-1293 1289 0
1292 -1294 1293 0
-1292 1294 0
-1293 1294 0
-98 1295 -1219 0
98 -1295 0
1219 -1295 0
-1185 -1295 -1296 0
-1296 1295 1185 0
1296 -1295 1185 0
-1185 1296 1295 0
-1297 -1294 -1296 0
-1297 1294 1296 0
-1294 1297 1296 0
1297 1294 -1296 0
1298 -1294 -1296 0
-1298 1296 0
-1298 1294 0
-1185 1299 -1295 0
-1299 1185 0
-1299 1295 0
-1300 1298 1299 0
-1298 1300 0
1300 -1299 0
-106 1301 -1219 0
106 -1301 0
1219 -1301 0
-1191 -1302 -1301 0
1191 1301 -1302 0
1191 1302 -1301 0
-1191 1301 1302 0
-1300 -1302 -1303 0
1300 -1303 1302 0
-1300 1303 1302 0
1300 -1302 1303 0
-1300 -1302 1304 0
-1304 1302 0
1300 -1304 0
1305 -1191 -1301 0
1191 -1305 0
-1305 1301 0
1305 -1306 1304 0
1306 -1304 0
-1305 1306 0
-114 -1219 1307 0
114 -1307 0
1219 -1307 0
-1308 -1197 -1307 0
-1308 1307 1197 0
1308 -1307 1197 0
1308 -1197 1307 0
-1309 -1306 -1308 0
-1309 1306 1308 0
1309 1308 -1306 0
1309 1306 -1308 0
1310 -1306 -1308 0
1308 -1310 0
1306 -1310 0
-1197 1311 -1307 0
-1311 1197 0
-1311 1307 0
-1312 1310 1311 0
1312 -1310 0
-1311 1312 0
-122 1313 -1219 0
122 -1313 0
1219 -1313 0
-1314 -1203 -1313 0
1313 -1314 1203 0
1314 -1313 1203 0
1313 1314 -1203 0
-1312 -1314 -1315 0
1314 1312 -1315 0
-1312 1314 1315 0
1315 -1314 1312 0
-1312 1316 -1314 0
1314 -1316 0
-1316 1312 0
1317 -1203 -1313 0
-1317 1203 0
1313 -1317 0
1317 1316 -1318 0
-1316 1318 0
-1317 1318 0
-130 1319 -1219 0
130 -1319 0
1219 -1319 0
-1319 -1209 -1320 0
1209 1319 -1320 0
1209 -1319 1320 0
1320 1319 -1209 0
-1321 -1318 -1320 0
1318 -1321 1320 0
1321 -1318 1320 0
1321 1318 -1320 0
-1318 1322 -1320 0
-1322 1320 0
-1322 1318 0
1323 -1319 -1209 0
1209 -1323 0
1319 -1323 0
1323 -1324 1322 0
1324 -1322 0
1324 -1323 0
1325 -138 -1219 0
138 -1325 0
1219 -1325 0
-1215 -1325 -1326 0
1325 1215 -1326 0
1215 1326 -1325 0
1325 1326 -1215 0
-1327 -1324 -1326 0
-1327 1326 1324 0
-1324 1326 1327 0
1324 1327 -1326 0
-1324 1328 -1326 0
1326 -1328 0
1324 -1328 0
-1215 -1325 1329 0
1215 -1329 0
1325 -1329 0
-1330 1328 1329 0
1330 -1328 0
1330 -1329 0
-146 1331 -1219 0
146 -1331 0
1219 -1331 0
-1331 -1332 -1218 0
-1332 1331 1218 0
1332 1218 -1331 0
1332 1331 -1218 0
-1333 -1332 -1330 0
1332 1330 -1333 0
1332 1333 -1330 0
1330 1333 -1332 0
1334 -1332 -1330 0
1332 -1334 0
1330 -1334 0
-1331 1335 -1218 0
-1335 1218 0
1331 -1335 0
1335 -1336 1334 0
1336 -1334 0
-1335 1336 0
-1337 1338 -1 0
1 -1338 0
1337 -1338 0
-1339 -1225 -1338 0
-1339 1225 1338 0
1339 1225 -1338 0
1339 -1225 1338 0
-1225 1340 -1338 0
1225 -1340 0
-1340 1338 0
-1337 1341 -4 0
-1341 4 0
1337 -1341 0
-1231 -1342 -1341 0
1231 -1342 1341 0
1231 -1341 1342 0
-1231 1342 1341 0
-1343 -1342 -1340 0
-1343 1340 1342 0
-1340 1343 1342 0
-1342 1340 1343 0
1344 -1342 -1340 0
1342 -1344 0
1340 -1344 0
-1231 -1341 1345 0
1231 -1345 0
1341 -1345 0
1344 1345 -1346 0
-1344 1346 0
1346 -1345 0
-10 -1337 1347 0
-1347 10 0
1337 -1347 0
-1237 -1347 -1348 0
1347 1237 -1348 0
1348 -1347 1237 0
-1237 1348 1347 0
-1349 -1346 -1348 0
1348 -1349 1346 0
1348 -1346 1349 0
1349 1346 -1348 0
1350 -1346 -1348 0
1348 -1350 0
-1350 1346 0
-1237 -1347 1351 0
1237 -1351 0
1347 -1351 0
1350 1351 -1352 0
1352 -1350 0
1352 -1351 0
-1337 1353 -18 0
-1353 18 0
1337 -1353 0
-1354 -1353 -1243 0
-1354 1353 1243 0
1354 -1353 1243 0
1354 1353 -1243 0
-1354 -1352 -1355 0
1352 1354 -1355 0
1355 1354 -1352 0
1352 -1354 1355 0
1356 -1354 -1352 0
1354 -1356 0
1352 -1356 0
-1353 1357 -1243 0
-1357 1243 0
1353 -1357 0
-1358 1356 1357 0
-1356 1358 0
-1357 1358 0
-26 -1337 1359 0
26 -1359 0
1337 -1359 0
-1249 -1360 -1359 0
-1360 1249 1359 0
1360 1249 -1359 0
1360 -1249 1359 0
-1358 -1361 -1360 0
1360 -1361 1358 0
1360 1361 -1358 0
1361 1358 -1360 0
-1358 1362 -1360 0
1360 -1362 0
-1362 1358 0
-1249 1363 -1359 0
-1363 1249 0
-1363 1359 0
1362 -1364 1363 0
1364 -1362 0
1364 -1363 0
-1337 1365 -34 0
-1365 34 0
1337 -1365 0
-1365 -1366 -1255 0
-1366 1365 1255 0
1366 -1365 1255 0
1366 -1255 1365 0
-1364 -1367 -1366 0
1366 -1367 1364 0
1366 -1364 1367 0
1364 1367 -1366 0
1368 -1364 -1366 0
1366 -1368 0
1364 -1368 0
-1365 -1255 1369 0
-1369 1255 0
-1369 1365 0
1368 -1370 1369 0
-1368 1370 0
1370 -1369 0
-42 -1337 1371 0
-1371 42 0
-1371 1337 0
-1371 -1372 -1261 0
1371 1261 -1372 0
-1371 1372 1261 0
1372 1371 -1261 0
-1370 -1373 -1372 0
1370 1372 -1373 0
-1370 1372 1373 0
1370 1373 -1372 0
1374 -1370 -1372 0
-1374 1372 0
1370 -1374 0
-1371 1375 -1261 0
-1375 1261 0
-1375 1371 0
1374 -1376 1375 0
1376 -1374 0
-1375 1376 0
-50 -1337 1377 0
-1377 50 0
1337 -1377 0
-1267 -1378 -1377 0
1377 -1378 1267 0
-1377 1267 1378 0
-1267 1377 1378 0
-1379 -1378 -1376 0
-1379 1376 1378 0
1379 -1376 1378 0
1376 -1378 1379 0
1380 -1378 -1376 0
-1380 1378 0
1376 -1380 0
-1267 -1377 1381 0
1267 -1381 0
1377 -1381 0
1380 -1382 1381 0
1382 -1380 0
1382 -1381 0
-58 -1337 1383 0
-1383 58 0
-1383 1337 0
-1383 -1384 -1273 0
-1384 1383 1273 0
-1383 1384 1273 0
1384 -1273 1383 0
-1384 -1385 -1382 0
1382 1384 -1385 0
1384 -1382 1385 0
-1384 1382 1385 0
-1384 -1382 1386 0
-1386 1384 0
-1386 1382 0
-1383 -1273 1387 0
-1387 1273 0
-1387 1383 0
1387 1386 -1388 0
-1386 1388 0
-1387 1388 0
-1337 1389 -66 0
-1389 66 0
1337 -1389 0
-1279 -1390 -1389 0
1279 -1390 1389 0
1279 1390 -1389 0
-1279 1390 1389 0
-1390 -1391 -1388 0
1390 -1391 1388 0
1390 1391 -1388 0
1391 -1390 1388 0
-1390 1392 -1388 0
1390 -1392 0
-1392 1388 0
-1279 1393 -1389 0
1279 -1393 0
-1393 1389 0
1393 1392 -1394 0
-1392 1394 0
1394 -1393 0
-74 -1337 1395 0
74 -1395 0
1337 -1395 0
-1396 -1285 -1395 0
1285 1395 -1396 0
1285 -1395 1396 0
-1285 1396 1395 0
-1396 -1394 -1397 0
-1397 1394 1396 0
-1394 1397 1396 0
-1396 1394 1397 0
-1396 -1394 1398 0
-1398 1396 0
1394 -1398 0
-1285 1399 -1395 0
1285 -1399 0
-1399 1395 0
-1400 1399 1398 0
1400 -1398 0
-1399 1400 0
-1337 1401 -82 0
-1401 82 0
-1401 1337 0
-1401 -1402 -1291 0
-1402 1291 1401 0
-1401 1291 1402 0
-1291 1401 1402 0
-1403 -1402 -1400 0
-1403 1400 1402 0
1403 -1400 1402 0
1403 -1402 1400 0
1404 -1402 -1400 0
-1404 1402 0
-1404 1400 0
-1401 1405 -1291 0
-1405 1291 0
-1405 1401 0
1404 1405 -1406 0
-1404 1406 0
-1405 1406 0
-90 1407 -1337 0
-1407 90 0
-1407 1337 0
-1407 -1297 -1408 0
1407 1297 -1408 0
-1407 1297 1408 0
1407 1408 -1297 0
-1409 -1406 -1408 0
-1409 1408 1406 0
1408 -1406 1409 0
1409 1406 -1408 0
1410 -1406 -1408 0
-1410 1408 0
-1410 1406 0
-1407 1411 -1297 0
1297 -1411 0
1407 -1411 0
1410 1411 -1412 0
-1410 1412 0
1412 -1411 0
1413 -1337 -98 0
98 -1413 0
1337 -1413 0
-1414 -1303 -1413 0
1413 1303 -1414 0
1414 1303 -1413 0
1413 -1303 1414 0
-1412 -1415 -1414 0
1414 -1415 1412 0
1414 1415 -1412 0
1412 1415 -1414 0
1416 -1412 -1414 0
1414 -1416 0
1412 -1416 0
-1303 1417 -1413 0
-1417 1303 0
-1417 1413 0
1416 -1418 1417 0
-1416 1418 0
-1417 1418 0
-106 -1337 1419 0
106 -1419 0
1337 -1419 0
-1309 -1420 -1419 0
1309 -1420 1419 0
1309 1420 -1419 0
-1309 1420 1419 0
-1418 -1421 -1420 0
-1421 1420 1418 0
-1418 1421 1420 0
1421 -1420 1418 0
-1418 1422 -1420 0
-1422 1420 0
-1422 1418 0
-1309 1423 -1419 0
1309 -1423 0
-1423 1419 0
-1424 1422 1423 0
1424 -1422 0
1424 -1423 0
1425 -1337 -114 0
-1425 114 0
-1425 1337 0
-1425 -1426 -1315 0
1425 -1426 1315 0
-1425 1315 1426 0
1425 -1315 1426 0
-1427 -1426 -1424 0
1424 -1427 1426 0
1427 -1424 1426 0
1424 -1426 1427 0
-1426 1428 -1424 0
-1428 1426 0
1424 -1428 0
-1425 -1315 1429 0
-1429 1315 0
1425 -1429 0
-1430 1428 1429 0
1430 -1428 0
-1429 1430 0
-122 -1337 1431 0
122 -1431 0
1337 -1431 0
-1432 -1321 -1431 0
-1432 1321 1431 0
1321 1432 -1431 0
-1321 1432 1431 0
-1432 -1430 -1433 0
-1433 1432 1430 0
1433 1432 -1430 0
-1432 1433 1430 0
-1432 -1430 1434 0
1432 -1434 0
1430 -1434 0
1435 -1321 -1431 0
1321 -1435 0
-1435 1431 0
1435 1434 -1436 0
1436 -1434 0
1436 -1435 0
-130 -1337 1437 0
130 -1437 0
1337 -1437 0
-1327 -1437 -1438 0
-1438 1327 1437 0
-1437 1327 1438 0
1438 -1327 1437 0
-1436 -1438 -1439 0
-1439 1436 1438 0
-1436 1439 1438 0
1439 1436 -1438 0
-1436 -1438 1440 0
-1440 1438 0
1436 -1440 0
1441 -1327 -1437 0
-1441 1327 0
-1441 1437 0
-1442 1441 1440 0
1442 -1440 0
-1441 1442 0
1443 -138 -1337 0
-1443 138 0
-1443 1337 0
-1443 -1333 -1444 0
1443 1333 -1444 0
-1443 1333 1444 0
1443 -1333 1444 0
-1445 -1442 -1444 0
-1445 1444 1442 0
1445 1444 -1442 0
1445 1442 -1444 0
1446 -1442 -1444 0
1444 -1446 0
-1446 1442 0
-1443 -1333 1447 0
1333 -1447 0
1443 -1447 0
1447 -1448 1446 0
1448 -1446 0
1448 -1447 0
-146 -1337 1449 0
146 -1449 0
1337 -1449 0
-1449 -1336 -1450 0
1336 1449 -1450 0
1450 1336 -1449 0
1449 1450 -1336 0
-1448 -1451 -1450 0
1450 1448 -1451 0
1451 1450 -1448 0
1451 1448 -1450 0
-1448 1452 -1450 0
1450 -1452 0
1448 -1452 0
1453 -1449 -1336 0
-1453 1336 0
-1453 1449 0
1452 1453 -1454 0
-1452 1454 0
-1453 1454 0
-1455 1456 -1 0
1 -1456 0
1455 -1456 0
-1343 -1457 -1456 0
-1457 1456 1343 0
1457 1343 -1456 0
-1343 1457 1456 0
-1343 1458 -1456 0
-1458 1343 0
1456 -1458 0
-1455 1459 -4 0
-1459 4 0
-1459 1455 0
-1349 -1459 -1460 0
1349 1459 -1460 0
1460 -1459 1349 0
1460 -1349 1459 0
-1461 -1458 -1460 0
1460 1458 -1461 0
1460 -1458 1461 0
1458 -1460 1461 0
1462 -1458 -1460 0
1460 -1462 0
1458 -1462 0
-1349 -1459 1463 0
-1463 1349 0
-1463 1459 0
1462 -1464 1463 0
-1462 1464 0
1464 -1463 0
-10 1465 -1455 0
-1465 10 0
1455 -1465 0
-1465 -1466 -1355 0
1355 -1466 1465 0
1355 1466 -1465 0
1465 1466 -1355 0
-1467 -1466 -1464 0
-1467 1466 1464 0
1467 1466 -1464 0
1467 -1466 1464 0
-1466 -1464 1468 0
1466 -1468 0
1464 -1468 0
-1465 1469 -1355 0
1355 -1469 0
1465 -1469 0
-1470 1469 1468 0
1470 -1468 0
1470 -1469 0
-1455 1471 -18 0
-1471 18 0
1455 -1471 0
-1472 -1471 -1361 0
1361 1471 -1472 0
1361 -1471 1472 0
1472 1471 -1361 0
-1470 -1473 -1472 0
1470 -1473 1472 0
-1470 1473 1472 0
1473 1470 -1472 0
-1470 1474 -1472 0
-1474 1472 0
-1474 1470 0
1475 -1471 -1361 0
1361 -1475 0
1471 -1475 0
1475 1474 -1476 0
-1474 1476 0
-1475 1476 0
-26 -1455 1477 0
26 -1477 0
-1477 1455 0
-1477 -1478 -1367 0
1367 -1478 1477 0
-1477 1367 1478 0
-1367 1478 1477 0
-1479 -1478 -1476 0
-1479 1478 1476 0
1479 -1476 1478 0
1479 -1478 1476 0
1480 -1478 -1476 0
-1480 1478 0
-1480 1476 0
-1477 -1367 1481 0
1367 -1481 0
-1481 1477 0
1481 -1482 1480 0
-1480 1482 0
1482 -1481 0
-1455 1483 -34 0
-1483 34 0
1455 -1483 0
-1484 -1483 -1373 0
-1484 1483 1373 0
1484 -1483 1373 0
1483 1484 -1373 0
-1485 -1484 -1482 0
-1485 1482 1484 0
1485 -1482 1484 0
1485 1482 -1484 0
1486 -1484 -1482 0
-1486 1484 0
1482 -1486 0
-1483 -1373 1487 0
-1487 1373 0
-1487 1483 0
-1488 1486 1487 0
-1486 1488 0
-1487 1488 0
-42 -1455 1489 0
-1489 42 0
-1489 1455 0
-1379 -1490 -1489 0
1489 -1490 1379 0
-1489 1490 1379 0
1489 -1379 1490 0
-1491 -1488 -1490 0
1488 -1491 1490 0
-1488 1490 1491 0
1488 -1490 1491 0
-1488 -1490 1492 0
-1492 1490 0
-1492 1488 0
-1379 -1489 1493 0
-1493 1379 0
1489 -1493 0
-1494 1493 1492 0
1494 -1492 0
1494 -1493 0
-50 -1455 1495 0
-1495 50 0
-1495 1455 0
-1496 -1495 -1385 0
-1496 1495 1385 0
-1495 1496 1385 0
1496 -1385 1495 0
-1494 -1496 -1497 0
-1497 1494 1496 0
-1494 1497 1496 0
1497 1494 -1496 0
-1494 -1496 1498 0
1496 -1498 0
1494 -1498 0
-1495 -1385 1499 0
-1499 1385 0
-1499 1495 0
-1500 1498 1499 0
1500 -1498 0
-1499 1500 0
-58 -1455 1501 0
-1501 58 0
-1501 1455 0
-1502 -1501 -1391 0
1391 -1502 1501 0
1391 -1501 1502 0
1502 1501 -1391 0
-1500 -1503 -1502 0
-1503 1500 1502 0
1503 -1500 1502 0
1503 -1502 1500 0
-1500 1504 -1502 0
1502 -1504 0
1500 -1504 0
-1501 -1391 1505 0
1391 -1505 0
-1505 1501 0
-1506 1504 1505 0
1506 -1504 0
-1505 1506 0
-1455 1507 -66 0
-1507 66 0
-1507 1455 0
-1507 -1508 -1397 0
-1508 1397 1507 0
-1507 1508 1397 0
1508 1507 -1397 0
-1506 -1509 -1508 0
1508 -1509 1506 0
-1506 1509 1508 0
1509 1506 -1508 0
-1506 -1508 1510 0
1508 -1510 0
1506 -1510 0
1511 -1507 -1397 0
-1511 1397 0
-1511 1507 0
1511 -1512 1510 0
1512 -1510 0
1512 -1511 0
1513 -74 -1455 0
-1513 74 0
-1513 1455 0
-1513 -1514 -1403 0
-1514 1513 1403 0
-1513 1403 1514 0
1513 -1403 1514 0
-1514 -1512 -1515 0
1512 -1515 1514 0
-1512 1515 1514 0
-1514 1515 1512 0
-1514 -1512 1516 0
-1516 1514 0
1512 -1516 0
-1513 1517 -1403 0
-1517 1403 0
1513 -1517 0
1517 -1518 1516 0
1518 -1516 0
-1517 1518 0
1519 -1455 -82 0
82 -1519 0
-1519 1455 0
-1520 -1409 -1519 0
-1520 1409 1519 0
-1519 1520 1409 0
-1409 1520 1519 0
-1520 -1518 -1521 0
1518 1520 -1521 0
-1518 1520 1521 0
-1520 1518 1521 0
-1520 -1518 1522 0
-1522 1520 0
-1522 1518 0
-1409 -1519 1523 0
-1523 1409 0
-1523 1519 0
-1524 1523 1522 0
-1522 1524 0
-1523 1524 0
-90 -1455 1525 0
-1525 90 0
-1525 1455 0
-1526 -1525 -1415 0
-1526 1525 1415 0
1526 -1525 1415 0
1526 1525 -1415 0
-1526 -1524 -1527 0
1526 1524 -1527 0
1526 1527 -1524 0
-1526 1527 1524 0
-1526 -1524 1528 0
1526 -1528 0
-1528 1524 0
-1525 -1415 1529 0
1415 -1529 0
1525 -1529 0
1528 -1530 1529 0
-1528 1530 0
1530 -1529 0
-1455 -98 1531 0
98 -1531 0
1455 -1531 0
-1421 -1531 -1532 0
1421 1531 -1532 0
1532 -1531 1421 0
-1421 1532 1531 0
-1533 -1530 -1532 0
-1533 1532 1530 0
1533 1532 -1530 0
1533 1530 -1532 0
1534 -1530 -1532 0
-1534 1532 0
-1534 1530 0
-1421 1535 -1531 0
-1535 1421 0
-1535 1531 0
1535 -1536 1534 0
1536 -1534 0
1536 -1535 0
1537 -106 -1455 0
106 -1537 0
1455 -1537 0
-1538 -1427 -1537 0
-1538 1427 1537 0
1538 1427 -1537 0
1538 -1427 1537 0
-1538 -1539 -1536 0
1536 -1539 1538 0
1539 1538 -1536 0
1536 -1538 1539 0
-1538 1540 -1536 0
1538 -1540 0
1536 -1540 0
1541 -1427 -1537 0
1427 -1541 0
1537 -1541 0
1541 1540 -1542 0
1542 -1540 0
1542 -1541 0
-1455 -114 1543 0
114 -1543 0
1455 -1543 0
-1433 -1544 -1543 0
-1544 1433 1543 0
1544 1433 -1543 0
-1433 1543 1544 0
-1544 -1542 -1545 0
1544 1542 -1545 0
1544 -1542 1545 0
1542 -1544 1545 0
-1544 -1542 1546 0
1544 -1546 0
1542 -1546 0
-1433 1547 -1543 0
1433 -1547 0
-1547 1543 0
-1548 1546 1547 0
-1546 1548 0
1548 -1547 0
-122 -1455 1549 0
-1549 122 0
-1549 1455 0
-1550 -1549 -1439 0
1439 -1550 1549 0
1439 -1549 1550 0
1550 1549 -1439 0
-1550 -1548 -1551 0
1548 -1551 1550 0
1551 -1548 1550 0
1548 -1550 1551 0
1552 -1550 -1548 0
-1552 1550 0
1548 -1552 0
1553 -1549 -1439 0
1439 -1553 0
1549 -1553 0
1553 1552 -1554 0
1554 -1552 0
1554 -1553 0
-130 1555 -1455 0
130 -1555 0
-1555 1455 0
-1445 -1555 -1556 0
1445 -1556 1555 0
1445 -1555 1556 0
-1445 1556 1555 0
-1554 -1557 -1556 0
-1557 1556 1554 0
1557 1556 -1554 0
1554 1557 -1556 0
-1554 -1556 1558 0
1556 -1558 0
1554 -1558 0
-1445 -1555 1559 0
-1559 1445 0
-1559 1555 0
-1560 1559 1558 0
1560 -1558 0
-1559 1560 0
-138 -1455 1561 0
138 -1561 0
-1561 1455 0
-1561 -1562 -1451 0
1451 -1562 1561 0
1451 -1561 1562 0
1562 -1451 1561 0
-1560 -1562 -1563 0
1560 1562 -1563 0
-1560 1563 1562 0
1560 -1562 1563 0
-1560 -1562 1564 0
-1564 1562 0
1560 -1564 0
-1561 1565 -1451 0
1451 -1565 0
-1565 1561 0
1565 -1566 1564 0
1566 -1564 0
1566 -1565 0
-146 -1455 1567 0
146 -1567 0
-1567 1455 0
-1567 -1568 -1454 0
-1568 1567 1454 0
-1567 1568 1454 0
1568 1567 -1454 0
-1568 -1566 -1569 0
1568 1566 -1569 0
-1566 1569 1568 0
-1568 1569 1566 0
-1568 1570 -1566 0
-1570 1568 0
-1570 1566 0
-1567 1571 -1454 0
-1571 1454 0
-1571 1567 0
1570 1571 -1572 0
-1570 1572 0
-1571 1572 0
1574 -1573 -1 0
1 -1574 0
-1574 1573 0
-1575 -1461 -1574 0
-1575 1574 1461 0
1575 -1574 1461 0
-1461 1574 1575 0
-1461 1576 -1574 0
-1576 1461 0
1574 -1576 0
-1573 1577 -4 0
-1577 4 0
-1577 1573 0
-1577 -1467 -1578 0
1467 1577 -1578 0
1467 -1577 1578 0
-1467 1577 1578 0
-1578 -1579 -1576 0
-1579 1576 1578 0
1579 1578 -1576 0
-1578 1579 1576 0
-1578 1580 -1576 0
-1580 1578 0
1576 -1580 0
-1577 -1467 1581 0
1467 -1581 0
-1581 1577 0
1581 1580 -1582 0
1582 -1580 0
-1581 1582 0
-10 1583 -1573 0
-1583 10 0
-1583 1573 0
-1583 -1584 -1473 0
-1584 1583 1473 0
-1583 1473 1584 0
1583 -1473 1584 0
-1584 -1585 -1582 0
1582 -1585 1584 0
1585 1584 -1582 0
1582 -1584 1585 0
-1584 1586 -1582 0
-1586 1584 0
1582 -1586 0
-1583 1587 -1473 0
1473 -1587 0
1583 -1587 0
-1588 1586 1587 0
-1586 1588 0
1588 -1587 0
1589 -1573 -18 0
-1589 18 0
-1589 1573 0
-1479 -1589 -1590 0
1589 -1590 1479 0
-1589 1479 1590 0
1589 -1479 1590 0
-1588 -1590 -1591 0
-1591 1590 1588 0
-1588 1590 1591 0
-1590 1591 1588 0
-1588 -1590 1592 0
-1592 1590 0
-1592 1588 0
1593 -1479 -1589 0
-1593 1479 0
1589 -1593 0
1593 1592 -1594 0
-1592 1594 0
-1593 1594 0
-26 1595 -1573 0
26 -1595 0
-1595 1573 0
-1485 -1595 -1596 0
1485 1595 -1596 0
1485 -1595 1596 0
-1485 1595 1596 0
-1597 -1596 -1594 0
-1597 1594 1596 0
1597 1596 -1594 0
1597 1594 -1596 0
1598 -1596 -1594 0
-1598 1596 0
-1598 1594 0
-1485 1599 -1595 0
1485 -1599 0
1595 -1599 0
1598 1599 -1600 0
1600 -1598 0
1600 -1599 0
1601 -1573 -34 0
-1601 34 0
-1601 1573 0
-1601 -1491 -1602 0
-1602 1491 1601 0
-1601 1602 1491 0
-1491 1602 1601 0
-1603 -1600 -1602 0
1600 -1603 1602 0
1603 -1600 1602 0
1600 1603 -1602 0
1604 -1600 -1602 0
-1604 1602 0
1600 -1604 0
-1601 -1491 1605 0
-1605 1491 0
-1605 1601 0
1604 -1606 1605 0
1606 -1604 0
1606 -1605 0
-42 1607 -1573 0
-1607 42 0
-1607 1573 0
-1497 -1608 -1607 0
1607 1497 -1608 0
1497 -1607 1608 0
-1497 1607 1608 0
-1609 -1608 -1606 0
1606 -1609 1608 0
1609 -1606 1608 0
1606 -1608 1609 0
-1608 1610 -1606 0
-1610 1608 0
1606 -1610 0
-1497 1611 -1607 0
1497 -1611 0
1607 -1611 0
1610 1611 -1612 0
-1610 1612 0
1612 -1611 0
-50 1613 -1573 0
50 -1613 0
-1613 1573 0
-1503 -1614 -1613 0
1503 -1614 1613 0
1503 1614 -1613 0
-1503 1614 1613 0
-1614 -1615 -1612 0
1612 1614 -1615 0
1614 1615 -1612 0
1612 -1614 1615 0
-1614 1616 -1612 0
-1616 1614 0
-1616 1612 0
-1503 1617 -1613 0
1503 -1617 0
-1617 1613 0
1617 1616 -1618 0
-1616 1618 0
-1617 1618 0
-58 -1573 1619 0
-1619 58 0
-1619 1573 0
-1620 -1619 -1509 0
-1620 1509 1619 0
1620 -1619 1509 0
1620 -1509 1619 0
-1620 -1618 -1621 0
1618 1620 -1621 0
1621 1620 -1618 0
1618 1621 -1620 0
-1620 -1618 1622 0
-1622 1620 0
-1622 1618 0
1623 -1619 -1509 0
1509 -1623 0
-1623 1619 0
1623 1622 -1624 0
-1622 1624 0
-1623 1624 0
1625 -1573 -66 0
66 -1625 0
1573 -1625 0
-1515 -1626 -1625 0
1625 1515 -1626 0
1515 1626 -1625 0
1625 -1515 1626 0
-1626 -1627 -1624 0
-1627 1624 1626 0
1627 -1624 1626 0
1627 -1626 1624 0
1628 -1626 -1624 0
-1628 1626 0
1624 -1628 0
1629 -1515 -1625 0
1515 -1629 0
1625 -1629 0
1628 -1630 1629 0
1630 -1628 0
-1629 1630 0
1631 -74 -1573 0
74 -1631 0
-1631 1573 0
-1631 -1632 -1521 0
1631 -1632 1521 0
1632 -1631 1521 0
1631 1632 -1521 0
-1633 -1632 -1630 0
-1633 1632 1630 0
1633 1632 -1630 0
1633 -1632 1630 0
1634 -1632 -1630 0
1632 -1634 0
1630 -1634 0
-1631 -1521 1635 0
-1635 1521 0
1631 -1635 0
-1636 1634 1635 0
1636 -1634 0
-1635 1636 0
1637 -1573 -82 0
82 -1637 0
-1637 1573 0
-1637 -1638 -1527 0
1527 -1638 1637 0
1638 -1637 1527 0
1638 1637 -1527 0
-1639 -1638 -1636 0
1638 1636 -1639 0
1638 1639 -1636 0
1639 -1638 1636 0
1640 -1638 -1636 0
1638 -1640 0
1636 -1640 0
-1637 1641 -1527 0
1527 -1641 0
1637 -1641 0
1640 1641 -1642 0
1642 -1640 0
1642 -1641 0
-90 1643 -1573 0
-1643 90 0
-1643 1573 0
-1533 -1643 -1644 0
1533 -1644 1643 0
1533 -1643 1644 0
-1533 1643 1644 0
-1645 -1644 -1642 0
1642 1644 -1645 0
1645 1644 -1642 0
1645 1642 -1644 0
1646 -1644 -1642 0
1644 -1646 0
1642 -1646 0
-1533 -1643 1647 0
1533 -1647 0
1643 -1647 0
1646 -1648 1647 0
1648 -1646 0
-1647 1648 0
1649 -98 -1573 0
98 -1649 0
-1649 1573 0
-1539 -1649 -1650 0
1649 -1650 1539 0
1650 -1649 1539 0
-1539 1650 1649 0
-1651 -1648 -1650 0
-1651 1650 1648 0
-1648 1650 1651 0
1648 1651 -1650 0
-1648 1652 -1650 0
1650 -1652 0
1648 -1652 0
-1539 -1649 1653 0
-1653 1539 0
-1653 1649 0
1653 1652 -1654 0
-1652 1654 0
-1653 1654 0
1655 -106 -1573 0
106 -1655 0
-1655 1573 0
-1656 -1655 -1545 0
1655 -1656 1545 0
1656 -1655 1545 0
1656 1655 -1545 0
-1657 -1656 -1654 0
-1657 1654 1656 0
1656 1657 -1654 0
-1656 1657 1654 0
1658 -1656 -1654 0
1656 -1658 0
1654 -1658 0
1659 -1655 -1545 0
-1659 1545 0
-1659 1655 0
1658 1659 -1660 0
1660 -1658 0
1660 -1659 0
1661 -114 -1573 0
114 -1661 0
-1661 1573 0
-1661 -1662 -1551 0
-1662 1551 1661 0
1662 -1661 1551 0
1662 -1551 1661 0
-1663 -1662 -1660 0
1662 1660 -1663 0
1662 1663 -1660 0
1663 1660 -1662 0
1664 -1662 -1660 0
1662 -1664 0
1660 -1664 0
1665 -1661 -1551 0
-1665 1551 0
-1665 1661 0
1664 1665 -1666 0
1666 -1664 0
-1665 1666 0
-122 1667 -1573 0
-1667 122 0
-1667 1573 0
-1557 -1667 -1668 0
1667 1557 -1668 0
1557 -1667 1668 0
1667 -1557 1668 0
-1666 -1669 -1668 0
1666 1668 -1669 0
-1666 1669 1668 0
1669 1666 -1668 0
-1666 1670 -1668 0
-1670 1668 0
1666 -1670 0
-1557 -1667 1671 0
-1671 1557 0
1667 -1671 0
1670 1671 -1672 0
-1670 1672 0
-1671 1672 0
-130 1673 -1573 0
130 -1673 0
-1673 1573 0
-1563 -1673 -1674 0
1673 1563 -1674 0
1674 -1673 1563 0
-1563 1674 1673 0
-1672 -1675 -1674 0
1674 -1675 1672 0
1674 -1672 1675 0
1675 1672 -1674 0
-1672 1676 -1674 0
-1676 1674 0
-1676 1672 0
-1563 -1673 1677 0
1563 -1677 0
1673 -1677 0
-1678 1676 1677 0
-1676 1678 0
1678 -1677 0
1679 -138 -1573 0
138 -1679 0
-1679 1573 0
-1679 -1680 -1569 0
1679 1569 -1680 0
1569 -1679 1680 0
1679 1680 -1569 0
-1678 -1681 -1680 0
1678 -1681 1680 0
-1678 1681 1680 0
1681 -1680 1678 0
-1678 1682 -1680 0
-1682 1680 0
-1682 1678 0
1683 -1679 -1569 0
1569 -1683 0
1679 -1683 0
-1684 1682 1683 0
-1682 1684 0
1684 -1683 0
-146 1685 -1573 0
146 -1685 0
-1685 1573 0
-1686 -1572 -1685 0
1685 -1686 1572 0
1686 -1685 1572 0
1685 -1572 1686 0
-1687 -1686 -1684 0
-1687 1684 1686 0
1687 -1684 1686 0
1687 -1686 1684 0
1688 -1686 -1684 0
-1688 1686 0
-1688 1684 0
1689 -1572 -1685 0
-1689 1572 0
1685 -1689 0
1688 -1690 1689 0
-1688 1690 0
-1689 1690 0
1692 -1691 -1 0
1 -1692 0
1691 -1692 0
-1579 -1692 -1693 0
1579 1692 -1693 0
1579 1693 -1692 0
-1579 1692 1693 0
-1579 -1692 1694 0
1579 -1694 0
1692 -1694 0
1695 -1691 -4 0
-1695 4 0
-1695 1691 0
-1695 -1585 -1696 0
1695 1585 -1696 0
-1695 1585 1696 0
1695 -1585 1696 0
-1694 -1696 -1697 0
-1697 1696 1694 0
1697 -1694 1696 0
1697 -1696 1694 0
-1694 1698 -1696 0
-1698 1696 0
-1698 1694 0
-1695 -1585 1699 0
-1699 1585 0
1695 -1699 0
1698 1699 -1700 0
1700 -1698 0
1700 -1699 0
-10 1701 -1691 0
-1701 10 0
-1701 1691 0
-1591 -1702 -1701 0
1701 -1702 1591 0
1702 -1701 1591 0
-1591 1701 1702 0
-1702 -1703 -1700 0
1700 -1703 1702 0
1703 1702 -1700 0
1700 -1702 1703 0
1704 -1702 -1700 0
1702 -1704 0
1700 -1704 0
-1591 1705 -1701 0
-1705 1591 0
1701 -1705 0
-1706 1704 1705 0
-1704 1706 0
-1705 1706 0
1707 -1691 -18 0
-1707 18 0
-1707 1691 0
-1707 -1597 -1708 0
1597 -1708 1707 0
1597 -1707 1708 0
-1597 1708 1707 0
-1706 -1708 -1709 0
-1709 1706 1708 0
-1706 1709 1708 0
1709 -1708 1706 0
-1706 1710 -1708 0
-1710 1708 0
-1710 1706 0
-1707 -1597 1711 0
1597 -1711 0
-1711 1707 0
1710 1711 -1712 0
1712 -1710 0
1712 -1711 0
-26 1713 -1691 0
26 -1713 0
1691 -1713 0
-1603 -1714 -1713 0
-1714 1603 1713 0
1714 1603 -1713 0
1714 -1603 1713 0
-1715 -1714 -1712 0
-1715 1712 1714 0
1715 1714 -1712 0
1715 1712 -1714 0
1716 -1714 -1712 0
1714 -1716 0
1712 -1716 0
1717 -1603 -1713 0
-1717 1603 0
-1717 1713 0
-1718 1716 1717 0
-1716 1718 0
-1717 1718 0
1719 -1691 -34 0
-1719 34 0
1691 -1719 0
-1609 -1720 -1719 0
-1720 1719 1609 0
1720 -1719 1609 0
-1609 1720 1719 0
-1718 -1720 -1721 0
1720 1718 -1721 0
-1718 1721 1720 0
1721 1718 -1720 0
-1718 -1720 1722 0
-1722 1720 0
-1722 1718 0
-1609 1723 -1719 0
-1723 1609 0
-1723 1719 0
-1724 1722 1723 0
-1722 1724 0
1724 -1723 0
-42 1725 -1691 0
-1725 42 0
-1725 1691 0
-1725 -1726 -1615 0
1725 1615 -1726 0
-1725 1615 1726 0
1725 -1615 1726 0
-1727 -1724 -1726 0
1724 -1727 1726 0
1727 -1724 1726 0
1727 1724 -1726 0
1728 -1724 -1726 0
-1728 1726 0
1724 -1728 0
-1725 1729 -1615 0
1615 -1729 0
1725 -1729 0
1729 -1730 1728 0
-1728 1730 0
-1729 1730 0
-50 1731 -1691 0
-1731 50 0
-1731 1691 0
-1731 -1732 -1621 0
-1732 1621 1731 0
-1731 1621 1732 0
1731 1732 -1621 0
-1732 -1730 -1733 0
-1733 1732 1730 0
-1730 1732 1733 0
-1732 1733 1730 0
-1732 -1730 1734 0
-1734 1732 0
-1734 1730 0
-1731 -1621 1735 0
1621 -1735 0
1731 -1735 0
-1736 1734 1735 0
-1734 1736 0
-1735 1736 0
-58 1737 -1691 0
-1737 58 0
-1737 1691 0
-1737 -1738 -1627 0
1627 1737 -1738 0
1627 1738 -1737 0
1738 1737 -1627 0
-1736 -1738 -1739 0
1738 1736 -1739 0
-1736 1738 1739 0
1739 -1738 1736 0
-1736 -1738 1740 0
-1740 1738 0
-1740 1736 0
1741 -1737 -1627 0
1627 -1741 0
1737 -1741 0
1741 -1742 1740 0
-1740 1742 0
1742 -1741 0
1743 -1691 -66 0
-1743 66 0
1691 -1743 0
-1633 -1743 -1744 0
1633 1743 -1744 0
1633 1744 -1743 0
-1633 1744 1743 0
-1742 -1745 -1744 0
1744 1742 -1745 0
1745 1744 -1742 0
1745 1742 -1744 0
1746 -1742 -1744 0
-1746 1744 0
-1746 1742 0
-1633 1747 -1743 0
1633 -1747 0
-1747 1743 0
1746 1747 -1748 0
-1746 1748 0
-1747 1748 0
-74 1749 -1691 0
74 -1749 0
1691 -1749 0
-1639 -1750 -1749 0
1639 1749 -1750 0
1639 1750 -1749 0
-1639 1749 1750 0
-1751 -1750 -1748 0
-1751 1750 1748 0
1751 1750 -1748 0
1751 -1750 1748 0
-1750 1752 -1748 0
-1752 1750 0
-1752 1748 0
-1639 1753 -1749 0
-1753 1639 0
-1753 1749 0
-1754 1753 1752 0
-1752 1754 0
-1753 1754 0
1755 -1691 -82 0
82 -1755 0
1691 -1755 0
-1756 -1645 -1755 0
-1756 1645 1755 0
1756 1645 -1755 0
1756 1755 -1645 0
-1756 -1757 -1754 0
1756 1754 -1757 0
1756 -1754 1757 0
-1756 1754 1757 0
-1756 1758 -1754 0
1756 -1758 0
-1758 1754 0
1759 -1645 -1755 0
1645 -1759 0
1755 -1759 0
1759 1758 -1760 0
1760 -1758 0
1760 -1759 0
-90 -1691 1761 0
90 -1761 0
1691 -1761 0
-1651 -1762 -1761 0
1651 1761 -1762 0
1651 1762 -1761 0
-1651 1762 1761 0
-1763 -1760 -1762 0
1760 -1763 1762 0
1763 -1760 1762 0
1760 1763 -1762 0
1764 -1760 -1762 0
-1764 1762 0
1760 -1764 0
-1651 1765 -1761 0
-1765 1651 0
-1765 1761 0
1765 -1766 1764 0
-1764 1766 0
-1765 1766 0
-98 -1691 1767 0
-1767 98 0
-1767 1691 0
-1657 -1767 -1768 0
-1768 1657 1767 0
1768 -1767 1657 0
-1657 1768 1767 0
-1766 -1768 -1769 0
1768 1766 -1769 0
1769 1768 -1766 0
1769 1766 -1768 0
1770 -1766 -1768 0
1768 -1770 0
1766 -1770 0
-1657 -1767 1771 0
1657 -1771 0
-1771 1767 0
-1772 1771 1770 0
1772 -1770 0
1772 -1771 0
-106 1773 -1691 0
106 -1773 0
-1773 1691 0
-1663 -1773 -1774 0
1663 1773 -1774 0
1663 -1773 1774 0
-1663 1773 1774 0
-1775 -1772 -1774 0
1774 -1775 1772 0
-1772 1774 1775 0
1775 -1774 1772 0
-1772 1776 -1774 0
1774 -1776 0
-1776 1772 0
1777 -1663 -1773 0
1663 -1777 0
1773 -1777 0
1777 1776 -1778 0
-1776 1778 0
-1777 1778 0
1779 -114 -1691 0
114 -1779 0
-1779 1691 0
-1669 -1779 -1780 0
1669 1779 -1780 0
1669 -1779 1780 0
-1669 1779 1780 0
-1781 -1778 -1780 0
-1781 1780 1778 0
1781 1780 -1778 0
1781 1778 -1780 0
-1778 1782 -1780 0
1780 -1782 0
-1782 1778 0
-1669 1783 -1779 0
1669 -1783 0
1779 -1783 0
1782 -1784 1783 0
1784 -1782 0
1784 -1783 0
-122 1785 -1691 0
-1785 122 0
-1785 1691 0
-1785 -1675 -1786 0
1675 1785 -1786 0
-1785 1675 1786 0
1786 -1675 1785 0
-1787 -1786 -1784 0
1784 -1787 1786 0
-1784 1786 1787 0
1784 -1786 1787 0
1788 -1786 -1784 0
-1788 1786 0
1784 -1788 0
1789 -1785 -1675 0
1675 -1789 0
1785 -1789 0
1789 -1790 1788 0
1790 -1788 0
1790 -1789 0
-130 1791 -1691 0
130 -1791 0
-1791 1691 0
-1681 -1791 -1792 0
1681 1791 -1792 0
1681 1792 -1791 0
-1681 1792 1791 0
-1793 -1790 -1792 0
1790 1792 -1793 0
1792 -1790 1793 0
1790 1793 -1792 0
-1790 1794 -1792 0
1792 -1794 0
1790 -1794 0
1795 -1681 -1791 0
-1795 1681 0
-1795 1791 0
1795 1794 -1796 0
-1794 1796 0
-1795 1796 0
1797 -138 -1691 0
138 -1797 0
1691 -1797 0
-1687 -1798 -1797 0
1797 1687 -1798 0
1687 1798 -1797 0
1797 -1687 1798 0
-1799 -1798 -1796 0
-1799 1798 1796 0
1799 1798 -1796 0
1799 -1798 1796 0
1800 -1798 -1796 0
-1800 1798 0
-1800 1796 0
-1687 1801 -1797 0
1687 -1801 0
1797 -1801 0
1801 -1802 1800 0
-1800 1802 0
1802 -1801 0
-146 1803 -1691 0
-1803 146 0
-1803 1691 0
-1804 -1803 -1690 0
-1804 1803 1690 0
-1803 1804 1690 0
1803 -1690 1804 0
-1804 -1805 -1802 0
1802 -1805 1804 0
-1802 1804 1805 0
-1804 1802 1805 0
-1804 -1802 1806 0
-1806 1804 0
1802 -1806 0
-1803 -1690 1807 0
-1807 1690 0
-1807 1803 0
1807 -1808 1806 0
-1806 1808 0
-1807 1808 0
-1809 1810 -1 0
1 -1810 0
-1810 1809 0
-1810 -1811 -1697 0
1697 -1811 1810 0
-1810 1697 1811 0
1811 1810 -1697 0
-1810 1812 -1697 0
1697 -1812 0
-1812 1810 0
-1809 1813 -4 0
-1813 4 0
-1813 1809 0
-1814 -1813 -1703 0
-1814 1813 1703 0
-1813 1814 1703 0
-1703 1813 1814 0
-1814 -1812 -1815 0
-1815 1812 1814 0
1815 -1812 1814 0
-1814 1812 1815 0
-1814 -1812 1816 0
-1816 1814 0
-1816 1812 0
-1813 -1703 1817 0
-1817 1703 0
1813 -1817 0
1816 -1818 1817 0
-1816 1818 0
1818 -1817 0
-10 1819 -1809 0
10 -1819 0
1809 -1819 0
-1820 -1709 -1819 0
1819 -1820 1709 0
1820 1709 -1819 0
1819 1820 -1709 0
-1821 -1820 -1818 0
-1821 1820 1818 0
1821 1820 -1818 0
1821 -1820 1818 0
1822 -1820 -1818 0
-1822 1820 0
-1822 1818 0
1823 -1709 -1819 0
-1823 1709 0
-1823 1819 0
-1824 1822 1823 0
-1822 1824 0
-1823 1824 0
-1809 1825 -18 0
-1825 18 0
-1825 1809 0
-1715 -1826 -1825 0
1715 -1826 1825 0
1715 1826 -1825 0
-1715 1826 1825 0
-1826 -1824 -1827 0
-1827 1826 1824 0
-1824 1827 1826 0
-1826 1827 1824 0
-1826 -1824 1828 0
1826 -1828 0
-1828 1824 0
-1715 1829 -1825 0
1715 -1829 0
-1829 1825 0
1829 1828 -1830 0
1830 -1828 0
-1829 1830 0
-26 1831 -1809 0
26 -1831 0
-1831 1809 0
-1831 -1832 -1721 0
1721 -1832 1831 0
-1831 1721 1832 0
1831 1832 -1721 0
-1833 -1832 -1830 0
-1833 1832 1830 0
1833 1832 -1830 0
1833 1830 -1832 0
1834 -1832 -1830 0
1832 -1834 0
-1834 1830 0
-1831 1835 -1721 0
1721 -1835 0
1831 -1835 0
1834 1835 -1836 0
-1834 1836 0
-1835 1836 0
-1809 1837 -34 0
-1837 34 0
1809 -1837 0
-1727 -1837 -1838 0
1727 1837 -1838 0
1727 -1837 1838 0
1837 -1727 1838 0
-1836 -1839 -1838 0
1836 -1839 1838 0
-1836 1839 1838 0
1839 1836 -1838 0
-1836 1840 -1838 0
-1840 1838 0
-1840 1836 0
1841 -1727 -1837 0
1727 -1841 0
1837 -1841 0
1840 1841 -1842 0
-1840 1842 0
-1841 1842 0
-42 -1809 1843 0
-1843 42 0
-1843 1809 0
-1843 -1844 -1733 0
1843 -1844 1733 0
-1843 1844 1733 0
1843 1844 -1733 0
-1845 -1844 -1842 0
-1845 1844 1842 0
1845 1844 -1842 0
1845 -1844 1842 0
1846 -1844 -1842 0
-1846 1844 0
-1846 1842 0
1847 -1843 -1733 0
-1847 1733 0
-1847 1843 0
1847 1846 -1848 0
-1846 1848 0
-1847 1848 0
-50 1849 -1809 0
-1849 50 0
-1849 1809 0
-1850 -1849 -1739 0
-1850 1849 1739 0
1850 -1849 1739 0
1850 1849 -1739 0
-1850 -1848 -1851 0
1850 -1851 1848 0
1850 -1848 1851 0
-1850 1851 1848 0
-1850 -1848 1852 0
1850 -1852 0
1848 -1852 0
1853 -1849 -1739 0
1739 -1853 0
1849 -1853 0
1853 -1854 1852 0
-1852 1854 0
1854 -1853 0
-1809 -58 1855 0
-1855 58 0
-1855 1809 0
-1855 -1856 -1745 0
1745 1855 -1856 0
1745 1856 -1855 0
1856 1855 -1745 0
-1854 -1856 -1857 0
-1857 1856 1854 0
-1854 1857 1856 0
1857 -1856 1854 0
1858 -1854 -1856 0
-1858 1856 0
-1858 1854 0
-1855 1859 -1745 0
1745 -1859 0
-1859 1855 0
-1860 1858 1859 0
-1858 1860 0
-1859 1860 0
-1809 1861 -66 0
66 -1861 0
1809 -1861 0
-1751 -1862 -1861 0
1751 -1862 1861 0
1751 1862 -1861 0
1862 -1751 1861 0
-1860 -1862 -1863 0
1862 1860 -1863 0
1863 -1860 1862 0
1863 -1862 1860 0
-1860 -1862 1864 0
1862 -1864 0
1860 -1864 0
-1751 1865 -1861 0
1751 -1865 0
1861 -1865 0
-1866 1865 1864 0
1866 -1864 0
1866 -1865 0
-74 1867 -1809 0
74 -1867 0
-1867 1809 0
-1868 -1867 -1757 0
1867 -1868 1757 0
-1867 1868 1757 0
1867 -1757 1868 0
-1866 -1868 -1869 0
-1869 1868 1866 0
-1866 1868 1869 0
1869 -1868 1866 0
1870 -1866 -1868 0
-1870 1868 0
-1870 1866 0
-1867 -1757 1871 0
-1871 1757 0
1867 -1871 0
-1872 1870 1871 0
1872 -1870 0
1872 -1871 0
1873 -1809 -82 0
82 -1873 0
1809 -1873 0
-1763 -1874 -1873 0
1873 1763 -1874 0
1763 1874 -1873 0
1873 -1763 1874 0
-1872 -1875 -1874 0
1872 -1875 1874 0
-1872 1875 1874 0
1872 1875 -1874 0
-1872 1876 -1874 0
-1876 1874 0
1872 -1876 0
1877 -1763 -1873 0
1763 -1877 0
1873 -1877 0
-1878 1877 1876 0
1878 -1876 0
1878 -1877 0
-90 -1809 1879 0
90 -1879 0
1809 -1879 0
-1880 -1879 -1769 0
1769 1879 -1880 0
1769 1880 -1879 0
1880 1879 -1769 0
-1880 -1881 -1878 0
1880 1878 -1881 0
1880 1881 -1878 0
-1880 1878 1881 0
-1880 1882 -1878 0
1880 -1882 0
1878 -1882 0
1883 -1879 -1769 0
1769 -1883 0
1879 -1883 0
1883 -1884 1882 0
1884 -1882 0
-1883 1884 0
-1809 1885 -98 0
-1885 98 0
-1885 1809 0
-1885 -1886 -1775 0
-1886 1885 1775 0
-1885 1886 1775 0
1886 1885 -1775 0
-1886 -1887 -1884 0
1886 -1887 1884 0
1886 1887 -1884 0
-1886 1887 1884 0
-1886 -1884 1888 0
1886 -1888 0
-1888 1884 0
-1885 -1775 1889 0
-1889 1775 0
-1889 1885 0
-1890 1889 1888 0
-1888 1890 0
-1889 1890 0
-1809 -106 1891 0
106 -1891 0
1809 -1891 0
-1781 -1892 -1891 0
1781 -1892 1891 0
1781 1892 -1891 0
-1781 1891 1892 0
-1892 -1893 -1890 0
-1893 1890 1892 0
1893 -1890 1892 0
1893 -1892 1890 0
-1892 1894 -1890 0
1892 -1894 0
1890 -1894 0
-1781 1895 -1891 0
1781 -1895 0
-1895 1891 0
1894 1895 -1896 0
1896 -1894 0
1896 -1895 0
-1809 1897 -114 0
-1897 114 0
-1897 1809 0
-1897 -1898 -1787 0
1897 -1898 1787 0
-1897 1898 1787 0
1897 1898 -1787 0
-1898 -1899 -1896 0
1896 1898 -1899 0
1899 1898 -1896 0
1896 1899 -1898 0
1900 -1898 -1896 0
-1900 1898 0
1896 -1900 0
-1897 1901 -1787 0
-1901 1787 0
1897 -1901 0
1900 1901 -1902 0
-1900 1902 0
-1901 1902 0
-122 -1809 1903 0
-1903 122 0
1809 -1903 0
-1904 -1793 -1903 0
-1904 1903 1793 0
-1903 1904 1793 0
1903 -1793 1904 0
-1904 -1905 -1902 0
-1905 1902 1904 0
1905 1904 -1902 0
-1904 1905 1902 0
-1904 1906 -1902 0
1904 -1906 0
1902 -1906 0
-1793 -1903 1907 0
-1907 1793 0
1903 -1907 0
1906 1907 -1908 0
1908 -1906 0
-1907 1908 0
-130 -1809 1909 0
130 -1909 0
-1909 1809 0
-1799 -1909 -1910 0
-1910 1799 1909 0
1910 -1909 1799 0
-1799 1910 1909 0
-1911 -1910 -1908 0
-1911 1910 1908 0
1911 1910 -1908 0
1911 -1910 1908 0
-1910 1912 -1908 0
-1912 1910 0
-1912 1908 0
-1799 -1909 1913 0
1799 -1913 0
-1913 1909 0
-1914 1913 1912 0
-1912 1914 0
1914 -1913 0
1915 -1809 -138 0
138 -1915 0
-1915 1809 0
-1915 -1805 -1916 0
1915 -1916 1805 0
-1915 1916 1805 0
1915 1916 -1805 0
-1914 -1917 -1916 0
1914 1916 -1917 0
1916 -1914 1917 0
1914 -1916 1917 0
-1914 1918 -1916 0
1916 -1918 0
1914 -1918 0
-1915 -1805 1919 0
-1919 1805 0
1915 -1919 0
1919 1918 -1920 0
1920 -1918 0
1920 -1919 0
-146 -1809 1921 0
146 -1921 0
1809 -1921 0
-1922 -1808 -1921 0
1921 -1922 1808 0
-1921 1808 1922 0
1921 -1808 1922 0
-1923 -1922 -1920 0
1920 1922 -1923 0
1923 1922 -1920 0
1923 -1922 1920 0
-1922 1924 -1920 0
-1924 1922 0
1920 -1924 0
1925 -1808 -1921 0
1808 -1925 0
1921 -1925 0
1925 1924 -1926 0
1926 -1924 0
1926 -1925 0
-1927 1928 -1 0
1 -1928 0
1927 -1928 0
-1929 -1928 -1815 0
1928 1815 -1929 0
1815 1929 -1928 0
1928 1929 -1815 0
1930 -1928 -1815 0
-1930 1815 0
-1930 1928 0
-1927 1931 -4 0
-1931 4 0
1927 -1931 0
-1821 -1931 -1932 0
1821 1931 -1932 0
1821 1932 -1931 0
1931 -1821 1932 0
-1930 -1932 -1933 0
1932 1930 -1933 0
-1930 1932 1933 0
1930 -1932 1933 0
-1930 -1932 1934 0
1932 -1934 0
1930 -1934 0
-1821 -1931 1935 0
1821 -1935 0
1931 -1935 0
-1936 1934 1935 0
1936 -1934 0
1936 -1935 0
-10 -1927 1937 0
10 -1937 0
1927 -1937 0
-1938 -1827 -1937 0
1827 -1938 1937 0
1938 1827 -1937 0
1938 -1827 1937 0
-1936 -1939 -1938 0
1936 1938 -1939 0
-1936 1938 1939 0
1936 -1938 1939 0
-1936 1940 -1938 0
1938 -1940 0
1936 -1940 0
1941 -1827 -1937 0
1827 -1941 0
1937 -1941 0
1941 1940 -1942 0
1942 -1940 0
1942 -1941 0
-1927 1943 -18 0
-1943 18 0
1927 -1943 0
-1833 -1943 -1944 0
1833 -1944 1943 0
1833 -1943 1944 0
-1833 1944 1943 0
-1945 -1942 -1944 0
1944 1942 -1945 0
1944 1945 -1942 0
1945 1942 -1944 0
1946 -1942 -1944 0
1944 -1946 0
1942 -1946 0
-1833 -1943 1947 0
1833 -1947 0
-1947 1943 0
1947 1946 -1948 0
-1946 1948 0
-1947 1948 0
-26 -1927 1949 0
26 -1949 0
1927 -1949 0
-1950 -1949 -1839 0
-1950 1839 1949 0
1950 1839 -1949 0
1950 -1839 1949 0
-1950 -1948 -1951 0
1950 -1951 1948 0
1950 -1948 1951 0
-1950 1951 1948 0
-1950 -1948 1952 0
1950 -1952 0
1948 -1952 0
1953 -1949 -1839 0
-1953 1839 0
-1953 1949 0
1952 1953 -1954 0
1954 -1952 0
1954 -1953 0
-1927 1955 -34 0
-1955 34 0
1927 -1955 0
-1955 -1956 -1845 0
1845 -1956 1955 0
1845 -1955 1956 0
1956 1955 -1845 0
-1954 -1956 -1957 0
1954 1956 -1957 0
-1954 1956 1957 0
1954 1957 -1956 0
-1954 -1956 1958 0
1956 -1958 0
1954 -1958 0
1959 -1955 -1845 0
1845 -1959 0
1955 -1959 0
1959 -1960 1958 0
-1958 1960 0
1960 -1959 0
-42 -1927 1961 0
-1961 42 0
1927 -1961 0
-1851 -1961 -1962 0
1851 1961 -1962 0
1962 1851 -1961 0
-1851 1962 1961 0
-1963 -1960 -1962 0
-1963 1962 1960 0
1963 1962 -1960 0
1963 1960 -1962 0
1964 -1960 -1962 0
-1964 1962 0
-1964 1960 0
-1851 -1961 1965 0
1851 -1965 0
-1965 1961 0
-1966 1964 1965 0
-1964 1966 0
-1965 1966 0
-50 -1927 1967 0
-1967 50 0
1927 -1967 0
-1967 -1968 -1857 0
-1968 1967 1857 0
-1967 1857 1968 0
1967 1968 -1857 0
-1969 -1968 -1966 0
-1969 1966 1968 0
-1966 1969 1968 0
1969 1966 -1968 0
1970 -1968 -1966 0
-1970 1968 0
-1970 1966 0
-1967 1971 -1857 0
-1971 1857 0
-1971 1967 0
1970 -1972 1971 0
-1970 1972 0
-1971 1972 0
-1927 -58 1973 0
-1973 58 0
1927 -1973 0
-1974 -1973 -1863 0
1863 1973 -1974 0
1974 1863 -1973 0
1974 1973 -1863 0
-1975 -1972 -1974 0
1974 -1975 1972 0
1974 1975 -1972 0
1972 1975 -1974 0
1976 -1972 -1974 0
1974 -1976 0
1972 -1976 0
1977 -1973 -1863 0
1863 -1977 0
-1977 1973 0
-1978 1977 1976 0
1978 -1976 0
1978 -1977 0
-1927 1979 -66 0
-1979 66 0
1927 -1979 0
-1869 -1980 -1979 0
-1980 1869 1979 0
1869 1980 -1979 0
-1869 1980 1979 0
-1980 -1978 -1981 0
1978 1980 -1981 0
1981 -1978 1980 0
1981 -1980 1978 0
-1980 1982 -1978 0
-1982 1980 0
1978 -1982 0
-1869 1983 -1979 0
1869 -1983 0
-1983 1979 0
-1984 1982 1983 0
-1982 1984 0
1984 -1983 0
-74 -1927 1985 0
74 -1985 0
1927 -1985 0
-1985 -1875 -1986 0
1875 1985 -1986 0
-1985 1875 1986 0
1986 -1875 1985 0
-1984 -1986 -1987 0
1986 1984 -1987 0
1986 -1984 1987 0
1984 1987 -1986 0
-1984 -1986 1988 0
1986 -1988 0
-1988 1984 0
-1985 -1875 1989 0
-1989 1875 0
-1989 1985 0
1988 1989 -1990 0
-1988 1990 0
-1989 1990 0
-1927 1991 -82 0
82 -1991 0
1927 -1991 0
-1992 -1881 -1991 0
-1992 1881 1991 0
1881 -1991 1992 0
-1881 1992 1991 0
-1992 -1993 -1990 0
-1993 1990 1992 0
1993 -1990 1992 0
-1992 1993 1990 0
-1992 1994 -1990 0
-1994 1992 0
-1994 1990 0
-1881 1995 -1991 0
1881 -1995 0
-1995 1991 0
1994 -1996 1995 0
-1994 1996 0
1996 -1995 0
-90 -1927 1997 0
90 -1997 0
1927 -1997 0
-1998 -1887 -1997 0
1997 -1998 1887 0
1998 1887 -1997 0
1997 -1887 1998 0
-1996 -1998 -1999 0
1996 1998 -1999 0
1999 -1996 1998 0
1999 -1998 1996 0
-1996 -1998 2000 0
-2000 1998 0
-2000 1996 0
2001 -1887 -1997 0
-2001 1887 0
1997 -2001 0
2001 -2002 2000 0
-2000 2002 0
-2001 2002 0
-1927 2003 -98 0
-2003 98 0
1927 -2003 0
-2004 -2003 -1893 0
-2004 1893 2003 0
2004 -2003 1893 0
2004 -1893 2003 0
-2004 -2005 -2002 0
2004 -2005 2002 0
2004 -2002 2005 0
-2004 2002 2005 0
-2004 -2002 2006 0
2004 -2006 0
-2006 2002 0
2007 -2003 -1893 0
1893 -2007 0
-2007 2003 0
2007 -2008 2006 0
-2006 2008 0
-2007 2008 0
-1927 -106 2009 0
106 -2009 0
1927 -2009 0
-2010 -2009 -1899 0
1899 2009 -2010 0
1899 -2009 2010 0
2010 2009 -1899 0
-2008 -2010 -2011 0
-2011 2008 2010 0
-2008 2011 2010 0
-2010 2011 2008 0
-2008 -2010 2012 0
2010 -2012 0
2008 -2012 0
2013 -2009 -1899 0
1899 -2013 0
2009 -2013 0
2012 2013 -2014 0
2014 -2012 0
2014 -2013 0
-1927 2015 -114 0
114 -2015 0
1927 -2015 0
-2016 -2015 -1905 0
-2016 1905 2015 0
-2015 1905 2016 0
2015 -1905 2016 0
-2016 -2017 -2014 0
-2017 2014 2016 0
2017 -2014 2016 0
-2016 2014 2017 0
-2016 2018 -2014 0
2016 -2018 0
2014 -2018 0
2019 -2015 -1905 0
1905 -2019 0
2015 -2019 0
2019 2018 -2020 0
2020 -2018 0
2020 -2019 0
-122 -1927 2021 0
122 -2021 0
1927 -2021 0
-2022 -2021 -1911 0
1911 -2022 2021 0
1911 2022 -2021 0
2022 2021 -1911 0
-2023 -2022 -2020 0
2020 -2023 2022 0
2023 2022 -2020 0
2020 2023 -2022 0
-2022 2024 -2020 0
-2024 2022 0
-2024 2020 0
2025 -2021 -1911 0
1911 -2025 0
-2025 2021 0
2024 2025 -2026 0
-2024 2026 0
-2025 2026 0
-130 -1927 2027 0
130 -2027 0
1927 -2027 0
-1917 -2028 -2027 0
2027 -2028 1917 0
2028 -2027 1917 0
2028 -1917 2027 0
-2029 -2026 -2028 0
-2029 2028 2026 0
2028 2029 -2026 0
2029 2026 -2028 0
-2026 2030 -2028 0
-2030 2028 0
-2030 2026 0
-1917 2031 -2027 0
-2031 1917 0
-2031 2027 0
-2032 2031 2030 0
-2030 2032 0
2032 -2031 0
-1927 -138 2033 0
138 -2033 0
1927 -2033 0
-2034 -2033 -1923 0
1923 -2034 2033 0
1923 2034 -2033 0
2034 2033 -1923 0
-2034 -2032 -2035 0
2034 -2035 2032 0
2035 -2032 2034 0
-2034 2035 2032 0
-2034 -2032 2036 0
2034 -2036 0
2032 -2036 0
-2033 2037 -1923 0
1923 -2037 0
2033 -2037 0
2036 -2038 2037 0
2038 -2036 0
2038 -2037 0
-146 -1927 2039 0
-2039 146 0
1927 -2039 0
-2039 -2040 -1926 0
1926 -2040 2039 0
-2039 1926 2040 0
2040 2039 -1926 0
-2038 -2040 -2041 0
2040 2038 -2041 0
-2038 2040 2041 0
-2040 2041 2038 0
-2038 2042 -2040 0
-2042 2040 0
-2042 2038 0
-2039 -1926 2043 0
1926 -2043 0
2039 -2043 0
2042 -2044 2043 0
-2042 2044 0
2044 -2043 0
2046 -2045 -1 0
1 -2046 0
-2046 2045 0
-2046 -2047 -1933 0
2046 1933 -2047 0
2047 1933 -2046 0
2046 2047 -1933 0
-2046 2048 -1933 0
1933 -2048 0
2046 -2048 0
2049 -2045 -4 0
-2049 4 0
-2049 2045 0
-1939 -2049 -2050 0
1939 -2050 2049 0
1939 -2049 2050 0
-1939 2050 2049 0
-2051 -2050 -2048 0
-2051 2050 2048 0
2051 2050 -2048 0
2051 -2050 2048 0
2052 -2050 -2048 0
-2052 2050 0
-2052 2048 0
-1939 -2049 2053 0
1939 -2053 0
-2053 2049 0
2053 2052 -2054 0
2054 -2052 0
2054 -2053 0
-10 2055 -2045 0
-2055 10 0
-2055 2045 0
-2056 -2055 -1945 0
1945 2055 -2056 0
1945 -2055 2056 0
2055 -1945 2056 0
-2056 -2057 -2054 0
2054 -2057 2056 0
2057 2056 -2054 0
-2056 2057 2054 0
-2056 2058 -2054 0
-2058 2056 0
2054 -2058 0
-2055 -1945 2059 0
1945 -2059 0
2055 -2059 0
2058 2059 -2060 0
-2058 2060 0
-2059 2060 0
2061 -2045 -18 0
-2061 18 0
-2061 2045 0
-1951 -2062 -2061 0
1951 -2062 2061 0
1951 2062 -2061 0
2062 -1951 2061 0
-2060 -2062 -2063 0
2062 -2063 2060 0
2063 -2060 2062 0
2063 -2062 2060 0
-2060 -2062 2064 0
-2064 2062 0
-2064 2060 0
-1951 2065 -2061 0
1951 -2065 0
-2065 2061 0
-2066 2065 2064 0
-2064 2066 0
-2065 2066 0
2067 -26 -2045 0
26 -2067 0
-2067 2045 0
-2068 -1957 -2067 0
2067 -2068 1957 0
1957 2068 -2067 0
2067 2068 -1957 0
-2068 -2066 -2069 0
-2069 2068 2066 0
-2066 2069 2068 0
-2068 2069 2066 0
-2068 2070 -2066 0
2068 -2070 0
-2070 2066 0
-1957 -2067 2071 0
-2071 1957 0
2067 -2071 0
2070 -2072 2071 0
2072 -2070 0
-2071 2072 0
2073 -2045 -34 0
-2073 34 0
2045 -2073 0
-1963 -2074 -2073 0
1963 -2074 2073 0
2074 1963 -2073 0
-1963 2074 2073 0
-2075 -2072 -2074 0
2072 -2075 2074 0
2075 -2072 2074 0
2072 2075 -2074 0
-2072 -2074 2076 0
-2076 2074 0
2072 -2076 0
-1963 2077 -2073 0
1963 -2077 0
-2077 2073 0
-2078 2077 2076 0
2078 -2076 0
2078 -2077 0
-42 2079 -2045 0
-2079 42 0
-2079 2045 0
-1969 -2079 -2080 0
2079 1969 -2080 0
-2079 1969 2080 0
-1969 2079 2080 0
-2081 -2080 -2078 0
2078 2080 -2081 0
2080 2081 -2078 0
2081 2078 -2080 0
-2080 -2078 2082 0
-2082 2080 0
-2082 2078 0
-1969 2083 -2079 0
1969 -2083 0
2079 -2083 0
2083 -2084 2082 0
-2082 2084 0
-2083 2084 0
-50 2085 -2045 0
-2085 50 0
-2085 2045 0
-1975 -2086 -2085 0
1975 2085 -2086 0
1975 -2085 2086 0
-1975 2085 2086 0
-2087 -2084 -2086 0
-2087 2084 2086 0
-2084 2087 2086 0
2087 -2086 2084 0
-2084 -2086 2088 0
-2088 2086 0
-2088 2084 0
2089 -1975 -2085 0
1975 -2089 0
2085 -2089 0
2089 -2090 2088 0
-2088 2090 0
-2089 2090 0
-58 2091 -2045 0
-2091 58 0
-2091 2045 0
-2091 -2092 -1981 0
1981 2091 -2092 0
1981 -2091 2092 0
2092 2091 -1981 0
-2090 -2093 -2092 0
-2093 2092 2090 0
-2090 2092 2093 0
2090 -2092 2093 0
-2090 2094 -2092 0
-2094 2092 0
-2094 2090 0
-2091 2095 -1981 0
1981 -2095 0
-2095 2091 0
2094 -2096 2095 0
2096 -2094 0
2096 -2095 0
2097 -2045 -66 0
-2097 66 0
-2097 2045 0
-2098 -2097 -1987 0
-2098 1987 2097 0
2098 -2097 1987 0
2098 2097 -1987 0
-2098 -2099 -2096 0
2098 -2099 2096 0
2098 2099 -2096 0
-2098 2099 2096 0
-2098 2100 -2096 0
2098 -2100 0
2096 -2100 0
-2097 2101 -1987 0
-2101 1987 0
-2101 2097 0
2101 2100 -2102 0
-2100 2102 0
-2101 2102 0
-74 2103 -2045 0
-2103 74 0
-2103 2045 0
-1993 -2103 -2104 0
1993 2103 -2104 0
-2103 1993 2104 0
-1993 2103 2104 0
-2104 -2105 -2102 0
-2105 2104 2102 0
2105 -2102 2104 0
-2104 2105 2102 0
-2104 -2102 2106 0
-2106 2104 0
-2106 2102 0
-1993 -2103 2107 0
1993 -2107 0
2103 -2107 0
2107 2106 -2108 0
-2106 2108 0
-2107 2108 0
2109 -2045 -82 0
82 -2109 0
-2109 2045 0
-2109 -1999 -2110 0
-2110 1999 2109 0
-2109 1999 2110 0
-1999 2110 2109 0
-2108 -2110 -2111 0
2110 2108 -2111 0
-2108 2111 2110 0
-2110 2111 2108 0
-2108 -2110 2112 0
-2112 2110 0
-2112 2108 0
-2109 -1999 2113 0
1999 -2113 0
2109 -2113 0
2112 2113 -2114 0
-2112 2114 0
2114 -2113 0
-90 2115 -2045 0
90 -2115 0
2045 -2115 0
-2116 -2005 -2115 0
2115 -2116 2005 0
-2115 2116 2005 0
2115 -2005 2116 0
-2117 -2116 -2114 0
-2117 2114 2116 0
2117 2116 -2114 0
-2116 2114 2117 0
-2116 2118 -2114 0
-2118 2116 0
-2118 2114 0
-2005 2119 -2115 0
-2119 2005 0
2115 -2119 0
2119 2118 -2120 0
-2118 2120 0
2120 -2119 0
2121 -98 -2045 0
98 -2121 0
2045 -2121 0
-2011 -2122 -2121 0
-2122 2011 2121 0
2011 2122 -2121 0
-2011 2122 2121 0
-2123 -2122 -2120 0
2120 -2123 2122 0
2123 2122 -2120 0
2120 2123 -2122 0
2124 -2122 -2120 0
-2124 2122 0
2120 -2124 0
-2011 2125 -2121 0
2011 -2125 0
2121 -2125 0
2124 2125 -2126 0
-2124 2126 0
2126 -2125 0
2127 -106 -2045 0
106 -2127 0
-2127 2045 0
-2127 -2017 -2128 0
2127 2017 -2128 0
-2127 2128 2017 0
2127 2128 -2017 0
-2129 -2126 -2128 0
2128 -2129 2126 0
2128 2129 -2126 0
2129 2126 -2128 0
-2126 2130 -2128 0
2128 -2130 0
2126 -2130 0
-2127 -2017 2131 0
-2131 2017 0
2127 -2131 0
-2132 2130 2131 0
2132 -2130 0
-2131 2132 0
2133 -114 -2045 0
114 -2133 0
2045 -2133 0
-2023 -2133 -2134 0
2023 2133 -2134 0
2023 2134 -2133 0
-2023 2134 2133 0
-2132 -2135 -2134 0
-2135 2134 2132 0
-2132 2135 2134 0
2132 2135 -2134 0
-2132 2136 -2134 0
-2136 2134 0
-2136 2132 0
2137 -2023 -2133 0
-2137 2023 0
-2137 2133 0
2137 2136 -2138 0
-2136 2138 0
-2137 2138 0
-122 2139 -2045 0
-2139 122 0
-2139 2045 0
-2029 -2140 -2139 0
-2140 2139 2029 0
-2139 2140 2029 0
-2029 2140 2139 0
-2140 -2141 -2138 0
2140 -2141 2138 0
2140 2141 -2138 0
-2140 2141 2138 0
-2140 2142 -2138 0
-2142 2140 0
-2142 2138 0
-2029 -2139 2143 0
2029 -2143 0
2139 -2143 0
-2144 2142 2143 0
-2142 2144 0
-2143 2144 0
-130 2145 -2045 0
130 -2145 0
-2145 2045 0
-2146 -2145 -2035 0
2035 2145 -2146 0
2035 2146 -2145 0
2145 2146 -2035 0
-2146 -2147 -2144 0
2146 -2147 2144 0
2146 -2144 2147 0
2147 -2146 2144 0
-2146 2148 -2144 0
2146 -2148 0
-2148 2144 0
-2145 -2035 2149 0
2035 -2149 0
2145 -2149 0
2148 -2150 2149 0
2150 -2148 0
2150 -2149 0
-138 2151 -2045 0
138 -2151 0
-2151 2045 0
-2151 -2041 -2152 0
2041 2151 -2152 0
2041 -2151 2152 0
2151 -2041 2152 0
-2153 -2152 -2150 0
2150 -2153 2152 0
-2150 2153 2152 0
2150 -2152 2153 0
2154 -2152 -2150 0
-2154 2152 0
2150 -2154 0
-2151 -2041 2155 0
2041 -2155 0
-2155 2151 0
-2156 2154 2155 0
-2154 2156 0
-2155 2156 0
-146 2157 -2045 0
146 -2157 0
2045 -2157 0
-2044 -2158 -2157 0
-2158 2044 2157 0
2158 2044 -2157 0
-2044 2158 2157 0
-2156 -2158 -2159 0
2158 -2159 2156 0
-2156 2158 2159 0
-2158 2156 2159 0
-2156 -2158 2160 0
2158 -2160 0
-2160 2156 0
-2044 2161 -2157 0
-2161 2044 0
-2161 2157 0
-2162 2161 2160 0
-2160 2162 0
-2161 2162 0
-2163 2164 -1 0
1 -2164 0
-2164 2163 0
-2051 -2165 -2164 0
-2165 2051 2164 0
-2164 2165 2051 0
-2051 2165 2164 0
-2051 -2164 2166 0
2051 -2166 0
-2166 2164 0
2167 -2163 -4 0
-2167 4 0
-2167 2163 0
-2167 -2168 -2057 0
2167 2057 -2168 0
-2167 2057 2168 0
2167 -2057 2168 0
-2168 -2166 -2169 0
2166 2168 -2169 0
2169 -2166 2168 0
2169 2166 -2168 0
2170 -2168 -2166 0
2168 -2170 0
2166 -2170 0
-2167 -2057 2171 0
2057 -2171 0
2167 -2171 0
2170 2171 -2172 0
2172 -2170 0
-2171 2172 0
-10 -2163 2173 0
10 -2173 0
2163 -2173 0
-2063 -2174 -2173 0
2063 -2174 2173 0
2063 2174 -2173 0
2174 -2063 2173 0
-2175 -2172 -2174 0
-2175 2174 2172 0
-2172 2174 2175 0
2175 2172 -2174 0
-2172 2176 -2174 0
-2176 2174 0
-2176 2172 0
2177 -2063 -2173 0
2063 -2177 0
-2177 2173 0
2177 2176 -2178 0
-2176 2178 0
-2177 2178 0
2179 -2163 -18 0
-2179 18 0
-2179 2163 0
-2179 -2180 -2069 0
2179 -2180 2069 0
-2179 2069 2180 0
2179 2180 -2069 0
-2180 -2178 -2181 0
2180 2178 -2181 0
2181 -2178 2180 0
-2180 2181 2178 0
-2180 2182 -2178 0
-2182 2180 0
-2182 2178 0
-2179 2183 -2069 0
2069 -2183 0
2179 -2183 0
2182 2183 -2184 0
2184 -2182 0
2184 -2183 0
-26 -2163 2185 0
26 -2185 0
-2185 2163 0
-2185 -2075 -2186 0
2075 -2186 2185 0
2186 2075 -2185 0
2186 -2075 2185 0
-2187 -2186 -2184 0
2184 2186 -2187 0
2187 2186 -2184 0
2184 2187 -2186 0
2188 -2186 -2184 0
-2188 2186 0
2184 -2188 0
2189 -2185 -2075 0
2075 -2189 0
2185 -2189 0
2189 -2190 2188 0
-2188 2190 0
2190 -2189 0
-2163 2191 -34 0
-2191 34 0
-2191 2163 0
-2191 -2081 -2192 0
2081 2191 -2192 0
-2191 2081 2192 0
2192 -2081 2191 0
-2193 -2190 -2192 0
-2193 2190 2192 0
2193 2192 -2190 0
2193 2190 -2192 0
2194 -2190 -2192 0
-2194 2192 0
2190 -2194 0
2195 -2191 -2081 0
2081 -2195 0
2191 -2195 0
-2196 2195 2194 0
2196 -2194 0
2196 -2195 0
-42 -2163 2197 0
-2197 42 0
-2197 2163 0
-2087 -2197 -2198 0
2197 -2198 2087 0
2198 -2197 2087 0
2197 -2087 2198 0
-2198 -2199 -2196 0
2198 2196 -2199 0
2198 2199 -2196 0
-2198 2196 2199 0
-2198 2200 -2196 0
2198 -2200 0
2196 -2200 0
-2087 2201 -2197 0
-2201 2087 0
2197 -2201 0
-2202 2201 2200 0
2202 -2200 0
2202 -2201 0
-50 -2163 2203 0
-2203 50 0
-2203 2163 0
-2093 -2203 -2204 0
2203 -2204 2093 0
2204 -2203 2093 0
-2093 2204 2203 0
-2205 -2204 -2202 0
2202 2204 -2205 0
2204 2205 -2202 0
2202 2205 -2204 0
2206 -2204 -2202 0
2204 -2206 0
2202 -2206 0
-2093 -2203 2207 0
-2207 2093 0
-2207 2203 0
2206 2207 -2208 0
-2206 2208 0
-2207 2208 0
-2163 -58 2209 0
-2209 58 0
-2209 2163 0
-2099 -2210 -2209 0
2209 -2210 2099 0
2210 2099 -2209 0
-2099 2209 2210 0
-2211 -2210 -2208 0
2210 -2211 2208 0
2210 2211 -2208 0
2211 -2210 2208 0
2212 -2210 -2208 0
2210 -2212 0
-2212 2208 0
-2099 -2209 2213 0
-2213 2099 0
-2213 2209 0
-2214 2212 2213 0
-2212 2214 0
-2213 2214 0
-2163 2215 -66 0
-2215 66 0
-2215 2163 0
-2105 -2215 -2216 0
-2216 2215 2105 0
2216 -2215 2105 0
2216 -2105 2215 0
-2214 -2217 -2216 0
2216 -2217 2214 0
2216 -2214 2217 0
2217 -2216 2214 0
-2214 2218 -2216 0
2216 -2218 0
-2218 2214 0
-2105 -2215 2219 0
2105 -2219 0
2215 -2219 0
-2220 2218 2219 0
-2218 2220 0
2220 -2219 0
-74 -2163 2221 0
-2221 74 0
-2221 2163 0
-2221 -2111 -2222 0
-2222 2111 2221 0
-2221 2111 2222 0
2222 -2111 2221 0
-2222 -2223 -2220 0
2222 2220 -2223 0
-2220 2222 2223 0
-2222 2220 2223 0
-2222 2224 -2220 0
-2224 2222 0
-2224 2220 0
-2221 2225 -2111 0
2111 -2225 0
-2225 2221 0
2224 2225 -2226 0
-2224 2226 0
-2225 2226 0
2227 -2163 -82 0
-2227 82 0
-2227 2163 0
-2117 -2227 -2228 0
2227 2117 -2228 0
-2227 2117 2228 0
-2117 2227 2228 0
-2228 -2229 -2226 0
-2229 2226 2228 0
2229 -2226 2228 0
-2228 2229 2226 0
-2228 2230 -2226 0
-2230 2228 0
-2230 2226 0
-2117 -2227 2231 0
-2231 2117 0
2227 -2231 0
2230 -2232 2231 0
2232 -2230 0
-2231 2232 0
-90 2233 -2163 0
-2233 90 0
-2233 2163 0
-2233 -2123 -2234 0
2233 2123 -2234 0
-2233 2123 2234 0
2234 2233 -2123 0
-2235 -2232 -2234 0
2234 2232 -2235 0
2234 -2232 2235 0
2232 2235 -2234 0
-2232 2236 -2234 0
2234 -2236 0
2232 -2236 0
-2233 2237 -2123 0
-2237 2123 0
-2237 2233 0
2237 2236 -2238 0
-2236 2238 0
-2237 2238 0
-2163 -98 2239 0
98 -2239 0
-2239 2163 0
-2129 -2239 -2240 0
2129 -2240 2239 0
2129 -2239 2240 0
-2129 2240 2239 0
-2241 -2240 -2238 0
2240 -2241 2238 0
2240 2241 -2238 0
-2240 2241 2238 0
-2240 2242 -2238 0
2240 -2242 0
-2242 2238 0
-2129 -2239 2243 0
2129 -2243 0
-2243 2239 0
-2244 2243 2242 0
2244 -2242 0
-2243 2244 0
2245 -2163 -106 0
106 -2245 0
-2245 2163 0
-2246 -2245 -2135 0
2245 -2246 2135 0
-2245 2135 2246 0
2245 2246 -2135 0
-2246 -2244 -2247 0
2246 2244 -2247 0
-2244 2246 2247 0
-2246 2244 2247 0
-2246 -2244 2248 0
-2248 2246 0
-2248 2244 0
-2245 2249 -2135 0
2135 -2249 0
2245 -2249 0
2248 2249 -2250 0
-2248 2250 0
2250 -2249 0
2251 -2163 -114 0
114 -2251 0
-2251 2163 0
-2252 -2251 -2141 0
-2252 2251 2141 0
2252 -2251 2141 0
2251 2252 -2141 0
-2253 -2252 -2250 0
2252 2250 -2253 0
2253 2252 -2250 0
-2252 2253 2250 0
2254 -2252 -2250 0
-2254 2252 0
-2254 2250 0
2255 -2251 -2141 0
-2255 2141 0
2251 -2255 0
2254 -2256 2255 0
-2254 2256 0
2256 -2255 0
-122 -2163 2257 0
-2257 122 0
-2257 2163 0
-2258 -2147 -2257 0
-2258 2257 2147 0
2258 -2257 2147 0
-2147 2257 2258 0
-2258 -2256 -2259 0
2256 -2259 2258 0
2259 -2256 2258 0
2259 -2258 2256 0
-2258 -2256 2260 0
-2260 2258 0
2256 -2260 0
-2147 -2257 2261 0
-2261 2147 0
2257 -2261 0
2260 -2262 2261 0
2262 -2260 0
2262 -2261 0
-130 -2163 2263 0
130 -2263 0
-2263 2163 0
-2153 -2263 -2264 0
2263 2153 -2264 0
2264 -2263 2153 0
2264 -2153 2263 0
-2262 -2265 -2264 0
2264 -2265 2262 0
2264 -2262 2265 0
2262 2265 -2264 0
-2262 2266 -2264 0
2264 -2266 0
2262 -2266 0
2267 -2153 -2263 0
-2267 2153 0
-2267 2263 0
2267 -2268 2266 0
2268 -2266 0
-2267 2268 0
-2163 -138 2269 0
138 -2269 0
-2269 2163 0
-2269 -2159 -2270 0
-2270 2269 2159 0
-2269 2270 2159 0
-2159 2270 2269 0
-2268 -2270 -2271 0
2268 2270 -2271 0
2271 2270 -2268 0
2271 2268 -2270 0
2272 -2268 -2270 0
2270 -2272 0
2268 -2272 0
-2269 2273 -2159 0
-2273 2159 0
2269 -2273 0
-2274 2272 2273 0
2274 -2272 0
2274 -2273 0
-146 -2163 2275 0
-2275 146 0
-2275 2163 0
-2162 -2275 -2276 0
2275 -2276 2162 0
-2275 2276 2162 0
-2162 2275 2276 0
-2274 -2276 -2277 0
2274 -2277 2276 0
-2274 2277 2276 0
2277 -2276 2274 0
-2274 -2276 2278 0
2276 -2278 0
2274 -2278 0
-2162 -2275 2279 0
-2279 2162 0
-2279 2275 0
2279 2278 -2280 0
2280 -2278 0
-2279 2280 0
3 0
-8 0
159 0
277 0
-395 0
513 0
-631 0
-749 0
-867 0
-985 0
-1103 0
-1221 0
1339 0
1457 0
1575 0
1693 0
-1811 0
-1929 0
-2047 0
2165 0
-2169 0
-2175 0
-2181 0
-2187 0
-2193 0
-2199 0
-2205 0
-2211 0
-2217 0
-2223 0
-2229 0
-2235 0
-2241 0
-2247 0
-2253 0
-2259 0
-2265 0
-2271 0
-2277 0
-2280 0
