p cnf 2280 7500
-1 -2 3 0
1 -3 0
2 -3 0
-4 -2 5 0
4 -5 0
2 -5 0
-1 -6 7 0
1 -7 0
6 -7 0
-5 -7 -8 0
5 7 -8 0
5 -7 8 0
-5 7 8 0
-5 -7 9 0
5 -9 0
7 -9 0
-10 -2 11 0
10 -11 0
2 -11 0
-4 -6 12 0
4 -12 0
6 -12 0
-11 -12 -13 0
11 12 -13 0
11 -12 13 0
-11 12 13 0
-13 -9 -14 0
13 9 -14 0
13 -9 14 0
-13 9 14 0
-13 -9 15 0
13 -15 0
9 -15 0
-11 -12 16 0
11 -16 0
12 -16 0
15 16 -17 0
-15 17 0
-16 17 0
-18 -2 19 0
18 -19 0
2 -19 0
-10 -6 20 0
10 -20 0
6 -20 0
-19 -20 -21 0
19 20 -21 0
19 -20 21 0
-19 20 21 0
-21 -17 -22 0
21 17 -22 0
21 -17 22 0
-21 17 22 0
-21 -17 23 0
21 -23 0
17 -23 0
-19 -20 24 0
19 -24 0
20 -24 0
23 24 -25 0
-23 25 0
-24 25 0
-26 -2 27 0
26 -27 0
2 -27 0
-18 -6 28 0
18 -28 0
6 -28 0
-27 -28 -29 0
27 28 -29 0
27 -28 29 0
-27 28 29 0
-29 -25 -30 0
29 25 -30 0
29 -25 30 0
-29 25 30 0
-29 -25 31 0
29 -31 0
25 -31 0
-27 -28 32 0
27 -32 0
28 -32 0
31 32 -33 0
-31 33 0
-32 33 0
-34 -2 35 0
34 -35 0
2 -35 0
-26 -6 36 0
26 -36 0
6 -36 0
-35 -36 -37 0
35 36 -37 0
35 -36 37 0
-35 36 37 0
-37 -33 -38 0
37 33 -38 0
37 -33 38 0
-37 33 38 0
-37 -33 39 0
37 -39 0
33 -39 0
-35 -36 40 0
35 -40 0
36 -40 0
39 40 -41 0
-39 41 0
-40 41 0
-42 -2 43 0
42 -43 0
2 -43 0
-34 -6 44 0
34 -44 0
6 -44 0
-43 -44 -45 0
43 44 -45 0
43 -44 45 0
-43 44 45 0
-45 -41 -46 0
45 41 -46 0
45 -41 46 0
-45 41 46 0
-45 -41 47 0
45 -47 0
41 -47 0
-43 -44 48 0
43 -48 0
44 -48 0
47 48 -49 0
-47 49 0
-48 49 0
-50 -2 51 0
50 -51 0
2 -51 0
-42 -6 52 0
42 -52 0
6 -52 0
-51 -52 -53 0
51 52 -53 0
51 -52 53 0
-51 52 53 0
-53 -49 -54 0
53 49 -54 0
53 -49 54 0
-53 49 54 0
-53 -49 55 0
53 -55 0
49 -55 0
-51 -52 56 0
51 -56 0
52 -56 0
55 56 -57 0
-55 57 0
-56 57 0
-58 -2 59 0
58 -59 0
2 -59 0
-50 -6 60 0
50 -60 0
6 -60 0
-59 -60 -61 0
59 60 -61 0
59 -60 61 0
-59 60 61 0
-61 -57 -62 0
61 57 -62 0
61 -57 62 0
-61 57 62 0
-61 -57 63 0
61 -63 0
57 -63 0
-59 -60 64 0
59 -64 0
60 -64 0
63 64 -65 0
-63 65 0
-64 65 0
-66 -2 67 0
66 -67 0
2 -67 0
-58 -6 68 0
58 -68 0
6 -68 0
-67 -68 -69 0
67 68 -69 0
67 -68 69 0
-67 68 69 0
-69 -65 -70 0
69 65 -70 0
69 -65 70 0
-69 65 70 0
-69 -65 71 0
69 -71 0
65 -71 0
-67 -68 72 0
67 -72 0
68 -72 0
71 72 -73 0
-71 73 0
-72 73 0
-74 -2 75 0
74 -75 0
2 -75 0
-66 -6 76 0
66 -76 0
6 -76 0
-75 -76 -77 0
75 76 -77 0
75 -76 77 0
-75 76 77 0
-77 -73 -78 0
77 73 -78 0
77 -73 78 0
-77 73 78 0
-77 -73 79 0
77 -79 0
73 -79 0
-75 -76 80 0
75 -80 0
76 -80 0
79 80 -81 0
-79 81 0
-80 81 0
-82 -2 83 0
82 -83 0
2 -83 0
-74 -6 84 0
74 -84 0
6 -84 0
-83 -84 -85 0
83 84 -85 0
83 -84 85 0
-83 84 85 0
-85 -81 -86 0
85 81 -86 0
85 -81 86 0
-85 81 86 0
-85 -81 87 0
85 -87 0
81 -87 0
-83 -84 88 0
83 -88 0
84 -88 0
87 88 -89 0
-87 89 0
-88 89 0
-90 -2 91 0
90 -91 0
2 -91 0
-82 -6 92 0
82 -92 0
6 -92 0
-91 -92 -93 0
91 92 -93 0
91 -92 93 0
-91 92 93 0
-93 -89 -94 0
93 89 -94 0
93 -89 94 0
-93 89 94 0
-93 -89 95 0
93 -95 0
89 -95 0
-91 -92 96 0
91 -96 0
92 -96 0
95 96 -97 0
-95 97 0
-96 97 0
-98 -2 99 0
98 -99 0
2 -99 0
-90 -6 100 0
90 -100 0
6 -100 0
-99 -100 -101 0
99 100 -101 0
99 -100 101 0
-99 100 101 0
-101 -97 -102 0
101 97 -102 0
101 -97 102 0
-101 97 102 0
-101 -97 103 0
101 -103 0
97 -103 0
-99 -100 104 0
99 -104 0
100 -104 0
103 104 -105 0
-103 105 0
-104 105 0
-106 -2 107 0
106 -107 0
2 -107 0
-98 -6 108 0
98 -108 0
6 -108 0
-107 -108 -109 0
107 108 -109 0
107 -108 109 0
-107 108 109 0
-109 -105 -110 0
109 105 -110 0
109 -105 110 0
-109 105 110 0
-109 -105 111 0
109 -111 0
105 -111 0
-107 -108 112 0
107 -112 0
108 -112 0
111 112 -113 0
-111 113 0
-112 113 0
-114 -2 115 0
114 -115 0
2 -115 0
-106 -6 116 0
106 -116 0
6 -116 0
-115 -116 -117 0
115 116 -117 0
115 -116 117 0
-115 116 117 0
-117 -113 -118 0
117 113 -118 0
117 -113 118 0
-117 113 118 0
-117 -113 119 0
117 -119 0
113 -119 0
-115 -116 120 0
115 -120 0
116 -120 0
119 120 -121 0
-119 121 0
-120 121 0
-122 -2 123 0
122 -123 0
2 -123 0
-114 -6 124 0
114 -124 0
6 -124 0
-123 -124 -125 0
123 124 -125 0
123 -124 125 0
-123 124 125 0
-125 -121 -126 0
125 121 -126 0
125 -121 126 0
-125 121 126 0
-125 -121 127 0
125 -127 0
121 -127 0
-123 -124 128 0
123 -128 0
124 -128 0
127 128 -129 0
-127 129 0
-128 129 0
-130 -2 131 0
130 -131 0
2 -131 0
-122 -6 132 0
122 -132 0
6 -132 0
-131 -132 -133 0
131 132 -133 0
131 -132 133 0
-131 132 133 0
-133 -129 -134 0
133 129 -134 0
133 -129 134 0
-133 129 134 0
-133 -129 135 0
133 -135 0
129 -135 0
-131 -132 136 0
131 -136 0
132 -136 0
135 136 -137 0
-135 137 0
-136 137 0
-138 -2 139 0
138 -139 0
2 -139 0
-130 -6 140 0
130 -140 0
6 -140 0
-139 -140 -141 0
139 140 -141 0
139 -140 141 0
-139 140 141 0
-141 -137 -142 0
141 137 -142 0
141 -137 142 0
-141 137 142 0
-141 -137 143 0
141 -143 0
137 -143 0
-139 -140 144 0
139 -144 0
140 -144 0
143 144 -145 0
-143 145 0
-144 145 0
-146 -2 147 0
146 -147 0
2 -147 0
-138 -6 148 0
138 -148 0
6 -148 0
-147 -148 -149 0
147 148 -149 0
147 -148 149 0
-147 148 149 0
-149 -145 -150 0
149 145 -150 0
149 -145 150 0
-149 145 150 0
-149 -145 151 0
149 -151 0
145 -151 0
-147 -148 152 0
147 -152 0
148 -152 0
151 152 -153 0
-151 153 0
-152 153 0
-146 -6 154 0
146 -154 0
6 -154 0
-153 -154 -155 0
153 154 -155 0
153 -154 155 0
-153 154 155 0
-153 -154 156 0
153 -156 0
154 -156 0
-1 -157 158 0
1 -158 0
157 -158 0
-14 -158 -159 0
14 158 -159 0
14 -158 159 0
-14 158 159 0
-14 -158 160 0
14 -160 0
158 -160 0
-4 -157 161 0
4 -161 0
157 -161 0
-22 -161 -162 0
22 161 -162 0
22 -161 162 0
-22 161 162 0
-162 -160 -163 0
162 160 -163 0
162 -160 163 0
-162 160 163 0
-162 -160 164 0
162 -164 0
160 -164 0
-22 -161 165 0
22 -165 0
161 -165 0
164 165 -166 0
-164 166 0
-165 166 0
-10 -157 167 0
10 -167 0
157 -167 0
-30 -167 -168 0
30 167 -168 0
30 -167 168 0
-30 167 168 0
-168 -166 -169 0
168 166 -169 0
168 -166 169 0
-168 166 169 0
-168 -166 170 0
168 -170 0
166 -170 0
-30 -167 171 0
30 -171 0
167 -171 0
170 171 -172 0
-170 172 0
-171 172 0
-18 -157 173 0
18 -173 0
157 -173 0
-38 -173 -174 0
38 173 -174 0
38 -173 174 0
-38 173 174 0
-174 -172 -175 0
174 172 -175 0
174 -172 175 0
-174 172 175 0
-174 -172 176 0
174 -176 0
172 -176 0
-38 -173 177 0
38 -177 0
173 -177 0
176 177 -178 0
-176 178 0
-177 178 0
-26 -157 179 0
26 -179 0
157 -179 0
-46 -179 -180 0
46 179 -180 0
46 -179 180 0
-46 179 180 0
-180 -178 -181 0
180 178 -181 0
180 -178 181 0
-180 178 181 0
-180 -178 182 0
180 -182 0
178 -182 0
-46 -179 183 0
46 -183 0
179 -183 0
182 183 -184 0
-182 184 0
-183 184 0
-34 -157 185 0
34 -185 0
157 -185 0
-54 -185 -186 0
54 185 -186 0
54 -185 186 0
-54 185 186 0
-186 -184 -187 0
186 184 -187 0
186 -184 187 0
-186 184 187 0
-186 -184 188 0
186 -188 0
184 -188 0
-54 -185 189 0
54 -189 0
185 -189 0
188 189 -190 0
-188 190 0
-189 190 0
-42 -157 191 0
42 -191 0
157 -191 0
-62 -191 -192 0
62 191 -192 0
62 -191 192 0
-62 191 192 0
-192 -190 -193 0
192 190 -193 0
192 -190 193 0
-192 190 193 0
-192 -190 194 0
192 -194 0
190 -194 0
-62 -191 195 0
62 -195 0
191 -195 0
194 195 -196 0
-194 196 0
-195 196 0
-50 -157 197 0
50 -197 0
157 -197 0
-70 -197 -198 0
70 197 -198 0
70 -197 198 0
-70 197 198 0
-198 -196 -199 0
198 196 -199 0
198 -196 199 0
-198 196 199 0
-198 -196 200 0
198 -200 0
196 -200 0
-70 -197 201 0
70 -201 0
197 -201 0
200 201 -202 0
-200 202 0
-201 202 0
-58 -157 203 0
58 -203 0
157 -203 0
-78 -203 -204 0
78 203 -204 0
78 -203 204 0
-78 203 204 0
-204 -202 -205 0
204 202 -205 0
204 -202 205 0
-204 202 205 0
-204 -202 206 0
204 -206 0
202 -206 0
-78 -203 207 0
78 -207 0
203 -207 0
206 207 -208 0
-206 208 0
-207 208 0
-66 -157 209 0
66 -209 0
157 -209 0
-86 -209 -210 0
86 209 -210 0
86 -209 210 0
-86 209 210 0
-210 -208 -211 0
210 208 -211 0
210 -208 211 0
-210 208 211 0
-210 -208 212 0
210 -212 0
208 -212 0
-86 -209 213 0
86 -213 0
209 -213 0
212 213 -214 0
-212 214 0
-213 214 0
-74 -157 215 0
74 -215 0
157 -215 0
-94 -215 -216 0
94 215 -216 0
94 -215 216 0
-94 215 216 0
-216 -214 -217 0
216 214 -217 0
216 -214 217 0
-216 214 217 0
-216 -214 218 0
216 -218 0
214 -218 0
-94 -215 219 0
94 -219 0
215 -219 0
218 219 -220 0
-218 220 0
-219 220 0
-82 -157 221 0
82 -221 0
157 -221 0
-102 -221 -222 0
102 221 -222 0
102 -221 222 0
-102 221 222 0
-222 -220 -223 0
222 220 -223 0
222 -220 223 0
-222 220 223 0
-222 -220 224 0
222 -224 0
220 -224 0
-102 -221 225 0
102 -225 0
221 -225 0
224 225 -226 0
-224 226 0
-225 226 0
-90 -157 227 0
90 -227 0
157 -227 0
-110 -227 -228 0
110 227 -228 0
110 -227 228 0
-110 227 228 0
-228 -226 -229 0
228 226 -229 0
228 -226 229 0
-228 226 229 0
-228 -226 230 0
228 -230 0
226 -230 0
-110 -227 231 0
110 -231 0
227 -231 0
230 231 -232 0
-230 232 0
-231 232 0
-98 -157 233 0
98 -233 0
157 -233 0
-118 -233 -234 0
118 233 -234 0
118 -233 234 0
-118 233 234 0
-234 -232 -235 0
234 232 -235 0
234 -232 235 0
-234 232 235 0
-234 -232 236 0
234 -236 0
232 -236 0
-118 -233 237 0
118 -237 0
233 -237 0
236 237 -238 0
-236 238 0
-237 238 0
-106 -157 239 0
106 -239 0
157 -239 0
-126 -239 -240 0
126 239 -240 0
126 -239 240 0
-126 239 240 0
-240 -238 -241 0
240 238 -241 0
240 -238 241 0
-240 238 241 0
-240 -238 242 0
240 -242 0
238 -242 0
-126 -239 243 0
126 -243 0
239 -243 0
242 243 -244 0
-242 244 0
-243 244 0
-114 -157 245 0
114 -245 0
157 -245 0
-134 -245 -246 0
134 245 -246 0
134 -245 246 0
-134 245 246 0
-246 -244 -247 0
246 244 -247 0
246 -244 247 0
-246 244 247 0
-246 -244 248 0
246 -248 0
244 -248 0
-134 -245 249 0
134 -249 0
245 -249 0
248 249 -250 0
-248 250 0
-249 250 0
-122 -157 251 0
122 -251 0
157 -251 0
-142 -251 -252 0
142 251 -252 0
142 -251 252 0
-142 251 252 0
-252 -250 -253 0
252 250 -253 0
252 -250 253 0
-252 250 253 0
-252 -250 254 0
252 -254 0
250 -254 0
-142 -251 255 0
142 -255 0
251 -255 0
254 255 -256 0
-254 256 0
-255 256 0
-130 -157 257 0
130 -257 0
157 -257 0
-150 -257 -258 0
150 257 -258 0
150 -257 258 0
-150 257 258 0
-258 -256 -259 0
258 256 -259 0
258 -256 259 0
-258 256 259 0
-258 -256 260 0
258 -260 0
256 -260 0
-150 -257 261 0
150 -261 0
257 -261 0
260 261 -262 0
-260 262 0
-261 262 0
-138 -157 263 0
138 -263 0
157 -263 0
-155 -263 -264 0
155 263 -264 0
155 -263 264 0
-155 263 264 0
-264 -262 -265 0
264 262 -265 0
264 -262 265 0
-264 262 265 0
-264 -262 266 0
264 -266 0
262 -266 0
-155 -263 267 0
155 -267 0
263 -267 0
266 267 -268 0
-266 268 0
-267 268 0
-146 -157 269 0
146 -269 0
157 -269 0
-156 -269 -270 0
156 269 -270 0
156 -269 270 0
-156 269 270 0
-270 -268 -271 0
270 268 -271 0
270 -268 271 0
-270 268 271 0
-270 -268 272 0
270 -272 0
268 -272 0
-156 -269 273 0
156 -273 0
269 -273 0
272 273 -274 0
-272 274 0
-273 274 0
-1 -275 276 0
1 -276 0
275 -276 0
-163 -276 -277 0
163 276 -277 0
163 -276 277 0
-163 276 277 0
-163 -276 278 0
163 -278 0
276 -278 0
-4 -275 279 0
4 -279 0
275 -279 0
-169 -279 -280 0
169 279 -280 0
169 -279 280 0
-169 279 280 0
-280 -278 -281 0
280 278 -281 0
280 -278 281 0
-280 278 281 0
-280 -278 282 0
280 -282 0
278 -282 0
-169 -279 283 0
169 -283 0
279 -283 0
282 283 -284 0
-282 284 0
-283 284 0
-10 -275 285 0
10 -285 0
275 -285 0
-175 -285 -286 0
175 285 -286 0
175 -285 286 0
-175 285 286 0
-286 -284 -287 0
286 284 -287 0
286 -284 287 0
-286 284 287 0
-286 -284 288 0
286 -288 0
284 -288 0
-175 -285 289 0
175 -289 0
285 -289 0
288 289 -290 0
-288 290 0
-289 290 0
-18 -275 291 0
18 -291 0
275 -291 0
-181 -291 -292 0
181 291 -292 0
181 -291 292 0
-181 291 292 0
-292 -290 -293 0
292 290 -293 0
292 -290 293 0
-292 290 293 0
-292 -290 294 0
292 -294 0
290 -294 0
-181 -291 295 0
181 -295 0
291 -295 0
294 295 -296 0
-294 296 0
-295 296 0
-26 -275 297 0
26 -297 0
275 -297 0
-187 -297 -298 0
187 297 -298 0
187 -297 298 0
-187 297 298 0
-298 -296 -299 0
298 296 -299 0
298 -296 299 0
-298 296 299 0
-298 -296 300 0
298 -300 0
296 -300 0
-187 -297 301 0
187 -301 0
297 -301 0
300 301 -302 0
-300 302 0
-301 302 0
-34 -275 303 0
34 -303 0
275 -303 0
-193 -303 -304 0
193 303 -304 0
193 -303 304 0
-193 303 304 0
-304 -302 -305 0
304 302 -305 0
304 -302 305 0
-304 302 305 0
-304 -302 306 0
304 -306 0
302 -306 0
-193 -303 307 0
193 -307 0
303 -307 0
306 307 -308 0
-306 308 0
-307 308 0
-42 -275 309 0
42 -309 0
275 -309 0
-199 -309 -310 0
199 309 -310 0
199 -309 310 0
-199 309 310 0
-310 -308 -311 0
310 308 -311 0
310 -308 311 0
-310 308 311 0
-310 -308 312 0
310 -312 0
308 -312 0
-199 -309 313 0
199 -313 0
309 -313 0
312 313 -314 0
-312 314 0
-313 314 0
-50 -275 315 0
50 -315 0
275 -315 0
-205 -315 -316 0
205 315 -316 0
205 -315 316 0
-205 315 316 0
-316 -314 -317 0
316 314 -317 0
316 -314 317 0
-316 314 317 0
-316 -314 318 0
316 -318 0
314 -318 0
-205 -315 319 0
205 -319 0
315 -319 0
318 319 -320 0
-318 320 0
-319 320 0
-58 -275 321 0
58 -321 0
275 -321 0
-211 -321 -322 0
211 321 -322 0
211 -321 322 0
-211 321 322 0
-322 -320 -323 0
322 320 -323 0
322 -320 323 0
-322 320 323 0
-322 -320 324 0
322 -324 0
320 -324 0
-211 -321 325 0
211 -325 0
321 -325 0
324 325 -326 0
-324 326 0
-325 326 0
-66 -275 327 0
66 -327 0
275 -327 0
-217 -327 -328 0
217 327 -328 0
217 -327 328 0
-217 327 328 0
-328 -326 -329 0
328 326 -329 0
328 -326 329 0
-328 326 329 0
-328 -326 330 0
328 -330 0
326 -330 0
-217 -327 331 0
217 -331 0
327 -331 0
330 331 -332 0
-330 332 0
-331 332 0
-74 -275 333 0
74 -333 0
275 -333 0
-223 -333 -334 0
223 333 -334 0
223 -333 334 0
-223 333 334 0
-334 -332 -335 0
334 332 -335 0
334 -332 335 0
-334 332 335 0
-334 -332 336 0
334 -336 0
332 -336 0
-223 -333 337 0
223 -337 0
333 -337 0
336 337 -338 0
-336 338 0
-337 338 0
-82 -275 339 0
82 -339 0
275 -339 0
-229 -339 -340 0
229 339 -340 0
229 -339 340 0
-229 339 340 0
-340 -338 -341 0
340 338 -341 0
340 -338 341 0
-340 338 341 0
-340 -338 342 0
340 -342 0
338 -342 0
-229 -339 343 0
229 -343 0
339 -343 0
342 343 -344 0
-342 344 0
-343 344 0
-90 -275 345 0
90 -345 0
275 -345 0
-235 -345 -346 0
235 345 -346 0
235 -345 346 0
-235 345 346 0
-346 -344 -347 0
346 344 -347 0
346 -344 347 0
-346 344 347 0
-346 -344 348 0
346 -348 0
344 -348 0
-235 -345 349 0
235 -349 0
345 -349 0
348 349 -350 0
-348 350 0
-349 350 0
-98 -275 351 0
98 -351 0
275 -351 0
-241 -351 -352 0
241 351 -352 0
241 -351 352 0
-241 351 352 0
-352 -350 -353 0
352 350 -353 0
352 -350 353 0
-352 350 353 0
-352 -350 354 0
352 -354 0
350 -354 0
-241 -351 355 0
241 -355 0
351 -355 0
354 355 -356 0
-354 356 0
-355 356 0
-106 -275 357 0
106 -357 0
275 -357 0
-247 -357 -358 0
247 357 -358 0
247 -357 358 0
-247 357 358 0
-358 -356 -359 0
358 356 -359 0
358 -356 359 0
-358 356 359 0
-358 -356 360 0
358 -360 0
356 -360 0
-247 -357 361 0
247 -361 0
357 -361 0
360 361 -362 0
-360 362 0
-361 362 0
-114 -275 363 0
114 -363 0
275 -363 0
-253 -363 -364 0
253 363 -364 0
253 -363 364 0
-253 363 364 0
-364 -362 -365 0
364 362 -365 0
364 -362 365 0
-364 362 365 0
-364 -362 366 0
364 -366 0
362 -366 0
-253 -363 367 0
253 -367 0
363 -367 0
366 367 -368 0
-366 368 0
-367 368 0
-122 -275 369 0
122 -369 0
275 -369 0
-259 -369 -370 0
259 369 -370 0
259 -369 370 0
-259 369 370 0
-370 -368 -371 0
370 368 -371 0
370 -368 371 0
-370 368 371 0
-370 -368 372 0
370 -372 0
368 -372 0
-259 -369 373 0
259 -373 0
369 -373 0
372 373 -374 0
-372 374 0
-373 374 0
-130 -275 375 0
130 -375 0
275 -375 0
-265 -375 -376 0
265 375 -376 0
265 -375 376 0
-265 375 376 0
-376 -374 -377 0
376 374 -377 0
376 -374 377 0
-376 374 377 0
-376 -374 378 0
376 -378 0
374 -378 0
-265 -375 379 0
265 -379 0
375 -379 0
378 379 -380 0
-378 380 0
-379 380 0
-138 -275 381 0
138 -381 0
275 -381 0
-271 -381 -382 0
271 381 -382 0
271 -381 382 0
-271 381 382 0
-382 -380 -383 0
382 380 -383 0
382 -380 383 0
-382 380 383 0
-382 -380 384 0
382 -384 0
380 -384 0
-271 -381 385 0
271 -385 0
381 -385 0
384 385 -386 0
-384 386 0
-385 386 0
-146 -275 387 0
146 -387 0
275 -387 0
-274 -387 -388 0
274 387 -388 0
274 -387 388 0
-274 387 388 0
-388 -386 -389 0
388 386 -389 0
388 -386 389 0
-388 386 389 0
-388 -386 390 0
388 -390 0
386 -390 0
-274 -387 391 0
274 -391 0
387 -391 0
390 391 -392 0
-390 392 0
-391 392 0
-1 -393 394 0
1 -394 0
393 -394 0
-281 -394 -395 0
281 394 -395 0
281 -394 395 0
-281 394 395 0
-281 -394 396 0
281 -396 0
394 -396 0
-4 -393 397 0
4 -397 0
393 -397 0
-287 -397 -398 0
287 397 -398 0
287 -397 398 0
-287 397 398 0
-398 -396 -399 0
398 396 -399 0
398 -396 399 0
-398 396 399 0
-398 -396 400 0
398 -400 0
396 -400 0
-287 -397 401 0
287 -401 0
397 -401 0
400 401 -402 0
-400 402 0
-401 402 0
-10 -393 403 0
10 -403 0
393 -403 0
-293 -403 -404 0
293 403 -404 0
293 -403 404 0
-293 403 404 0
-404 -402 -405 0
404 402 -405 0
404 -402 405 0
-404 402 405 0
-404 -402 406 0
404 -406 0
402 -406 0
-293 -403 407 0
293 -407 0
403 -407 0
406 407 -408 0
-406 408 0
-407 408 0
-18 -393 409 0
18 -409 0
393 -409 0
-299 -409 -410 0
299 409 -410 0
299 -409 410 0
-299 409 410 0
-410 -408 -411 0
410 408 -411 0
410 -408 411 0
-410 408 411 0
-410 -408 412 0
410 -412 0
408 -412 0
-299 -409 413 0
299 -413 0
409 -413 0
412 413 -414 0
-412 414 0
-413 414 0
-26 -393 415 0
26 -415 0
393 -415 0
-305 -415 -416 0
305 415 -416 0
305 -415 416 0
-305 415 416 0
-416 -414 -417 0
416 414 -417 0
416 -414 417 0
-416 414 417 0
-416 -414 418 0
416 -418 0
414 -418 0
-305 -415 419 0
305 -419 0
415 -419 0
418 419 -420 0
-418 420 0
-419 420 0
-34 -393 421 0
34 -421 0
393 -421 0
-311 -421 -422 0
311 421 -422 0
311 -421 422 0
-311 421 422 0
-422 -420 -423 0
422 420 -423 0
422 -420 423 0
-422 420 423 0
-422 -420 424 0
422 -424 0
420 -424 0
-311 -421 425 0
311 -425 0
421 -425 0
424 425 -426 0
-424 426 0
-425 426 0
-42 -393 427 0
42 -427 0
393 -427 0
-317 -427 -428 0
317 427 -428 0
317 -427 428 0
-317 427 428 0
-428 -426 -429 0
428 426 -429 0
428 -426 429 0
-428 426 429 0
-428 -426 430 0
428 -430 0
426 -430 0
-317 -427 431 0
317 -431 0
427 -431 0
430 431 -432 0
-430 432 0
-431 432 0
-50 -393 433 0
50 -433 0
393 -433 0
-323 -433 -434 0
323 433 -434 0
323 -433 434 0
-323 433 434 0
-434 -432 -435 0
434 432 -435 0
434 -432 435 0
-434 432 435 0
-434 -432 436 0
434 -436 0
432 -436 0
-323 -433 437 0
323 -437 0
433 -437 0
436 437 -438 0
-436 438 0
-437 438 0
-58 -393 439 0
58 -439 0
393 -439 0
-329 -439 -440 0
329 439 -440 0
329 -439 440 0
-329 439 440 0
-440 -438 -441 0
440 438 -441 0
440 -438 441 0
-440 438 441 0
-440 -438 442 0
440 -442 0
438 -442 0
-329 -439 443 0
329 -443 0
439 -443 0
442 443 -444 0
-442 444 0
-443 444 0
-66 -393 445 0
66 -445 0
393 -445 0
-335 -445 -446 0
335 445 -446 0
335 -445 446 0
-335 445 446 0
-446 -444 -447 0
446 444 -447 0
446 -444 447 0
-446 444 447 0
-446 -444 448 0
446 -448 0
444 -448 0
-335 -445 449 0
335 -449 0
445 -449 0
448 449 -450 0
-448 450 0
-449 450 0
-74 -393 451 0
74 -451 0
393 -451 0
-341 -451 -452 0
341 451 -452 0
341 -451 452 0
-341 451 452 0
-452 -450 -453 0
452 450 -453 0
452 -450 453 0
-452 450 453 0
-452 -450 454 0
452 -454 0
450 -454 0
-341 -451 455 0
341 -455 0
451 -455 0
454 455 -456 0
-454 456 0
-455 456 0
-82 -393 457 0
82 -457 0
393 -457 0
-347 -457 -458 0
347 457 -458 0
347 -457 458 0
-347 457 458 0
-458 -456 -459 0
458 456 -459 0
458 -456 459 0
-458 456 459 0
-458 -456 460 0
458 -460 0
456 -460 0
-347 -457 461 0
347 -461 0
457 -461 0
460 461 -462 0
-460 462 0
-461 462 0
-90 -393 463 0
90 -463 0
393 -463 0
-353 -463 -464 0
353 463 -464 0
353 -463 464 0
-353 463 464 0
-464 -462 -465 0
464 462 -465 0
464 -462 465 0
-464 462 465 0
-464 -462 466 0
464 -466 0
462 -466 0
-353 -463 467 0
353 -467 0
463 -467 0
466 467 -468 0
-466 468 0
-467 468 0
-98 -393 469 0
98 -469 0
393 -469 0
-359 -469 -470 0
359 469 -470 0
359 -469 470 0
-359 469 470 0
-470 -468 -471 0
470 468 -471 0
470 -468 471 0
-470 468 471 0
-470 -468 472 0
470 -472 0
468 -472 0
-359 -469 473 0
359 -473 0
469 -473 0
472 473 -474 0
-472 474 0
-473 474 0
-106 -393 475 0
106 -475 0
393 -475 0
-365 -475 -476 0
365 475 -476 0
365 -475 476 0
-365 475 476 0
-476 -474 -477 0
476 474 -477 0
476 -474 477 0
-476 474 477 0
-476 -474 478 0
476 -478 0
474 -478 0
-365 -475 479 0
365 -479 0
475 -479 0
478 479 -480 0
-478 480 0
-479 480 0
-114 -393 481 0
114 -481 0
393 -481 0
-371 -481 -482 0
371 481 -482 0
371 -481 482 0
-371 481 482 0
-482 -480 -483 0
482 480 -483 0
482 -480 483 0
-482 480 483 0
-482 -480 484 0
482 -484 0
480 -484 0
-371 -481 485 0
371 -485 0
481 -485 0
484 485 -486 0
-484 486 0
-485 486 0
-122 -393 487 0
122 -487 0
393 -487 0
-377 -487 -488 0
377 487 -488 0
377 -487 488 0
-377 487 488 0
-488 -486 -489 0
488 486 -489 0
488 -486 489 0
-488 486 489 0
-488 -486 490 0
488 -490 0
486 -490 0
-377 -487 491 0
377 -491 0
487 -491 0
490 491 -492 0
-490 492 0
-491 492 0
-130 -393 493 0
130 -493 0
393 -493 0
-383 -493 -494 0
383 493 -494 0
383 -493 494 0
-383 493 494 0
-494 -492 -495 0
494 492 -495 0
494 -492 495 0
-494 492 495 0
-494 -492 496 0
494 -496 0
492 -496 0
-383 -493 497 0
383 -497 0
493 -497 0
496 497 -498 0
-496 498 0
-497 498 0
-138 -393 499 0
138 -499 0
393 -499 0
-389 -499 -500 0
389 499 -500 0
389 -499 500 0
-389 499 500 0
-500 -498 -501 0
500 498 -501 0
500 -498 501 0
-500 498 501 0
-500 -498 502 0
500 -502 0
498 -502 0
-389 -499 503 0
389 -503 0
499 -503 0
502 503 -504 0
-502 504 0
-503 504 0
-146 -393 505 0
146 -505 0
393 -505 0
-392 -505 -506 0
392 505 -506 0
392 -505 506 0
-392 505 506 0
-506 -504 -507 0
506 504 -507 0
506 -504 507 0
-506 504 507 0
-506 -504 508 0
506 -508 0
504 -508 0
-392 -505 509 0
392 -509 0
505 -509 0
508 509 -510 0
-508 510 0
-509 510 0
-1 -511 512 0
1 -512 0
511 -512 0
-399 -512 -513 0
399 512 -513 0
399 -512 513 0
-399 512 513 0
-399 -512 514 0
399 -514 0
512 -514 0
-4 -511 515 0
4 -515 0
511 -515 0
-405 -515 -516 0
405 515 -516 0
405 -515 516 0
-405 515 516 0
-516 -514 -517 0
516 514 -517 0
516 -514 517 0
-516 514 517 0
-516 -514 518 0
516 -518 0
514 -518 0
-405 -515 519 0
405 -519 0
515 -519 0
518 519 -520 0
-518 520 0
-519 520 0
-10 -511 521 0
10 -521 0
511 -521 0
-411 -521 -522 0
411 521 -522 0
411 -521 522 0
-411 521 522 0
-522 -520 -523 0
522 520 -523 0
522 -520 523 0
-522 520 523 0
-522 -520 524 0
522 -524 0
520 -524 0
-411 -521 525 0
411 -525 0
521 -525 0
524 525 -526 0
-524 526 0
-525 526 0
-18 -511 527 0
18 -527 0
511 -527 0
-417 -527 -528 0
417 527 -528 0
417 -527 528 0
-417 527 528 0
-528 -526 -529 0
528 526 -529 0
528 -526 529 0
-528 526 529 0
-528 -526 530 0
528 -530 0
526 -530 0
-417 -527 531 0
417 -531 0
527 -531 0
530 531 -532 0
-530 532 0
-531 532 0
-26 -511 533 0
26 -533 0
511 -533 0
-423 -533 -534 0
423 533 -534 0
423 -533 534 0
-423 533 534 0
-534 -532 -535 0
534 532 -535 0
534 -532 535 0
-534 532 535 0
-534 -532 536 0
534 -536 0
532 -536 0
-423 -533 537 0
423 -537 0
533 -537 0
536 537 -538 0
-536 538 0
-537 538 0
-34 -511 539 0
34 -539 0
511 -539 0
-429 -539 -540 0
429 539 -540 0
429 -539 540 0
-429 539 540 0
-540 -538 -541 0
540 538 -541 0
540 -538 541 0
-540 538 541 0
-540 -538 542 0
540 -542 0
538 -542 0
-429 -539 543 0
429 -543 0
539 -543 0
542 543 -544 0
-542 544 0
-543 544 0
-42 -511 545 0
42 -545 0
511 -545 0
-435 -545 -546 0
435 545 -546 0
435 -545 546 0
-435 545 546 0
-546 -544 -547 0
546 544 -547 0
546 -544 547 0
-546 544 547 0
-546 -544 548 0
546 -548 0
544 -548 0
-435 -545 549 0
435 -549 0
545 -549 0
548 549 -550 0
-548 550 0
-549 550 0
-50 -511 551 0
50 -551 0
511 -551 0
-441 -551 -552 0
441 551 -552 0
441 -551 552 0
-441 551 552 0
-552 -550 -553 0
552 550 -553 0
552 -550 553 0
-552 550 553 0
-552 -550 554 0
552 -554 0
550 -554 0
-441 -551 555 0
441 -555 0
551 -555 0
554 555 -556 0
-554 556 0
-555 556 0
-58 -511 557 0
58 -557 0
511 -557 0
-447 -557 -558 0
447 557 -558 0
447 -557 558 0
-447 557 558 0
-558 -556 -559 0
558 556 -559 0
558 -556 559 0
-558 556 559 0
-558 -556 560 0
558 -560 0
556 -560 0
-447 -557 561 0
447 -561 0
557 -561 0
560 561 -562 0
-560 562 0
-561 562 0
-66 -511 563 0
66 -563 0
511 -563 0
-453 -563 -564 0
453 563 -564 0
453 -563 564 0
-453 563 564 0
-564 -562 -565 0
564 562 -565 0
564 -562 565 0
-564 562 565 0
-564 -562 566 0
564 -566 0
562 -566 0
-453 -563 567 0
453 -567 0
563 -567 0
566 567 -568 0
-566 568 0
-567 568 0
-74 -511 569 0
74 -569 0
511 -569 0
-459 -569 -570 0
459 569 -570 0
459 -569 570 0
-459 569 570 0
-570 -568 -571 0
570 568 -571 0
570 -568 571 0
-570 568 571 0
-570 -568 572 0
570 -572 0
568 -572 0
-459 -569 573 0
459 -573 0
569 -573 0
572 573 -574 0
-572 574 0
-573 574 0
-82 -511 575 0
82 -575 0
511 -575 0
-465 -575 -576 0
465 575 -576 0
465 -575 576 0
-465 575 576 0
-576 -574 -577 0
576 574 -577 0
576 -574 577 0
-576 574 577 0
-576 -574 578 0
576 -578 0
574 -578 0
-465 -575 579 0
465 -579 0
575 -579 0
578 579 -580 0
-578 580 0
-579 580 0
-90 -511 581 0
90 -581 0
511 -581 0
-471 -581 -582 0
471 581 -582 0
471 -581 582 0
-471 581 582 0
-582 -580 -583 0
582 580 -583 0
582 -580 583 0
-582 580 583 0
-582 -580 584 0
582 -584 0
580 -584 0
-471 -581 585 0
471 -585 0
581 -585 0
584 585 -586 0
-584 586 0
-585 586 0
-98 -511 587 0
98 -587 0
511 -587 0
-477 -587 -588 0
477 587 -588 0
477 -587 588 0
-477 587 588 0
-588 -586 -589 0
588 586 -589 0
588 -586 589 0
-588 586 589 0
-588 -586 590 0
588 -590 0
586 -590 0
-477 -587 591 0
477 -591 0
587 -591 0
590 591 -592 0
-590 592 0
-591 592 0
-106 -511 593 0
106 -593 0
511 -593 0
-483 -593 -594 0
483 593 -594 0
483 -593 594 0
-483 593 594 0
-594 -592 -595 0
594 592 -595 0
594 -592 595 0
-594 592 595 0
-594 -592 596 0
594 -596 0
592 -596 0
-483 -593 597 0
483 -597 0
593 -597 0
596 597 -598 0
-596 598 0
-597 598 0
-114 -511 599 0
114 -599 0
511 -599 0
-489 -599 -600 0
489 599 -600 0
489 -599 600 0
-489 599 600 0
-600 -598 -601 0
600 598 -601 0
600 -598 601 0
-600 598 601 0
-600 -598 602 0
600 -602 0
598 -602 0
-489 -599 603 0
489 -603 0
599 -603 0
602 603 -604 0
-602 604 0
-603 604 0
-122 -511 605 0
122 -605 0
511 -605 0
-495 -605 -606 0
495 605 -606 0
495 -605 606 0
-495 605 606 0
-606 -604 -607 0
606 604 -607 0
606 -604 607 0
-606 604 607 0
-606 -604 608 0
606 -608 0
604 -608 0
-495 -605 609 0
495 -609 0
605 -609 0
608 609 -610 0
-608 610 0
-609 610 0
-130 -511 611 0
130 -611 0
511 -611 0
-501 -611 -612 0
501 611 -612 0
501 -611 612 0
-501 611 612 0
-612 -610 -613 0
612 610 -613 0
612 -610 613 0
-612 610 613 0
-612 -610 614 0
612 -614 0
610 -614 0
-501 -611 615 0
501 -615 0
611 -615 0
614 615 -616 0
-614 616 0
-615 616 0
-138 -511 617 0
138 -617 0
511 -617 0
-507 -617 -618 0
507 617 -618 0
507 -617 618 0
-507 617 618 0
-618 -616 -619 0
618 616 -619 0
618 -616 619 0
-618 616 619 0
-618 -616 620 0
618 -620 0
616 -620 0
-507 -617 621 0
507 -621 0
617 -621 0
620 621 -622 0
-620 622 0
-621 622 0
-146 -511 623 0
146 -623 0
511 -623 0
-510 -623 -624 0
510 623 -624 0
510 -623 624 0
-510 623 624 0
-624 -622 -625 0
624 622 -625 0
624 -622 625 0
-624 622 625 0
-624 -622 626 0
624 -626 0
622 -626 0
-510 -623 627 0
510 -627 0
623 -627 0
626 627 -628 0
-626 628 0
-627 628 0
-1 -629 630 0
1 -630 0
629 -630 0
-517 -630 -631 0
517 630 -631 0
517 -630 631 0
-517 630 631 0
-517 -630 632 0
517 -632 0
630 -632 0
-4 -629 633 0
4 -633 0
629 -633 0
-523 -633 -634 0
523 633 -634 0
523 -633 634 0
-523 633 634 0
-634 -632 -635 0
634 632 -635 0
634 -632 635 0
-634 632 635 0
-634 -632 636 0
634 -636 0
632 -636 0
-523 -633 637 0
523 -637 0
633 -637 0
636 637 -638 0
-636 638 0
-637 638 0
-10 -629 639 0
10 -639 0
629 -639 0
-529 -639 -640 0
529 639 -640 0
529 -639 640 0
-529 639 640 0
-640 -638 -641 0
640 638 -641 0
640 -638 641 0
-640 638 641 0
-640 -638 642 0
640 -642 0
638 -642 0
-529 -639 643 0
529 -643 0
639 -643 0
642 643 -644 0
-642 644 0
-643 644 0
-18 -629 645 0
18 -645 0
629 -645 0
-535 -645 -646 0
535 645 -646 0
535 -645 646 0
-535 645 646 0
-646 -644 -647 0
646 644 -647 0
646 -644 647 0
-646 644 647 0
-646 -644 648 0
646 -648 0
644 -648 0
-535 -645 649 0
535 -649 0
645 -649 0
648 649 -650 0
-648 650 0
-649 650 0
-26 -629 651 0
26 -651 0
629 -651 0
-541 -651 -652 0
541 651 -652 0
541 -651 652 0
-541 651 652 0
-652 -650 -653 0
652 650 -653 0
652 -650 653 0
-652 650 653 0
-652 -650 654 0
652 -654 0
650 -654 0
-541 -651 655 0
541 -655 0
651 -655 0
654 655 -656 0
-654 656 0
-655 656 0
-34 -629 657 0
34 -657 0
629 -657 0
-547 -657 -658 0
547 657 -658 0
547 -657 658 0
-547 657 658 0
-658 -656 -659 0
658 656 -659 0
658 -656 659 0
-658 656 659 0
-658 -656 660 0
658 -660 0
656 -660 0
-547 -657 661 0
547 -661 0
657 -661 0
660 661 -662 0
-660 662 0
-661 662 0
-42 -629 663 0
42 -663 0
629 -663 0
-553 -663 -664 0
553 663 -664 0
553 -663 664 0
-553 663 664 0
-664 -662 -665 0
664 662 -665 0
664 -662 665 0
-664 662 665 0
-664 -662 666 0
664 -666 0
662 -666 0
-553 -663 667 0
553 -667 0
663 -667 0
666 667 -668 0
-666 668 0
-667 668 0
-50 -629 669 0
50 -669 0
629 -669 0
-559 -669 -670 0
559 669 -670 0
559 -669 670 0
-559 669 670 0
-670 -668 -671 0
670 668 -671 0
670 -668 671 0
-670 668 671 0
-670 -668 672 0
670 -672 0
668 -672 0
-559 -669 673 0
559 -673 0
669 -673 0
672 673 -674 0
-672 674 0
-673 674 0
-58 -629 675 0
58 -675 0
629 -675 0
-565 -675 -676 0
565 675 -676 0
565 -675 676 0
-565 675 676 0
-676 -674 -677 0
676 674 -677 0
676 -674 677 0
-676 674 677 0
-676 -674 678 0
676 -678 0
674 -678 0
-565 -675 679 0
565 -679 0
675 -679 0
678 679 -680 0
-678 680 0
-679 680 0
-66 -629 681 0
66 -681 0
629 -681 0
-571 -681 -682 0
571 681 -682 0
571 -681 682 0
-571 681 682 0
-682 -680 -683 0
682 680 -683 0
682 -680 683 0
-682 680 683 0
-682 -680 684 0
682 -684 0
680 -684 0
-571 -681 685 0
571 -685 0
681 -685 0
684 685 -686 0
-684 686 0
-685 686 0
-74 -629 687 0
74 -687 0
629 -687 0
-577 -687 -688 0
577 687 -688 0
577 -687 688 0
-577 687 688 0
-688 -686 -689 0
688 686 -689 0
688 -686 689 0
-688 686 689 0
-688 -686 690 0
688 -690 0
686 -690 0
-577 -687 691 0
577 -691 0
687 -691 0
690 691 -692 0
-690 692 0
-691 692 0
-82 -629 693 0
82 -693 0
629 -693 0
-583 -693 -694 0
583 693 -694 0
583 -693 694 0
-583 693 694 0
-694 -692 -695 0
694 692 -695 0
694 -692 695 0
-694 692 695 0
-694 -692 696 0
694 -696 0
692 -696 0
-583 -693 697 0
583 -697 0
693 -697 0
696 697 -698 0
-696 698 0
-697 698 0
-90 -629 699 0
90 -699 0
629 -699 0
-589 -699 -700 0
589 699 -700 0
589 -699 700 0
-589 699 700 0
-700 -698 -701 0
700 698 -701 0
700 -698 701 0
-700 698 701 0
-700 -698 702 0
700 -702 0
698 -702 0
-589 -699 703 0
589 -703 0
699 -703 0
702 703 -704 0
-702 704 0
-703 704 0
-98 -629 705 0
98 -705 0
629 -705 0
-595 -705 -706 0
595 705 -706 0
595 -705 706 0
-595 705 706 0
-706 -704 -707 0
706 704 -707 0
706 -704 707 0
-706 704 707 0
-706 -704 708 0
706 -708 0
704 -708 0
-595 -705 709 0
595 -709 0
705 -709 0
708 709 -710 0
-708 710 0
-709 710 0
-106 -629 711 0
106 -711 0
629 -711 0
-601 -711 -712 0
601 711 -712 0
601 -711 712 0
-601 711 712 0
-712 -710 -713 0
712 710 -713 0
712 -710 713 0
-712 710 713 0
-712 -710 714 0
712 -714 0
710 -714 0
-601 -711 715 0
601 -715 0
711 -715 0
714 715 -716 0
-714 716 0
-715 716 0
-114 -629 717 0
114 -717 0
629 -717 0
-607 -717 -718 0
607 717 -718 0
607 -717 718 0
-607 717 718 0
-718 -716 -719 0
718 716 -719 0
718 -716 719 0
-718 716 719 0
-718 -716 720 0
718 -720 0
716 -720 0
-607 -717 721 0
607 -721 0
717 -721 0
720 721 -722 0
-720 722 0
-721 722 0
-122 -629 723 0
122 -723 0
629 -723 0
-613 -723 -724 0
613 723 -724 0
613 -723 724 0
-613 723 724 0
-724 -722 -725 0
724 722 -725 0
724 -722 725 0
-724 722 725 0
-724 -722 726 0
724 -726 0
722 -726 0
-613 -723 727 0
613 -727 0
723 -727 0
726 727 -728 0
-726 728 0
-727 728 0
-130 -629 729 0
130 -729 0
629 -729 0
-619 -729 -730 0
619 729 -730 0
619 -729 730 0
-619 729 730 0
-730 -728 -731 0
730 728 -731 0
730 -728 731 0
-730 728 731 0
-730 -728 732 0
730 -732 0
728 -732 0
-619 -729 733 0
619 -733 0
729 -733 0
732 733 -734 0
-732 734 0
-733 734 0
-138 -629 735 0
138 -735 0
629 -735 0
-625 -735 -736 0
625 735 -736 0
625 -735 736 0
-625 735 736 0
-736 -734 -737 0
736 734 -737 0
736 -734 737 0
-736 734 737 0
-736 -734 738 0
736 -738 0
734 -738 0
-625 -735 739 0
625 -739 0
735 -739 0
738 739 -740 0
-738 740 0
-739 740 0
-146 -629 741 0
146 -741 0
629 -741 0
-628 -741 -742 0
628 741 -742 0
628 -741 742 0
-628 741 742 0
-742 -740 -743 0
742 740 -743 0
742 -740 743 0
-742 740 743 0
-742 -740 744 0
742 -744 0
740 -744 0
-628 -741 745 0
628 -745 0
741 -745 0
744 745 -746 0
-744 746 0
-745 746 0
-1 -747 748 0
1 -748 0
747 -748 0
-635 -748 -749 0
635 748 -749 0
635 -748 749 0
-635 748 749 0
-635 -748 750 0
635 -750 0
748 -750 0
-4 -747 751 0
4 -751 0
747 -751 0
-641 -751 -752 0
641 751 -752 0
641 -751 752 0
-641 751 752 0
-752 -750 -753 0
752 750 -753 0
752 -750 753 0
-752 750 753 0
-752 -750 754 0
752 -754 0
750 -754 0
-641 -751 755 0
641 -755 0
751 -755 0
754 755 -756 0
-754 756 0
-755 756 0
-10 -747 757 0
10 -757 0
747 -757 0
-647 -757 -758 0
647 757 -758 0
647 -757 758 0
-647 757 758 0
-758 -756 -759 0
758 756 -759 0
758 -756 759 0
-758 756 759 0
-758 -756 760 0
758 -760 0
756 -760 0
-647 -757 761 0
647 -761 0
757 -761 0
760 761 -762 0
-760 762 0
-761 762 0
-18 -747 763 0
18 -763 0
747 -763 0
-653 -763 -764 0
653 763 -764 0
653 -763 764 0
-653 763 764 0
-764 -762 -765 0
764 762 -765 0
764 -762 765 0
-764 762 765 0
-764 -762 766 0
764 -766 0
762 -766 0
-653 -763 767 0
653 -767 0
763 -767 0
766 767 -768 0
-766 768 0
-767 768 0
-26 -747 769 0
26 -769 0
747 -769 0
-659 -769 -770 0
659 769 -770 0
659 -769 770 0
-659 769 770 0
-770 -768 -771 0
770 768 -771 0
770 -768 771 0
-770 768 771 0
-770 -768 772 0
770 -772 0
768 -772 0
-659 -769 773 0
659 -773 0
769 -773 0
772 773 -774 0
-772 774 0
-773 774 0
-34 -747 775 0
34 -775 0
747 -775 0
-665 -775 -776 0
665 775 -776 0
665 -775 776 0
-665 775 776 0
-776 -774 -777 0
776 774 -777 0
776 -774 777 0
-776 774 777 0
-776 -774 778 0
776 -778 0
774 -778 0
-665 -775 779 0
665 -779 0
775 -779 0
778 779 -780 0
-778 780 0
-779 780 0
-42 -747 781 0
42 -781 0
747 -781 0
-671 -781 -782 0
671 781 -782 0
671 -781 782 0
-671 781 782 0
-782 -780 -783 0
782 780 -783 0
782 -780 783 0
-782 780 783 0
-782 -780 784 0
782 -784 0
780 -784 0
-671 -781 785 0
671 -785 0
781 -785 0
784 785 -786 0
-784 786 0
-785 786 0
-50 -747 787 0
50 -787 0
747 -787 0
-677 -787 -788 0
677 787 -788 0
677 -787 788 0
-677 787 788 0
-788 -786 -789 0
788 786 -789 0
788 -786 789 0
-788 786 789 0
-788 -786 790 0
788 -790 0
786 -790 0
-677 -787 791 0
677 -791 0
787 -791 0
790 791 -792 0
-790 792 0
-791 792 0
-58 -747 793 0
58 -793 0
747 -793 0
-683 -793 -794 0
683 793 -794 0
683 -793 794 0
-683 793 794 0
-794 -792 -795 0
794 792 -795 0
794 -792 795 0
-794 792 795 0
-794 -792 796 0
794 -796 0
792 -796 0
-683 -793 797 0
683 -797 0
793 -797 0
796 797 -798 0
-796 798 0
-797 798 0
-66 -747 799 0
66 -799 0
747 -799 0
-689 -799 -800 0
689 799 -800 0
689 -799 800 0
-689 799 800 0
-800 -798 -801 0
800 798 -801 0
800 -798 801 0
-800 798 801 0
-800 -798 802 0
800 -802 0
798 -802 0
-689 -799 803 0
689 -803 0
799 -803 0
802 803 -804 0
-802 804 0
-803 804 0
-74 -747 805 0
74 -805 0
747 -805 0
-695 -805 -806 0
695 805 -806 0
695 -805 806 0
-695 805 806 0
-806 -804 -807 0
806 804 -807 0
806 -804 807 0
-806 804 807 0
-806 -804 808 0
806 -808 0
804 -808 0
-695 -805 809 0
695 -809 0
805 -809 0
808 809 -810 0
-808 810 0
-809 810 0
-82 -747 811 0
82 -811 0
747 -811 0
-701 -811 -812 0
701 811 -812 0
701 -811 812 0
-701 811 812 0
-812 -810 -813 0
812 810 -813 0
812 -810 813 0
-812 810 813 0
-812 -810 814 0
812 -814 0
810 -814 0
-701 -811 815 0
701 -815 0
811 -815 0
814 815 -816 0
-814 816 0
-815 816 0
-90 -747 817 0
90 -817 0
747 -817 0
-707 -817 -818 0
707 817 -818 0
707 -817 818 0
-707 817 818 0
-818 -816 -819 0
818 816 -819 0
818 -816 819 0
-818 816 819 0
-818 -816 820 0
818 -820 0
816 -820 0
-707 -817 821 0
707 -821 0
817 -821 0
820 821 -822 0
-820 822 0
-821 822 0
-98 -747 823 0
98 -823 0
747 -823 0
-713 -823 -824 0
713 823 -824 0
713 -823 824 0
-713 823 824 0
-824 -822 -825 0
824 822 -825 0
824 -822 825 0
-824 822 825 0
-824 -822 826 0
824 -826 0
822 -826 0
-713 -823 827 0
713 -827 0
823 -827 0
826 827 -828 0
-826 828 0
-827 828 0
-106 -747 829 0
106 -829 0
747 -829 0
-719 -829 -830 0
719 829 -830 0
719 -829 830 0
-719 829 830 0
-830 -828 -831 0
830 828 -831 0
830 -828 831 0
-830 828 831 0
-830 -828 832 0
830 -832 0
828 -832 0
-719 -829 833 0
719 -833 0
829 -833 0
832 833 -834 0
-832 834 0
-833 834 0
-114 -747 835 0
114 -835 0
747 -835 0
-725 -835 -836 0
725 835 -836 0
725 -835 836 0
-725 835 836 0
-836 -834 -837 0
836 834 -837 0
836 -834 837 0
-836 834 837 0
-836 -834 838 0
836 -838 0
834 -838 0
-725 -835 839 0
725 -839 0
835 -839 0
838 839 -840 0
-838 840 0
-839 840 0
-122 -747 841 0
122 -841 0
747 -841 0
-731 -841 -842 0
731 841 -842 0
731 -841 842 0
-731 841 842 0
-842 -840 -843 0
842 840 -843 0
842 -840 843 0
-842 840 843 0
-842 -840 844 0
842 -844 0
840 -844 0
-731 -841 845 0
731 -845 0
841 -845 0
844 845 -846 0
-844 846 0
-845 846 0
-130 -747 847 0
130 -847 0
747 -847 0
-737 -847 -848 0
737 847 -848 0
737 -847 848 0
-737 847 848 0
-848 -846 -849 0
848 846 -849 0
848 -846 849 0
-848 846 849 0
-848 -846 850 0
848 -850 0
846 -850 0
-737 -847 851 0
737 -851 0
847 -851 0
850 851 -852 0
-850 852 0
-851 852 0
-138 -747 853 0
138 -853 0
747 -853 0
-743 -853 -854 0
743 853 -854 0
743 -853 854 0
-743 853 854 0
-854 -852 -855 0
854 852 -855 0
854 -852 855 0
-854 852 855 0
-854 -852 856 0
854 -856 0
852 -856 0
-743 -853 857 0
743 -857 0
853 -857 0
856 857 -858 0
-856 858 0
-857 858 0
-146 -747 859 0
146 -859 0
747 -859 0
-746 -859 -860 0
746 859 -860 0
746 -859 860 0
-746 859 860 0
-860 -858 -861 0
860 858 -861 0
860 -858 861 0
-860 858 861 0
-860 -858 862 0
860 -862 0
858 -862 0
-746 -859 863 0
746 -863 0
859 -863 0
862 863 -864 0
-862 864 0
-863 864 0
-1 -865 866 0
1 -866 0
865 -866 0
-753 -866 -867 0
753 866 -867 0
753 -866 867 0
-753 866 867 0
-753 -866 868 0
753 -868 0
866 -868 0
-4 -865 869 0
4 -869 0
865 -869 0
-759 -869 -870 0
759 869 -870 0
759 -869 870 0
-759 869 870 0
-870 -868 -871 0
870 868 -871 0
870 -868 871 0
-870 868 871 0
-870 -868 872 0
870 -872 0
868 -872 0
-759 -869 873 0
759 -873 0
869 -873 0
872 873 -874 0
-872 874 0
-873 874 0
-10 -865 875 0
10 -875 0
865 -875 0
-765 -875 -876 0
765 875 -876 0
765 -875 876 0
-765 875 876 0
-876 -874 -877 0
876 874 -877 0
876 -874 877 0
-876 874 877 0
-876 -874 878 0
876 -878 0
874 -878 0
-765 -875 879 0
765 -879 0
875 -879 0
878 879 -880 0
-878 880 0
-879 880 0
-18 -865 881 0
18 -881 0
865 -881 0
-771 -881 -882 0
771 881 -882 0
771 -881 882 0
-771 881 882 0
-882 -880 -883 0
882 880 -883 0
882 -880 883 0
-882 880 883 0
-882 -880 884 0
882 -884 0
880 -884 0
-771 -881 885 0
771 -885 0
881 -885 0
884 885 -886 0
-884 886 0
-885 886 0
-26 -865 887 0
26 -887 0
865 -887 0
-777 -887 -888 0
777 887 -888 0
777 -887 888 0
-777 887 888 0
-888 -886 -889 0
888 886 -889 0
888 -886 889 0
-888 886 889 0
-888 -886 890 0
888 -890 0
886 -890 0
-777 -887 891 0
777 -891 0
887 -891 0
890 891 -892 0
-890 892 0
-891 892 0
-34 -865 893 0
34 -893 0
865 -893 0
-783 -893 -894 0
783 893 -894 0
783 -893 894 0
-783 893 894 0
-894 -892 -895 0
894 892 -895 0
894 -892 895 0
-894 892 895 0
-894 -892 896 0
894 -896 0
892 -896 0
-783 -893 897 0
783 -897 0
893 -897 0
896 897 -898 0
-896 898 0
-897 898 0
-42 -865 899 0
42 -899 0
865 -899 0
-789 -899 -900 0
789 899 -900 0
789 -899 900 0
-789 899 900 0
-900 -898 -901 0
900 898 -901 0
900 -898 901 0
-900 898 901 0
-900 -898 902 0
900 -902 0
898 -902 0
-789 -899 903 0
789 -903 0
899 -903 0
902 903 -904 0
-902 904 0
-903 904 0
-50 -865 905 0
50 -905 0
865 -905 0
-795 -905 -906 0
795 905 -906 0
795 -905 906 0
-795 905 906 0
-906 -904 -907 0
906 904 -907 0
906 -904 907 0
-906 904 907 0
-906 -904 908 0
906 -908 0
904 -908 0
-795 -905 909 0
795 -909 0
905 -909 0
908 909 -910 0
-908 910 0
-909 910 0
-58 -865 911 0
58 -911 0
865 -911 0
-801 -911 -912 0
801 911 -912 0
801 -911 912 0
-801 911 912 0
-912 -910 -913 0
912 910 -913 0
912 -910 913 0
-912 910 913 0
-912 -910 914 0
912 -914 0
910 -914 0
-801 -911 915 0
801 -915 0
911 -915 0
914 915 -916 0
-914 916 0
-915 916 0
-66 -865 917 0
66 -917 0
865 -917 0
-807 -917 -918 0
807 917 -918 0
807 -917 918 0
-807 917 918 0
-918 -916 -919 0
918 916 -919 0
918 -916 919 0
-918 916 919 0
-918 -916 920 0
918 -920 0
916 -920 0
-807 -917 921 0
807 -921 0
917 -921 0
920 921 -922 0
-920 922 0
-921 922 0
-74 -865 923 0
74 -923 0
865 -923 0
-813 -923 -924 0
813 923 -924 0
813 -923 924 0
-813 923 924 0
-924 -922 -925 0
924 922 -925 0
924 -922 925 0
-924 922 925 0
-924 -922 926 0
924 -926 0
922 -926 0
-813 -923 927 0
813 -927 0
923 -927 0
926 927 -928 0
-926 928 0
-927 928 0
-82 -865 929 0
82 -929 0
865 -929 0
-819 -929 -930 0
819 929 -930 0
819 -929 930 0
-819 929 930 0
-930 -928 -931 0
930 928 -931 0
930 -928 931 0
-930 928 931 0
-930 -928 932 0
930 -932 0
928 -932 0
-819 -929 933 0
819 -933 0
929 -933 0
932 933 -934 0
-932 934 0
-933 934 0
-90 -865 935 0
90 -935 0
865 -935 0
-825 -935 -936 0
825 935 -936 0
825 -935 936 0
-825 935 936 0
-936 -934 -937 0
936 934 -937 0
936 -934 937 0
-936 934 937 0
-936 -934 938 0
936 -938 0
934 -938 0
-825 -935 939 0
825 -939 0
935 -939 0
938 939 -940 0
-938 940 0
-939 940 0
-98 -865 941 0
98 -941 0
865 -941 0
-831 -941 -942 0
831 941 -942 0
831 -941 942 0
-831 941 942 0
-942 -940 -943 0
942 940 -943 0
942 -940 943 0
-942 940 943 0
-942 -940 944 0
942 -944 0
940 -944 0
-831 -941 945 0
831 -945 0
941 -945 0
944 945 -946 0
-944 946 0
-945 946 0
-106 -865 947 0
106 -947 0
865 -947 0
-837 -947 -948 0
837 947 -948 0
837 -947 948 0
-837 947 948 0
-948 -946 -949 0
948 946 -949 0
948 -946 949 0
-948 946 949 0
-948 -946 950 0
948 -950 0
946 -950 0
-837 -947 951 0
837 -951 0
947 -951 0
950 951 -952 0
-950 952 0
-951 952 0
-114 -865 953 0
114 -953 0
865 -953 0
-843 -953 -954 0
843 953 -954 0
843 -953 954 0
-843 953 954 0
-954 -952 -955 0
954 952 -955 0
954 -952 955 0
-954 952 955 0
-954 -952 956 0
954 -956 0
952 -956 0
-843 -953 957 0
843 -957 0
953 -957 0
956 957 -958 0
-956 958 0
-957 958 0
-122 -865 959 0
122 -959 0
865 -959 0
-849 -959 -960 0
849 959 -960 0
849 -959 960 0
-849 959 960 0
-960 -958 -961 0
960 958 -961 0
960 -958 961 0
-960 958 961 0
-960 -958 962 0
960 -962 0
958 -962 0
-849 -959 963 0
849 -963 0
959 -963 0
962 963 -964 0
-962 964 0
-963 964 0
-130 -865 965 0
130 -965 0
865 -965 0
-855 -965 -966 0
855 965 -966 0
855 -965 966 0
-855 965 966 0
-966 -964 -967 0
966 964 -967 0
966 -964 967 0
-966 964 967 0
-966 -964 968 0
966 -968 0
964 -968 0
-855 -965 969 0
855 -969 0
965 -969 0
968 969 -970 0
-968 970 0
-969 970 0
-138 -865 971 0
138 -971 0
865 -971 0
-861 -971 -972 0
861 971 -972 0
861 -971 972 0
-861 971 972 0
-972 -970 -973 0
972 970 -973 0
972 -970 973 0
-972 970 973 0
-972 -970 974 0
972 -974 0
970 -974 0
-861 -971 975 0
861 -975 0
971 -975 0
974 975 -976 0
-974 976 0
-975 976 0
-146 -865 977 0
146 -977 0
865 -977 0
-864 -977 -978 0
864 977 -978 0
864 -977 978 0
-864 977 978 0
-978 -976 -979 0
978 976 -979 0
978 -976 979 0
-978 976 979 0
-978 -976 980 0
978 -980 0
976 -980 0
-864 -977 981 0
864 -981 0
977 -981 0
980 981 -982 0
-980 982 0
-981 982 0
-1 -983 984 0
1 -984 0
983 -984 0
-871 -984 -985 0
871 984 -985 0
871 -984 985 0
-871 984 985 0
-871 -984 986 0
871 -986 0
984 -986 0
-4 -983 987 0
4 -987 0
983 -987 0
-877 -987 -988 0
877 987 -988 0
877 -987 988 0
-877 987 988 0
-988 -986 -989 0
988 986 -989 0
988 -986 989 0
-988 986 989 0
-988 -986 990 0
988 -990 0
986 -990 0
-877 -987 991 0
877 -991 0
987 -991 0
990 991 -992 0
-990 992 0
-991 992 0
-10 -983 993 0
10 -993 0
983 -993 0
-883 -993 -994 0
883 993 -994 0
883 -993 994 0
-883 993 994 0
-994 -992 -995 0
994 992 -995 0
994 -992 995 0
-994 992 995 0
-994 -992 996 0
994 -996 0
992 -996 0
-883 -993 997 0
883 -997 0
993 -997 0
996 997 -998 0
-996 998 0
-997 998 0
-18 -983 999 0
18 -999 0
983 -999 0
-889 -999 -1000 0
889 999 -1000 0
889 -999 1000 0
-889 999 1000 0
-1000 -998 -1001 0
1000 998 -1001 0
1000 -998 1001 0
-1000 998 1001 0
-1000 -998 1002 0
1000 -1002 0
998 -1002 0
-889 -999 1003 0
889 -1003 0
999 -1003 0
1002 1003 -1004 0
-1002 1004 0
-1003 1004 0
-26 -983 1005 0
26 -1005 0
983 -1005 0
-895 -1005 -1006 0
895 1005 -1006 0
895 -1005 1006 0
-895 1005 1006 0
-1006 -1004 -1007 0
1006 1004 -1007 0
1006 -1004 1007 0
-1006 1004 1007 0
-1006 -1004 1008 0
1006 -1008 0
1004 -1008 0
-895 -1005 1009 0
895 -1009 0
1005 -1009 0
1008 1009 -1010 0
-1008 1010 0
-1009 1010 0
-34 -983 1011 0
34 -1011 0
983 -1011 0
-901 -1011 -1012 0
901 1011 -1012 0
901 -1011 1012 0
-901 1011 1012 0
-1012 -1010 -1013 0
1012 1010 -1013 0
1012 -1010 1013 0
-1012 1010 1013 0
-1012 -1010 1014 0
1012 -1014 0
1010 -1014 0
-901 -1011 1015 0
901 -1015 0
1011 -1015 0
1014 1015 -1016 0
-1014 1016 0
-1015 1016 0
-42 -983 1017 0
42 -1017 0
983 -1017 0
-907 -1017 -1018 0
907 1017 -1018 0
907 -1017 1018 0
-907 1017 1018 0
-1018 -1016 -1019 0
1018 1016 -1019 0
1018 -1016 1019 0
-1018 1016 1019 0
-1018 -1016 1020 0
1018 -1020 0
1016 -1020 0
-907 -1017 1021 0
907 -1021 0
1017 -1021 0
1020 1021 -1022 0
-1020 1022 0
-1021 1022 0
-50 -983 1023 0
50 -1023 0
983 -1023 0
-913 -1023 -1024 0
913 1023 -1024 0
913 -1023 1024 0
-913 1023 1024 0
-1024 -1022 -1025 0
1024 1022 -1025 0
1024 -1022 1025 0
-1024 1022 1025 0
-1024 -1022 1026 0
1024 -1026 0
1022 -1026 0
-913 -1023 1027 0
913 -1027 0
1023 -1027 0
1026 1027 -1028 0
-1026 1028 0
-1027 1028 0
-58 -983 1029 0
58 -1029 0
983 -1029 0
-919 -1029 -1030 0
919 1029 -1030 0
919 -1029 1030 0
-919 1029 1030 0
-1030 -1028 -1031 0
1030 1028 -1031 0
1030 -1028 1031 0
-1030 1028 1031 0
-1030 -1028 1032 0
1030 -1032 0
1028 -1032 0
-919 -1029 1033 0
919 -1033 0
1029 -1033 0
1032 1033 -1034 0
-1032 1034 0
-1033 1034 0
-66 -983 1035 0
66 -1035 0
983 -1035 0
-925 -1035 -1036 0
925 1035 -1036 0
925 -1035 1036 0
-925 1035 1036 0
-1036 -1034 -1037 0
1036 1034 -1037 0
1036 -1034 1037 0
-1036 1034 1037 0
-1036 -1034 1038 0
1036 -1038 0
1034 -1038 0
-925 -1035 1039 0
925 -1039 0
1035 -1039 0
1038 1039 -1040 0
-1038 1040 0
-1039 1040 0
-74 -983 1041 0
74 -1041 0
983 -1041 0
-931 -1041 -1042 0
931 1041 -1042 0
931 -1041 1042 0
-931 1041 1042 0
-1042 -1040 -1043 0
1042 1040 -1043 0
1042 -1040 1043 0
-1042 1040 1043 0
-1042 -1040 1044 0
1042 -1044 0
1040 -1044 0
-931 -1041 1045 0
931 -1045 0
1041 -1045 0
1044 1045 -1046 0
-1044 1046 0
-1045 1046 0
-82 -983 1047 0
82 -1047 0
983 -1047 0
-937 -1047 -1048 0
937 1047 -1048 0
937 -1047 1048 0
-937 1047 1048 0
-1048 -1046 -1049 0
1048 1046 -1049 0
1048 -1046 1049 0
-1048 1046 1049 0
-1048 -1046 1050 0
1048 -1050 0
1046 -1050 0
-937 -1047 1051 0
937 -1051 0
1047 -1051 0
1050 1051 -1052 0
-1050 1052 0
-1051 1052 0
-90 -983 1053 0
90 -1053 0
983 -1053 0
-943 -1053 -1054 0
943 1053 -1054 0
943 -1053 1054 0
-943 1053 1054 0
-1054 -1052 -1055 0
1054 1052 -1055 0
1054 -1052 1055 0
-1054 1052 1055 0
-1054 -1052 1056 0
1054 -1056 0
1052 -1056 0
-943 -1053 1057 0
943 -1057 0
1053 -1057 0
1056 1057 -1058 0
-1056 1058 0
-1057 1058 0
-98 -983 1059 0
98 -1059 0
983 -1059 0
-949 -1059 -1060 0
949 1059 -1060 0
949 -1059 1060 0
-949 1059 1060 0
-1060 -1058 -1061 0
1060 1058 -1061 0
1060 -1058 1061 0
-1060 1058 1061 0
-1060 -1058 1062 0
1060 -1062 0
1058 -1062 0
-949 -1059 1063 0
949 -1063 0
1059 -1063 0
1062 1063 -1064 0
-1062 1064 0
-1063 1064 0
-106 -983 1065 0
106 -1065 0
983 -1065 0
-955 -1065 -1066 0
955 1065 -1066 0
955 -1065 1066 0
-955 1065 1066 0
-1066 -1064 -1067 0
1066 1064 -1067 0
1066 -1064 1067 0
-1066 1064 1067 0
-1066 -1064 1068 0
1066 -1068 0
1064 -1068 0
-955 -1065 1069 0
955 -1069 0
1065 -1069 0
1068 1069 -1070 0
-1068 1070 0
-1069 1070 0
-114 -983 1071 0
114 -1071 0
983 -1071 0
-961 -1071 -1072 0
961 1071 -1072 0
961 -1071 1072 0
-961 1071 1072 0
-1072 -1070 -1073 0
1072 1070 -1073 0
1072 -1070 1073 0
-1072 1070 1073 0
-1072 -1070 1074 0
1072 -1074 0
1070 -1074 0
-961 -1071 1075 0
961 -1075 0
1071 -1075 0
1074 1075 -1076 0
-1074 1076 0
-1075 1076 0
-122 -983 1077 0
122 -1077 0
983 -1077 0
-967 -1077 -1078 0
967 1077 -1078 0
967 -1077 1078 0
-967 1077 1078 0
-1078 -1076 -1079 0
1078 1076 -1079 0
1078 -1076 1079 0
-1078 1076 1079 0
-1078 -1076 1080 0
1078 -1080 0
1076 -1080 0
-967 -1077 1081 0
967 -1081 0
1077 -1081 0
1080 1081 -1082 0
-1080 1082 0
-1081 1082 0
-130 -983 1083 0
130 -1083 0
983 -1083 0
-973 -1083 -1084 0
973 1083 -1084 0
973 -1083 1084 0
-973 1083 1084 0
-1084 -1082 -1085 0
1084 1082 -1085 0
1084 -1082 1085 0
-1084 1082 1085 0
-1084 -1082 1086 0
1084 -1086 0
1082 -1086 0
-973 -1083 1087 0
973 -1087 0
1083 -1087 0
1086 1087 -1088 0
-1086 1088 0
-1087 1088 0
-138 -983 1089 0
138 -1089 0
983 -1089 0
-979 -1089 -1090 0
979 1089 -1090 0
979 -1089 1090 0
-979 1089 1090 0
-1090 -1088 -1091 0
1090 1088 -1091 0
1090 -1088 1091 0
-1090 1088 1091 0
-1090 -1088 1092 0
1090 -1092 0
1088 -1092 0
-979 -1089 1093 0
979 -1093 0
1089 -1093 0
1092 1093 -1094 0
-1092 1094 0
-1093 1094 0
-146 -983 1095 0
146 -1095 0
983 -1095 0
-982 -1095 -1096 0
982 1095 -1096 0
982 -1095 1096 0
-982 1095 1096 0
-1096 -1094 -1097 0
1096 1094 -1097 0
1096 -1094 1097 0
-1096 1094 1097 0
-1096 -1094 1098 0
1096 -1098 0
1094 -1098 0
-982 -1095 1099 0
982 -1099 0
1095 -1099 0
1098 1099 -1100 0
-1098 1100 0
-1099 1100 0
-1 -1101 1102 0
1 -1102 0
1101 -1102 0
-989 -1102 -1103 0
989 1102 -1103 0
989 -1102 1103 0
-989 1102 1103 0
-989 -1102 1104 0
989 -1104 0
1102 -1104 0
-4 -1101 1105 0
4 -1105 0
1101 -1105 0
-995 -1105 -1106 0
995 1105 -1106 0
995 -1105 1106 0
-995 1105 1106 0
-1106 -1104 -1107 0
1106 1104 -1107 0
1106 -1104 1107 0
-1106 1104 1107 0
-1106 -1104 1108 0
1106 -1108 0
1104 -1108 0
-995 -1105 1109 0
995 -1109 0
1105 -1109 0
1108 1109 -1110 0
-1108 1110 0
-1109 1110 0
-10 -1101 1111 0
10 -1111 0
1101 -1111 0
-1001 -1111 -1112 0
1001 1111 -1112 0
1001 -1111 1112 0
-1001 1111 1112 0
-1112 -1110 -1113 0
1112 1110 -1113 0
1112 -1110 1113 0
-1112 1110 1113 0
-1112 -1110 1114 0
1112 -1114 0
1110 -1114 0
-1001 -1111 1115 0
1001 -1115 0
1111 -1115 0
1114 1115 -1116 0
-1114 1116 0
-1115 1116 0
-18 -1101 1117 0
18 -1117 0
1101 -1117 0
-1007 -1117 -1118 0
1007 1117 -1118 0
1007 -1117 1118 0
-1007 1117 1118 0
-1118 -1116 -1119 0
1118 1116 -1119 0
1118 -1116 1119 0
-1118 1116 1119 0
-1118 -1116 1120 0
1118 -1120 0
1116 -1120 0
-1007 -1117 1121 0
1007 -1121 0
1117 -1121 0
1120 1121 -1122 0
-1120 1122 0
-1121 1122 0
-26 -1101 1123 0
26 -1123 0
1101 -1123 0
-1013 -1123 -1124 0
1013 1123 -1124 0
1013 -1123 1124 0
-1013 1123 1124 0
-1124 -1122 -1125 0
1124 1122 -1125 0
1124 -1122 1125 0
-1124 1122 1125 0
-1124 -1122 1126 0
1124 -1126 0
1122 -1126 0
-1013 -1123 1127 0
1013 -1127 0
1123 -1127 0
1126 1127 -1128 0
-1126 1128 0
-1127 1128 0
-34 -1101 1129 0
34 -1129 0
1101 -1129 0
-1019 -1129 -1130 0
1019 1129 -1130 0
1019 -1129 1130 0
-1019 1129 1130 0
-1130 -1128 -1131 0
1130 1128 -1131 0
1130 -1128 1131 0
-1130 1128 1131 0
-1130 -1128 1132 0
1130 -1132 0
1128 -1132 0
-1019 -1129 1133 0
1019 -1133 0
1129 -1133 0
1132 1133 -1134 0
-1132 1134 0
-1133 1134 0
-42 -1101 1135 0
42 -1135 0
1101 -1135 0
-1025 -1135 -1136 0
1025 1135 -1136 0
1025 -1135 1136 0
-1025 1135 1136 0
-1136 -1134 -1137 0
1136 1134 -1137 0
1136 -1134 1137 0
-1136 1134 1137 0
-1136 -1134 1138 0
1136 -1138 0
1134 -1138 0
-1025 -1135 1139 0
1025 -1139 0
1135 -1139 0
1138 1139 -1140 0
-1138 1140 0
-1139 1140 0
-50 -1101 1141 0
50 -1141 0
1101 -1141 0
-1031 -1141 -1142 0
1031 1141 -1142 0
1031 -1141 1142 0
-1031 1141 1142 0
-1142 -1140 -1143 0
1142 1140 -1143 0
1142 -1140 1143 0
-1142 1140 1143 0
-1142 -1140 1144 0
1142 -1144 0
1140 -1144 0
-1031 -1141 1145 0
1031 -1145 0
1141 -1145 0
1144 1145 -1146 0
-1144 1146 0
-1145 1146 0
-58 -1101 1147 0
58 -1147 0
1101 -1147 0
-1037 -1147 -1148 0
1037 1147 -1148 0
1037 -1147 1148 0
-1037 1147 1148 0
-1148 -1146 -1149 0
1148 1146 -1149 0
1148 -1146 1149 0
-1148 1146 1149 0
-1148 -1146 1150 0
1148 -1150 0
1146 -1150 0
-1037 -1147 1151 0
1037 -1151 0
1147 -1151 0
1150 1151 -1152 0
-1150 1152 0
-1151 1152 0
-66 -1101 1153 0
66 -1153 0
1101 -1153 0
-1043 -1153 -1154 0
1043 1153 -1154 0
1043 -1153 1154 0
-1043 1153 1154 0
-1154 -1152 -1155 0
1154 1152 -1155 0
1154 -1152 1155 0
-1154 1152 1155 0
-1154 -1152 1156 0
1154 -1156 0
1152 -1156 0
-1043 -1153 1157 0
1043 -1157 0
1153 -1157 0
1156 1157 -1158 0
-1156 1158 0
-1157 1158 0
-74 -1101 1159 0
74 -1159 0
1101 -1159 0
-1049 -1159 -1160 0
1049 1159 -1160 0
1049 -1159 1160 0
-1049 1159 1160 0
-1160 -1158 -1161 0
1160 1158 -1161 0
1160 -1158 1161 0
-1160 1158 1161 0
-1160 -1158 1162 0
1160 -1162 0
1158 -1162 0
-1049 -1159 1163 0
1049 -1163 0
1159 -1163 0
1162 1163 -1164 0
-1162 1164 0
-1163 1164 0
-82 -1101 1165 0
82 -1165 0
1101 -1165 0
-1055 -1165 -1166 0
1055 1165 -1166 0
1055 -1165 1166 0
-1055 1165 1166 0
-1166 -1164 -1167 0
1166 1164 -1167 0
1166 -1164 1167 0
-1166 1164 1167 0
-1166 -1164 1168 0
1166 -1168 0
1164 -1168 0
-1055 -1165 1169 0
1055 -1169 0
1165 -1169 0
1168 1169 -1170 0
-1168 1170 0
-1169 1170 0
-90 -1101 1171 0
90 -1171 0
1101 -1171 0
-1061 -1171 -1172 0
1061 1171 -1172 0
1061 -1171 1172 0
-1061 1171 1172 0
-1172 -1170 -1173 0
1172 1170 -1173 0
1172 -1170 1173 0
-1172 1170 1173 0
-1172 -1170 1174 0
1172 -1174 0
1170 -1174 0
-1061 -1171 1175 0
1061 -1175 0
1171 -1175 0
1174 1175 -1176 0
-1174 1176 0
-1175 1176 0
-98 -1101 1177 0
98 -1177 0
1101 -1177 0
-1067 -1177 -1178 0
1067 1177 -1178 0
1067 -1177 1178 0
-1067 1177 1178 0
-1178 -1176 -1179 0
1178 1176 -1179 0
1178 -1176 1179 0
-1178 1176 1179 0
-1178 -1176 1180 0
1178 -1180 0
1176 -1180 0
-1067 -1177 1181 0
1067 -1181 0
1177 -1181 0
1180 1181 -1182 0
-1180 1182 0
-1181 1182 0
-106 -1101 1183 0
106 -1183 0
1101 -1183 0
-1073 -1183 -1184 0
1073 1183 -1184 0
1073 -1183 1184 0
-1073 1183 1184 0
-1184 -1182 -1185 0
1184 1182 -1185 0
1184 -1182 1185 0
-1184 1182 1185 0
-1184 -1182 1186 0
1184 -1186 0
1182 -1186 0
-1073 -1183 1187 0
1073 -1187 0
1183 -1187 0
1186 1187 -1188 0
-1186 1188 0
-1187 1188 0
-114 -1101 1189 0
114 -1189 0
1101 -1189 0
-1079 -1189 -1190 0
1079 1189 -1190 0
1079 -1189 1190 0
-1079 1189 1190 0
-1190 -1188 -1191 0
1190 1188 -1191 0
1190 -1188 1191 0
-1190 1188 1191 0
-1190 -1188 1192 0
1190 -1192 0
1188 -1192 0
-1079 -1189 1193 0
1079 -1193 0
1189 -1193 0
1192 1193 -1194 0
-1192 1194 0
-1193 1194 0
-122 -1101 1195 0
122 -1195 0
1101 -1195 0
-1085 -1195 -1196 0
1085 1195 -1196 0
1085 -1195 1196 0
-1085 1195 1196 0
-1196 -1194 -1197 0
1196 1194 -1197 0
1196 -1194 1197 0
-1196 1194 1197 0
-1196 -1194 1198 0
1196 -1198 0
1194 -1198 0
-1085 -1195 1199 0
1085 -1199 0
1195 -1199 0
1198 1199 -1200 0
-1198 1200 0
-1199 1200 0
-130 -1101 1201 0
130 -1201 0
1101 -1201 0
-1091 -1201 -1202 0
1091 1201 -1202 0
1091 -1201 1202 0
-1091 1201 1202 0
-1202 -1200 -1203 0
1202 1200 -1203 0
1202 -1200 1203 0
-1202 1200 1203 0
-1202 -1200 1204 0
1202 -1204 0
1200 -1204 0
-1091 -1201 1205 0
1091 -1205 0
1201 -1205 0
1204 1205 -1206 0
-1204 1206 0
-1205 1206 0
-138 -1101 1207 0
138 -1207 0
1101 -1207 0
-1097 -1207 -1208 0
1097 1207 -1208 0
1097 -1207 1208 0
-1097 1207 1208 0
-1208 -1206 -1209 0
1208 1206 -1209 0
1208 -1206 1209 0
-1208 1206 1209 0
-1208 -1206 1210 0
1208 -1210 0
1206 -1210 0
-1097 -1207 1211 0
1097 -1211 0
1207 -1211 0
1210 1211 -1212 0
-1210 1212 0
-1211 1212 0
-146 -1101 1213 0
146 -1213 0
1101 -1213 0
-1100 -1213 -1214 0
1100 1213 -1214 0
1100 -1213 1214 0
-1100 1213 1214 0
-1214 -1212 -1215 0
1214 1212 -1215 0
1214 -1212 1215 0
-1214 1212 1215 0
-1214 -1212 1216 0
1214 -1216 0
1212 -1216 0
-1100 -1213 1217 0
1100 -1217 0
1213 -1217 0
1216 1217 -1218 0
-1216 1218 0
-1217 1218 0
-1 -1219 1220 0
1 -1220 0
1219 -1220 0
-1107 -1220 -1221 0
1107 1220 -1221 0
1107 -1220 1221 0
-1107 1220 1221 0
-1107 -1220 1222 0
1107 -1222 0
1220 -1222 0
-4 -1219 1223 0
4 -1223 0
1219 -1223 0
-1113 -1223 -1224 0
1113 1223 -1224 0
1113 -1223 1224 0
-1113 1223 1224 0
-1224 -1222 -1225 0
1224 1222 -1225 0
1224 -1222 1225 0
-1224 1222 1225 0
-1224 -1222 1226 0
1224 -1226 0
1222 -1226 0
-1113 -1223 1227 0
1113 -1227 0
1223 -1227 0
1226 1227 -1228 0
-1226 1228 0
-1227 1228 0
-10 -1219 1229 0
10 -1229 0
1219 -1229 0
-1119 -1229 -1230 0
1119 1229 -1230 0
1119 -1229 1230 0
-1119 1229 1230 0
-1230 -1228 -1231 0
1230 1228 -1231 0
1230 -1228 1231 0
-1230 1228 1231 0
-1230 -1228 1232 0
1230 -1232 0
1228 -1232 0
-1119 -1229 1233 0
1119 -1233 0
1229 -1233 0
1232 1233 -1234 0
-1232 1234 0
-1233 1234 0
-18 -1219 1235 0
18 -1235 0
1219 -1235 0
-1125 -1235 -1236 0
1125 1235 -1236 0
1125 -1235 1236 0
-1125 1235 1236 0
-1236 -1234 -1237 0
1236 1234 -1237 0
1236 -1234 1237 0
-1236 1234 1237 0
-1236 -1234 1238 0
1236 -1238 0
1234 -1238 0
-1125 -1235 1239 0
1125 -1239 0
1235 -1239 0
1238 1239 -1240 0
-1238 1240 0
-1239 1240 0
-26 -1219 1241 0
26 -1241 0
1219 -1241 0
-1131 -1241 -1242 0
1131 1241 -1242 0
1131 -1241 1242 0
-1131 1241 1242 0
-1242 -1240 -1243 0
1242 1240 -1243 0
1242 -1240 1243 0
-1242 1240 1243 0
-1242 -1240 1244 0
1242 -1244 0
1240 -1244 0
-1131 -1241 1245 0
1131 -1245 0
1241 -1245 0
1244 1245 -1246 0
-1244 1246 0
-1245 1246 0
-34 -1219 1247 0
34 -1247 0
1219 -1247 0
-1137 -1247 -1248 0
1137 1247 -1248 0
1137 -1247 1248 0
-1137 1247 1248 0
-1248 -1246 -1249 0
1248 1246 -1249 0
1248 -1246 1249 0
-1248 1246 1249 0
-1248 -1246 1250 0
1248 -1250 0
1246 -1250 0
-1137 -1247 1251 0
1137 -1251 0
1247 -1251 0
1250 1251 -1252 0
-1250 1252 0
-1251 1252 0
-42 -1219 1253 0
42 -1253 0
1219 -1253 0
-1143 -1253 -1254 0
1143 1253 -1254 0
1143 -1253 1254 0
-1143 1253 1254 0
-1254 -1252 -1255 0
1254 1252 -1255 0
1254 -1252 1255 0
-1254 1252 1255 0
-1254 -1252 1256 0
1254 -1256 0
1252 -1256 0
-1143 -1253 1257 0
1143 -1257 0
1253 -1257 0
1256 1257 -1258 0
-1256 1258 0
-1257 1258 0
-50 -1219 1259 0
50 -1259 0
1219 -1259 0
-1149 -1259 -1260 0
1149 1259 -1260 0
1149 -1259 1260 0
-1149 1259 1260 0
-1260 -1258 -1261 0
1260 1258 -1261 0
1260 -1258 1261 0
-1260 1258 1261 0
-1260 -1258 1262 0
1260 -1262 0
1258 -1262 0
-1149 -1259 1263 0
1149 -1263 0
1259 -1263 0
1262 1263 -1264 0
-1262 1264 0
-1263 1264 0
-58 -1219 1265 0
58 -1265 0
1219 -1265 0
-1155 -1265 -1266 0
1155 1265 -1266 0
1155 -1265 1266 0
-1155 1265 1266 0
-1266 -1264 -1267 0
1266 1264 -1267 0
1266 -1264 1267 0
-1266 1264 1267 0
-1266 -1264 1268 0
1266 -1268 0
1264 -1268 0
-1155 -1265 1269 0
1155 -1269 0
1265 -1269 0
1268 1269 -1270 0
-1268 1270 0
-1269 1270 0
-66 -1219 1271 0
66 -1271 0
1219 -1271 0
-1161 -1271 -1272 0
1161 1271 -1272 0
1161 -1271 1272 0
-1161 1271 1272 0
-1272 -1270 -1273 0
1272 1270 -1273 0
1272 -1270 1273 0
-1272 1270 1273 0
-1272 -1270 1274 0
1272 -1274 0
1270 -1274 0
-1161 -1271 1275 0
1161 -1275 0
1271 -1275 0
1274 1275 -1276 0
-1274 1276 0
-1275 1276 0
-74 -1219 1277 0
74 -1277 0
1219 -1277 0
-1167 -1277 -1278 0
1167 1277 -1278 0
1167 -1277 1278 0
-1167 1277 1278 0
-1278 -1276 -1279 0
1278 1276 -1279 0
1278 -1276 1279 0
-1278 1276 1279 0
-1278 -1276 1280 0
1278 -1280 0
1276 -1280 0
-1167 -1277 1281 0
1167 -1281 0
1277 -1281 0
1280 1281 -1282 0
-1280 1282 0
-1281 1282 0
-82 -1219 1283 0
82 -1283 0
1219 -1283 0
-1173 -1283 -1284 0
1173 1283 -1284 0
1173 -1283 1284 0
-1173 1283 1284 0
-1284 -1282 -1285 0
1284 1282 -1285 0
1284 -1282 1285 0
-1284 1282 1285 0
-1284 -1282 1286 0
1284 -1286 0
1282 -1286 0
-1173 -1283 1287 0
1173 -1287 0
1283 -1287 0
1286 1287 -1288 0
-1286 1288 0
-1287 1288 0
-90 -1219 1289 0
90 -1289 0
1219 -1289 0
-1179 -1289 -1290 0
1179 1289 -1290 0
1179 -1289 1290 0
-1179 1289 1290 0
-1290 -1288 -1291 0
1290 1288 -1291 0
1290 -1288 1291 0
-1290 1288 1291 0
-1290 -1288 1292 0
1290 -1292 0
1288 -1292 0
-1179 -1289 1293 0
1179 -1293 0
1289 -1293 0
1292 1293 -1294 0
-1292 1294 0
-1293 1294 0
-98 -1219 1295 0
98 -1295 0
1219 -1295 0
-1185 -1295 -1296 0
1185 1295 -1296 0
1185 -1295 1296 0
-1185 1295 1296 0
-1296 -1294 -1297 0
1296 1294 -1297 0
1296 -1294 1297 0
-1296 1294 1297 0
-1296 -1294 1298 0
1296 -1298 0
1294 -1298 0
-1185 -1295 1299 0
1185 -1299 0
1295 -1299 0
1298 1299 -1300 0
-1298 1300 0
-1299 1300 0
-106 -1219 1301 0
106 -1301 0
1219 -1301 0
-1191 -1301 -1302 0
1191 1301 -1302 0
1191 -1301 1302 0
-1191 1301 1302 0
-1302 -1300 -1303 0
1302 1300 -1303 0
1302 -1300 1303 0
-1302 1300 1303 0
-1302 -1300 1304 0
1302 -1304 0
1300 -1304 0
-1191 -1301 1305 0
1191 -1305 0
1301 -1305 0
1304 1305 -1306 0
-1304 1306 0
-1305 1306 0
-114 -1219 1307 0
114 -1307 0
1219 -1307 0
-1197 -1307 -1308 0
1197 1307 -1308 0
1197 -1307 1308 0
-1197 1307 1308 0
-1308 -1306 -1309 0
1308 1306 -1309 0
1308 -1306 1309 0
-1308 1306 1309 0
-1308 -1306 1310 0
1308 -1310 0
1306 -1310 0
-1197 -1307 1311 0
1197 -1311 0
1307 -1311 0
1310 1311 -1312 0
-1310 1312 0
-1311 1312 0
-122 -1219 1313 0
122 -1313 0
1219 -1313 0
-1203 -1313 -1314 0
1203 1313 -1314 0
1203 -1313 1314 0
-1203 1313 1314 0
-1314 -1312 -1315 0
1314 1312 -1315 0
1314 -1312 1315 0
-1314 1312 1315 0
-1314 -1312 1316 0
1314 -1316 0
1312 -1316 0
-1203 -1313 1317 0
1203 -1317 0
1313 -1317 0
1316 1317 -1318 0
-1316 1318 0
-1317 1318 0
-130 -1219 1319 0
130 -1319 0
1219 -1319 0
-1209 -1319 -1320 0
1209 1319 -1320 0
1209 -1319 1320 0
-1209 1319 1320 0
-1320 -1318 -1321 0
1320 1318 -1321 0
1320 -1318 1321 0
-1320 1318 1321 0
-1320 -1318 1322 0
1320 -1322 0
1318 -1322 0
-1209 -1319 1323 0
1209 -1323 0
1319 -1323 0
1322 1323 -1324 0
-1322 1324 0
-1323 1324 0
-138 -1219 1325 0
138 -1325 0
1219 -1325 0
-1215 -1325 -1326 0
1215 1325 -1326 0
1215 -1325 1326 0
-1215 1325 1326 0
-1326 -1324 -1327 0
1326 1324 -1327 0
1326 -1324 1327 0
-1326 1324 1327 0
-1326 -1324 1328 0
1326 -1328 0
1324 -1328 0
-1215 -1325 1329 0
1215 -1329 0
1325 -1329 0
1328 1329 -1330 0
-1328 1330 0
-1329 1330 0
-146 -1219 1331 0
146 -1331 0
1219 -1331 0
-1218 -1331 -1332 0
1218 1331 -1332 0
1218 -1331 1332 0
-1218 1331 1332 0
-1332 -1330 -1333 0
1332 1330 -1333 0
1332 -1330 1333 0
-1332 1330 1333 0
-1332 -1330 1334 0
1332 -1334 0
1330 -1334 0
-1218 -1331 1335 0
1218 -1335 0
1331 -1335 0
1334 1335 -1336 0
-1334 1336 0
-1335 1336 0
-1 -1337 1338 0
1 -1338 0
1337 -1338 0
-1225 -1338 -1339 0
1225 1338 -1339 0
1225 -1338 1339 0
-1225 1338 1339 0
-1225 -1338 1340 0
1225 -1340 0
1338 -1340 0
-4 -1337 1341 0
4 -1341 0
1337 -1341 0
-1231 -1341 -1342 0
1231 1341 -1342 0
1231 -1341 1342 0
-1231 1341 1342 0
-1342 -1340 -1343 0
1342 1340 -1343 0
1342 -1340 1343 0
-1342 1340 1343 0
-1342 -1340 1344 0
1342 -1344 0
1340 -1344 0
-1231 -1341 1345 0
1231 -1345 0
1341 -1345 0
1344 1345 -1346 0
-1344 1346 0
-1345 1346 0
-10 -1337 1347 0
10 -1347 0
1337 -1347 0
-1237 -1347 -1348 0
1237 1347 -1348 0
1237 -1347 1348 0
-1237 1347 1348 0
-1348 -1346 -1349 0
1348 1346 -1349 0
1348 -1346 1349 0
-1348 1346 1349 0
-1348 -1346 1350 0
1348 -1350 0
1346 -1350 0
-1237 -1347 1351 0
1237 -1351 0
1347 -1351 0
1350 1351 -1352 0
-1350 1352 0
-1351 1352 0
-18 -1337 1353 0
18 -1353 0
1337 -1353 0
-1243 -1353 -1354 0
1243 1353 -1354 0
1243 -1353 1354 0
-1243 1353 1354 0
-1354 -1352 -1355 0
1354 1352 -1355 0
1354 -1352 1355 0
-1354 1352 1355 0
-1354 -1352 1356 0
1354 -1356 0
1352 -1356 0
-1243 -1353 1357 0
1243 -1357 0
1353 -1357 0
1356 1357 -1358 0
-1356 1358 0
-1357 1358 0
-26 -1337 1359 0
26 -1359 0
1337 -1359 0
-1249 -1359 -1360 0
1249 1359 -1360 0
1249 -1359 1360 0
-1249 1359 1360 0
-1360 -1358 -1361 0
1360 1358 -1361 0
1360 -1358 1361 0
-1360 1358 1361 0
-1360 -1358 1362 0
1360 -1362 0
1358 -1362 0
-1249 -1359 1363 0
1249 -1363 0
1359 -1363 0
1362 1363 -1364 0
-1362 1364 0
-1363 1364 0
-34 -1337 1365 0
34 -1365 0
1337 -1365 0
-1255 -1365 -1366 0
1255 1365 -1366 0
1255 -1365 1366 0
-1255 1365 1366 0
-1366 -1364 -1367 0
1366 1364 -1367 0
1366 -1364 1367 0
-1366 1364 1367 0
-1366 -1364 1368 0
1366 -1368 0
1364 -1368 0
-1255 -1365 1369 0
1255 -1369 0
1365 -1369 0
1368 1369 -1370 0
-1368 1370 0
-1369 1370 0
-42 -1337 1371 0
42 -1371 0
1337 -1371 0
-1261 -1371 -1372 0
1261 1371 -1372 0
1261 -1371 1372 0
-1261 1371 1372 0
-1372 -1370 -1373 0
1372 1370 -1373 0
1372 -1370 1373 0
-1372 1370 1373 0
-1372 -1370 1374 0
1372 -1374 0
1370 -1374 0
-1261 -1371 1375 0
1261 -1375 0
1371 -1375 0
1374 1375 -1376 0
-1374 1376 0
-1375 1376 0
-50 -1337 1377 0
50 -1377 0
1337 -1377 0
-1267 -1377 -1378 0
1267 1377 -1378 0
1267 -1377 1378 0
-1267 1377 1378 0
-1378 -1376 -1379 0
1378 1376 -1379 0
1378 -1376 1379 0
-1378 1376 1379 0
-1378 -1376 1380 0
1378 -1380 0
1376 -1380 0
-1267 -1377 1381 0
1267 -1381 0
1377 -1381 0
1380 1381 -1382 0
-1380 1382 0
-1381 1382 0
-58 -1337 1383 0
58 -1383 0
1337 -1383 0
-1273 -1383 -1384 0
1273 1383 -1384 0
1273 -1383 1384 0
-1273 1383 1384 0
-1384 -1382 -1385 0
1384 1382 -1385 0
1384 -1382 1385 0
-1384 1382 1385 0
-1384 -1382 1386 0
1384 -1386 0
1382 -1386 0
-1273 -1383 1387 0
1273 -1387 0
1383 -1387 0
1386 1387 -1388 0
-1386 1388 0
-1387 1388 0
-66 -1337 1389 0
66 -1389 0
1337 -1389 0
-1279 -1389 -1390 0
1279 1389 -1390 0
1279 -1389 1390 0
-1279 1389 1390 0
-1390 -1388 -1391 0
1390 1388 -1391 0
1390 -1388 1391 0
-1390 1388 1391 0
-1390 -1388 1392 0
1390 -1392 0
1388 -1392 0
-1279 -1389 1393 0
1279 -1393 0
1389 -1393 0
1392 1393 -1394 0
-1392 1394 0
-1393 1394 0
-74 -1337 1395 0
74 -1395 0
1337 -1395 0
-1285 -1395 -1396 0
1285 1395 -1396 0
1285 -1395 1396 0
-1285 1395 1396 0
-1396 -1394 -1397 0
1396 1394 -1397 0
1396 -1394 1397 0
-1396 1394 1397 0
-1396 -1394 1398 0
1396 -1398 0
1394 -1398 0
-1285 -1395 1399 0
1285 -1399 0
1395 -1399 0
1398 1399 -1400 0
-1398 1400 0
-1399 1400 0
-82 -1337 1401 0
82 -1401 0
1337 -1401 0
-1291 -1401 -1402 0
1291 1401 -1402 0
1291 -1401 1402 0
-1291 1401 1402 0
-1402 -1400 -1403 0
1402 1400 -1403 0
1402 -1400 1403 0
-1402 1400 1403 0
-1402 -1400 1404 0
1402 -1404 0
1400 -1404 0
-1291 -1401 1405 0
1291 -1405 0
1401 -1405 0
1404 1405 -1406 0
-1404 1406 0
-1405 1406 0
-90 -1337 1407 0
90 -1407 0
1337 -1407 0
-1297 -1407 -1408 0
1297 1407 -1408 0
1297 -1407 1408 0
-1297 1407 1408 0
-1408 -1406 -1409 0
1408 1406 -1409 0
1408 -1406 1409 0
-1408 1406 1409 0
-1408 -1406 1410 0
1408 -1410 0
1406 -1410 0
-1297 -1407 1411 0
1297 -1411 0
1407 -1411 0
1410 1411 -1412 0
-1410 1412 0
-1411 1412 0
-98 -1337 1413 0
98 -1413 0
1337 -1413 0
-1303 -1413 -1414 0
1303 1413 -1414 0
1303 -1413 1414 0
-1303 1413 1414 0
-1414 -1412 -1415 0
1414 1412 -1415 0
1414 -1412 1415 0
-1414 1412 1415 0
-1414 -1412 1416 0
1414 -1416 0
1412 -1416 0
-1303 -1413 1417 0
1303 -1417 0
1413 -1417 0
1416 1417 -1418 0
-1416 1418 0
-1417 1418 0
-106 -1337 1419 0
106 -1419 0
1337 -1419 0
-1309 -1419 -1420 0
1309 1419 -1420 0
1309 -1419 1420 0
-1309 1419 1420 0
-1420 -1418 -1421 0
1420 1418 -1421 0
1420 -1418 1421 0
-1420 1418 1421 0
-1420 -1418 1422 0
1420 -1422 0
1418 -1422 0
-1309 -1419 1423 0
1309 -1423 0
1419 -1423 0
1422 1423 -1424 0
-1422 1424 0
-1423 1424 0
-114 -1337 1425 0
114 -1425 0
1337 -1425 0
-1315 -1425 -1426 0
1315 1425 -1426 0
1315 -1425 1426 0
-1315 1425 1426 0
-1426 -1424 -1427 0
1426 1424 -1427 0
1426 -1424 1427 0
-1426 1424 1427 0
-1426 -1424 1428 0
1426 -1428 0
1424 -1428 0
-1315 -1425 1429 0
1315 -1429 0
1425 -1429 0
1428 1429 -1430 0
-1428 1430 0
-1429 1430 0
-122 -1337 1431 0
122 -1431 0
1337 -1431 0
-1321 -1431 -1432 0
1321 1431 -1432 0
1321 -1431 1432 0
-1321 1431 1432 0
-1432 -1430 -1433 0
1432 1430 -1433 0
1432 -1430 1433 0
-1432 1430 1433 0
-1432 -1430 1434 0
1432 -1434 0
1430 -1434 0
-1321 -1431 1435 0
1321 -1435 0
1431 -1435 0
1434 1435 -1436 0
-1434 1436 0
-1435 1436 0
-130 -1337 1437 0
130 -1437 0
1337 -1437 0
-1327 -1437 -1438 0
1327 1437 -1438 0
1327 -1437 1438 0
-1327 1437 1438 0
-1438 -1436 -1439 0
1438 1436 -1439 0
1438 -1436 1439 0
-1438 1436 1439 0
-1438 -1436 1440 0
1438 -1440 0
1436 -1440 0
-1327 -1437 1441 0
1327 -1441 0
1437 -1441 0
1440 1441 -1442 0
-1440 1442 0
-1441 1442 0
-138 -1337 1443 0
138 -1443 0
1337 -1443 0
-1333 -1443 -1444 0
1333 1443 -1444 0
1333 -1443 1444 0
-1333 1443 1444 0
-1444 -1442 -1445 0
1444 1442 -1445 0
1444 -1442 1445 0
-1444 1442 1445 0
-1444 -1442 1446 0
1444 -1446 0
1442 -1446 0
-1333 -1443 1447 0
1333 -1447 0
1443 -1447 0
1446 1447 -1448 0
-1446 1448 0
-1447 1448 0
-146 -1337 1449 0
146 -1449 0
1337 -1449 0
-1336 -1449 -1450 0
1336 1449 -1450 0
1336 -1449 1450 0
-1336 1449 1450 0
-1450 -1448 -1451 0
1450 1448 -1451 0
1450 -1448 1451 0
-1450 1448 1451 0
-1450 -1448 1452 0
1450 -1452 0
1448 -1452 0
-1336 -1449 1453 0
1336 -1453 0
1449 -1453 0
1452 1453 -1454 0
-1452 1454 0
-1453 1454 0
-1 -1455 1456 0
1 -1456 0
1455 -1456 0
-1343 -1456 -1457 0
1343 1456 -1457 0
1343 -1456 1457 0
-1343 1456 1457 0
-1343 -1456 1458 0
1343 -1458 0
1456 -1458 0
-4 -1455 1459 0
4 -1459 0
1455 -1459 0
-1349 -1459 -1460 0
1349 1459 -1460 0
1349 -1459 1460 0
-1349 1459 1460 0
-1460 -1458 -1461 0
1460 1458 -1461 0
1460 -1458 1461 0
-1460 1458 1461 0
-1460 -1458 1462 0
1460 -1462 0
1458 -1462 0
-1349 -1459 1463 0
1349 -1463 0
1459 -1463 0
1462 1463 -1464 0
-1462 1464 0
-1463 1464 0
-10 -1455 1465 0
10 -1465 0
1455 -1465 0
-1355 -1465 -1466 0
1355 1465 -1466 0
1355 -1465 1466 0
-1355 1465 1466 0
-1466 -1464 -1467 0
1466 1464 -1467 0
1466 -1464 1467 0
-1466 1464 1467 0
-1466 -1464 1468 0
1466 -1468 0
1464 -1468 0
-1355 -1465 1469 0
1355 -1469 0
1465 -1469 0
1468 1469 -1470 0
-1468 1470 0
-1469 1470 0
-18 -1455 1471 0
18 -1471 0
1455 -1471 0
-1361 -1471 -1472 0
1361 1471 -1472 0
1361 -1471 1472 0
-1361 1471 1472 0
-1472 -1470 -1473 0
1472 1470 -1473 0
1472 -1470 1473 0
-1472 1470 1473 0
-1472 -1470 1474 0
1472 -1474 0
1470 -1474 0
-1361 -1471 1475 0
1361 -1475 0
1471 -1475 0
1474 1475 -1476 0
-1474 1476 0
-1475 1476 0
-26 -1455 1477 0
26 -1477 0
1455 -1477 0
-1367 -1477 -1478 0
1367 1477 -1478 0
1367 -1477 1478 0
-1367 1477 1478 0
-1478 -1476 -1479 0
1478 1476 -1479 0
1478 -1476 1479 0
-1478 1476 1479 0
-1478 -1476 1480 0
1478 -1480 0
1476 -1480 0
-1367 -1477 1481 0
1367 -1481 0
1477 -1481 0
1480 1481 -1482 0
-1480 1482 0
-1481 1482 0
-34 -1455 1483 0
34 -1483 0
1455 -1483 0
-1373 -1483 -1484 0
1373 1483 -1484 0
1373 -1483 1484 0
-1373 1483 1484 0
-1484 -1482 -1485 0
1484 1482 -1485 0
1484 -1482 1485 0
-1484 1482 1485 0
-1484 -1482 1486 0
1484 -1486 0
1482 -1486 0
-1373 -1483 1487 0
1373 -1487 0
1483 -1487 0
1486 1487 -1488 0
-1486 1488 0
-1487 1488 0
-42 -1455 1489 0
42 -1489 0
1455 -1489 0
-1379 -1489 -1490 0
1379 1489 -1490 0
1379 -1489 1490 0
-1379 1489 1490 0
-1490 -1488 -1491 0
1490 1488 -1491 0
1490 -1488 1491 0
-1490 1488 1491 0
-1490 -1488 1492 0
1490 -1492 0
1488 -1492 0
-1379 -1489 1493 0
1379 -1493 0
1489 -1493 0
1492 1493 -1494 0
-1492 1494 0
-1493 1494 0
-50 -1455 1495 0
50 -1495 0
1455 -1495 0
-1385 -1495 -1496 0
1385 1495 -1496 0
1385 -1495 1496 0
-1385 1495 1496 0
-1496 -1494 -1497 0
1496 1494 -1497 0
1496 -1494 1497 0
-1496 1494 1497 0
-1496 -1494 1498 0
1496 -1498 0
1494 -1498 0
-1385 -1495 1499 0
1385 -1499 0
1495 -1499 0
1498 1499 -1500 0
-1498 1500 0
-1499 1500 0
-58 -1455 1501 0
58 -1501 0
1455 -1501 0
-1391 -1501 -1502 0
1391 1501 -1502 0
1391 -1501 1502 0
-1391 1501 1502 0
-1502 -1500 -1503 0
1502 1500 -1503 0
1502 -1500 1503 0
-1502 1500 1503 0
-1502 -1500 1504 0
1502 -1504 0
1500 -1504 0
-1391 -1501 1505 0
1391 -1505 0
1501 -1505 0
1504 1505 -1506 0
-1504 1506 0
-1505 1506 0
-66 -1455 1507 0
66 -1507 0
1455 -1507 0
-1397 -1507 -1508 0
1397 1507 -1508 0
1397 -1507 1508 0
-1397 1507 1508 0
-1508 -1506 -1509 0
1508 1506 -1509 0
1508 -1506 1509 0
-1508 1506 1509 0
-1508 -1506 1510 0
1508 -1510 0
1506 -1510 0
-1397 -1507 1511 0
1397 -1511 0
1507 -1511 0
1510 1511 -1512 0
-1510 1512 0
-1511 1512 0
-74 -1455 1513 0
74 -1513 0
1455 -1513 0
-1403 -1513 -1514 0
1403 1513 -1514 0
1403 -1513 1514 0
-1403 1513 1514 0
-1514 -1512 -1515 0
1514 1512 -1515 0
1514 -1512 1515 0
-1514 1512 1515 0
-1514 -1512 1516 0
1514 -1516 0
1512 -1516 0
-1403 -1513 1517 0
1403 -1517 0
1513 -1517 0
1516 1517 -1518 0
-1516 1518 0
-1517 1518 0
-82 -1455 1519 0
82 -1519 0
1455 -1519 0
-1409 -1519 -1520 0
1409 1519 -1520 0
1409 -1519 1520 0
-1409 1519 1520 0
-1520 -1518 -1521 0
1520 1518 -1521 0
1520 -1518 1521 0
-1520 1518 1521 0
-1520 -1518 1522 0
1520 -1522 0
1518 -1522 0
-1409 -1519 1523 0
1409 -1523 0
1519 -1523 0
1522 1523 -1524 0
-1522 1524 0
-1523 1524 0
-90 -1455 1525 0
90 -1525 0
1455 -1525 0
-1415 -1525 -1526 0
1415 1525 -1526 0
1415 -1525 1526 0
-1415 1525 1526 0
-1526 -1524 -1527 0
1526 1524 -1527 0
1526 -1524 1527 0
-1526 1524 1527 0
-1526 -1524 1528 0
1526 -1528 0
1524 -1528 0
-1415 -1525 1529 0
1415 -1529 0
1525 -1529 0
1528 1529 -1530 0
-1528 1530 0
-1529 1530 0
-98 -1455 1531 0
98 -1531 0
1455 -1531 0
-1421 -1531 -1532 0
1421 1531 -1532 0
1421 -1531 1532 0
-1421 1531 1532 0
-1532 -1530 -1533 0
1532 1530 -1533 0
1532 -1530 1533 0
-1532 1530 1533 0
-1532 -1530 1534 0
1532 -1534 0
1530 -1534 0
-1421 -1531 1535 0
1421 -1535 0
1531 -1535 0
1534 1535 -1536 0
-1534 1536 0
-1535 1536 0
-106 -1455 1537 0
106 -1537 0
1455 -1537 0
-1427 -1537 -1538 0
1427 1537 -1538 0
1427 -1537 1538 0
-1427 1537 1538 0
-1538 -1536 -1539 0
1538 1536 -1539 0
1538 -1536 1539 0
-1538 1536 1539 0
-1538 -1536 1540 0
1538 -1540 0
1536 -1540 0
-1427 -1537 1541 0
1427 -1541 0
1537 -1541 0
1540 1541 -1542 0
-1540 1542 0
-1541 1542 0
-114 -1455 1543 0
114 -1543 0
1455 -1543 0
-1433 -1543 -1544 0
1433 1543 -1544 0
1433 -1543 1544 0
-1433 1543 1544 0
-1544 -1542 -1545 0
1544 1542 -1545 0
1544 -1542 1545 0
-1544 1542 1545 0
-1544 -1542 1546 0
1544 -1546 0
1542 -1546 0
-1433 -1543 1547 0
1433 -1547 0
1543 -1547 0
1546 1547 -1548 0
-1546 1548 0
-1547 1548 0
-122 -1455 1549 0
122 -1549 0
1455 -1549 0
-1439 -1549 -1550 0
1439 1549 -1550 0
1439 -1549 1550 0
-1439 1549 1550 0
-1550 -1548 -1551 0
1550 1548 -1551 0
1550 -1548 1551 0
-1550 1548 1551 0
-1550 -1548 1552 0
1550 -1552 0
1548 -1552 0
-1439 -1549 1553 0
1439 -1553 0
1549 -1553 0
1552 1553 -1554 0
-1552 1554 0
-1553 1554 0
-130 -1455 1555 0
130 -1555 0
1455 -1555 0
-1445 -1555 -1556 0
1445 1555 -1556 0
1445 -1555 1556 0
-1445 1555 1556 0
-1556 -1554 -1557 0
1556 1554 -1557 0
1556 -1554 1557 0
-1556 1554 1557 0
-1556 -1554 1558 0
1556 -1558 0
1554 -1558 0
-1445 -1555 1559 0
1445 -1559 0
1555 -1559 0
1558 1559 -1560 0
-1558 1560 0
-1559 1560 0
-138 -1455 1561 0
138 -1561 0
1455 -1561 0
-1451 -1561 -1562 0
1451 1561 -1562 0
1451 -1561 1562 0
-1451 1561 1562 0
-1562 -1560 -1563 0
1562 1560 -1563 0
1562 -1560 1563 0
-1562 1560 1563 0
-1562 -1560 1564 0
1562 -1564 0
1560 -1564 0
-1451 -1561 1565 0
1451 -1565 0
1561 -1565 0
1564 1565 -1566 0
-1564 1566 0
-1565 1566 0
-146 -1455 1567 0
146 -1567 0
1455 -1567 0
-1454 -1567 -1568 0
1454 1567 -1568 0
1454 -1567 1568 0
-1454 1567 1568 0
-1568 -1566 -1569 0
1568 1566 -1569 0
1568 -1566 1569 0
-1568 1566 1569 0
-1568 -1566 1570 0
1568 -1570 0
1566 -1570 0
-1454 -1567 1571 0
1454 -1571 0
1567 -1571 0
1570 1571 -1572 0
-1570 1572 0
-1571 1572 0
-1 -1573 1574 0
1 -1574 0
1573 -1574 0
-1461 -1574 -1575 0
1461 1574 -1575 0
1461 -1574 1575 0
-1461 1574 1575 0
-1461 -1574 1576 0
1461 -1576 0
1574 -1576 0
-4 -1573 1577 0
4 -1577 0
1573 -1577 0
-1467 -1577 -1578 0
1467 1577 -1578 0
1467 -1577 1578 0
-1467 1577 1578 0
-1578 -1576 -1579 0
1578 1576 -1579 0
1578 -1576 1579 0
-1578 1576 1579 0
-1578 -1576 1580 0
1578 -1580 0
1576 -1580 0
-1467 -1577 1581 0
1467 -1581 0
1577 -1581 0
1580 1581 -1582 0
-1580 1582 0
-1581 1582 0
-10 -1573 1583 0
10 -1583 0
1573 -1583 0
-1473 -1583 -1584 0
1473 1583 -1584 0
1473 -1583 1584 0
-1473 1583 1584 0
-1584 -1582 -1585 0
1584 1582 -1585 0
1584 -1582 1585 0
-1584 1582 1585 0
-1584 -1582 1586 0
1584 -1586 0
1582 -1586 0
-1473 -1583 1587 0
1473 -1587 0
1583 -1587 0
1586 1587 -1588 0
-1586 1588 0
-1587 1588 0
-18 -1573 1589 0
18 -1589 0
1573 -1589 0
-1479 -1589 -1590 0
1479 1589 -1590 0
1479 -1589 1590 0
-1479 1589 1590 0
-1590 -1588 -1591 0
1590 1588 -1591 0
1590 -1588 1591 0
-1590 1588 1591 0
-1590 -1588 1592 0
1590 -1592 0
1588 -1592 0
-1479 -1589 1593 0
1479 -1593 0
1589 -1593 0
1592 1593 -1594 0
-1592 1594 0
-1593 1594 0
-26 -1573 1595 0
26 -1595 0
1573 -1595 0
-1485 -1595 -1596 0
1485 1595 -1596 0
1485 -1595 1596 0
-1485 1595 1596 0
-1596 -1594 -1597 0
1596 1594 -1597 0
1596 -1594 1597 0
-1596 1594 1597 0
-1596 -1594 1598 0
1596 -1598 0
1594 -1598 0
-1485 -1595 1599 0
1485 -1599 0
1595 -1599 0
1598 1599 -1600 0
-1598 1600 0
-1599 1600 0
-34 -1573 1601 0
34 -1601 0
1573 -1601 0
-1491 -1601 -1602 0
1491 1601 -1602 0
1491 -1601 1602 0
-1491 1601 1602 0
-1602 -1600 -1603 0
1602 1600 -1603 0
1602 -1600 1603 0
-1602 1600 1603 0
-1602 -1600 1604 0
1602 -1604 0
1600 -1604 0
-1491 -1601 1605 0
1491 -1605 0
1601 -1605 0
1604 1605 -1606 0
-1604 1606 0
-1605 1606 0
-42 -1573 1607 0
42 -1607 0
1573 -1607 0
-1497 -1607 -1608 0
1497 1607 -1608 0
1497 -1607 1608 0
-1497 1607 1608 0
-1608 -1606 -1609 0
1608 1606 -1609 0
1608 -1606 1609 0
-1608 1606 1609 0
-1608 -1606 1610 0
1608 -1610 0
1606 -1610 0
-1497 -1607 1611 0
1497 -1611 0
1607 -1611 0
1610 1611 -1612 0
-1610 1612 0
-1611 1612 0
-50 -1573 1613 0
50 -1613 0
1573 -1613 0
-1503 -1613 -1614 0
1503 1613 -1614 0
1503 -1613 1614 0
-1503 1613 1614 0
-1614 -1612 -1615 0
1614 1612 -1615 0
1614 -1612 1615 0
-1614 1612 1615 0
-1614 -1612 1616 0
1614 -1616 0
1612 -1616 0
-1503 -1613 1617 0
1503 -1617 0
1613 -1617 0
1616 1617 -1618 0
-1616 1618 0
-1617 1618 0
-58 -1573 1619 0
58 -1619 0
1573 -1619 0
-1509 -1619 -1620 0
1509 1619 -1620 0
1509 -1619 1620 0
-1509 1619 1620 0
-1620 -1618 -1621 0
1620 1618 -1621 0
1620 -1618 1621 0
-1620 1618 1621 0
-1620 -1618 1622 0
1620 -1622 0
1618 -1622 0
-1509 -1619 1623 0
1509 -1623 0
1619 -1623 0
1622 1623 -1624 0
-1622 1624 0
-1623 1624 0
-66 -1573 1625 0
66 -1625 0
1573 -1625 0
-1515 -1625 -1626 0
1515 1625 -1626 0
1515 -1625 1626 0
-1515 1625 1626 0
-1626 -1624 -1627 0
1626 1624 -1627 0
1626 -1624 1627 0
-1626 1624 1627 0
-1626 -1624 1628 0
1626 -1628 0
1624 -1628 0
-1515 -1625 1629 0
1515 -1629 0
1625 -1629 0
1628 1629 -1630 0
-1628 1630 0
-1629 1630 0
-74 -1573 1631 0
74 -1631 0
1573 -1631 0
-1521 -1631 -1632 0
1521 1631 -1632 0
1521 -1631 1632 0
-1521 1631 1632 0
-1632 -1630 -1633 0
1632 1630 -1633 0
1632 -1630 1633 0
-1632 1630 1633 0
-1632 -1630 1634 0
1632 -1634 0
1630 -1634 0
-1521 -1631 1635 0
1521 -1635 0
1631 -1635 0
1634 1635 -1636 0
-1634 1636 0
-1635 1636 0
-82 -1573 1637 0
82 -1637 0
1573 -1637 0
-1527 -1637 -1638 0
1527 1637 -1638 0
1527 -1637 1638 0
-1527 1637 1638 0
-1638 -1636 -1639 0
1638 1636 -1639 0
1638 -1636 1639 0
-1638 1636 1639 0
-1638 -1636 1640 0
1638 -1640 0
1636 -1640 0
-1527 -1637 1641 0
1527 -1641 0
1637 -1641 0
1640 1641 -1642 0
-1640 1642 0
-1641 1642 0
-90 -1573 1643 0
90 -1643 0
1573 -1643 0
-1533 -1643 -1644 0
1533 1643 -1644 0
1533 -1643 1644 0
-1533 1643 1644 0
-1644 -1642 -1645 0
1644 1642 -1645 0
1644 -1642 1645 0
-1644 1642 1645 0
-1644 -1642 1646 0
1644 -1646 0
1642 -1646 0
-1533 -1643 1647 0
1533 -1647 0
1643 -1647 0
1646 1647 -1648 0
-1646 1648 0
-1647 1648 0
-98 -1573 1649 0
98 -1649 0
1573 -1649 0
-1539 -1649 -1650 0
1539 1649 -1650 0
1539 -1649 1650 0
-1539 1649 1650 0
-1650 -1648 -1651 0
1650 1648 -1651 0
1650 -1648 1651 0
-1650 1648 1651 0
-1650 -1648 1652 0
1650 -1652 0
1648 -1652 0
-1539 -1649 1653 0
1539 -1653 0
1649 -1653 0
1652 1653 -1654 0
-1652 1654 0
-1653 1654 0
-106 -1573 1655 0
106 -1655 0
1573 -1655 0
-1545 -1655 -1656 0
1545 1655 -1656 0
1545 -1655 1656 0
-1545 1655 1656 0
-1656 -1654 -1657 0
1656 1654 -1657 0
1656 -1654 1657 0
-1656 1654 1657 0
-1656 -1654 1658 0
1656 -1658 0
1654 -1658 0
-1545 -1655 1659 0
1545 -1659 0
1655 -1659 0
1658 1659 -1660 0
-1658 1660 0
-1659 1660 0
-114 -1573 1661 0
114 -1661 0
1573 -1661 0
-1551 -1661 -1662 0
1551 1661 -1662 0
1551 -1661 1662 0
-1551 1661 1662 0
-1662 -1660 -1663 0
1662 1660 -1663 0
1662 -1660 1663 0
-1662 1660 1663 0
-1662 -1660 1664 0
1662 -1664 0
1660 -1664 0
-1551 -1661 1665 0
1551 -1665 0
1661 -1665 0
1664 1665 -1666 0
-1664 1666 0
-1665 1666 0
-122 -1573 1667 0
122 -1667 0
1573 -1667 0
-1557 -1667 -1668 0
1557 1667 -1668 0
1557 -1667 1668 0
-1557 1667 1668 0
-1668 -1666 -1669 0
1668 1666 -1669 0
1668 -1666 1669 0
-1668 1666 1669 0
-1668 -1666 1670 0
1668 -1670 0
1666 -1670 0
-1557 -1667 1671 0
1557 -1671 0
1667 -1671 0
1670 1671 -1672 0
-1670 1672 0
-1671 1672 0
-130 -1573 1673 0
130 -1673 0
1573 -1673 0
-1563 -1673 -1674 0
1563 1673 -1674 0
1563 -1673 1674 0
-1563 1673 1674 0
-1674 -1672 -1675 0
1674 1672 -1675 0
1674 -1672 1675 0
-1674 1672 1675 0
-1674 -1672 1676 0
1674 -1676 0
1672 -1676 0
-1563 -1673 1677 0
1563 -1677 0
1673 -1677 0
1676 1677 -1678 0
-1676 1678 0
-1677 1678 0
-138 -1573 1679 0
138 -1679 0
1573 -1679 0
-1569 -1679 -1680 0
1569 1679 -1680 0
1569 -1679 1680 0
-1569 1679 1680 0
-1680 -1678 -1681 0
1680 1678 -1681 0
1680 -1678 1681 0
-1680 1678 1681 0
-1680 -1678 1682 0
1680 -1682 0
1678 -1682 0
-1569 -1679 1683 0
1569 -1683 0
1679 -1683 0
1682 1683 -1684 0
-1682 1684 0
-1683 1684 0
-146 -1573 1685 0
146 -1685 0
1573 -1685 0
-1572 -1685 -1686 0
1572 1685 -1686 0
1572 -1685 1686 0
-1572 1685 1686 0
-1686 -1684 -1687 0
1686 1684 -1687 0
1686 -1684 1687 0
-1686 1684 1687 0
-1686 -1684 1688 0
1686 -1688 0
1684 -1688 0
-1572 -1685 1689 0
1572 -1689 0
1685 -1689 0
1688 1689 -1690 0
-1688 1690 0
-1689 1690 0
-1 -1691 1692 0
1 -1692 0
1691 -1692 0
-1579 -1692 -1693 0
1579 1692 -1693 0
1579 -1692 1693 0
-1579 1692 1693 0
-1579 -1692 1694 0
1579 -1694 0
1692 -1694 0
-4 -1691 1695 0
4 -1695 0
1691 -1695 0
-1585 -1695 -1696 0
1585 1695 -1696 0
1585 -1695 1696 0
-1585 1695 1696 0
-1696 -1694 -1697 0
1696 1694 -1697 0
1696 -1694 1697 0
-1696 1694 1697 0
-1696 -1694 1698 0
1696 -1698 0
1694 -1698 0
-1585 -1695 1699 0
1585 -1699 0
1695 -1699 0
1698 1699 -1700 0
-1698 1700 0
-1699 1700 0
-10 -1691 1701 0
10 -1701 0
1691 -1701 0
-1591 -1701 -1702 0
1591 1701 -1702 0
1591 -1701 1702 0
-1591 1701 1702 0
-1702 -1700 -1703 0
1702 1700 -1703 0
1702 -1700 1703 0
-1702 1700 1703 0
-1702 -1700 1704 0
1702 -1704 0
1700 -1704 0
-1591 -1701 1705 0
1591 -1705 0
1701 -1705 0
1704 1705 -1706 0
-1704 1706 0
-1705 1706 0
-18 -1691 1707 0
18 -1707 0
1691 -1707 0
-1597 -1707 -1708 0
1597 1707 -1708 0
1597 -1707 1708 0
-1597 1707 1708 0
-1708 -1706 -1709 0
1708 1706 -1709 0
1708 -1706 1709 0
-1708 1706 1709 0
-1708 -1706 1710 0
1708 -1710 0
1706 -1710 0
-1597 -1707 1711 0
1597 -1711 0
1707 -1711 0
1710 1711 -1712 0
-1710 1712 0
-1711 1712 0
-26 -1691 1713 0
26 -1713 0
1691 -1713 0
-1603 -1713 -1714 0
1603 1713 -1714 0
1603 -1713 1714 0
-1603 1713 1714 0
-1714 -1712 -1715 0
1714 1712 -1715 0
1714 -1712 1715 0
-1714 1712 1715 0
-1714 -1712 1716 0
1714 -1716 0
1712 -1716 0
-1603 -1713 1717 0
1603 -1717 0
1713 -1717 0
1716 1717 -1718 0
-1716 1718 0
-1717 1718 0
-34 -1691 1719 0
34 -1719 0
1691 -1719 0
-1609 -1719 -1720 0
1609 1719 -1720 0
1609 -1719 1720 0
-1609 1719 1720 0
-1720 -1718 -1721 0
1720 1718 -1721 0
1720 -1718 1721 0
-1720 1718 1721 0
-1720 -1718 1722 0
1720 -1722 0
1718 -1722 0
-1609 -1719 1723 0
1609 -1723 0
1719 -1723 0
1722 1723 -1724 0
-1722 1724 0
-1723 1724 0
-42 -1691 1725 0
42 -1725 0
1691 -1725 0
-1615 -1725 -1726 0
1615 1725 -1726 0
1615 -1725 1726 0
-1615 1725 1726 0
-1726 -1724 -1727 0
1726 1724 -1727 0
1726 -1724 1727 0
-1726 1724 1727 0
-1726 -1724 1728 0
1726 -1728 0
1724 -1728 0
-1615 -1725 1729 0
1615 -1729 0
1725 -1729 0
1728 1729 -1730 0
-1728 1730 0
-1729 1730 0
-50 -1691 1731 0
50 -1731 0
1691 -1731 0
-1621 -1731 -1732 0
1621 1731 -1732 0
1621 -1731 1732 0
-1621 1731 1732 0
-1732 -1730 -1733 0
1732 1730 -1733 0
1732 -1730 1733 0
-1732 1730 1733 0
-1732 -1730 1734 0
1732 -1734 0
1730 -1734 0
-1621 -1731 1735 0
1621 -1735 0
1731 -1735 0
1734 1735 -1736 0
-1734 1736 0
-1735 1736 0
-58 -1691 1737 0
58 -1737 0
1691 -1737 0
-1627 -1737 -1738 0
1627 1737 -1738 0
1627 -1737 1738 0
-1627 1737 1738 0
-1738 -1736 -1739 0
1738 1736 -1739 0
1738 -1736 1739 0
-1738 1736 1739 0
-1738 -1736 1740 0
1738 -1740 0
1736 -1740 0
-1627 -1737 1741 0
1627 -1741 0
1737 -1741 0
1740 1741 -1742 0
-1740 1742 0
-1741 1742 0
-66 -1691 1743 0
66 -1743 0
1691 -1743 0
-1633 -1743 -1744 0
1633 1743 -1744 0
1633 -1743 1744 0
-1633 1743 1744 0
-1744 -1742 -1745 0
1744 1742 -1745 0
1744 -1742 1745 0
-1744 1742 1745 0
-1744 -1742 1746 0
1744 -1746 0
1742 -1746 0
-1633 -1743 1747 0
1633 -1747 0
1743 -1747 0
1746 1747 -1748 0
-1746 1748 0
-1747 1748 0
-74 -1691 1749 0
74 -1749 0
1691 -1749 0
-1639 -1749 -1750 0
1639 1749 -1750 0
1639 -1749 1750 0
-1639 1749 1750 0
-1750 -1748 -1751 0
1750 1748 -1751 0
1750 -1748 1751 0
-1750 1748 1751 0
-1750 -1748 1752 0
1750 -1752 0
1748 -1752 0
-1639 -1749 1753 0
1639 -1753 0
1749 -1753 0
1752 1753 -1754 0
-1752 1754 0
-1753 1754 0
-82 -1691 1755 0
82 -1755 0
1691 -1755 0
-1645 -1755 -1756 0
1645 1755 -1756 0
1645 -1755 1756 0
-1645 1755 1756 0
-1756 -1754 -1757 0
1756 1754 -1757 0
1756 -1754 1757 0
-1756 1754 1757 0
-1756 -1754 1758 0
1756 -1758 0
1754 -1758 0
-1645 -1755 1759 0
1645 -1759 0
1755 -1759 0
1758 1759 -1760 0
-1758 1760 0
-1759 1760 0
-90 -1691 1761 0
90 -1761 0
1691 -1761 0
-1651 -1761 -1762 0
1651 1761 -1762 0
1651 -1761 1762 0
-1651 1761 1762 0
-1762 -1760 -1763 0
1762 1760 -1763 0
1762 -1760 1763 0
-1762 1760 1763 0
-1762 -1760 1764 0
1762 -1764 0
1760 -1764 0
-1651 -1761 1765 0
1651 -1765 0
1761 -1765 0
1764 1765 -1766 0
-1764 1766 0
-1765 1766 0
-98 -1691 1767 0
98 -1767 0
1691 -1767 0
-1657 -1767 -1768 0
1657 1767 -1768 0
1657 -1767 1768 0
-1657 1767 1768 0
-1768 -1766 -1769 0
1768 1766 -1769 0
1768 -1766 1769 0
-1768 1766 1769 0
-1768 -1766 1770 0
1768 -1770 0
1766 -1770 0
-1657 -1767 1771 0
1657 -1771 0
1767 -1771 0
1770 1771 -1772 0
-1770 1772 0
-1771 1772 0
-106 -1691 1773 0
106 -1773 0
1691 -1773 0
-1663 -1773 -1774 0
1663 1773 -1774 0
1663 -1773 1774 0
-1663 1773 1774 0
-1774 -1772 -1775 0
1774 1772 -1775 0
1774 -1772 1775 0
-1774 1772 1775 0
-1774 -1772 1776 0
1774 -1776 0
1772 -1776 0
-1663 -1773 1777 0
1663 -1777 0
1773 -1777 0
1776 1777 -1778 0
-1776 1778 0
-1777 1778 0
-114 -1691 1779 0
114 -1779 0
1691 -1779 0
-1669 -1779 -1780 0
1669 1779 -1780 0
1669 -1779 1780 0
-1669 1779 1780 0
-1780 -1778 -1781 0
1780 1778 -1781 0
1780 -1778 1781 0
-1780 1778 1781 0
-1780 -1778 1782 0
1780 -1782 0
1778 -1782 0
-1669 -1779 1783 0
1669 -1783 0
1779 -1783 0
1782 1783 -1784 0
-1782 1784 0
-1783 1784 0
-122 -1691 1785 0
122 -1785 0
1691 -1785 0
-1675 -1785 -1786 0
1675 1785 -1786 0
1675 -1785 1786 0
-1675 1785 1786 0
-1786 -1784 -1787 0
1786 1784 -1787 0
1786 -1784 1787 0
-1786 1784 1787 0
-1786 -1784 1788 0
1786 -1788 0
1784 -1788 0
-1675 -1785 1789 0
1675 -1789 0
1785 -1789 0
1788 1789 -1790 0
-1788 1790 0
-1789 1790 0
-130 -1691 1791 0
130 -1791 0
1691 -1791 0
-1681 -1791 -1792 0
1681 1791 -1792 0
1681 -1791 1792 0
-1681 1791 1792 0
-1792 -1790 -1793 0
1792 1790 -1793 0
1792 -1790 1793 0
-1792 1790 1793 0
-1792 -1790 1794 0
1792 -1794 0
1790 -1794 0
-1681 -1791 1795 0
1681 -1795 0
1791 -1795 0
1794 1795 -1796 0
-1794 1796 0
-1795 1796 0
-138 -1691 1797 0
138 -1797 0
1691 -1797 0
-1687 -1797 -1798 0
1687 1797 -1798 0
1687 -1797 1798 0
-1687 1797 1798 0
-1798 -1796 -1799 0
1798 1796 -1799 0
1798 -1796 1799 0
-1798 1796 1799 0
-1798 -1796 1800 0
1798 -1800 0
1796 -1800 0
-1687 -1797 1801 0
1687 -1801 0
1797 -1801 0
1800 1801 -1802 0
-1800 1802 0
-1801 1802 0
-146 -1691 1803 0
146 -1803 0
1691 -1803 0
-1690 -1803 -1804 0
1690 1803 -1804 0
1690 -1803 1804 0
-1690 1803 1804 0
-1804 -1802 -1805 0
1804 1802 -1805 0
1804 -1802 1805 0
-1804 1802 1805 0
-1804 -1802 1806 0
1804 -1806 0
1802 -1806 0
-1690 -1803 1807 0
1690 -1807 0
1803 -1807 0
1806 1807 -1808 0
-1806 1808 0
-1807 1808 0
-1 -1809 1810 0
1 -1810 0
1809 -1810 0
-1697 -1810 -1811 0
1697 1810 -1811 0
1697 -1810 1811 0
-1697 1810 1811 0
-1697 -1810 1812 0
1697 -1812 0
1810 -1812 0
-4 -1809 1813 0
4 -1813 0
1809 -1813 0
-1703 -1813 -1814 0
1703 1813 -1814 0
1703 -1813 1814 0
-1703 1813 1814 0
-1814 -1812 -1815 0
1814 1812 -1815 0
1814 -1812 1815 0
-1814 1812 1815 0
-1814 -1812 1816 0
1814 -1816 0
1812 -1816 0
-1703 -1813 1817 0
1703 -1817 0
1813 -1817 0
1816 1817 -1818 0
-1816 1818 0
-1817 1818 0
-10 -1809 1819 0
10 -1819 0
1809 -1819 0
-1709 -1819 -1820 0
1709 1819 -1820 0
1709 -1819 1820 0
-1709 1819 1820 0
-1820 -1818 -1821 0
1820 1818 -1821 0
1820 -1818 1821 0
-1820 1818 1821 0
-1820 -1818 1822 0
1820 -1822 0
1818 -1822 0
-1709 -1819 1823 0
1709 -1823 0
1819 -1823 0
1822 1823 -1824 0
-1822 1824 0
-1823 1824 0
-18 -1809 1825 0
18 -1825 0
1809 -1825 0
-1715 -1825 -1826 0
1715 1825 -1826 0
1715 -1825 1826 0
-1715 1825 1826 0
-1826 -1824 -1827 0
1826 1824 -1827 0
1826 -1824 1827 0
-1826 1824 1827 0
-1826 -1824 1828 0
1826 -1828 0
1824 -1828 0
-1715 -1825 1829 0
1715 -1829 0
1825 -1829 0
1828 1829 -1830 0
-1828 1830 0
-1829 1830 0
-26 -1809 1831 0
26 -1831 0
1809 -1831 0
-1721 -1831 -1832 0
1721 1831 -1832 0
1721 -1831 1832 0
-1721 1831 1832 0
-1832 -1830 -1833 0
1832 1830 -1833 0
1832 -1830 1833 0
-1832 1830 1833 0
-1832 -1830 1834 0
1832 -1834 0
1830 -1834 0
-1721 -1831 1835 0
1721 -1835 0
1831 -1835 0
1834 1835 -1836 0
-1834 1836 0
-1835 1836 0
-34 -1809 1837 0
34 -1837 0
1809 -1837 0
-1727 -1837 -1838 0
1727 1837 -1838 0
1727 -1837 1838 0
-1727 1837 1838 0
-1838 -1836 -1839 0
1838 1836 -1839 0
1838 -1836 1839 0
-1838 1836 1839 0
-1838 -1836 1840 0
1838 -1840 0
1836 -1840 0
-1727 -1837 1841 0
1727 -1841 0
1837 -1841 0
1840 1841 -1842 0
-1840 1842 0
-1841 1842 0
-42 -1809 1843 0
42 -1843 0
1809 -1843 0
-1733 -1843 -1844 0
1733 1843 -1844 0
1733 -1843 1844 0
-1733 1843 1844 0
-1844 -1842 -1845 0
1844 1842 -1845 0
1844 -1842 1845 0
-1844 1842 1845 0
-1844 -1842 1846 0
1844 -1846 0
1842 -1846 0
-1733 -1843 1847 0
1733 -1847 0
1843 -1847 0
1846 1847 -1848 0
-1846 1848 0
-1847 1848 0
-50 -1809 1849 0
50 -1849 0
1809 -1849 0
-1739 -1849 -1850 0
1739 1849 -1850 0
1739 -1849 1850 0
-1739 1849 1850 0
-1850 -1848 -1851 0
1850 1848 -1851 0
1850 -1848 1851 0
-1850 1848 1851 0
-1850 -1848 1852 0
1850 -1852 0
1848 -1852 0
-1739 -1849 1853 0
1739 -1853 0
1849 -1853 0
1852 1853 -1854 0
-1852 1854 0
-1853 1854 0
-58 -1809 1855 0
58 -1855 0
1809 -1855 0
-1745 -1855 -1856 0
1745 1855 -1856 0
1745 -1855 1856 0
-1745 1855 1856 0
-1856 -1854 -1857 0
1856 1854 -1857 0
1856 -1854 1857 0
-1856 1854 1857 0
-1856 -1854 1858 0
1856 -1858 0
1854 -1858 0
-1745 -1855 1859 0
1745 -1859 0
1855 -1859 0
1858 1859 -1860 0
-1858 1860 0
-1859 1860 0
-66 -1809 1861 0
66 -1861 0
1809 -1861 0
-1751 -1861 -1862 0
1751 1861 -1862 0
1751 -1861 1862 0
-1751 1861 1862 0
-1862 -1860 -1863 0
1862 1860 -1863 0
1862 -1860 1863 0
-1862 1860 1863 0
-1862 -1860 1864 0
1862 -1864 0
1860 -1864 0
-1751 -1861 1865 0
1751 -1865 0
1861 -1865 0
1864 1865 -1866 0
-1864 1866 0
-1865 1866 0
-74 -1809 1867 0
74 -1867 0
1809 -1867 0
-1757 -1867 -1868 0
1757 1867 -1868 0
1757 -1867 1868 0
-1757 1867 1868 0
-1868 -1866 -1869 0
1868 1866 -1869 0
1868 -1866 1869 0
-1868 1866 1869 0
-1868 -1866 1870 0
1868 -1870 0
1866 -1870 0
-1757 -1867 1871 0
1757 -1871 0
1867 -1871 0
1870 1871 -1872 0
-1870 1872 0
-1871 1872 0
-82 -1809 1873 0
82 -1873 0
1809 -1873 0
-1763 -1873 -1874 0
1763 1873 -1874 0
1763 -1873 1874 0
-1763 1873 1874 0
-1874 -1872 -1875 0
1874 1872 -1875 0
1874 -1872 1875 0
-1874 1872 1875 0
-1874 -1872 1876 0
1874 -1876 0
1872 -1876 0
-1763 -1873 1877 0
1763 -1877 0
1873 -1877 0
1876 1877 -1878 0
-1876 1878 0
-1877 1878 0
-90 -1809 1879 0
90 -1879 0
1809 -1879 0
-1769 -1879 -1880 0
1769 1879 -1880 0
1769 -1879 1880 0
-1769 1879 1880 0
-1880 -1878 -1881 0
1880 1878 -1881 0
1880 -1878 1881 0
-1880 1878 1881 0
-1880 -1878 1882 0
1880 -1882 0
1878 -1882 0
-1769 -1879 1883 0
1769 -1883 0
1879 -1883 0
1882 1883 -1884 0
-1882 1884 0
-1883 1884 0
-98 -1809 1885 0
98 -1885 0
1809 -1885 0
-1775 -1885 -1886 0
1775 1885 -1886 0
1775 -1885 1886 0
-1775 1885 1886 0
-1886 -1884 -1887 0
1886 1884 -1887 0
1886 -1884 1887 0
-1886 1884 1887 0
-1886 -1884 1888 0
1886 -1888 0
1884 -1888 0
-1775 -1885 1889 0
1775 -1889 0
1885 -1889 0
1888 1889 -1890 0
-1888 1890 0
-1889 1890 0
-106 -1809 1891 0
106 -1891 0
1809 -1891 0
-1781 -1891 -1892 0
1781 1891 -1892 0
1781 -1891 1892 0
-1781 1891 1892 0
-1892 -1890 -1893 0
1892 1890 -1893 0
1892 -1890 1893 0
-1892 1890 1893 0
-1892 -1890 1894 0
1892 -1894 0
1890 -1894 0
-1781 -1891 1895 0
1781 -1895 0
1891 -1895 0
1894 1895 -1896 0
-1894 1896 0
-1895 1896 0
-114 -1809 1897 0
114 -1897 0
1809 -1897 0
-1787 -1897 -1898 0
1787 1897 -1898 0
1787 -1897 1898 0
-1787 1897 1898 0
-1898 -1896 -1899 0
1898 1896 -1899 0
1898 -1896 1899 0
-1898 1896 1899 0
-1898 -1896 1900 0
1898 -1900 0
1896 -1900 0
-1787 -1897 1901 0
1787 -1901 0
1897 -1901 0
1900 1901 -1902 0
-1900 1902 0
-1901 1902 0
-122 -1809 1903 0
122 -1903 0
1809 -1903 0
-1793 -1903 -1904 0
1793 1903 -1904 0
1793 -1903 1904 0
-1793 1903 1904 0
-1904 -1902 -1905 0
1904 1902 -1905 0
1904 -1902 1905 0
-1904 1902 1905 0
-1904 -1902 1906 0
1904 -1906 0
1902 -1906 0
-1793 -1903 1907 0
1793 -1907 0
1903 -1907 0
1906 1907 -1908 0
-1906 1908 0
-1907 1908 0
-130 -1809 1909 0
130 -1909 0
1809 -1909 0
-1799 -1909 -1910 0
1799 1909 -1910 0
1799 -1909 1910 0
-1799 1909 1910 0
-1910 -1908 -1911 0
1910 1908 -1911 0
1910 -1908 1911 0
-1910 1908 1911 0
-1910 -1908 1912 0
1910 -1912 0
1908 -1912 0
-1799 -1909 1913 0
1799 -1913 0
1909 -1913 0
1912 1913 -1914 0
-1912 1914 0
-1913 1914 0
-138 -1809 1915 0
138 -1915 0
1809 -1915 0
-1805 -1915 -1916 0
1805 1915 -1916 0
1805 -1915 1916 0
-1805 1915 1916 0
-1916 -1914 -1917 0
1916 1914 -1917 0
1916 -1914 1917 0
-1916 1914 1917 0
-1916 -1914 1918 0
1916 -1918 0
1914 -1918 0
-1805 -1915 1919 0
1805 -1919 0
1915 -1919 0
1918 1919 -1920 0
-1918 1920 0
-1919 1920 0
-146 -1809 1921 0
146 -1921 0
1809 -1921 0
-1808 -1921 -1922 0
1808 1921 -1922 0
1808 -1921 1922 0
-1808 1921 1922 0
-1922 -1920 -1923 0
1922 1920 -1923 0
1922 -1920 1923 0
-1922 1920 1923 0
-1922 -1920 1924 0
1922 -1924 0
1920 -1924 0
-1808 -1921 1925 0
1808 -1925 0
1921 -1925 0
1924 1925 -1926 0
-1924 1926 0
-1925 1926 0
-1 -1927 1928 0
1 -1928 0
1927 -1928 0
-1815 -1928 -1929 0
1815 1928 -1929 0
1815 -1928 1929 0
-1815 1928 1929 0
-1815 -1928 1930 0
1815 -1930 0
1928 -1930 0
-4 -1927 1931 0
4 -1931 0
1927 -1931 0
-1821 -1931 -1932 0
1821 1931 -1932 0
1821 -1931 1932 0
-1821 1931 1932 0
-1932 -1930 -1933 0
1932 1930 -1933 0
1932 -1930 1933 0
-1932 1930 1933 0
-1932 -1930 1934 0
1932 -1934 0
1930 -1934 0
-1821 -1931 1935 0
1821 -1935 0
1931 -1935 0
1934 1935 -1936 0
-1934 1936 0
-1935 1936 0
-10 -1927 1937 0
10 -1937 0
1927 -1937 0
-1827 -1937 -1938 0
1827 1937 -1938 0
1827 -1937 1938 0
-1827 1937 1938 0
-1938 -1936 -1939 0
1938 1936 -1939 0
1938 -1936 1939 0
-1938 1936 1939 0
-1938 -1936 1940 0
1938 -1940 0
1936 -1940 0
-1827 -1937 1941 0
1827 -1941 0
1937 -1941 0
1940 1941 -1942 0
-1940 1942 0
-1941 1942 0
-18 -1927 1943 0
18 -1943 0
1927 -1943 0
-1833 -1943 -1944 0
1833 1943 -1944 0
1833 -1943 1944 0
-1833 1943 1944 0
-1944 -1942 -1945 0
1944 1942 -1945 0
1944 -1942 1945 0
-1944 1942 1945 0
-1944 -1942 1946 0
1944 -1946 0
1942 -1946 0
-1833 -1943 1947 0
1833 -1947 0
1943 -1947 0
1946 1947 -1948 0
-1946 1948 0
-1947 1948 0
-26 -1927 1949 0
26 -1949 0
1927 -1949 0
-1839 -1949 -1950 0
1839 1949 -1950 0
1839 -1949 1950 0
-1839 1949 1950 0
-1950 -1948 -1951 0
1950 1948 -1951 0
1950 -1948 1951 0
-1950 1948 1951 0
-1950 -1948 1952 0
1950 -1952 0
1948 -1952 0
-1839 -1949 1953 0
1839 -1953 0
1949 -1953 0
1952 1953 -1954 0
-1952 1954 0
-1953 1954 0
-34 -1927 1955 0
34 -1955 0
1927 -1955 0
-1845 -1955 -1956 0
1845 1955 -1956 0
1845 -1955 1956 0
-1845 1955 1956 0
-1956 -1954 -1957 0
1956 1954 -1957 0
1956 -1954 1957 0
-1956 1954 1957 0
-1956 -1954 1958 0
1956 -1958 0
1954 -1958 0
-1845 -1955 1959 0
1845 -1959 0
1955 -1959 0
1958 1959 -1960 0
-1958 1960 0
-1959 1960 0
-42 -1927 1961 0
42 -1961 0
1927 -1961 0
-1851 -1961 -1962 0
1851 1961 -1962 0
1851 -1961 1962 0
-1851 1961 1962 0
-1962 -1960 -1963 0
1962 1960 -1963 0
1962 -1960 1963 0
-1962 1960 1963 0
-1962 -1960 1964 0
1962 -1964 0
1960 -1964 0
-1851 -1961 1965 0
1851 -1965 0
1961 -1965 0
1964 1965 -1966 0
-1964 1966 0
-1965 1966 0
-50 -1927 1967 0
50 -1967 0
1927 -1967 0
-1857 -1967 -1968 0
1857 1967 -1968 0
1857 -1967 1968 0
-1857 1967 1968 0
-1968 -1966 -1969 0
1968 1966 -1969 0
1968 -1966 1969 0
-1968 1966 1969 0
-1968 -1966 1970 0
1968 -1970 0
1966 -1970 0
-1857 -1967 1971 0
1857 -1971 0
1967 -1971 0
1970 1971 -1972 0
-1970 1972 0
-1971 1972 0
-58 -1927 1973 0
58 -1973 0
1927 -1973 0
-1863 -1973 -1974 0
1863 1973 -1974 0
1863 -1973 1974 0
-1863 1973 1974 0
-1974 -1972 -1975 0
1974 1972 -1975 0
1974 -1972 1975 0
-1974 1972 1975 0
-1974 -1972 1976 0
1974 -1976 0
1972 -1976 0
-1863 -1973 1977 0
1863 -1977 0
1973 -1977 0
1976 1977 -1978 0
-1976 1978 0
-1977 1978 0
-66 -1927 1979 0
66 -1979 0
1927 -1979 0
-1869 -1979 -1980 0
1869 1979 -1980 0
1869 -1979 1980 0
-1869 1979 1980 0
-1980 -1978 -1981 0
1980 1978 -1981 0
1980 -1978 1981 0
-1980 1978 1981 0
-1980 -1978 1982 0
1980 -1982 0
1978 -1982 0
-1869 -1979 1983 0
1869 -1983 0
1979 -1983 0
1982 1983 -1984 0
-1982 1984 0
-1983 1984 0
-74 -1927 1985 0
74 -1985 0
1927 -1985 0
-1875 -1985 -1986 0
1875 1985 -1986 0
1875 -1985 1986 0
-1875 1985 1986 0
-1986 -1984 -1987 0
1986 1984 -1987 0
1986 -1984 1987 0
-1986 1984 1987 0
-1986 -1984 1988 0
1986 -1988 0
1984 -1988 0
-1875 -1985 1989 0
1875 -1989 0
1985 -1989 0
1988 1989 -1990 0
-1988 1990 0
-1989 1990 0
-82 -1927 1991 0
82 -1991 0
1927 -1991 0
-1881 -1991 -1992 0
1881 1991 -1992 0
1881 -1991 1992 0
-1881 1991 1992 0
-1992 -1990 -1993 0
1992 1990 -1993 0
1992 -1990 1993 0
-1992 1990 1993 0
-1992 -1990 1994 0
1992 -1994 0
1990 -1994 0
-1881 -1991 1995 0
1881 -1995 0
1991 -1995 0
1994 1995 -1996 0
-1994 1996 0
-1995 1996 0
-90 -1927 1997 0
90 -1997 0
1927 -1997 0
-1887 -1997 -1998 0
1887 1997 -1998 0
1887 -1997 1998 0
-1887 1997 1998 0
-1998 -1996 -1999 0
1998 1996 -1999 0
1998 -1996 1999 0
-1998 1996 1999 0
-1998 -1996 2000 0
1998 -2000 0
1996 -2000 0
-1887 -1997 2001 0
1887 -2001 0
1997 -2001 0
2000 2001 -2002 0
-2000 2002 0
-2001 2002 0
-98 -1927 2003 0
98 -2003 0
1927 -2003 0
-1893 -2003 -2004 0
1893 2003 -2004 0
1893 -2003 2004 0
-1893 2003 2004 0
-2004 -2002 -2005 0
2004 2002 -2005 0
2004 -2002 2005 0
-2004 2002 2005 0
-2004 -2002 2006 0
2004 -2006 0
2002 -2006 0
-1893 -2003 2007 0
1893 -2007 0
2003 -2007 0
2006 2007 -2008 0
-2006 2008 0
-2007 2008 0
-106 -1927 2009 0
106 -2009 0
1927 -2009 0
-1899 -2009 -2010 0
1899 2009 -2010 0
1899 -2009 2010 0
-1899 2009 2010 0
-2010 -2008 -2011 0
2010 2008 -2011 0
2010 -2008 2011 0
-2010 2008 2011 0
-2010 -2008 2012 0
2010 -2012 0
2008 -2012 0
-1899 -2009 2013 0
1899 -2013 0
2009 -2013 0
2012 2013 -2014 0
-2012 2014 0
-2013 2014 0
-114 -1927 2015 0
114 -2015 0
1927 -2015 0
-1905 -2015 -2016 0
1905 2015 -2016 0
1905 -2015 2016 0
-1905 2015 2016 0
-2016 -2014 -2017 0
2016 2014 -2017 0
2016 -2014 2017 0
-2016 2014 2017 0
-2016 -2014 2018 0
2016 -2018 0
2014 -2018 0
-1905 -2015 2019 0
1905 -2019 0
2015 -2019 0
2018 2019 -2020 0
-2018 2020 0
-2019 2020 0
-122 -1927 2021 0
122 -2021 0
1927 -2021 0
-1911 -2021 -2022 0
1911 2021 -2022 0
1911 -2021 2022 0
-1911 2021 2022 0
-2022 -2020 -2023 0
2022 2020 -2023 0
2022 -2020 2023 0
-2022 2020 2023 0
-2022 -2020 2024 0
2022 -2024 0
2020 -2024 0
-1911 -2021 2025 0
1911 -2025 0
2021 -2025 0
2024 2025 -2026 0
-2024 2026 0
-2025 2026 0
-130 -1927 2027 0
130 -2027 0
1927 -2027 0
-1917 -2027 -2028 0
1917 2027 -2028 0
1917 -2027 2028 0
-1917 2027 2028 0
-2028 -2026 -2029 0
2028 2026 -2029 0
2028 -2026 2029 0
-2028 2026 2029 0
-2028 -2026 2030 0
2028 -2030 0
2026 -2030 0
-1917 -2027 2031 0
1917 -2031 0
2027 -2031 0
2030 2031 -2032 0
-2030 2032 0
-2031 2032 0
-138 -1927 2033 0
138 -2033 0
1927 -2033 0
-1923 -2033 -2034 0
1923 2033 -2034 0
1923 -2033 2034 0
-1923 2033 2034 0
-2034 -2032 -2035 0
2034 2032 -2035 0
2034 -2032 2035 0
-2034 2032 2035 0
-2034 -2032 2036 0
2034 -2036 0
2032 -2036 0
-1923 -2033 2037 0
1923 -2037 0
2033 -2037 0
2036 2037 -2038 0
-2036 2038 0
-2037 2038 0
-146 -1927 2039 0
146 -2039 0
1927 -2039 0
-1926 -2039 -2040 0
1926 2039 -2040 0
1926 -2039 2040 0
-1926 2039 2040 0
-2040 -2038 -2041 0
2040 2038 -2041 0
2040 -2038 2041 0
-2040 2038 2041 0
-2040 -2038 2042 0
2040 -2042 0
2038 -2042 0
-1926 -2039 2043 0
1926 -2043 0
2039 -2043 0
2042 2043 -2044 0
-2042 2044 0
-2043 2044 0
-1 -2045 2046 0
1 -2046 0
2045 -2046 0
-1933 -2046 -2047 0
1933 2046 -2047 0
1933 -2046 2047 0
-1933 2046 2047 0
-1933 -2046 2048 0
1933 -2048 0
2046 -2048 0
-4 -2045 2049 0
4 -2049 0
2045 -2049 0
-1939 -2049 -2050 0
1939 2049 -2050 0
1939 -2049 2050 0
-1939 2049 2050 0
-2050 -2048 -2051 0
2050 2048 -2051 0
2050 -2048 2051 0
-2050 2048 2051 0
-2050 -2048 2052 0
2050 -2052 0
2048 -2052 0
-1939 -2049 2053 0
1939 -2053 0
2049 -2053 0
2052 2053 -2054 0
-2052 2054 0
-2053 2054 0
-10 -2045 2055 0
10 -2055 0
2045 -2055 0
-1945 -2055 -2056 0
1945 2055 -2056 0
1945 -2055 2056 0
-1945 2055 2056 0
-2056 -2054 -2057 0
2056 2054 -2057 0
2056 -2054 2057 0
-2056 2054 2057 0
-2056 -2054 2058 0
2056 -2058 0
2054 -2058 0
-1945 -2055 2059 0
1945 -2059 0
2055 -2059 0
2058 2059 -2060 0
-2058 2060 0
-2059 2060 0
-18 -2045 2061 0
18 -2061 0
2045 -2061 0
-1951 -2061 -2062 0
1951 2061 -2062 0
1951 -2061 2062 0
-1951 2061 2062 0
-2062 -2060 -2063 0
2062 2060 -2063 0
2062 -2060 2063 0
-2062 2060 2063 0
-2062 -2060 2064 0
2062 -2064 0
2060 -2064 0
-1951 -2061 2065 0
1951 -2065 0
2061 -2065 0
2064 2065 -2066 0
-2064 2066 0
-2065 2066 0
-26 -2045 2067 0
26 -2067 0
2045 -2067 0
-1957 -2067 -2068 0
1957 2067 -2068 0
1957 -2067 2068 0
-1957 2067 2068 0
-2068 -2066 -2069 0
2068 2066 -2069 0
2068 -2066 2069 0
-2068 2066 2069 0
-2068 -2066 2070 0
2068 -2070 0
2066 -2070 0
-1957 -2067 2071 0
1957 -2071 0
2067 -2071 0
2070 2071 -2072 0
-2070 2072 0
-2071 2072 0
-34 -2045 2073 0
34 -2073 0
2045 -2073 0
-1963 -2073 -2074 0
1963 2073 -2074 0
1963 -2073 2074 0
-1963 2073 2074 0
-2074 -2072 -2075 0
2074 2072 -2075 0
2074 -2072 2075 0
-2074 2072 2075 0
-2074 -2072 2076 0
2074 -2076 0
2072 -2076 0
-1963 -2073 2077 0
1963 -2077 0
2073 -2077 0
2076 2077 -2078 0
-2076 2078 0
-2077 2078 0
-42 -2045 2079 0
42 -2079 0
2045 -2079 0
-1969 -2079 -2080 0
1969 2079 -2080 0
1969 -2079 2080 0
-1969 2079 2080 0
-2080 -2078 -2081 0
2080 2078 -2081 0
2080 -2078 2081 0
-2080 2078 2081 0
-2080 -2078 2082 0
2080 -2082 0
2078 -2082 0
-1969 -2079 2083 0
1969 -2083 0
2079 -2083 0
2082 2083 -2084 0
-2082 2084 0
-2083 2084 0
-50 -2045 2085 0
50 -2085 0
2045 -2085 0
-1975 -2085 -2086 0
1975 2085 -2086 0
1975 -2085 2086 0
-1975 2085 2086 0
-2086 -2084 -2087 0
2086 2084 -2087 0
2086 -2084 2087 0
-2086 2084 2087 0
-2086 -2084 2088 0
2086 -2088 0
2084 -2088 0
-1975 -2085 2089 0
1975 -2089 0
2085 -2089 0
2088 2089 -2090 0
-2088 2090 0
-2089 2090 0
-58 -2045 2091 0
58 -2091 0
2045 -2091 0
-1981 -2091 -2092 0
1981 2091 -2092 0
1981 -2091 2092 0
-1981 2091 2092 0
-2092 -2090 -2093 0
2092 2090 -2093 0
2092 -2090 2093 0
-2092 2090 2093 0
-2092 -2090 2094 0
2092 -2094 0
2090 -2094 0
-1981 -2091 2095 0
1981 -2095 0
2091 -2095 0
2094 2095 -2096 0
-2094 2096 0
-2095 2096 0
-66 -2045 2097 0
66 -2097 0
2045 -2097 0
-1987 -2097 -2098 0
1987 2097 -2098 0
1987 -2097 2098 0
-1987 2097 2098 0
-2098 -2096 -2099 0
2098 2096 -2099 0
2098 -2096 2099 0
-2098 2096 2099 0
-2098 -2096 2100 0
2098 -2100 0
2096 -2100 0
-1987 -2097 2101 0
1987 -2101 0
2097 -2101 0
2100 2101 -2102 0
-2100 2102 0
-2101 2102 0
-74 -2045 2103 0
74 -2103 0
2045 -2103 0
-1993 -2103 -2104 0
1993 2103 -2104 0
1993 -2103 2104 0
-1993 2103 2104 0
-2104 -2102 -2105 0
2104 2102 -2105 0
2104 -2102 2105 0
-2104 2102 2105 0
-2104 -2102 2106 0
2104 -2106 0
2102 -2106 0
-1993 -2103 2107 0
1993 -2107 0
2103 -2107 0
2106 2107 -2108 0
-2106 2108 0
-2107 2108 0
-82 -2045 2109 0
82 -2109 0
2045 -2109 0
-1999 -2109 -2110 0
1999 2109 -2110 0
1999 -2109 2110 0
-1999 2109 2110 0
-2110 -2108 -2111 0
2110 2108 -2111 0
2110 -2108 2111 0
-2110 2108 2111 0
-2110 -2108 2112 0
2110 -2112 0
2108 -2112 0
-1999 -2109 2113 0
1999 -2113 0
2109 -2113 0
2112 2113 -2114 0
-2112 2114 0
-2113 2114 0
-90 -2045 2115 0
90 -2115 0
2045 -2115 0
-2005 -2115 -2116 0
2005 2115 -2116 0
2005 -2115 2116 0
-2005 2115 2116 0
-2116 -2114 -2117 0
2116 2114 -2117 0
2116 -2114 2117 0
-2116 2114 2117 0
-2116 -2114 2118 0
2116 -2118 0
2114 -2118 0
-2005 -2115 2119 0
2005 -2119 0
2115 -2119 0
2118 2119 -2120 0
-2118 2120 0
-2119 2120 0
-98 -2045 2121 0
98 -2121 0
2045 -2121 0
-2011 -2121 -2122 0
2011 2121 -2122 0
2011 -2121 2122 0
-2011 2121 2122 0
-2122 -2120 -2123 0
2122 2120 -2123 0
2122 -2120 2123 0
-2122 2120 2123 0
-2122 -2120 2124 0
2122 -2124 0
2120 -2124 0
-2011 -2121 2125 0
2011 -2125 0
2121 -2125 0
2124 2125 -2126 0
-2124 2126 0
-2125 2126 0
-106 -2045 2127 0
106 -2127 0
2045 -2127 0
-2017 -2127 -2128 0
2017 2127 -2128 0
2017 -2127 2128 0
-2017 2127 2128 0
-2128 -2126 -2129 0
2128 2126 -2129 0
2128 -2126 2129 0
-2128 2126 2129 0
-2128 -2126 2130 0
2128 -2130 0
2126 -2130 0
-2017 -2127 2131 0
2017 -2131 0
2127 -2131 0
2130 2131 -2132 0
-2130 2132 0
-2131 2132 0
-114 -2045 2133 0
114 -2133 0
2045 -2133 0
-2023 -2133 -2134 0
2023 2133 -2134 0
2023 -2133 2134 0
-2023 2133 2134 0
-2134 -2132 -2135 0
2134 2132 -2135 0
2134 -2132 2135 0
-2134 2132 2135 0
-2134 -2132 2136 0
2134 -2136 0
2132 -2136 0
-2023 -2133 2137 0
2023 -2137 0
2133 -2137 0
2136 2137 -2138 0
-2136 2138 0
-2137 2138 0
-122 -2045 2139 0
122 -2139 0
2045 -2139 0
-2029 -2139 -2140 0
2029 2139 -2140 0
2029 -2139 2140 0
-2029 2139 2140 0
-2140 -2138 -2141 0
2140 2138 -2141 0
2140 -2138 2141 0
-2140 2138 2141 0
-2140 -2138 2142 0
2140 -2142 0
2138 -2142 0
-2029 -2139 2143 0
2029 -2143 0
2139 -2143 0
2142 2143 -2144 0
-2142 2144 0
-2143 2144 0
-130 -2045 2145 0
130 -2145 0
2045 -2145 0
-2035 -2145 -2146 0
2035 2145 -2146 0
2035 -2145 2146 0
-2035 2145 2146 0
-2146 -2144 -2147 0
2146 2144 -2147 0
2146 -2144 2147 0
-2146 2144 2147 0
-2146 -2144 2148 0
2146 -2148 0
2144 -2148 0
-2035 -2145 2149 0
2035 -2149 0
2145 -2149 0
2148 2149 -2150 0
-2148 2150 0
-2149 2150 0
-138 -2045 2151 0
138 -2151 0
2045 -2151 0
-2041 -2151 -2152 0
2041 2151 -2152 0
2041 -2151 2152 0
-2041 2151 2152 0
-2152 -2150 -2153 0
2152 2150 -2153 0
2152 -2150 2153 0
-2152 2150 2153 0
-2152 -2150 2154 0
2152 -2154 0
2150 -2154 0
-2041 -2151 2155 0
2041 -2155 0
2151 -2155 0
2154 2155 -2156 0
-2154 2156 0
-2155 2156 0
-146 -2045 2157 0
146 -2157 0
2045 -2157 0
-2044 -2157 -2158 0
2044 2157 -2158 0
2044 -2157 2158 0
-2044 2157 2158 0
-2158 -2156 -2159 0
2158 2156 -2159 0
2158 -2156 2159 0
-2158 2156 2159 0
-2158 -2156 2160 0
2158 -2160 0
2156 -2160 0
-2044 -2157 2161 0
2044 -2161 0
2157 -2161 0
2160 2161 -2162 0
-2160 2162 0
-2161 2162 0
-1 -2163 2164 0
1 -2164 0
2163 -2164 0
-2051 -2164 -2165 0
2051 2164 -2165 0
2051 -2164 2165 0
-2051 2164 2165 0
-2051 -2164 2166 0
2051 -2166 0
2164 -2166 0
-4 -2163 2167 0
4 -2167 0
2163 -2167 0
-2057 -2167 -2168 0
2057 2167 -2168 0
2057 -2167 2168 0
-2057 2167 2168 0
-2168 -2166 -2169 0
2168 2166 -2169 0
2168 -2166 2169 0
-2168 2166 2169 0
-2168 -2166 2170 0
2168 -2170 0
2166 -2170 0
-2057 -2167 2171 0
2057 -2171 0
2167 -2171 0
2170 2171 -2172 0
-2170 2172 0
-2171 2172 0
-10 -2163 2173 0
10 -2173 0
2163 -2173 0
-2063 -2173 -2174 0
2063 2173 -2174 0
2063 -2173 2174 0
-2063 2173 2174 0
-2174 -2172 -2175 0
2174 2172 -2175 0
2174 -2172 2175 0
-2174 2172 2175 0
-2174 -2172 2176 0
2174 -2176 0
2172 -2176 0
-2063 -2173 2177 0
2063 -2177 0
2173 -2177 0
2176 2177 -2178 0
-2176 2178 0
-2177 2178 0
-18 -2163 2179 0
18 -2179 0
2163 -2179 0
-2069 -2179 -2180 0
2069 2179 -2180 0
2069 -2179 2180 0
-2069 2179 2180 0
-2180 -2178 -2181 0
2180 2178 -2181 0
2180 -2178 2181 0
-2180 2178 2181 0
-2180 -2178 2182 0
2180 -2182 0
2178 -2182 0
-2069 -2179 2183 0
2069 -2183 0
2179 -2183 0
2182 2183 -2184 0
-2182 2184 0
-2183 2184 0
-26 -2163 2185 0
26 -2185 0
2163 -2185 0
-2075 -2185 -2186 0
2075 2185 -2186 0
2075 -2185 2186 0
-2075 2185 2186 0
-2186 -2184 -2187 0
2186 2184 -2187 0
2186 -2184 2187 0
-2186 2184 2187 0
-2186 -2184 2188 0
2186 -2188 0
2184 -2188 0
-2075 -2185 2189 0
2075 -2189 0
2185 -2189 0
2188 2189 -2190 0
-2188 2190 0
-2189 2190 0
-34 -2163 2191 0
34 -2191 0
2163 -2191 0
-2081 -2191 -2192 0
2081 2191 -2192 0
2081 -2191 2192 0
-2081 2191 2192 0
-2192 -2190 -2193 0
2192 2190 -2193 0
2192 -2190 2193 0
-2192 2190 2193 0
-2192 -2190 2194 0
2192 -2194 0
2190 -2194 0
-2081 -2191 2195 0
2081 -2195 0
2191 -2195 0
2194 2195 -2196 0
-2194 2196 0
-2195 2196 0
-42 -2163 2197 0
42 -2197 0
2163 -2197 0
-2087 -2197 -2198 0
2087 2197 -2198 0
2087 -2197 2198 0
-2087 2197 2198 0
-2198 -2196 -2199 0
2198 2196 -2199 0
2198 -2196 2199 0
-2198 2196 2199 0
-2198 -2196 2200 0
2198 -2200 0
2196 -2200 0
-2087 -2197 2201 0
2087 -2201 0
2197 -2201 0
2200 2201 -2202 0
-2200 2202 0
-2201 2202 0
-50 -2163 2203 0
50 -2203 0
2163 -2203 0
-2093 -2203 -2204 0
2093 2203 -2204 0
2093 -2203 2204 0
-2093 2203 2204 0
-2204 -2202 -2205 0
2204 2202 -2205 0
2204 -2202 2205 0
-2204 2202 2205 0
-2204 -2202 2206 0
2204 -2206 0
2202 -2206 0
-2093 -2203 2207 0
2093 -2207 0
2203 -2207 0
2206 2207 -2208 0
-2206 2208 0
-2207 2208 0
-58 -2163 2209 0
58 -2209 0
2163 -2209 0
-2099 -2209 -2210 0
2099 2209 -2210 0
2099 -2209 2210 0
-2099 2209 2210 0
-2210 -2208 -2211 0
2210 2208 -2211 0
2210 -2208 2211 0
-2210 2208 2211 0
-2210 -2208 2212 0
2210 -2212 0
2208 -2212 0
-2099 -2209 2213 0
2099 -2213 0
2209 -2213 0
2212 2213 -2214 0
-2212 2214 0
-2213 2214 0
-66 -2163 2215 0
66 -2215 0
2163 -2215 0
-2105 -2215 -2216 0
2105 2215 -2216 0
2105 -2215 2216 0
-2105 2215 2216 0
-2216 -2214 -2217 0
2216 2214 -2217 0
2216 -2214 2217 0
-2216 2214 2217 0
-2216 -2214 2218 0
2216 -2218 0
2214 -2218 0
-2105 -2215 2219 0
2105 -2219 0
2215 -2219 0
2218 2219 -2220 0
-2218 2220 0
-2219 2220 0
-74 -2163 2221 0
74 -2221 0
2163 -2221 0
-2111 -2221 -2222 0
2111 2221 -2222 0
2111 -2221 2222 0
-2111 2221 2222 0
-2222 -2220 -2223 0
2222 2220 -2223 0
2222 -2220 2223 0
-2222 2220 2223 0
-2222 -2220 2224 0
2222 -2224 0
2220 -2224 0
-2111 -2221 2225 0
2111 -2225 0
2221 -2225 0
2224 2225 -2226 0
-2224 2226 0
-2225 2226 0
-82 -2163 2227 0
82 -2227 0
2163 -2227 0
-2117 -2227 -2228 0
2117 2227 -2228 0
2117 -2227 2228 0
-2117 2227 2228 0
-2228 -2226 -2229 0
2228 2226 -2229 0
2228 -2226 2229 0
-2228 2226 2229 0
-2228 -2226 2230 0
2228 -2230 0
2226 -2230 0
-2117 -2227 2231 0
2117 -2231 0
2227 -2231 0
2230 2231 -2232 0
-2230 2232 0
-2231 2232 0
-90 -2163 2233 0
90 -2233 0
2163 -2233 0
-2123 -2233 -2234 0
2123 2233 -2234 0
2123 -2233 2234 0
-2123 2233 2234 0
-2234 -2232 -2235 0
2234 2232 -2235 0
2234 -2232 2235 0
-2234 2232 2235 0
-2234 -2232 2236 0
2234 -2236 0
2232 -2236 0
-2123 -2233 2237 0
2123 -2237 0
2233 -2237 0
2236 2237 -2238 0
-2236 2238 0
-2237 2238 0
-98 -2163 2239 0
98 -2239 0
2163 -2239 0
-2129 -2239 -2240 0
2129 2239 -2240 0
2129 -2239 2240 0
-2129 2239 2240 0
-2240 -2238 -2241 0
2240 2238 -2241 0
2240 -2238 2241 0
-2240 2238 2241 0
-2240 -2238 2242 0
2240 -2242 0
2238 -2242 0
-2129 -2239 2243 0
2129 -2243 0
2239 -2243 0
2242 2243 -2244 0
-2242 2244 0
-2243 2244 0
-106 -2163 2245 0
106 -2245 0
2163 -2245 0
-2135 -2245 -2246 0
2135 2245 -2246 0
2135 -2245 2246 0
-2135 2245 2246 0
-2246 -2244 -2247 0
2246 2244 -2247 0
2246 -2244 2247 0
-2246 2244 2247 0
-2246 -2244 2248 0
2246 -2248 0
2244 -2248 0
-2135 -2245 2249 0
2135 -2249 0
2245 -2249 0
2248 2249 -2250 0
-2248 2250 0
-2249 2250 0
-114 -2163 2251 0
114 -2251 0
2163 -2251 0
-2141 -2251 -2252 0
2141 2251 -2252 0
2141 -2251 2252 0
-2141 2251 2252 0
-2252 -2250 -2253 0
2252 2250 -2253 0
2252 -2250 2253 0
-2252 2250 2253 0
-2252 -2250 2254 0
2252 -2254 0
2250 -2254 0
-2141 -2251 2255 0
2141 -2255 0
2251 -2255 0
2254 2255 -2256 0
-2254 2256 0
-2255 2256 0
-122 -2163 2257 0
122 -2257 0
2163 -2257 0
-2147 -2257 -2258 0
2147 2257 -2258 0
2147 -2257 2258 0
-2147 2257 2258 0
-2258 -2256 -2259 0
2258 2256 -2259 0
2258 -2256 2259 0
-2258 2256 2259 0
-2258 -2256 2260 0
2258 -2260 0
2256 -2260 0
-2147 -2257 2261 0
2147 -2261 0
2257 -2261 0
2260 2261 -2262 0
-2260 2262 0
-2261 2262 0
-130 -2163 2263 0
130 -2263 0
2163 -2263 0
-2153 -2263 -2264 0
2153 2263 -2264 0
2153 -2263 2264 0
-2153 2263 2264 0
-2264 -2262 -2265 0
2264 2262 -2265 0
2264 -2262 2265 0
-2264 2262 2265 0
-2264 -2262 2266 0
2264 -2266 0
2262 -2266 0
-2153 -2263 2267 0
2153 -2267 0
2263 -2267 0
2266 2267 -2268 0
-2266 2268 0
-2267 2268 0
-138 -2163 2269 0
138 -2269 0
2163 -2269 0
-2159 -2269 -2270 0
2159 2269 -2270 0
2159 -2269 2270 0
-2159 2269 2270 0
-2270 -2268 -2271 0
2270 2268 -2271 0
2270 -2268 2271 0
-2270 2268 2271 0
-2270 -2268 2272 0
2270 -2272 0
2268 -2272 0
-2159 -2269 2273 0
2159 -2273 0
2269 -2273 0
2272 2273 -2274 0
-2272 2274 0
-2273 2274 0
-146 -2163 2275 0
146 -2275 0
2163 -2275 0
-2162 -2275 -2276 0
2162 2275 -2276 0
2162 -2275 2276 0
-2162 2275 2276 0
-2276 -2274 -2277 0
2276 2274 -2277 0
2276 -2274 2277 0
-2276 2274 2277 0
-2276 -2274 2278 0
2276 -2278 0
2274 -2278 0
-2162 -2275 2279 0
2162 -2279 0
2275 -2279 0
2278 2279 -2280 0
-2278 2280 0
-2279 2280 0
3 0
8 0
-159 0
-277 0
-395 0
513 0
631 0
-749 0
-867 0
-985 0
-1103 0
1221 0
-1339 0
1457 0
-1575 0
-1693 0
-1811 0
-1929 0
2047 0
-2165 0
-2169 0
-2175 0
-2181 0
-2187 0
-2193 0
-2199 0
-2205 0
-2211 0
-2217 0
-2223 0
-2229 0
-2235 0
-2241 0
-2247 0
-2253 0
-2259 0
-2265 0
-2271 0
-2277 0
-2280 0
