p cnf 3312 10920
-1 -2 3 0
1 -3 0
2 -3 0
-4 -2 5 0
4 -5 0
2 -5 0
-1 -6 7 0
1 -7 0
6 -7 0
-5 -7 -8 0
5 7 -8 0
5 -7 8 0
-5 7 8 0
-5 -7 9 0
5 -9 0
7 -9 0
-10 -2 11 0
10 -11 0
2 -11 0
-4 -6 12 0
4 -12 0
6 -12 0
-11 -12 -13 0
11 12 -13 0
11 -12 13 0
-11 12 13 0
-13 -9 -14 0
13 9 -14 0
13 -9 14 0
-13 9 14 0
-13 -9 15 0
13 -15 0
9 -15 0
-11 -12 16 0
11 -16 0
12 -16 0
15 16 -17 0
-15 17 0
-16 17 0
-18 -2 19 0
18 -19 0
2 -19 0
-10 -6 20 0
10 -20 0
6 -20 0
-19 -20 -21 0
19 20 -21 0
19 -20 21 0
-19 20 21 0
-21 -17 -22 0
21 17 -22 0
21 -17 22 0
-21 17 22 0
-21 -17 23 0
21 -23 0
17 -23 0
-19 -20 24 0
19 -24 0
20 -24 0
23 24 -25 0
-23 25 0
-24 25 0
-26 -2 27 0
26 -27 0
2 -27 0
-18 -6 28 0
18 -28 0
6 -28 0
-27 -28 -29 0
27 28 -29 0
27 -28 29 0
-27 28 29 0
-29 -25 -30 0
29 25 -30 0
29 -25 30 0
-29 25 30 0
-29 -25 31 0
29 -31 0
25 -31 0
-27 -28 32 0
27 -32 0
28 -32 0
31 32 -33 0
-31 33 0
-32 33 0
-34 -2 35 0
34 -35 0
2 -35 0
-26 -6 36 0
26 -36 0
6 -36 0
-35 -36 -37 0
35 36 -37 0
35 -36 37 0
-35 36 37 0
-37 -33 -38 0
37 33 -38 0
37 -33 38 0
-37 33 38 0
-37 -33 39 0
37 -39 0
33 -39 0
-35 -36 40 0
35 -40 0
36 -40 0
39 40 -41 0
-39 41 0
-40 41 0
-42 -2 43 0
42 -43 0
2 -43 0
-34 -6 44 0
34 -44 0
6 -44 0
-43 -44 -45 0
43 44 -45 0
43 -44 45 0
-43 44 45 0
-45 -41 -46 0
45 41 -46 0
45 -41 46 0
-45 41 46 0
-45 -41 47 0
45 -47 0
41 -47 0
-43 -44 48 0
43 -48 0
44 -48 0
47 48 -49 0
-47 49 0
-48 49 0
-50 -2 51 0
50 -51 0
2 -51 0
-42 -6 52 0
42 -52 0
6 -52 0
-51 -52 -53 0
51 52 -53 0
51 -52 53 0
-51 52 53 0
-53 -49 -54 0
53 49 -54 0
53 -49 54 0
-53 49 54 0
-53 -49 55 0
53 -55 0
49 -55 0
-51 -52 56 0
51 -56 0
52 -56 0
55 56 -57 0
-55 57 0
-56 57 0
-58 -2 59 0
58 -59 0
2 -59 0
-50 -6 60 0
50 -60 0
6 -60 0
-59 -60 -61 0
59 60 -61 0
59 -60 61 0
-59 60 61 0
-61 -57 -62 0
61 57 -62 0
61 -57 62 0
-61 57 62 0
-61 -57 63 0
61 -63 0
57 -63 0
-59 -60 64 0
59 -64 0
60 -64 0
63 64 -65 0
-63 65 0
-64 65 0
-66 -2 67 0
66 -67 0
2 -67 0
-58 -6 68 0
58 -68 0
6 -68 0
-67 -68 -69 0
67 68 -69 0
67 -68 69 0
-67 68 69 0
-69 -65 -70 0
69 65 -70 0
69 -65 70 0
-69 65 70 0
-69 -65 71 0
69 -71 0
65 -71 0
-67 -68 72 0
67 -72 0
68 -72 0
71 72 -73 0
-71 73 0
-72 73 0
-74 -2 75 0
74 -75 0
2 -75 0
-66 -6 76 0
66 -76 0
6 -76 0
-75 -76 -77 0
75 76 -77 0
75 -76 77 0
-75 76 77 0
-77 -73 -78 0
77 73 -78 0
77 -73 78 0
-77 73 78 0
-77 -73 79 0
77 -79 0
73 -79 0
-75 -76 80 0
75 -80 0
76 -80 0
79 80 -81 0
-79 81 0
-80 81 0
-82 -2 83 0
82 -83 0
2 -83 0
-74 -6 84 0
74 -84 0
6 -84 0
-83 -84 -85 0
83 84 -85 0
83 -84 85 0
-83 84 85 0
-85 -81 -86 0
85 81 -86 0
85 -81 86 0
-85 81 86 0
-85 -81 87 0
85 -87 0
81 -87 0
-83 -84 88 0
83 -88 0
84 -88 0
87 88 -89 0
-87 89 0
-88 89 0
-90 -2 91 0
90 -91 0
2 -91 0
-82 -6 92 0
82 -92 0
6 -92 0
-91 -92 -93 0
91 92 -93 0
91 -92 93 0
-91 92 93 0
-93 -89 -94 0
93 89 -94 0
93 -89 94 0
-93 89 94 0
-93 -89 95 0
93 -95 0
89 -95 0
-91 -92 96 0
91 -96 0
92 -96 0
95 96 -97 0
-95 97 0
-96 97 0
-98 -2 99 0
98 -99 0
2 -99 0
-90 -6 100 0
90 -100 0
6 -100 0
-99 -100 -101 0
99 100 -101 0
99 -100 101 0
-99 100 101 0
-101 -97 -102 0
101 97 -102 0
101 -97 102 0
-101 97 102 0
-101 -97 103 0
101 -103 0
97 -103 0
-99 -100 104 0
99 -104 0
100 -104 0
103 104 -105 0
-103 105 0
-104 105 0
-106 -2 107 0
106 -107 0
2 -107 0
-98 -6 108 0
98 -108 0
6 -108 0
-107 -108 -109 0
107 108 -109 0
107 -108 109 0
-107 108 109 0
-109 -105 -110 0
109 105 -110 0
109 -105 110 0
-109 105 110 0
-109 -105 111 0
109 -111 0
105 -111 0
-107 -108 112 0
107 -112 0
108 -112 0
111 112 -113 0
-111 113 0
-112 113 0
-114 -2 115 0
114 -115 0
2 -115 0
-106 -6 116 0
106 -116 0
6 -116 0
-115 -116 -117 0
115 116 -117 0
115 -116 117 0
-115 116 117 0
-117 -113 -118 0
117 113 -118 0
117 -113 118 0
-117 113 118 0
-117 -113 119 0
117 -119 0
113 -119 0
-115 -116 120 0
115 -120 0
116 -120 0
119 120 -121 0
-119 121 0
-120 121 0
-122 -2 123 0
122 -123 0
2 -123 0
-114 -6 124 0
114 -124 0
6 -124 0
-123 -124 -125 0
123 124 -125 0
123 -124 125 0
-123 124 125 0
-125 -121 -126 0
125 121 -126 0
125 -121 126 0
-125 121 126 0
-125 -121 127 0
125 -127 0
121 -127 0
-123 -124 128 0
123 -128 0
124 -128 0
127 128 -129 0
-127 129 0
-128 129 0
-130 -2 131 0
130 -131 0
2 -131 0
-122 -6 132 0
122 -132 0
6 -132 0
-131 -132 -133 0
131 132 -133 0
131 -132 133 0
-131 132 133 0
-133 -129 -134 0
133 129 -134 0
133 -129 134 0
-133 129 134 0
-133 -129 135 0
133 -135 0
129 -135 0
-131 -132 136 0
131 -136 0
132 -136 0
135 136 -137 0
-135 137 0
-136 137 0
-138 -2 139 0
138 -139 0
2 -139 0
-130 -6 140 0
130 -140 0
6 -140 0
-139 -140 -141 0
139 140 -141 0
139 -140 141 0
-139 140 141 0
-141 -137 -142 0
141 137 -142 0
141 -137 142 0
-141 137 142 0
-141 -137 143 0
141 -143 0
137 -143 0
-139 -140 144 0
139 -144 0
140 -144 0
143 144 -145 0
-143 145 0
-144 145 0
-146 -2 147 0
146 -147 0
2 -147 0
-138 -6 148 0
138 -148 0
6 -148 0
-147 -148 -149 0
147 148 -149 0
147 -148 149 0
-147 148 149 0
-149 -145 -150 0
149 145 -150 0
149 -145 150 0
-149 145 150 0
-149 -145 151 0
149 -151 0
145 -151 0
-147 -148 152 0
147 -152 0
148 -152 0
151 152 -153 0
-151 153 0
-152 153 0
-154 -2 155 0
154 -155 0
2 -155 0
-146 -6 156 0
146 -156 0
6 -156 0
-155 -156 -157 0
155 156 -157 0
155 -156 157 0
-155 156 157 0
-157 -153 -158 0
157 153 -158 0
157 -153 158 0
-157 153 158 0
-157 -153 159 0
157 -159 0
153 -159 0
-155 -156 160 0
155 -160 0
156 -160 0
159 160 -161 0
-159 161 0
-160 161 0
-162 -2 163 0
162 -163 0
2 -163 0
-154 -6 164 0
154 -164 0
6 -164 0
-163 -164 -165 0
163 164 -165 0
163 -164 165 0
-163 164 165 0
-165 -161 -166 0
165 161 -166 0
165 -161 166 0
-165 161 166 0
-165 -161 167 0
165 -167 0
161 -167 0
-163 -164 168 0
163 -168 0
164 -168 0
167 168 -169 0
-167 169 0
-168 169 0
-170 -2 171 0
170 -171 0
2 -171 0
-162 -6 172 0
162 -172 0
6 -172 0
-171 -172 -173 0
171 172 -173 0
171 -172 173 0
-171 172 173 0
-173 -169 -174 0
173 169 -174 0
173 -169 174 0
-173 169 174 0
-173 -169 175 0
173 -175 0
169 -175 0
-171 -172 176 0
171 -176 0
172 -176 0
175 176 -177 0
-175 177 0
-176 177 0
-178 -2 179 0
178 -179 0
2 -179 0
-170 -6 180 0
170 -180 0
6 -180 0
-179 -180 -181 0
179 180 -181 0
179 -180 181 0
-179 180 181 0
-181 -177 -182 0
181 177 -182 0
181 -177 182 0
-181 177 182 0
-181 -177 183 0
181 -183 0
177 -183 0
-179 -180 184 0
179 -184 0
180 -184 0
183 184 -185 0
-183 185 0
-184 185 0
-178 -6 186 0
178 -186 0
6 -186 0
-185 -186 -187 0
185 186 -187 0
185 -186 187 0
-185 186 187 0
-185 -186 188 0
185 -188 0
186 -188 0
-1 -189 190 0
1 -190 0
189 -190 0
-14 -190 -191 0
14 190 -191 0
14 -190 191 0
-14 190 191 0
-14 -190 192 0
14 -192 0
190 -192 0
-4 -189 193 0
4 -193 0
189 -193 0
-22 -193 -194 0
22 193 -194 0
22 -193 194 0
-22 193 194 0
-194 -192 -195 0
194 192 -195 0
194 -192 195 0
-194 192 195 0
-194 -192 196 0
194 -196 0
192 -196 0
-22 -193 197 0
22 -197 0
193 -197 0
196 197 -198 0
-196 198 0
-197 198 0
-10 -189 199 0
10 -199 0
189 -199 0
-30 -199 -200 0
30 199 -200 0
30 -199 200 0
-30 199 200 0
-200 -198 -201 0
200 198 -201 0
200 -198 201 0
-200 198 201 0
-200 -198 202 0
200 -202 0
198 -202 0
-30 -199 203 0
30 -203 0
199 -203 0
202 203 -204 0
-202 204 0
-203 204 0
-18 -189 205 0
18 -205 0
189 -205 0
-38 -205 -206 0
38 205 -206 0
38 -205 206 0
-38 205 206 0
-206 -204 -207 0
206 204 -207 0
206 -204 207 0
-206 204 207 0
-206 -204 208 0
206 -208 0
204 -208 0
-38 -205 209 0
38 -209 0
205 -209 0
208 209 -210 0
-208 210 0
-209 210 0
-26 -189 211 0
26 -211 0
189 -211 0
-46 -211 -212 0
46 211 -212 0
46 -211 212 0
-46 211 212 0
-212 -210 -213 0
212 210 -213 0
212 -210 213 0
-212 210 213 0
-212 -210 214 0
212 -214 0
210 -214 0
-46 -211 215 0
46 -215 0
211 -215 0
214 215 -216 0
-214 216 0
-215 216 0
-34 -189 217 0
34 -217 0
189 -217 0
-54 -217 -218 0
54 217 -218 0
54 -217 218 0
-54 217 218 0
-218 -216 -219 0
218 216 -219 0
218 -216 219 0
-218 216 219 0
-218 -216 220 0
218 -220 0
216 -220 0
-54 -217 221 0
54 -221 0
217 -221 0
220 221 -222 0
-220 222 0
-221 222 0
-42 -189 223 0
42 -223 0
189 -223 0
-62 -223 -224 0
62 223 -224 0
62 -223 224 0
-62 223 224 0
-224 -222 -225 0
224 222 -225 0
224 -222 225 0
-224 222 225 0
-224 -222 226 0
224 -226 0
222 -226 0
-62 -223 227 0
62 -227 0
223 -227 0
226 227 -228 0
-226 228 0
-227 228 0
-50 -189 229 0
50 -229 0
189 -229 0
-70 -229 -230 0
70 229 -230 0
70 -229 230 0
-70 229 230 0
-230 -228 -231 0
230 228 -231 0
230 -228 231 0
-230 228 231 0
-230 -228 232 0
230 -232 0
228 -232 0
-70 -229 233 0
70 -233 0
229 -233 0
232 233 -234 0
-232 234 0
-233 234 0
-58 -189 235 0
58 -235 0
189 -235 0
-78 -235 -236 0
78 235 -236 0
78 -235 236 0
-78 235 236 0
-236 -234 -237 0
236 234 -237 0
236 -234 237 0
-236 234 237 0
-236 -234 238 0
236 -238 0
234 -238 0
-78 -235 239 0
78 -239 0
235 -239 0
238 239 -240 0
-238 240 0
-239 240 0
-66 -189 241 0
66 -241 0
189 -241 0
-86 -241 -242 0
86 241 -242 0
86 -241 242 0
-86 241 242 0
-242 -240 -243 0
242 240 -243 0
242 -240 243 0
-242 240 243 0
-242 -240 244 0
242 -244 0
240 -244 0
-86 -241 245 0
86 -245 0
241 -245 0
244 245 -246 0
-244 246 0
-245 246 0
-74 -189 247 0
74 -247 0
189 -247 0
-94 -247 -248 0
94 247 -248 0
94 -247 248 0
-94 247 248 0
-248 -246 -249 0
248 246 -249 0
248 -246 249 0
-248 246 249 0
-248 -246 250 0
248 -250 0
246 -250 0
-94 -247 251 0
94 -251 0
247 -251 0
250 251 -252 0
-250 252 0
-251 252 0
-82 -189 253 0
82 -253 0
189 -253 0
-102 -253 -254 0
102 253 -254 0
102 -253 254 0
-102 253 254 0
-254 -252 -255 0
254 252 -255 0
254 -252 255 0
-254 252 255 0
-254 -252 256 0
254 -256 0
252 -256 0
-102 -253 257 0
102 -257 0
253 -257 0
256 257 -258 0
-256 258 0
-257 258 0
-90 -189 259 0
90 -259 0
189 -259 0
-110 -259 -260 0
110 259 -260 0
110 -259 260 0
-110 259 260 0
-260 -258 -261 0
260 258 -261 0
260 -258 261 0
-260 258 261 0
-260 -258 262 0
260 -262 0
258 -262 0
-110 -259 263 0
110 -263 0
259 -263 0
262 263 -264 0
-262 264 0
-263 264 0
-98 -189 265 0
98 -265 0
189 -265 0
-118 -265 -266 0
118 265 -266 0
118 -265 266 0
-118 265 266 0
-266 -264 -267 0
266 264 -267 0
266 -264 267 0
-266 264 267 0
-266 -264 268 0
266 -268 0
264 -268 0
-118 -265 269 0
118 -269 0
265 -269 0
268 269 -270 0
-268 270 0
-269 270 0
-106 -189 271 0
106 -271 0
189 -271 0
-126 -271 -272 0
126 271 -272 0
126 -271 272 0
-126 271 272 0
-272 -270 -273 0
272 270 -273 0
272 -270 273 0
-272 270 273 0
-272 -270 274 0
272 -274 0
270 -274 0
-126 -271 275 0
126 -275 0
271 -275 0
274 275 -276 0
-274 276 0
-275 276 0
-114 -189 277 0
114 -277 0
189 -277 0
-134 -277 -278 0
134 277 -278 0
134 -277 278 0
-134 277 278 0
-278 -276 -279 0
278 276 -279 0
278 -276 279 0
-278 276 279 0
-278 -276 280 0
278 -280 0
276 -280 0
-134 -277 281 0
134 -281 0
277 -281 0
280 281 -282 0
-280 282 0
-281 282 0
-122 -189 283 0
122 -283 0
189 -283 0
-142 -283 -284 0
142 283 -284 0
142 -283 284 0
-142 283 284 0
-284 -282 -285 0
284 282 -285 0
284 -282 285 0
-284 282 285 0
-284 -282 286 0
284 -286 0
282 -286 0
-142 -283 287 0
142 -287 0
283 -287 0
286 287 -288 0
-286 288 0
-287 288 0
-130 -189 289 0
130 -289 0
189 -289 0
-150 -289 -290 0
150 289 -290 0
150 -289 290 0
-150 289 290 0
-290 -288 -291 0
290 288 -291 0
290 -288 291 0
-290 288 291 0
-290 -288 292 0
290 -292 0
288 -292 0
-150 -289 293 0
150 -293 0
289 -293 0
292 293 -294 0
-292 294 0
-293 294 0
-138 -189 295 0
138 -295 0
189 -295 0
-158 -295 -296 0
158 295 -296 0
158 -295 296 0
-158 295 296 0
-296 -294 -297 0
296 294 -297 0
296 -294 297 0
-296 294 297 0
-296 -294 298 0
296 -298 0
294 -298 0
-158 -295 299 0
158 -299 0
295 -299 0
298 299 -300 0
-298 300 0
-299 300 0
-146 -189 301 0
146 -301 0
189 -301 0
-166 -301 -302 0
166 301 -302 0
166 -301 302 0
-166 301 302 0
-302 -300 -303 0
302 300 -303 0
302 -300 303 0
-302 300 303 0
-302 -300 304 0
302 -304 0
300 -304 0
-166 -301 305 0
166 -305 0
301 -305 0
304 305 -306 0
-304 306 0
-305 306 0
-154 -189 307 0
154 -307 0
189 -307 0
-174 -307 -308 0
174 307 -308 0
174 -307 308 0
-174 307 308 0
-308 -306 -309 0
308 306 -309 0
308 -306 309 0
-308 306 309 0
-308 -306 310 0
308 -310 0
306 -310 0
-174 -307 311 0
174 -311 0
307 -311 0
310 311 -312 0
-310 312 0
-311 312 0
-162 -189 313 0
162 -313 0
189 -313 0
-182 -313 -314 0
182 313 -314 0
182 -313 314 0
-182 313 314 0
-314 -312 -315 0
314 312 -315 0
314 -312 315 0
-314 312 315 0
-314 -312 316 0
314 -316 0
312 -316 0
-182 -313 317 0
182 -317 0
313 -317 0
316 317 -318 0
-316 318 0
-317 318 0
-170 -189 319 0
170 -319 0
189 -319 0
-187 -319 -320 0
187 319 -320 0
187 -319 320 0
-187 319 320 0
-320 -318 -321 0
320 318 -321 0
320 -318 321 0
-320 318 321 0
-320 -318 322 0
320 -322 0
318 -322 0
-187 -319 323 0
187 -323 0
319 -323 0
322 323 -324 0
-322 324 0
-323 324 0
-178 -189 325 0
178 -325 0
189 -325 0
-188 -325 -326 0
188 325 -326 0
188 -325 326 0
-188 325 326 0
-326 -324 -327 0
326 324 -327 0
326 -324 327 0
-326 324 327 0
-326 -324 328 0
326 -328 0
324 -328 0
-188 -325 329 0
188 -329 0
325 -329 0
328 329 -330 0
-328 330 0
-329 330 0
-1 -331 332 0
1 -332 0
331 -332 0
-195 -332 -333 0
195 332 -333 0
195 -332 333 0
-195 332 333 0
-195 -332 334 0
195 -334 0
332 -334 0
-4 -331 335 0
4 -335 0
331 -335 0
-201 -335 -336 0
201 335 -336 0
201 -335 336 0
-201 335 336 0
-336 -334 -337 0
336 334 -337 0
336 -334 337 0
-336 334 337 0
-336 -334 338 0
336 -338 0
334 -338 0
-201 -335 339 0
201 -339 0
335 -339 0
338 339 -340 0
-338 340 0
-339 340 0
-10 -331 341 0
10 -341 0
331 -341 0
-207 -341 -342 0
207 341 -342 0
207 -341 342 0
-207 341 342 0
-342 -340 -343 0
342 340 -343 0
342 -340 343 0
-342 340 343 0
-342 -340 344 0
342 -344 0
340 -344 0
-207 -341 345 0
207 -345 0
341 -345 0
344 345 -346 0
-344 346 0
-345 346 0
-18 -331 347 0
18 -347 0
331 -347 0
-213 -347 -348 0
213 347 -348 0
213 -347 348 0
-213 347 348 0
-348 -346 -349 0
348 346 -349 0
348 -346 349 0
-348 346 349 0
-348 -346 350 0
348 -350 0
346 -350 0
-213 -347 351 0
213 -351 0
347 -351 0
350 351 -352 0
-350 352 0
-351 352 0
-26 -331 353 0
26 -353 0
331 -353 0
-219 -353 -354 0
219 353 -354 0
219 -353 354 0
-219 353 354 0
-354 -352 -355 0
354 352 -355 0
354 -352 355 0
-354 352 355 0
-354 -352 356 0
354 -356 0
352 -356 0
-219 -353 357 0
219 -357 0
353 -357 0
356 357 -358 0
-356 358 0
-357 358 0
-34 -331 359 0
34 -359 0
331 -359 0
-225 -359 -360 0
225 359 -360 0
225 -359 360 0
-225 359 360 0
-360 -358 -361 0
360 358 -361 0
360 -358 361 0
-360 358 361 0
-360 -358 362 0
360 -362 0
358 -362 0
-225 -359 363 0
225 -363 0
359 -363 0
362 363 -364 0
-362 364 0
-363 364 0
-42 -331 365 0
42 -365 0
331 -365 0
-231 -365 -366 0
231 365 -366 0
231 -365 366 0
-231 365 366 0
-366 -364 -367 0
366 364 -367 0
366 -364 367 0
-366 364 367 0
-366 -364 368 0
366 -368 0
364 -368 0
-231 -365 369 0
231 -369 0
365 -369 0
368 369 -370 0
-368 370 0
-369 370 0
-50 -331 371 0
50 -371 0
331 -371 0
-237 -371 -372 0
237 371 -372 0
237 -371 372 0
-237 371 372 0
-372 -370 -373 0
372 370 -373 0
372 -370 373 0
-372 370 373 0
-372 -370 374 0
372 -374 0
370 -374 0
-237 -371 375 0
237 -375 0
371 -375 0
374 375 -376 0
-374 376 0
-375 376 0
-58 -331 377 0
58 -377 0
331 -377 0
-243 -377 -378 0
243 377 -378 0
243 -377 378 0
-243 377 378 0
-378 -376 -379 0
378 376 -379 0
378 -376 379 0
-378 376 379 0
-378 -376 380 0
378 -380 0
376 -380 0
-243 -377 381 0
243 -381 0
377 -381 0
380 381 -382 0
-380 382 0
-381 382 0
-66 -331 383 0
66 -383 0
331 -383 0
-249 -383 -384 0
249 383 -384 0
249 -383 384 0
-249 383 384 0
-384 -382 -385 0
384 382 -385 0
384 -382 385 0
-384 382 385 0
-384 -382 386 0
384 -386 0
382 -386 0
-249 -383 387 0
249 -387 0
383 -387 0
386 387 -388 0
-386 388 0
-387 388 0
-74 -331 389 0
74 -389 0
331 -389 0
-255 -389 -390 0
255 389 -390 0
255 -389 390 0
-255 389 390 0
-390 -388 -391 0
390 388 -391 0
390 -388 391 0
-390 388 391 0
-390 -388 392 0
390 -392 0
388 -392 0
-255 -389 393 0
255 -393 0
389 -393 0
392 393 -394 0
-392 394 0
-393 394 0
-82 -331 395 0
82 -395 0
331 -395 0
-261 -395 -396 0
261 395 -396 0
261 -395 396 0
-261 395 396 0
-396 -394 -397 0
396 394 -397 0
396 -394 397 0
-396 394 397 0
-396 -394 398 0
396 -398 0
394 -398 0
-261 -395 399 0
261 -399 0
395 -399 0
398 399 -400 0
-398 400 0
-399 400 0
-90 -331 401 0
90 -401 0
331 -401 0
-267 -401 -402 0
267 401 -402 0
267 -401 402 0
-267 401 402 0
-402 -400 -403 0
402 400 -403 0
402 -400 403 0
-402 400 403 0
-402 -400 404 0
402 -404 0
400 -404 0
-267 -401 405 0
267 -405 0
401 -405 0
404 405 -406 0
-404 406 0
-405 406 0
-98 -331 407 0
98 -407 0
331 -407 0
-273 -407 -408 0
273 407 -408 0
273 -407 408 0
-273 407 408 0
-408 -406 -409 0
408 406 -409 0
408 -406 409 0
-408 406 409 0
-408 -406 410 0
408 -410 0
406 -410 0
-273 -407 411 0
273 -411 0
407 -411 0
410 411 -412 0
-410 412 0
-411 412 0
-106 -331 413 0
106 -413 0
331 -413 0
-279 -413 -414 0
279 413 -414 0
279 -413 414 0
-279 413 414 0
-414 -412 -415 0
414 412 -415 0
414 -412 415 0
-414 412 415 0
-414 -412 416 0
414 -416 0
412 -416 0
-279 -413 417 0
279 -417 0
413 -417 0
416 417 -418 0
-416 418 0
-417 418 0
-114 -331 419 0
114 -419 0
331 -419 0
-285 -419 -420 0
285 419 -420 0
285 -419 420 0
-285 419 420 0
-420 -418 -421 0
420 418 -421 0
420 -418 421 0
-420 418 421 0
-420 -418 422 0
420 -422 0
418 -422 0
-285 -419 423 0
285 -423 0
419 -423 0
422 423 -424 0
-422 424 0
-423 424 0
-122 -331 425 0
122 -425 0
331 -425 0
-291 -425 -426 0
291 425 -426 0
291 -425 426 0
-291 425 426 0
-426 -424 -427 0
426 424 -427 0
426 -424 427 0
-426 424 427 0
-426 -424 428 0
426 -428 0
424 -428 0
-291 -425 429 0
291 -429 0
425 -429 0
428 429 -430 0
-428 430 0
-429 430 0
-130 -331 431 0
130 -431 0
331 -431 0
-297 -431 -432 0
297 431 -432 0
297 -431 432 0
-297 431 432 0
-432 -430 -433 0
432 430 -433 0
432 -430 433 0
-432 430 433 0
-432 -430 434 0
432 -434 0
430 -434 0
-297 -431 435 0
297 -435 0
431 -435 0
434 435 -436 0
-434 436 0
-435 436 0
-138 -331 437 0
138 -437 0
331 -437 0
-303 -437 -438 0
303 437 -438 0
303 -437 438 0
-303 437 438 0
-438 -436 -439 0
438 436 -439 0
438 -436 439 0
-438 436 439 0
-438 -436 440 0
438 -440 0
436 -440 0
-303 -437 441 0
303 -441 0
437 -441 0
440 441 -442 0
-440 442 0
-441 442 0
-146 -331 443 0
146 -443 0
331 -443 0
-309 -443 -444 0
309 443 -444 0
309 -443 444 0
-309 443 444 0
-444 -442 -445 0
444 442 -445 0
444 -442 445 0
-444 442 445 0
-444 -442 446 0
444 -446 0
442 -446 0
-309 -443 447 0
309 -447 0
443 -447 0
446 447 -448 0
-446 448 0
-447 448 0
-154 -331 449 0
154 -449 0
331 -449 0
-315 -449 -450 0
315 449 -450 0
315 -449 450 0
-315 449 450 0
-450 -448 -451 0
450 448 -451 0
450 -448 451 0
-450 448 451 0
-450 -448 452 0
450 -452 0
448 -452 0
-315 -449 453 0
315 -453 0
449 -453 0
452 453 -454 0
-452 454 0
-453 454 0
-162 -331 455 0
162 -455 0
331 -455 0
-321 -455 -456 0
321 455 -456 0
321 -455 456 0
-321 455 456 0
-456 -454 -457 0
456 454 -457 0
456 -454 457 0
-456 454 457 0
-456 -454 458 0
456 -458 0
454 -458 0
-321 -455 459 0
321 -459 0
455 -459 0
458 459 -460 0
-458 460 0
-459 460 0
-170 -331 461 0
170 -461 0
331 -461 0
-327 -461 -462 0
327 461 -462 0
327 -461 462 0
-327 461 462 0
-462 -460 -463 0
462 460 -463 0
462 -460 463 0
-462 460 463 0
-462 -460 464 0
462 -464 0
460 -464 0
-327 -461 465 0
327 -465 0
461 -465 0
464 465 -466 0
-464 466 0
-465 466 0
-178 -331 467 0
178 -467 0
331 -467 0
-330 -467 -468 0
330 467 -468 0
330 -467 468 0
-330 467 468 0
-468 -466 -469 0
468 466 -469 0
468 -466 469 0
-468 466 469 0
-468 -466 470 0
468 -470 0
466 -470 0
-330 -467 471 0
330 -471 0
467 -471 0
470 471 -472 0
-470 472 0
-471 472 0
-1 -473 474 0
1 -474 0
473 -474 0
-337 -474 -475 0
337 474 -475 0
337 -474 475 0
-337 474 475 0
-337 -474 476 0
337 -476 0
474 -476 0
-4 -473 477 0
4 -477 0
473 -477 0
-343 -477 -478 0
343 477 -478 0
343 -477 478 0
-343 477 478 0
-478 -476 -479 0
478 476 -479 0
478 -476 479 0
-478 476 479 0
-478 -476 480 0
478 -480 0
476 -480 0
-343 -477 481 0
343 -481 0
477 -481 0
480 481 -482 0
-480 482 0
-481 482 0
-10 -473 483 0
10 -483 0
473 -483 0
-349 -483 -484 0
349 483 -484 0
349 -483 484 0
-349 483 484 0
-484 -482 -485 0
484 482 -485 0
484 -482 485 0
-484 482 485 0
-484 -482 486 0
484 -486 0
482 -486 0
-349 -483 487 0
349 -487 0
483 -487 0
486 487 -488 0
-486 488 0
-487 488 0
-18 -473 489 0
18 -489 0
473 -489 0
-355 -489 -490 0
355 489 -490 0
355 -489 490 0
-355 489 490 0
-490 -488 -491 0
490 488 -491 0
490 -488 491 0
-490 488 491 0
-490 -488 492 0
490 -492 0
488 -492 0
-355 -489 493 0
355 -493 0
489 -493 0
492 493 -494 0
-492 494 0
-493 494 0
-26 -473 495 0
26 -495 0
473 -495 0
-361 -495 -496 0
361 495 -496 0
361 -495 496 0
-361 495 496 0
-496 -494 -497 0
496 494 -497 0
496 -494 497 0
-496 494 497 0
-496 -494 498 0
496 -498 0
494 -498 0
-361 -495 499 0
361 -499 0
495 -499 0
498 499 -500 0
-498 500 0
-499 500 0
-34 -473 501 0
34 -501 0
473 -501 0
-367 -501 -502 0
367 501 -502 0
367 -501 502 0
-367 501 502 0
-502 -500 -503 0
502 500 -503 0
502 -500 503 0
-502 500 503 0
-502 -500 504 0
502 -504 0
500 -504 0
-367 -501 505 0
367 -505 0
501 -505 0
504 505 -506 0
-504 506 0
-505 506 0
-42 -473 507 0
42 -507 0
473 -507 0
-373 -507 -508 0
373 507 -508 0
373 -507 508 0
-373 507 508 0
-508 -506 -509 0
508 506 -509 0
508 -506 509 0
-508 506 509 0
-508 -506 510 0
508 -510 0
506 -510 0
-373 -507 511 0
373 -511 0
507 -511 0
510 511 -512 0
-510 512 0
-511 512 0
-50 -473 513 0
50 -513 0
473 -513 0
-379 -513 -514 0
379 513 -514 0
379 -513 514 0
-379 513 514 0
-514 -512 -515 0
514 512 -515 0
514 -512 515 0
-514 512 515 0
-514 -512 516 0
514 -516 0
512 -516 0
-379 -513 517 0
379 -517 0
513 -517 0
516 517 -518 0
-516 518 0
-517 518 0
-58 -473 519 0
58 -519 0
473 -519 0
-385 -519 -520 0
385 519 -520 0
385 -519 520 0
-385 519 520 0
-520 -518 -521 0
520 518 -521 0
520 -518 521 0
-520 518 521 0
-520 -518 522 0
520 -522 0
518 -522 0
-385 -519 523 0
385 -523 0
519 -523 0
522 523 -524 0
-522 524 0
-523 524 0
-66 -473 525 0
66 -525 0
473 -525 0
-391 -525 -526 0
391 525 -526 0
391 -525 526 0
-391 525 526 0
-526 -524 -527 0
526 524 -527 0
526 -524 527 0
-526 524 527 0
-526 -524 528 0
526 -528 0
524 -528 0
-391 -525 529 0
391 -529 0
525 -529 0
528 529 -530 0
-528 530 0
-529 530 0
-74 -473 531 0
74 -531 0
473 -531 0
-397 -531 -532 0
397 531 -532 0
397 -531 532 0
-397 531 532 0
-532 -530 -533 0
532 530 -533 0
532 -530 533 0
-532 530 533 0
-532 -530 534 0
532 -534 0
530 -534 0
-397 -531 535 0
397 -535 0
531 -535 0
534 535 -536 0
-534 536 0
-535 536 0
-82 -473 537 0
82 -537 0
473 -537 0
-403 -537 -538 0
403 537 -538 0
403 -537 538 0
-403 537 538 0
-538 -536 -539 0
538 536 -539 0
538 -536 539 0
-538 536 539 0
-538 -536 540 0
538 -540 0
536 -540 0
-403 -537 541 0
403 -541 0
537 -541 0
540 541 -542 0
-540 542 0
-541 542 0
-90 -473 543 0
90 -543 0
473 -543 0
-409 -543 -544 0
409 543 -544 0
409 -543 544 0
-409 543 544 0
-544 -542 -545 0
544 542 -545 0
544 -542 545 0
-544 542 545 0
-544 -542 546 0
544 -546 0
542 -546 0
-409 -543 547 0
409 -547 0
543 -547 0
546 547 -548 0
-546 548 0
-547 548 0
-98 -473 549 0
98 -549 0
473 -549 0
-415 -549 -550 0
415 549 -550 0
415 -549 550 0
-415 549 550 0
-550 -548 -551 0
550 548 -551 0
550 -548 551 0
-550 548 551 0
-550 -548 552 0
550 -552 0
548 -552 0
-415 -549 553 0
415 -553 0
549 -553 0
552 553 -554 0
-552 554 0
-553 554 0
-106 -473 555 0
106 -555 0
473 -555 0
-421 -555 -556 0
421 555 -556 0
421 -555 556 0
-421 555 556 0
-556 -554 -557 0
556 554 -557 0
556 -554 557 0
-556 554 557 0
-556 -554 558 0
556 -558 0
554 -558 0
-421 -555 559 0
421 -559 0
555 -559 0
558 559 -560 0
-558 560 0
-559 560 0
-114 -473 561 0
114 -561 0
473 -561 0
-427 -561 -562 0
427 561 -562 0
427 -561 562 0
-427 561 562 0
-562 -560 -563 0
562 560 -563 0
562 -560 563 0
-562 560 563 0
-562 -560 564 0
562 -564 0
560 -564 0
-427 -561 565 0
427 -565 0
561 -565 0
564 565 -566 0
-564 566 0
-565 566 0
-122 -473 567 0
122 -567 0
473 -567 0
-433 -567 -568 0
433 567 -568 0
433 -567 568 0
-433 567 568 0
-568 -566 -569 0
568 566 -569 0
568 -566 569 0
-568 566 569 0
-568 -566 570 0
568 -570 0
566 -570 0
-433 -567 571 0
433 -571 0
567 -571 0
570 571 -572 0
-570 572 0
-571 572 0
-130 -473 573 0
130 -573 0
473 -573 0
-439 -573 -574 0
439 573 -574 0
439 -573 574 0
-439 573 574 0
-574 -572 -575 0
574 572 -575 0
574 -572 575 0
-574 572 575 0
-574 -572 576 0
574 -576 0
572 -576 0
-439 -573 577 0
439 -577 0
573 -577 0
576 577 -578 0
-576 578 0
-577 578 0
-138 -473 579 0
138 -579 0
473 -579 0
-445 -579 -580 0
445 579 -580 0
445 -579 580 0
-445 579 580 0
-580 -578 -581 0
580 578 -581 0
580 -578 581 0
-580 578 581 0
-580 -578 582 0
580 -582 0
578 -582 0
-445 -579 583 0
445 -583 0
579 -583 0
582 583 -584 0
-582 584 0
-583 584 0
-146 -473 585 0
146 -585 0
473 -585 0
-451 -585 -586 0
451 585 -586 0
451 -585 586 0
-451 585 586 0
-586 -584 -587 0
586 584 -587 0
586 -584 587 0
-586 584 587 0
-586 -584 588 0
586 -588 0
584 -588 0
-451 -585 589 0
451 -589 0
585 -589 0
588 589 -590 0
-588 590 0
-589 590 0
-154 -473 591 0
154 -591 0
473 -591 0
-457 -591 -592 0
457 591 -592 0
457 -591 592 0
-457 591 592 0
-592 -590 -593 0
592 590 -593 0
592 -590 593 0
-592 590 593 0
-592 -590 594 0
592 -594 0
590 -594 0
-457 -591 595 0
457 -595 0
591 -595 0
594 595 -596 0
-594 596 0
-595 596 0
-162 -473 597 0
162 -597 0
473 -597 0
-463 -597 -598 0
463 597 -598 0
463 -597 598 0
-463 597 598 0
-598 -596 -599 0
598 596 -599 0
598 -596 599 0
-598 596 599 0
-598 -596 600 0
598 -600 0
596 -600 0
-463 -597 601 0
463 -601 0
597 -601 0
600 601 -602 0
-600 602 0
-601 602 0
-170 -473 603 0
170 -603 0
473 -603 0
-469 -603 -604 0
469 603 -604 0
469 -603 604 0
-469 603 604 0
-604 -602 -605 0
604 602 -605 0
604 -602 605 0
-604 602 605 0
-604 -602 606 0
604 -606 0
602 -606 0
-469 -603 607 0
469 -607 0
603 -607 0
606 607 -608 0
-606 608 0
-607 608 0
-178 -473 609 0
178 -609 0
473 -609 0
-472 -609 -610 0
472 609 -610 0
472 -609 610 0
-472 609 610 0
-610 -608 -611 0
610 608 -611 0
610 -608 611 0
-610 608 611 0
-610 -608 612 0
610 -612 0
608 -612 0
-472 -609 613 0
472 -613 0
609 -613 0
612 613 -614 0
-612 614 0
-613 614 0
-1 -615 616 0
1 -616 0
615 -616 0
-479 -616 -617 0
479 616 -617 0
479 -616 617 0
-479 616 617 0
-479 -616 618 0
479 -618 0
616 -618 0
-4 -615 619 0
4 -619 0
615 -619 0
-485 -619 -620 0
485 619 -620 0
485 -619 620 0
-485 619 620 0
-620 -618 -621 0
620 618 -621 0
620 -618 621 0
-620 618 621 0
-620 -618 622 0
620 -622 0
618 -622 0
-485 -619 623 0
485 -623 0
619 -623 0
622 623 -624 0
-622 624 0
-623 624 0
-10 -615 625 0
10 -625 0
615 -625 0
-491 -625 -626 0
491 625 -626 0
491 -625 626 0
-491 625 626 0
-626 -624 -627 0
626 624 -627 0
626 -624 627 0
-626 624 627 0
-626 -624 628 0
626 -628 0
624 -628 0
-491 -625 629 0
491 -629 0
625 -629 0
628 629 -630 0
-628 630 0
-629 630 0
-18 -615 631 0
18 -631 0
615 -631 0
-497 -631 -632 0
497 631 -632 0
497 -631 632 0
-497 631 632 0
-632 -630 -633 0
632 630 -633 0
632 -630 633 0
-632 630 633 0
-632 -630 634 0
632 -634 0
630 -634 0
-497 -631 635 0
497 -635 0
631 -635 0
634 635 -636 0
-634 636 0
-635 636 0
-26 -615 637 0
26 -637 0
615 -637 0
-503 -637 -638 0
503 637 -638 0
503 -637 638 0
-503 637 638 0
-638 -636 -639 0
638 636 -639 0
638 -636 639 0
-638 636 639 0
-638 -636 640 0
638 -640 0
636 -640 0
-503 -637 641 0
503 -641 0
637 -641 0
640 641 -642 0
-640 642 0
-641 642 0
-34 -615 643 0
34 -643 0
615 -643 0
-509 -643 -644 0
509 643 -644 0
509 -643 644 0
-509 643 644 0
-644 -642 -645 0
644 642 -645 0
644 -642 645 0
-644 642 645 0
-644 -642 646 0
644 -646 0
642 -646 0
-509 -643 647 0
509 -647 0
643 -647 0
646 647 -648 0
-646 648 0
-647 648 0
-42 -615 649 0
42 -649 0
615 -649 0
-515 -649 -650 0
515 649 -650 0
515 -649 650 0
-515 649 650 0
-650 -648 -651 0
650 648 -651 0
650 -648 651 0
-650 648 651 0
-650 -648 652 0
650 -652 0
648 -652 0
-515 -649 653 0
515 -653 0
649 -653 0
652 653 -654 0
-652 654 0
-653 654 0
-50 -615 655 0
50 -655 0
615 -655 0
-521 -655 -656 0
521 655 -656 0
521 -655 656 0
-521 655 656 0
-656 -654 -657 0
656 654 -657 0
656 -654 657 0
-656 654 657 0
-656 -654 658 0
656 -658 0
654 -658 0
-521 -655 659 0
521 -659 0
655 -659 0
658 659 -660 0
-658 660 0
-659 660 0
-58 -615 661 0
58 -661 0
615 -661 0
-527 -661 -662 0
527 661 -662 0
527 -661 662 0
-527 661 662 0
-662 -660 -663 0
662 660 -663 0
662 -660 663 0
-662 660 663 0
-662 -660 664 0
662 -664 0
660 -664 0
-527 -661 665 0
527 -665 0
661 -665 0
664 665 -666 0
-664 666 0
-665 666 0
-66 -615 667 0
66 -667 0
615 -667 0
-533 -667 -668 0
533 667 -668 0
533 -667 668 0
-533 667 668 0
-668 -666 -669 0
668 666 -669 0
668 -666 669 0
-668 666 669 0
-668 -666 670 0
668 -670 0
666 -670 0
-533 -667 671 0
533 -671 0
667 -671 0
670 671 -672 0
-670 672 0
-671 672 0
-74 -615 673 0
74 -673 0
615 -673 0
-539 -673 -674 0
539 673 -674 0
539 -673 674 0
-539 673 674 0
-674 -672 -675 0
674 672 -675 0
674 -672 675 0
-674 672 675 0
-674 -672 676 0
674 -676 0
672 -676 0
-539 -673 677 0
539 -677 0
673 -677 0
676 677 -678 0
-676 678 0
-677 678 0
-82 -615 679 0
82 -679 0
615 -679 0
-545 -679 -680 0
545 679 -680 0
545 -679 680 0
-545 679 680 0
-680 -678 -681 0
680 678 -681 0
680 -678 681 0
-680 678 681 0
-680 -678 682 0
680 -682 0
678 -682 0
-545 -679 683 0
545 -683 0
679 -683 0
682 683 -684 0
-682 684 0
-683 684 0
-90 -615 685 0
90 -685 0
615 -685 0
-551 -685 -686 0
551 685 -686 0
551 -685 686 0
-551 685 686 0
-686 -684 -687 0
686 684 -687 0
686 -684 687 0
-686 684 687 0
-686 -684 688 0
686 -688 0
684 -688 0
-551 -685 689 0
551 -689 0
685 -689 0
688 689 -690 0
-688 690 0
-689 690 0
-98 -615 691 0
98 -691 0
615 -691 0
-557 -691 -692 0
557 691 -692 0
557 -691 692 0
-557 691 692 0
-692 -690 -693 0
692 690 -693 0
692 -690 693 0
-692 690 693 0
-692 -690 694 0
692 -694 0
690 -694 0
-557 -691 695 0
557 -695 0
691 -695 0
694 695 -696 0
-694 696 0
-695 696 0
-106 -615 697 0
106 -697 0
615 -697 0
-563 -697 -698 0
563 697 -698 0
563 -697 698 0
-563 697 698 0
-698 -696 -699 0
698 696 -699 0
698 -696 699 0
-698 696 699 0
-698 -696 700 0
698 -700 0
696 -700 0
-563 -697 701 0
563 -701 0
697 -701 0
700 701 -702 0
-700 702 0
-701 702 0
-114 -615 703 0
114 -703 0
615 -703 0
-569 -703 -704 0
569 703 -704 0
569 -703 704 0
-569 703 704 0
-704 -702 -705 0
704 702 -705 0
704 -702 705 0
-704 702 705 0
-704 -702 706 0
704 -706 0
702 -706 0
-569 -703 707 0
569 -707 0
703 -707 0
706 707 -708 0
-706 708 0
-707 708 0
-122 -615 709 0
122 -709 0
615 -709 0
-575 -709 -710 0
575 709 -710 0
575 -709 710 0
-575 709 710 0
-710 -708 -711 0
710 708 -711 0
710 -708 711 0
-710 708 711 0
-710 -708 712 0
710 -712 0
708 -712 0
-575 -709 713 0
575 -713 0
709 -713 0
712 713 -714 0
-712 714 0
-713 714 0
-130 -615 715 0
130 -715 0
615 -715 0
-581 -715 -716 0
581 715 -716 0
581 -715 716 0
-581 715 716 0
-716 -714 -717 0
716 714 -717 0
716 -714 717 0
-716 714 717 0
-716 -714 718 0
716 -718 0
714 -718 0
-581 -715 719 0
581 -719 0
715 -719 0
718 719 -720 0
-718 720 0
-719 720 0
-138 -615 721 0
138 -721 0
615 -721 0
-587 -721 -722 0
587 721 -722 0
587 -721 722 0
-587 721 722 0
-722 -720 -723 0
722 720 -723 0
722 -720 723 0
-722 720 723 0
-722 -720 724 0
722 -724 0
720 -724 0
-587 -721 725 0
587 -725 0
721 -725 0
724 725 -726 0
-724 726 0
-725 726 0
-146 -615 727 0
146 -727 0
615 -727 0
-593 -727 -728 0
593 727 -728 0
593 -727 728 0
-593 727 728 0
-728 -726 -729 0
728 726 -729 0
728 -726 729 0
-728 726 729 0
-728 -726 730 0
728 -730 0
726 -730 0
-593 -727 731 0
593 -731 0
727 -731 0
730 731 -732 0
-730 732 0
-731 732 0
-154 -615 733 0
154 -733 0
615 -733 0
-599 -733 -734 0
599 733 -734 0
599 -733 734 0
-599 733 734 0
-734 -732 -735 0
734 732 -735 0
734 -732 735 0
-734 732 735 0
-734 -732 736 0
734 -736 0
732 -736 0
-599 -733 737 0
599 -737 0
733 -737 0
736 737 -738 0
-736 738 0
-737 738 0
-162 -615 739 0
162 -739 0
615 -739 0
-605 -739 -740 0
605 739 -740 0
605 -739 740 0
-605 739 740 0
-740 -738 -741 0
740 738 -741 0
740 -738 741 0
-740 738 741 0
-740 -738 742 0
740 -742 0
738 -742 0
-605 -739 743 0
605 -743 0
739 -743 0
742 743 -744 0
-742 744 0
-743 744 0
-170 -615 745 0
170 -745 0
615 -745 0
-611 -745 -746 0
611 745 -746 0
611 -745 746 0
-611 745 746 0
-746 -744 -747 0
746 744 -747 0
746 -744 747 0
-746 744 747 0
-746 -744 748 0
746 -748 0
744 -748 0
-611 -745 749 0
611 -749 0
745 -749 0
748 749 -750 0
-748 750 0
-749 750 0
-178 -615 751 0
178 -751 0
615 -751 0
-614 -751 -752 0
614 751 -752 0
614 -751 752 0
-614 751 752 0
-752 -750 -753 0
752 750 -753 0
752 -750 753 0
-752 750 753 0
-752 -750 754 0
752 -754 0
750 -754 0
-614 -751 755 0
614 -755 0
751 -755 0
754 755 -756 0
-754 756 0
-755 756 0
-1 -757 758 0
1 -758 0
757 -758 0
-621 -758 -759 0
621 758 -759 0
621 -758 759 0
-621 758 759 0
-621 -758 760 0
621 -760 0
758 -760 0
-4 -757 761 0
4 -761 0
757 -761 0
-627 -761 -762 0
627 761 -762 0
627 -761 762 0
-627 761 762 0
-762 -760 -763 0
762 760 -763 0
762 -760 763 0
-762 760 763 0
-762 -760 764 0
762 -764 0
760 -764 0
-627 -761 765 0
627 -765 0
761 -765 0
764 765 -766 0
-764 766 0
-765 766 0
-10 -757 767 0
10 -767 0
757 -767 0
-633 -767 -768 0
633 767 -768 0
633 -767 768 0
-633 767 768 0
-768 -766 -769 0
768 766 -769 0
768 -766 769 0
-768 766 769 0
-768 -766 770 0
768 -770 0
766 -770 0
-633 -767 771 0
633 -771 0
767 -771 0
770 771 -772 0
-770 772 0
-771 772 0
-18 -757 773 0
18 -773 0
757 -773 0
-639 -773 -774 0
639 773 -774 0
639 -773 774 0
-639 773 774 0
-774 -772 -775 0
774 772 -775 0
774 -772 775 0
-774 772 775 0
-774 -772 776 0
774 -776 0
772 -776 0
-639 -773 777 0
639 -777 0
773 -777 0
776 777 -778 0
-776 778 0
-777 778 0
-26 -757 779 0
26 -779 0
757 -779 0
-645 -779 -780 0
645 779 -780 0
645 -779 780 0
-645 779 780 0
-780 -778 -781 0
780 778 -781 0
780 -778 781 0
-780 778 781 0
-780 -778 782 0
780 -782 0
778 -782 0
-645 -779 783 0
645 -783 0
779 -783 0
782 783 -784 0
-782 784 0
-783 784 0
-34 -757 785 0
34 -785 0
757 -785 0
-651 -785 -786 0
651 785 -786 0
651 -785 786 0
-651 785 786 0
-786 -784 -787 0
786 784 -787 0
786 -784 787 0
-786 784 787 0
-786 -784 788 0
786 -788 0
784 -788 0
-651 -785 789 0
651 -789 0
785 -789 0
788 789 -790 0
-788 790 0
-789 790 0
-42 -757 791 0
42 -791 0
757 -791 0
-657 -791 -792 0
657 791 -792 0
657 -791 792 0
-657 791 792 0
-792 -790 -793 0
792 790 -793 0
792 -790 793 0
-792 790 793 0
-792 -790 794 0
792 -794 0
790 -794 0
-657 -791 795 0
657 -795 0
791 -795 0
794 795 -796 0
-794 796 0
-795 796 0
-50 -757 797 0
50 -797 0
757 -797 0
-663 -797 -798 0
663 797 -798 0
663 -797 798 0
-663 797 798 0
-798 -796 -799 0
798 796 -799 0
798 -796 799 0
-798 796 799 0
-798 -796 800 0
798 -800 0
796 -800 0
-663 -797 801 0
663 -801 0
797 -801 0
800 801 -802 0
-800 802 0
-801 802 0
-58 -757 803 0
58 -803 0
757 -803 0
-669 -803 -804 0
669 803 -804 0
669 -803 804 0
-669 803 804 0
-804 -802 -805 0
804 802 -805 0
804 -802 805 0
-804 802 805 0
-804 -802 806 0
804 -806 0
802 -806 0
-669 -803 807 0
669 -807 0
803 -807 0
806 807 -808 0
-806 808 0
-807 808 0
-66 -757 809 0
66 -809 0
757 -809 0
-675 -809 -810 0
675 809 -810 0
675 -809 810 0
-675 809 810 0
-810 -808 -811 0
810 808 -811 0
810 -808 811 0
-810 808 811 0
-810 -808 812 0
810 -812 0
808 -812 0
-675 -809 813 0
675 -813 0
809 -813 0
812 813 -814 0
-812 814 0
-813 814 0
-74 -757 815 0
74 -815 0
757 -815 0
-681 -815 -816 0
681 815 -816 0
681 -815 816 0
-681 815 816 0
-816 -814 -817 0
816 814 -817 0
816 -814 817 0
-816 814 817 0
-816 -814 818 0
816 -818 0
814 -818 0
-681 -815 819 0
681 -819 0
815 -819 0
818 819 -820 0
-818 820 0
-819 820 0
-82 -757 821 0
82 -821 0
757 -821 0
-687 -821 -822 0
687 821 -822 0
687 -821 822 0
-687 821 822 0
-822 -820 -823 0
822 820 -823 0
822 -820 823 0
-822 820 823 0
-822 -820 824 0
822 -824 0
820 -824 0
-687 -821 825 0
687 -825 0
821 -825 0
824 825 -826 0
-824 826 0
-825 826 0
-90 -757 827 0
90 -827 0
757 -827 0
-693 -827 -828 0
693 827 -828 0
693 -827 828 0
-693 827 828 0
-828 -826 -829 0
828 826 -829 0
828 -826 829 0
-828 826 829 0
-828 -826 830 0
828 -830 0
826 -830 0
-693 -827 831 0
693 -831 0
827 -831 0
830 831 -832 0
-830 832 0
-831 832 0
-98 -757 833 0
98 -833 0
757 -833 0
-699 -833 -834 0
699 833 -834 0
699 -833 834 0
-699 833 834 0
-834 -832 -835 0
834 832 -835 0
834 -832 835 0
-834 832 835 0
-834 -832 836 0
834 -836 0
832 -836 0
-699 -833 837 0
699 -837 0
833 -837 0
836 837 -838 0
-836 838 0
-837 838 0
-106 -757 839 0
106 -839 0
757 -839 0
-705 -839 -840 0
705 839 -840 0
705 -839 840 0
-705 839 840 0
-840 -838 -841 0
840 838 -841 0
840 -838 841 0
-840 838 841 0
-840 -838 842 0
840 -842 0
838 -842 0
-705 -839 843 0
705 -843 0
839 -843 0
842 843 -844 0
-842 844 0
-843 844 0
-114 -757 845 0
114 -845 0
757 -845 0
-711 -845 -846 0
711 845 -846 0
711 -845 846 0
-711 845 846 0
-846 -844 -847 0
846 844 -847 0
846 -844 847 0
-846 844 847 0
-846 -844 848 0
846 -848 0
844 -848 0
-711 -845 849 0
711 -849 0
845 -849 0
848 849 -850 0
-848 850 0
-849 850 0
-122 -757 851 0
122 -851 0
757 -851 0
-717 -851 -852 0
717 851 -852 0
717 -851 852 0
-717 851 852 0
-852 -850 -853 0
852 850 -853 0
852 -850 853 0
-852 850 853 0
-852 -850 854 0
852 -854 0
850 -854 0
-717 -851 855 0
717 -855 0
851 -855 0
854 855 -856 0
-854 856 0
-855 856 0
-130 -757 857 0
130 -857 0
757 -857 0
-723 -857 -858 0
723 857 -858 0
723 -857 858 0
-723 857 858 0
-858 -856 -859 0
858 856 -859 0
858 -856 859 0
-858 856 859 0
-858 -856 860 0
858 -860 0
856 -860 0
-723 -857 861 0
723 -861 0
857 -861 0
860 861 -862 0
-860 862 0
-861 862 0
-138 -757 863 0
138 -863 0
757 -863 0
-729 -863 -864 0
729 863 -864 0
729 -863 864 0
-729 863 864 0
-864 -862 -865 0
864 862 -865 0
864 -862 865 0
-864 862 865 0
-864 -862 866 0
864 -866 0
862 -866 0
-729 -863 867 0
729 -867 0
863 -867 0
866 867 -868 0
-866 868 0
-867 868 0
-146 -757 869 0
146 -869 0
757 -869 0
-735 -869 -870 0
735 869 -870 0
735 -869 870 0
-735 869 870 0
-870 -868 -871 0
870 868 -871 0
870 -868 871 0
-870 868 871 0
-870 -868 872 0
870 -872 0
868 -872 0
-735 -869 873 0
735 -873 0
869 -873 0
872 873 -874 0
-872 874 0
-873 874 0
-154 -757 875 0
154 -875 0
757 -875 0
-741 -875 -876 0
741 875 -876 0
741 -875 876 0
-741 875 876 0
-876 -874 -877 0
876 874 -877 0
876 -874 877 0
-876 874 877 0
-876 -874 878 0
876 -878 0
874 -878 0
-741 -875 879 0
741 -879 0
875 -879 0
878 879 -880 0
-878 880 0
-879 880 0
-162 -757 881 0
162 -881 0
757 -881 0
-747 -881 -882 0
747 881 -882 0
747 -881 882 0
-747 881 882 0
-882 -880 -883 0
882 880 -883 0
882 -880 883 0
-882 880 883 0
-882 -880 884 0
882 -884 0
880 -884 0
-747 -881 885 0
747 -885 0
881 -885 0
884 885 -886 0
-884 886 0
-885 886 0
-170 -757 887 0
170 -887 0
757 -887 0
-753 -887 -888 0
753 887 -888 0
753 -887 888 0
-753 887 888 0
-888 -886 -889 0
888 886 -889 0
888 -886 889 0
-888 886 889 0
-888 -886 890 0
888 -890 0
886 -890 0
-753 -887 891 0
753 -891 0
887 -891 0
890 891 -892 0
-890 892 0
-891 892 0
-178 -757 893 0
178 -893 0
757 -893 0
-756 -893 -894 0
756 893 -894 0
756 -893 894 0
-756 893 894 0
-894 -892 -895 0
894 892 -895 0
894 -892 895 0
-894 892 895 0
-894 -892 896 0
894 -896 0
892 -896 0
-756 -893 897 0
756 -897 0
893 -897 0
896 897 -898 0
-896 898 0
-897 898 0
-1 -899 900 0
1 -900 0
899 -900 0
-763 -900 -901 0
763 900 -901 0
763 -900 901 0
-763 900 901 0
-763 -900 902 0
763 -902 0
900 -902 0
-4 -899 903 0
4 -903 0
899 -903 0
-769 -903 -904 0
769 903 -904 0
769 -903 904 0
-769 903 904 0
-904 -902 -905 0
904 902 -905 0
904 -902 905 0
-904 902 905 0
-904 -902 906 0
904 -906 0
902 -906 0
-769 -903 907 0
769 -907 0
903 -907 0
906 907 -908 0
-906 908 0
-907 908 0
-10 -899 909 0
10 -909 0
899 -909 0
-775 -909 -910 0
775 909 -910 0
775 -909 910 0
-775 909 910 0
-910 -908 -911 0
910 908 -911 0
910 -908 911 0
-910 908 911 0
-910 -908 912 0
910 -912 0
908 -912 0
-775 -909 913 0
775 -913 0
909 -913 0
912 913 -914 0
-912 914 0
-913 914 0
-18 -899 915 0
18 -915 0
899 -915 0
-781 -915 -916 0
781 915 -916 0
781 -915 916 0
-781 915 916 0
-916 -914 -917 0
916 914 -917 0
916 -914 917 0
-916 914 917 0
-916 -914 918 0
916 -918 0
914 -918 0
-781 -915 919 0
781 -919 0
915 -919 0
918 919 -920 0
-918 920 0
-919 920 0
-26 -899 921 0
26 -921 0
899 -921 0
-787 -921 -922 0
787 921 -922 0
787 -921 922 0
-787 921 922 0
-922 -920 -923 0
922 920 -923 0
922 -920 923 0
-922 920 923 0
-922 -920 924 0
922 -924 0
920 -924 0
-787 -921 925 0
787 -925 0
921 -925 0
924 925 -926 0
-924 926 0
-925 926 0
-34 -899 927 0
34 -927 0
899 -927 0
-793 -927 -928 0
793 927 -928 0
793 -927 928 0
-793 927 928 0
-928 -926 -929 0
928 926 -929 0
928 -926 929 0
-928 926 929 0
-928 -926 930 0
928 -930 0
926 -930 0
-793 -927 931 0
793 -931 0
927 -931 0
930 931 -932 0
-930 932 0
-931 932 0
-42 -899 933 0
42 -933 0
899 -933 0
-799 -933 -934 0
799 933 -934 0
799 -933 934 0
-799 933 934 0
-934 -932 -935 0
934 932 -935 0
934 -932 935 0
-934 932 935 0
-934 -932 936 0
934 -936 0
932 -936 0
-799 -933 937 0
799 -937 0
933 -937 0
936 937 -938 0
-936 938 0
-937 938 0
-50 -899 939 0
50 -939 0
899 -939 0
-805 -939 -940 0
805 939 -940 0
805 -939 940 0
-805 939 940 0
-940 -938 -941 0
940 938 -941 0
940 -938 941 0
-940 938 941 0
-940 -938 942 0
940 -942 0
938 -942 0
-805 -939 943 0
805 -943 0
939 -943 0
942 943 -944 0
-942 944 0
-943 944 0
-58 -899 945 0
58 -945 0
899 -945 0
-811 -945 -946 0
811 945 -946 0
811 -945 946 0
-811 945 946 0
-946 -944 -947 0
946 944 -947 0
946 -944 947 0
-946 944 947 0
-946 -944 948 0
946 -948 0
944 -948 0
-811 -945 949 0
811 -949 0
945 -949 0
948 949 -950 0
-948 950 0
-949 950 0
-66 -899 951 0
66 -951 0
899 -951 0
-817 -951 -952 0
817 951 -952 0
817 -951 952 0
-817 951 952 0
-952 -950 -953 0
952 950 -953 0
952 -950 953 0
-952 950 953 0
-952 -950 954 0
952 -954 0
950 -954 0
-817 -951 955 0
817 -955 0
951 -955 0
954 955 -956 0
-954 956 0
-955 956 0
-74 -899 957 0
74 -957 0
899 -957 0
-823 -957 -958 0
823 957 -958 0
823 -957 958 0
-823 957 958 0
-958 -956 -959 0
958 956 -959 0
958 -956 959 0
-958 956 959 0
-958 -956 960 0
958 -960 0
956 -960 0
-823 -957 961 0
823 -961 0
957 -961 0
960 961 -962 0
-960 962 0
-961 962 0
-82 -899 963 0
82 -963 0
899 -963 0
-829 -963 -964 0
829 963 -964 0
829 -963 964 0
-829 963 964 0
-964 -962 -965 0
964 962 -965 0
964 -962 965 0
-964 962 965 0
-964 -962 966 0
964 -966 0
962 -966 0
-829 -963 967 0
829 -967 0
963 -967 0
966 967 -968 0
-966 968 0
-967 968 0
-90 -899 969 0
90 -969 0
899 -969 0
-835 -969 -970 0
835 969 -970 0
835 -969 970 0
-835 969 970 0
-970 -968 -971 0
970 968 -971 0
970 -968 971 0
-970 968 971 0
-970 -968 972 0
970 -972 0
968 -972 0
-835 -969 973 0
835 -973 0
969 -973 0
972 973 -974 0
-972 974 0
-973 974 0
-98 -899 975 0
98 -975 0
899 -975 0
-841 -975 -976 0
841 975 -976 0
841 -975 976 0
-841 975 976 0
-976 -974 -977 0
976 974 -977 0
976 -974 977 0
-976 974 977 0
-976 -974 978 0
976 -978 0
974 -978 0
-841 -975 979 0
841 -979 0
975 -979 0
978 979 -980 0
-978 980 0
-979 980 0
-106 -899 981 0
106 -981 0
899 -981 0
-847 -981 -982 0
847 981 -982 0
847 -981 982 0
-847 981 982 0
-982 -980 -983 0
982 980 -983 0
982 -980 983 0
-982 980 983 0
-982 -980 984 0
982 -984 0
980 -984 0
-847 -981 985 0
847 -985 0
981 -985 0
984 985 -986 0
-984 986 0
-985 986 0
-114 -899 987 0
114 -987 0
899 -987 0
-853 -987 -988 0
853 987 -988 0
853 -987 988 0
-853 987 988 0
-988 -986 -989 0
988 986 -989 0
988 -986 989 0
-988 986 989 0
-988 -986 990 0
988 -990 0
986 -990 0
-853 -987 991 0
853 -991 0
987 -991 0
990 991 -992 0
-990 992 0
-991 992 0
-122 -899 993 0
122 -993 0
899 -993 0
-859 -993 -994 0
859 993 -994 0
859 -993 994 0
-859 993 994 0
-994 -992 -995 0
994 992 -995 0
994 -992 995 0
-994 992 995 0
-994 -992 996 0
994 -996 0
992 -996 0
-859 -993 997 0
859 -997 0
993 -997 0
996 997 -998 0
-996 998 0
-997 998 0
-130 -899 999 0
130 -999 0
899 -999 0
-865 -999 -1000 0
865 999 -1000 0
865 -999 1000 0
-865 999 1000 0
-1000 -998 -1001 0
1000 998 -1001 0
1000 -998 1001 0
-1000 998 1001 0
-1000 -998 1002 0
1000 -1002 0
998 -1002 0
-865 -999 1003 0
865 -1003 0
999 -1003 0
1002 1003 -1004 0
-1002 1004 0
-1003 1004 0
-138 -899 1005 0
138 -1005 0
899 -1005 0
-871 -1005 -1006 0
871 1005 -1006 0
871 -1005 1006 0
-871 1005 1006 0
-1006 -1004 -1007 0
1006 1004 -1007 0
1006 -1004 1007 0
-1006 1004 1007 0
-1006 -1004 1008 0
1006 -1008 0
1004 -1008 0
-871 -1005 1009 0
871 -1009 0
1005 -1009 0
1008 1009 -1010 0
-1008 1010 0
-1009 1010 0
-146 -899 1011 0
146 -1011 0
899 -1011 0
-877 -1011 -1012 0
877 1011 -1012 0
877 -1011 1012 0
-877 1011 1012 0
-1012 -1010 -1013 0
1012 1010 -1013 0
1012 -1010 1013 0
-1012 1010 1013 0
-1012 -1010 1014 0
1012 -1014 0
1010 -1014 0
-877 -1011 1015 0
877 -1015 0
1011 -1015 0
1014 1015 -1016 0
-1014 1016 0
-1015 1016 0
-154 -899 1017 0
154 -1017 0
899 -1017 0
-883 -1017 -1018 0
883 1017 -1018 0
883 -1017 1018 0
-883 1017 1018 0
-1018 -1016 -1019 0
1018 1016 -1019 0
1018 -1016 1019 0
-1018 1016 1019 0
-1018 -1016 1020 0
1018 -1020 0
1016 -1020 0
-883 -1017 1021 0
883 -1021 0
1017 -1021 0
1020 1021 -1022 0
-1020 1022 0
-1021 1022 0
-162 -899 1023 0
162 -1023 0
899 -1023 0
-889 -1023 -1024 0
889 1023 -1024 0
889 -1023 1024 0
-889 1023 1024 0
-1024 -1022 -1025 0
1024 1022 -1025 0
1024 -1022 1025 0
-1024 1022 1025 0
-1024 -1022 1026 0
1024 -1026 0
1022 -1026 0
-889 -1023 1027 0
889 -1027 0
1023 -1027 0
1026 1027 -1028 0
-1026 1028 0
-1027 1028 0
-170 -899 1029 0
170 -1029 0
899 -1029 0
-895 -1029 -1030 0
895 1029 -1030 0
895 -1029 1030 0
-895 1029 1030 0
-1030 -1028 -1031 0
1030 1028 -1031 0
1030 -1028 1031 0
-1030 1028 1031 0
-1030 -1028 1032 0
1030 -1032 0
1028 -1032 0
-895 -1029 1033 0
895 -1033 0
1029 -1033 0
1032 1033 -1034 0
-1032 1034 0
-1033 1034 0
-178 -899 1035 0
178 -1035 0
899 -1035 0
-898 -1035 -1036 0
898 1035 -1036 0
898 -1035 1036 0
-898 1035 1036 0
-1036 -1034 -1037 0
1036 1034 -1037 0
1036 -1034 1037 0
-1036 1034 1037 0
-1036 -1034 1038 0
1036 -1038 0
1034 -1038 0
-898 -1035 1039 0
898 -1039 0
1035 -1039 0
1038 1039 -1040 0
-1038 1040 0
-1039 1040 0
-1 -1041 1042 0
1 -1042 0
1041 -1042 0
-905 -1042 -1043 0
905 1042 -1043 0
905 -1042 1043 0
-905 1042 1043 0
-905 -1042 1044 0
905 -1044 0
1042 -1044 0
-4 -1041 1045 0
4 -1045 0
1041 -1045 0
-911 -1045 -1046 0
911 1045 -1046 0
911 -1045 1046 0
-911 1045 1046 0
-1046 -1044 -1047 0
1046 1044 -1047 0
1046 -1044 1047 0
-1046 1044 1047 0
-1046 -1044 1048 0
1046 -1048 0
1044 -1048 0
-911 -1045 1049 0
911 -1049 0
1045 -1049 0
1048 1049 -1050 0
-1048 1050 0
-1049 1050 0
-10 -1041 1051 0
10 -1051 0
1041 -1051 0
-917 -1051 -1052 0
917 1051 -1052 0
917 -1051 1052 0
-917 1051 1052 0
-1052 -1050 -1053 0
1052 1050 -1053 0
1052 -1050 1053 0
-1052 1050 1053 0
-1052 -1050 1054 0
1052 -1054 0
1050 -1054 0
-917 -1051 1055 0
917 -1055 0
1051 -1055 0
1054 1055 -1056 0
-1054 1056 0
-1055 1056 0
-18 -1041 1057 0
18 -1057 0
1041 -1057 0
-923 -1057 -1058 0
923 1057 -1058 0
923 -1057 1058 0
-923 1057 1058 0
-1058 -1056 -1059 0
1058 1056 -1059 0
1058 -1056 1059 0
-1058 1056 1059 0
-1058 -1056 1060 0
1058 -1060 0
1056 -1060 0
-923 -1057 1061 0
923 -1061 0
1057 -1061 0
1060 1061 -1062 0
-1060 1062 0
-1061 1062 0
-26 -1041 1063 0
26 -1063 0
1041 -1063 0
-929 -1063 -1064 0
929 1063 -1064 0
929 -1063 1064 0
-929 1063 1064 0
-1064 -1062 -1065 0
1064 1062 -1065 0
1064 -1062 1065 0
-1064 1062 1065 0
-1064 -1062 1066 0
1064 -1066 0
1062 -1066 0
-929 -1063 1067 0
929 -1067 0
1063 -1067 0
1066 1067 -1068 0
-1066 1068 0
-1067 1068 0
-34 -1041 1069 0
34 -1069 0
1041 -1069 0
-935 -1069 -1070 0
935 1069 -1070 0
935 -1069 1070 0
-935 1069 1070 0
-1070 -1068 -1071 0
1070 1068 -1071 0
1070 -1068 1071 0
-1070 1068 1071 0
-1070 -1068 1072 0
1070 -1072 0
1068 -1072 0
-935 -1069 1073 0
935 -1073 0
1069 -1073 0
1072 1073 -1074 0
-1072 1074 0
-1073 1074 0
-42 -1041 1075 0
42 -1075 0
1041 -1075 0
-941 -1075 -1076 0
941 1075 -1076 0
941 -1075 1076 0
-941 1075 1076 0
-1076 -1074 -1077 0
1076 1074 -1077 0
1076 -1074 1077 0
-1076 1074 1077 0
-1076 -1074 1078 0
1076 -1078 0
1074 -1078 0
-941 -1075 1079 0
941 -1079 0
1075 -1079 0
1078 1079 -1080 0
-1078 1080 0
-1079 1080 0
-50 -1041 1081 0
50 -1081 0
1041 -1081 0
-947 -1081 -1082 0
947 1081 -1082 0
947 -1081 1082 0
-947 1081 1082 0
-1082 -1080 -1083 0
1082 1080 -1083 0
1082 -1080 1083 0
-1082 1080 1083 0
-1082 -1080 1084 0
1082 -1084 0
1080 -1084 0
-947 -1081 1085 0
947 -1085 0
1081 -1085 0
1084 1085 -1086 0
-1084 1086 0
-1085 1086 0
-58 -1041 1087 0
58 -1087 0
1041 -1087 0
-953 -1087 -1088 0
953 1087 -1088 0
953 -1087 1088 0
-953 1087 1088 0
-1088 -1086 -1089 0
1088 1086 -1089 0
1088 -1086 1089 0
-1088 1086 1089 0
-1088 -1086 1090 0
1088 -1090 0
1086 -1090 0
-953 -1087 1091 0
953 -1091 0
1087 -1091 0
1090 1091 -1092 0
-1090 1092 0
-1091 1092 0
-66 -1041 1093 0
66 -1093 0
1041 -1093 0
-959 -1093 -1094 0
959 1093 -1094 0
959 -1093 1094 0
-959 1093 1094 0
-1094 -1092 -1095 0
1094 1092 -1095 0
1094 -1092 1095 0
-1094 1092 1095 0
-1094 -1092 1096 0
1094 -1096 0
1092 -1096 0
-959 -1093 1097 0
959 -1097 0
1093 -1097 0
1096 1097 -1098 0
-1096 1098 0
-1097 1098 0
-74 -1041 1099 0
74 -1099 0
1041 -1099 0
-965 -1099 -1100 0
965 1099 -1100 0
965 -1099 1100 0
-965 1099 1100 0
-1100 -1098 -1101 0
1100 1098 -1101 0
1100 -1098 1101 0
-1100 1098 1101 0
-1100 -1098 1102 0
1100 -1102 0
1098 -1102 0
-965 -1099 1103 0
965 -1103 0
1099 -1103 0
1102 1103 -1104 0
-1102 1104 0
-1103 1104 0
-82 -1041 1105 0
82 -1105 0
1041 -1105 0
-971 -1105 -1106 0
971 1105 -1106 0
971 -1105 1106 0
-971 1105 1106 0
-1106 -1104 -1107 0
1106 1104 -1107 0
1106 -1104 1107 0
-1106 1104 1107 0
-1106 -1104 1108 0
1106 -1108 0
1104 -1108 0
-971 -1105 1109 0
971 -1109 0
1105 -1109 0
1108 1109 -1110 0
-1108 1110 0
-1109 1110 0
-90 -1041 1111 0
90 -1111 0
1041 -1111 0
-977 -1111 -1112 0
977 1111 -1112 0
977 -1111 1112 0
-977 1111 1112 0
-1112 -1110 -1113 0
1112 1110 -1113 0
1112 -1110 1113 0
-1112 1110 1113 0
-1112 -1110 1114 0
1112 -1114 0
1110 -1114 0
-977 -1111 1115 0
977 -1115 0
1111 -1115 0
1114 1115 -1116 0
-1114 1116 0
-1115 1116 0
-98 -1041 1117 0
98 -1117 0
1041 -1117 0
-983 -1117 -1118 0
983 1117 -1118 0
983 -1117 1118 0
-983 1117 1118 0
-1118 -1116 -1119 0
1118 1116 -1119 0
1118 -1116 1119 0
-1118 1116 1119 0
-1118 -1116 1120 0
1118 -1120 0
1116 -1120 0
-983 -1117 1121 0
983 -1121 0
1117 -1121 0
1120 1121 -1122 0
-1120 1122 0
-1121 1122 0
-106 -1041 1123 0
106 -1123 0
1041 -1123 0
-989 -1123 -1124 0
989 1123 -1124 0
989 -1123 1124 0
-989 1123 1124 0
-1124 -1122 -1125 0
1124 1122 -1125 0
1124 -1122 1125 0
-1124 1122 1125 0
-1124 -1122 1126 0
1124 -1126 0
1122 -1126 0
-989 -1123 1127 0
989 -1127 0
1123 -1127 0
1126 1127 -1128 0
-1126 1128 0
-1127 1128 0
-114 -1041 1129 0
114 -1129 0
1041 -1129 0
-995 -1129 -1130 0
995 1129 -1130 0
995 -1129 1130 0
-995 1129 1130 0
-1130 -1128 -1131 0
1130 1128 -1131 0
1130 -1128 1131 0
-1130 1128 1131 0
-1130 -1128 1132 0
1130 -1132 0
1128 -1132 0
-995 -1129 1133 0
995 -1133 0
1129 -1133 0
1132 1133 -1134 0
-1132 1134 0
-1133 1134 0
-122 -1041 1135 0
122 -1135 0
1041 -1135 0
-1001 -1135 -1136 0
1001 1135 -1136 0
1001 -1135 1136 0
-1001 1135 1136 0
-1136 -1134 -1137 0
1136 1134 -1137 0
1136 -1134 1137 0
-1136 1134 1137 0
-1136 -1134 1138 0
1136 -1138 0
1134 -1138 0
-1001 -1135 1139 0
1001 -1139 0
1135 -1139 0
1138 1139 -1140 0
-1138 1140 0
-1139 1140 0
-130 -1041 1141 0
130 -1141 0
1041 -1141 0
-1007 -1141 -1142 0
1007 1141 -1142 0
1007 -1141 1142 0
-1007 1141 1142 0
-1142 -1140 -1143 0
1142 1140 -1143 0
1142 -1140 1143 0
-1142 1140 1143 0
-1142 -1140 1144 0
1142 -1144 0
1140 -1144 0
-1007 -1141 1145 0
1007 -1145 0
1141 -1145 0
1144 1145 -1146 0
-1144 1146 0
-1145 1146 0
-138 -1041 1147 0
138 -1147 0
1041 -1147 0
-1013 -1147 -1148 0
1013 1147 -1148 0
1013 -1147 1148 0
-1013 1147 1148 0
-1148 -1146 -1149 0
1148 1146 -1149 0
1148 -1146 1149 0
-1148 1146 1149 0
-1148 -1146 1150 0
1148 -1150 0
1146 -1150 0
-1013 -1147 1151 0
1013 -1151 0
1147 -1151 0
1150 1151 -1152 0
-1150 1152 0
-1151 1152 0
-146 -1041 1153 0
146 -1153 0
1041 -1153 0
-1019 -1153 -1154 0
1019 1153 -1154 0
1019 -1153 1154 0
-1019 1153 1154 0
-1154 -1152 -1155 0
1154 1152 -1155 0
1154 -1152 1155 0
-1154 1152 1155 0
-1154 -1152 1156 0
1154 -1156 0
1152 -1156 0
-1019 -1153 1157 0
1019 -1157 0
1153 -1157 0
1156 1157 -1158 0
-1156 1158 0
-1157 1158 0
-154 -1041 1159 0
154 -1159 0
1041 -1159 0
-1025 -1159 -1160 0
1025 1159 -1160 0
1025 -1159 1160 0
-1025 1159 1160 0
-1160 -1158 -1161 0
1160 1158 -1161 0
1160 -1158 1161 0
-1160 1158 1161 0
-1160 -1158 1162 0
1160 -1162 0
1158 -1162 0
-1025 -1159 1163 0
1025 -1163 0
1159 -1163 0
1162 1163 -1164 0
-1162 1164 0
-1163 1164 0
-162 -1041 1165 0
162 -1165 0
1041 -1165 0
-1031 -1165 -1166 0
1031 1165 -1166 0
1031 -1165 1166 0
-1031 1165 1166 0
-1166 -1164 -1167 0
1166 1164 -1167 0
1166 -1164 1167 0
-1166 1164 1167 0
-1166 -1164 1168 0
1166 -1168 0
1164 -1168 0
-1031 -1165 1169 0
1031 -1169 0
1165 -1169 0
1168 1169 -1170 0
-1168 1170 0
-1169 1170 0
-170 -1041 1171 0
170 -1171 0
1041 -1171 0
-1037 -1171 -1172 0
1037 1171 -1172 0
1037 -1171 1172 0
-1037 1171 1172 0
-1172 -1170 -1173 0
1172 1170 -1173 0
1172 -1170 1173 0
-1172 1170 1173 0
-1172 -1170 1174 0
1172 -1174 0
1170 -1174 0
-1037 -1171 1175 0
1037 -1175 0
1171 -1175 0
1174 1175 -1176 0
-1174 1176 0
-1175 1176 0
-178 -1041 1177 0
178 -1177 0
1041 -1177 0
-1040 -1177 -1178 0
1040 1177 -1178 0
1040 -1177 1178 0
-1040 1177 1178 0
-1178 -1176 -1179 0
1178 1176 -1179 0
1178 -1176 1179 0
-1178 1176 1179 0
-1178 -1176 1180 0
1178 -1180 0
1176 -1180 0
-1040 -1177 1181 0
1040 -1181 0
1177 -1181 0
1180 1181 -1182 0
-1180 1182 0
-1181 1182 0
-1 -1183 1184 0
1 -1184 0
1183 -1184 0
-1047 -1184 -1185 0
1047 1184 -1185 0
1047 -1184 1185 0
-1047 1184 1185 0
-1047 -1184 1186 0
1047 -1186 0
1184 -1186 0
-4 -1183 1187 0
4 -1187 0
1183 -1187 0
-1053 -1187 -1188 0
1053 1187 -1188 0
1053 -1187 1188 0
-1053 1187 1188 0
-1188 -1186 -1189 0
1188 1186 -1189 0
1188 -1186 1189 0
-1188 1186 1189 0
-1188 -1186 1190 0
1188 -1190 0
1186 -1190 0
-1053 -1187 1191 0
1053 -1191 0
1187 -1191 0
1190 1191 -1192 0
-1190 1192 0
-1191 1192 0
-10 -1183 1193 0
10 -1193 0
1183 -1193 0
-1059 -1193 -1194 0
1059 1193 -1194 0
1059 -1193 1194 0
-1059 1193 1194 0
-1194 -1192 -1195 0
1194 1192 -1195 0
1194 -1192 1195 0
-1194 1192 1195 0
-1194 -1192 1196 0
1194 -1196 0
1192 -1196 0
-1059 -1193 1197 0
1059 -1197 0
1193 -1197 0
1196 1197 -1198 0
-1196 1198 0
-1197 1198 0
-18 -1183 1199 0
18 -1199 0
1183 -1199 0
-1065 -1199 -1200 0
1065 1199 -1200 0
1065 -1199 1200 0
-1065 1199 1200 0
-1200 -1198 -1201 0
1200 1198 -1201 0
1200 -1198 1201 0
-1200 1198 1201 0
-1200 -1198 1202 0
1200 -1202 0
1198 -1202 0
-1065 -1199 1203 0
1065 -1203 0
1199 -1203 0
1202 1203 -1204 0
-1202 1204 0
-1203 1204 0
-26 -1183 1205 0
26 -1205 0
1183 -1205 0
-1071 -1205 -1206 0
1071 1205 -1206 0
1071 -1205 1206 0
-1071 1205 1206 0
-1206 -1204 -1207 0
1206 1204 -1207 0
1206 -1204 1207 0
-1206 1204 1207 0
-1206 -1204 1208 0
1206 -1208 0
1204 -1208 0
-1071 -1205 1209 0
1071 -1209 0
1205 -1209 0
1208 1209 -1210 0
-1208 1210 0
-1209 1210 0
-34 -1183 1211 0
34 -1211 0
1183 -1211 0
-1077 -1211 -1212 0
1077 1211 -1212 0
1077 -1211 1212 0
-1077 1211 1212 0
-1212 -1210 -1213 0
1212 1210 -1213 0
1212 -1210 1213 0
-1212 1210 1213 0
-1212 -1210 1214 0
1212 -1214 0
1210 -1214 0
-1077 -1211 1215 0
1077 -1215 0
1211 -1215 0
1214 1215 -1216 0
-1214 1216 0
-1215 1216 0
-42 -1183 1217 0
42 -1217 0
1183 -1217 0
-1083 -1217 -1218 0
1083 1217 -1218 0
1083 -1217 1218 0
-1083 1217 1218 0
-1218 -1216 -1219 0
1218 1216 -1219 0
1218 -1216 1219 0
-1218 1216 1219 0
-1218 -1216 1220 0
1218 -1220 0
1216 -1220 0
-1083 -1217 1221 0
1083 -1221 0
1217 -1221 0
1220 1221 -1222 0
-1220 1222 0
-1221 1222 0
-50 -1183 1223 0
50 -1223 0
1183 -1223 0
-1089 -1223 -1224 0
1089 1223 -1224 0
1089 -1223 1224 0
-1089 1223 1224 0
-1224 -1222 -1225 0
1224 1222 -1225 0
1224 -1222 1225 0
-1224 1222 1225 0
-1224 -1222 1226 0
1224 -1226 0
1222 -1226 0
-1089 -1223 1227 0
1089 -1227 0
1223 -1227 0
1226 1227 -1228 0
-1226 1228 0
-1227 1228 0
-58 -1183 1229 0
58 -1229 0
1183 -1229 0
-1095 -1229 -1230 0
1095 1229 -1230 0
1095 -1229 1230 0
-1095 1229 1230 0
-1230 -1228 -1231 0
1230 1228 -1231 0
1230 -1228 1231 0
-1230 1228 1231 0
-1230 -1228 1232 0
1230 -1232 0
1228 -1232 0
-1095 -1229 1233 0
1095 -1233 0
1229 -1233 0
1232 1233 -1234 0
-1232 1234 0
-1233 1234 0
-66 -1183 1235 0
66 -1235 0
1183 -1235 0
-1101 -1235 -1236 0
1101 1235 -1236 0
1101 -1235 1236 0
-1101 1235 1236 0
-1236 -1234 -1237 0
1236 1234 -1237 0
1236 -1234 1237 0
-1236 1234 1237 0
-1236 -1234 1238 0
1236 -1238 0
1234 -1238 0
-1101 -1235 1239 0
1101 -1239 0
1235 -1239 0
1238 1239 -1240 0
-1238 1240 0
-1239 1240 0
-74 -1183 1241 0
74 -1241 0
1183 -1241 0
-1107 -1241 -1242 0
1107 1241 -1242 0
1107 -1241 1242 0
-1107 1241 1242 0
-1242 -1240 -1243 0
1242 1240 -1243 0
1242 -1240 1243 0
-1242 1240 1243 0
-1242 -1240 1244 0
1242 -1244 0
1240 -1244 0
-1107 -1241 1245 0
1107 -1245 0
1241 -1245 0
1244 1245 -1246 0
-1244 1246 0
-1245 1246 0
-82 -1183 1247 0
82 -1247 0
1183 -1247 0
-1113 -1247 -1248 0
1113 1247 -1248 0
1113 -1247 1248 0
-1113 1247 1248 0
-1248 -1246 -1249 0
1248 1246 -1249 0
1248 -1246 1249 0
-1248 1246 1249 0
-1248 -1246 1250 0
1248 -1250 0
1246 -1250 0
-1113 -1247 1251 0
1113 -1251 0
1247 -1251 0
1250 1251 -1252 0
-1250 1252 0
-1251 1252 0
-90 -1183 1253 0
90 -1253 0
1183 -1253 0
-1119 -1253 -1254 0
1119 1253 -1254 0
1119 -1253 1254 0
-1119 1253 1254 0
-1254 -1252 -1255 0
1254 1252 -1255 0
1254 -1252 1255 0
-1254 1252 1255 0
-1254 -1252 1256 0
1254 -1256 0
1252 -1256 0
-1119 -1253 1257 0
1119 -1257 0
1253 -1257 0
1256 1257 -1258 0
-1256 1258 0
-1257 1258 0
-98 -1183 1259 0
98 -1259 0
1183 -1259 0
-1125 -1259 -1260 0
1125 1259 -1260 0
1125 -1259 1260 0
-1125 1259 1260 0
-1260 -1258 -1261 0
1260 1258 -1261 0
1260 -1258 1261 0
-1260 1258 1261 0
-1260 -1258 1262 0
1260 -1262 0
1258 -1262 0
-1125 -1259 1263 0
1125 -1263 0
1259 -1263 0
1262 1263 -1264 0
-1262 1264 0
-1263 1264 0
-106 -1183 1265 0
106 -1265 0
1183 -1265 0
-1131 -1265 -1266 0
1131 1265 -1266 0
1131 -1265 1266 0
-1131 1265 1266 0
-1266 -1264 -1267 0
1266 1264 -1267 0
1266 -1264 1267 0
-1266 1264 1267 0
-1266 -1264 1268 0
1266 -1268 0
1264 -1268 0
-1131 -1265 1269 0
1131 -1269 0
1265 -1269 0
1268 1269 -1270 0
-1268 1270 0
-1269 1270 0
-114 -1183 1271 0
114 -1271 0
1183 -1271 0
-1137 -1271 -1272 0
1137 1271 -1272 0
1137 -1271 1272 0
-1137 1271 1272 0
-1272 -1270 -1273 0
1272 1270 -1273 0
1272 -1270 1273 0
-1272 1270 1273 0
-1272 -1270 1274 0
1272 -1274 0
1270 -1274 0
-1137 -1271 1275 0
1137 -1275 0
1271 -1275 0
1274 1275 -1276 0
-1274 1276 0
-1275 1276 0
-122 -1183 1277 0
122 -1277 0
1183 -1277 0
-1143 -1277 -1278 0
1143 1277 -1278 0
1143 -1277 1278 0
-1143 1277 1278 0
-1278 -1276 -1279 0
1278 1276 -1279 0
1278 -1276 1279 0
-1278 1276 1279 0
-1278 -1276 1280 0
1278 -1280 0
1276 -1280 0
-1143 -1277 1281 0
1143 -1281 0
1277 -1281 0
1280 1281 -1282 0
-1280 1282 0
-1281 1282 0
-130 -1183 1283 0
130 -1283 0
1183 -1283 0
-1149 -1283 -1284 0
1149 1283 -1284 0
1149 -1283 1284 0
-1149 1283 1284 0
-1284 -1282 -1285 0
1284 1282 -1285 0
1284 -1282 1285 0
-1284 1282 1285 0
-1284 -1282 1286 0
1284 -1286 0
1282 -1286 0
-1149 -1283 1287 0
1149 -1287 0
1283 -1287 0
1286 1287 -1288 0
-1286 1288 0
-1287 1288 0
-138 -1183 1289 0
138 -1289 0
1183 -1289 0
-1155 -1289 -1290 0
1155 1289 -1290 0
1155 -1289 1290 0
-1155 1289 1290 0
-1290 -1288 -1291 0
1290 1288 -1291 0
1290 -1288 1291 0
-1290 1288 1291 0
-1290 -1288 1292 0
1290 -1292 0
1288 -1292 0
-1155 -1289 1293 0
1155 -1293 0
1289 -1293 0
1292 1293 -1294 0
-1292 1294 0
-1293 1294 0
-146 -1183 1295 0
146 -1295 0
1183 -1295 0
-1161 -1295 -1296 0
1161 1295 -1296 0
1161 -1295 1296 0
-1161 1295 1296 0
-1296 -1294 -1297 0
1296 1294 -1297 0
1296 -1294 1297 0
-1296 1294 1297 0
-1296 -1294 1298 0
1296 -1298 0
1294 -1298 0
-1161 -1295 1299 0
1161 -1299 0
1295 -1299 0
1298 1299 -1300 0
-1298 1300 0
-1299 1300 0
-154 -1183 1301 0
154 -1301 0
1183 -1301 0
-1167 -1301 -1302 0
1167 1301 -1302 0
1167 -1301 1302 0
-1167 1301 1302 0
-1302 -1300 -1303 0
1302 1300 -1303 0
1302 -1300 1303 0
-1302 1300 1303 0
-1302 -1300 1304 0
1302 -1304 0
1300 -1304 0
-1167 -1301 1305 0
1167 -1305 0
1301 -1305 0
1304 1305 -1306 0
-1304 1306 0
-1305 1306 0
-162 -1183 1307 0
162 -1307 0
1183 -1307 0
-1173 -1307 -1308 0
1173 1307 -1308 0
1173 -1307 1308 0
-1173 1307 1308 0
-1308 -1306 -1309 0
1308 1306 -1309 0
1308 -1306 1309 0
-1308 1306 1309 0
-1308 -1306 1310 0
1308 -1310 0
1306 -1310 0
-1173 -1307 1311 0
1173 -1311 0
1307 -1311 0
1310 1311 -1312 0
-1310 1312 0
-1311 1312 0
-170 -1183 1313 0
170 -1313 0
1183 -1313 0
-1179 -1313 -1314 0
1179 1313 -1314 0
1179 -1313 1314 0
-1179 1313 1314 0
-1314 -1312 -1315 0
1314 1312 -1315 0
1314 -1312 1315 0
-1314 1312 1315 0
-1314 -1312 1316 0
1314 -1316 0
1312 -1316 0
-1179 -1313 1317 0
1179 -1317 0
1313 -1317 0
1316 1317 -1318 0
-1316 1318 0
-1317 1318 0
-178 -1183 1319 0
178 -1319 0
1183 -1319 0
-1182 -1319 -1320 0
1182 1319 -1320 0
1182 -1319 1320 0
-1182 1319 1320 0
-1320 -1318 -1321 0
1320 1318 -1321 0
1320 -1318 1321 0
-1320 1318 1321 0
-1320 -1318 1322 0
1320 -1322 0
1318 -1322 0
-1182 -1319 1323 0
1182 -1323 0
1319 -1323 0
1322 1323 -1324 0
-1322 1324 0
-1323 1324 0
-1 -1325 1326 0
1 -1326 0
1325 -1326 0
-1189 -1326 -1327 0
1189 1326 -1327 0
1189 -1326 1327 0
-1189 1326 1327 0
-1189 -1326 1328 0
1189 -1328 0
1326 -1328 0
-4 -1325 1329 0
4 -1329 0
1325 -1329 0
-1195 -1329 -1330 0
1195 1329 -1330 0
1195 -1329 1330 0
-1195 1329 1330 0
-1330 -1328 -1331 0
1330 1328 -1331 0
1330 -1328 1331 0
-1330 1328 1331 0
-1330 -1328 1332 0
1330 -1332 0
1328 -1332 0
-1195 -1329 1333 0
1195 -1333 0
1329 -1333 0
1332 1333 -1334 0
-1332 1334 0
-1333 1334 0
-10 -1325 1335 0
10 -1335 0
1325 -1335 0
-1201 -1335 -1336 0
1201 1335 -1336 0
1201 -1335 1336 0
-1201 1335 1336 0
-1336 -1334 -1337 0
1336 1334 -1337 0
1336 -1334 1337 0
-1336 1334 1337 0
-1336 -1334 1338 0
1336 -1338 0
1334 -1338 0
-1201 -1335 1339 0
1201 -1339 0
1335 -1339 0
1338 1339 -1340 0
-1338 1340 0
-1339 1340 0
-18 -1325 1341 0
18 -1341 0
1325 -1341 0
-1207 -1341 -1342 0
1207 1341 -1342 0
1207 -1341 1342 0
-1207 1341 1342 0
-1342 -1340 -1343 0
1342 1340 -1343 0
1342 -1340 1343 0
-1342 1340 1343 0
-1342 -1340 1344 0
1342 -1344 0
1340 -1344 0
-1207 -1341 1345 0
1207 -1345 0
1341 -1345 0
1344 1345 -1346 0
-1344 1346 0
-1345 1346 0
-26 -1325 1347 0
26 -1347 0
1325 -1347 0
-1213 -1347 -1348 0
1213 1347 -1348 0
1213 -1347 1348 0
-1213 1347 1348 0
-1348 -1346 -1349 0
1348 1346 -1349 0
1348 -1346 1349 0
-1348 1346 1349 0
-1348 -1346 1350 0
1348 -1350 0
1346 -1350 0
-1213 -1347 1351 0
1213 -1351 0
1347 -1351 0
1350 1351 -1352 0
-1350 1352 0
-1351 1352 0
-34 -1325 1353 0
34 -1353 0
1325 -1353 0
-1219 -1353 -1354 0
1219 1353 -1354 0
1219 -1353 1354 0
-1219 1353 1354 0
-1354 -1352 -1355 0
1354 1352 -1355 0
1354 -1352 1355 0
-1354 1352 1355 0
-1354 -1352 1356 0
1354 -1356 0
1352 -1356 0
-1219 -1353 1357 0
1219 -1357 0
1353 -1357 0
1356 1357 -1358 0
-1356 1358 0
-1357 1358 0
-42 -1325 1359 0
42 -1359 0
1325 -1359 0
-1225 -1359 -1360 0
1225 1359 -1360 0
1225 -1359 1360 0
-1225 1359 1360 0
-1360 -1358 -1361 0
1360 1358 -1361 0
1360 -1358 1361 0
-1360 1358 1361 0
-1360 -1358 1362 0
1360 -1362 0
1358 -1362 0
-1225 -1359 1363 0
1225 -1363 0
1359 -1363 0
1362 1363 -1364 0
-1362 1364 0
-1363 1364 0
-50 -1325 1365 0
50 -1365 0
1325 -1365 0
-1231 -1365 -1366 0
1231 1365 -1366 0
1231 -1365 1366 0
-1231 1365 1366 0
-1366 -1364 -1367 0
1366 1364 -1367 0
1366 -1364 1367 0
-1366 1364 1367 0
-1366 -1364 1368 0
1366 -1368 0
1364 -1368 0
-1231 -1365 1369 0
1231 -1369 0
1365 -1369 0
1368 1369 -1370 0
-1368 1370 0
-1369 1370 0
-58 -1325 1371 0
58 -1371 0
1325 -1371 0
-1237 -1371 -1372 0
1237 1371 -1372 0
1237 -1371 1372 0
-1237 1371 1372 0
-1372 -1370 -1373 0
1372 1370 -1373 0
1372 -1370 1373 0
-1372 1370 1373 0
-1372 -1370 1374 0
1372 -1374 0
1370 -1374 0
-1237 -1371 1375 0
1237 -1375 0
1371 -1375 0
1374 1375 -1376 0
-1374 1376 0
-1375 1376 0
-66 -1325 1377 0
66 -1377 0
1325 -1377 0
-1243 -1377 -1378 0
1243 1377 -1378 0
1243 -1377 1378 0
-1243 1377 1378 0
-1378 -1376 -1379 0
1378 1376 -1379 0
1378 -1376 1379 0
-1378 1376 1379 0
-1378 -1376 1380 0
1378 -1380 0
1376 -1380 0
-1243 -1377 1381 0
1243 -1381 0
1377 -1381 0
1380 1381 -1382 0
-1380 1382 0
-1381 1382 0
-74 -1325 1383 0
74 -1383 0
1325 -1383 0
-1249 -1383 -1384 0
1249 1383 -1384 0
1249 -1383 1384 0
-1249 1383 1384 0
-1384 -1382 -1385 0
1384 1382 -1385 0
1384 -1382 1385 0
-1384 1382 1385 0
-1384 -1382 1386 0
1384 -1386 0
1382 -1386 0
-1249 -1383 1387 0
1249 -1387 0
1383 -1387 0
1386 1387 -1388 0
-1386 1388 0
-1387 1388 0
-82 -1325 1389 0
82 -1389 0
1325 -1389 0
-1255 -1389 -1390 0
1255 1389 -1390 0
1255 -1389 1390 0
-1255 1389 1390 0
-1390 -1388 -1391 0
1390 1388 -1391 0
1390 -1388 1391 0
-1390 1388 1391 0
-1390 -1388 1392 0
1390 -1392 0
1388 -1392 0
-1255 -1389 1393 0
1255 -1393 0
1389 -1393 0
1392 1393 -1394 0
-1392 1394 0
-1393 1394 0
-90 -1325 1395 0
90 -1395 0
1325 -1395 0
-1261 -1395 -1396 0
1261 1395 -1396 0
1261 -1395 1396 0
-1261 1395 1396 0
-1396 -1394 -1397 0
1396 1394 -1397 0
1396 -1394 1397 0
-1396 1394 1397 0
-1396 -1394 1398 0
1396 -1398 0
1394 -1398 0
-1261 -1395 1399 0
1261 -1399 0
1395 -1399 0
1398 1399 -1400 0
-1398 1400 0
-1399 1400 0
-98 -1325 1401 0
98 -1401 0
1325 -1401 0
-1267 -1401 -1402 0
1267 1401 -1402 0
1267 -1401 1402 0
-1267 1401 1402 0
-1402 -1400 -1403 0
1402 1400 -1403 0
1402 -1400 1403 0
-1402 1400 1403 0
-1402 -1400 1404 0
1402 -1404 0
1400 -1404 0
-1267 -1401 1405 0
1267 -1405 0
1401 -1405 0
1404 1405 -1406 0
-1404 1406 0
-1405 1406 0
-106 -1325 1407 0
106 -1407 0
1325 -1407 0
-1273 -1407 -1408 0
1273 1407 -1408 0
1273 -1407 1408 0
-1273 1407 1408 0
-1408 -1406 -1409 0
1408 1406 -1409 0
1408 -1406 1409 0
-1408 1406 1409 0
-1408 -1406 1410 0
1408 -1410 0
1406 -1410 0
-1273 -1407 1411 0
1273 -1411 0
1407 -1411 0
1410 1411 -1412 0
-1410 1412 0
-1411 1412 0
-114 -1325 1413 0
114 -1413 0
1325 -1413 0
-1279 -1413 -1414 0
1279 1413 -1414 0
1279 -1413 1414 0
-1279 1413 1414 0
-1414 -1412 -1415 0
1414 1412 -1415 0
1414 -1412 1415 0
-1414 1412 1415 0
-1414 -1412 1416 0
1414 -1416 0
1412 -1416 0
-1279 -1413 1417 0
1279 -1417 0
1413 -1417 0
1416 1417 -1418 0
-1416 1418 0
-1417 1418 0
-122 -1325 1419 0
122 -1419 0
1325 -1419 0
-1285 -1419 -1420 0
1285 1419 -1420 0
1285 -1419 1420 0
-1285 1419 1420 0
-1420 -1418 -1421 0
1420 1418 -1421 0
1420 -1418 1421 0
-1420 1418 1421 0
-1420 -1418 1422 0
1420 -1422 0
1418 -1422 0
-1285 -1419 1423 0
1285 -1423 0
1419 -1423 0
1422 1423 -1424 0
-1422 1424 0
-1423 1424 0
-130 -1325 1425 0
130 -1425 0
1325 -1425 0
-1291 -1425 -1426 0
1291 1425 -1426 0
1291 -1425 1426 0
-1291 1425 1426 0
-1426 -1424 -1427 0
1426 1424 -1427 0
1426 -1424 1427 0
-1426 1424 1427 0
-1426 -1424 1428 0
1426 -1428 0
1424 -1428 0
-1291 -1425 1429 0
1291 -1429 0
1425 -1429 0
1428 1429 -1430 0
-1428 1430 0
-1429 1430 0
-138 -1325 1431 0
138 -1431 0
1325 -1431 0
-1297 -1431 -1432 0
1297 1431 -1432 0
1297 -1431 1432 0
-1297 1431 1432 0
-1432 -1430 -1433 0
1432 1430 -1433 0
1432 -1430 1433 0
-1432 1430 1433 0
-1432 -1430 1434 0
1432 -1434 0
1430 -1434 0
-1297 -1431 1435 0
1297 -1435 0
1431 -1435 0
1434 1435 -1436 0
-1434 1436 0
-1435 1436 0
-146 -1325 1437 0
146 -1437 0
1325 -1437 0
-1303 -1437 -1438 0
1303 1437 -1438 0
1303 -1437 1438 0
-1303 1437 1438 0
-1438 -1436 -1439 0
1438 1436 -1439 0
1438 -1436 1439 0
-1438 1436 1439 0
-1438 -1436 1440 0
1438 -1440 0
1436 -1440 0
-1303 -1437 1441 0
1303 -1441 0
1437 -1441 0
1440 1441 -1442 0
-1440 1442 0
-1441 1442 0
-154 -1325 1443 0
154 -1443 0
1325 -1443 0
-1309 -1443 -1444 0
1309 1443 -1444 0
1309 -1443 1444 0
-1309 1443 1444 0
-1444 -1442 -1445 0
1444 1442 -1445 0
1444 -1442 1445 0
-1444 1442 1445 0
-1444 -1442 1446 0
1444 -1446 0
1442 -1446 0
-1309 -1443 1447 0
1309 -1447 0
1443 -1447 0
1446 1447 -1448 0
-1446 1448 0
-1447 1448 0
-162 -1325 1449 0
162 -1449 0
1325 -1449 0
-1315 -1449 -1450 0
1315 1449 -1450 0
1315 -1449 1450 0
-1315 1449 1450 0
-1450 -1448 -1451 0
1450 1448 -1451 0
1450 -1448 1451 0
-1450 1448 1451 0
-1450 -1448 1452 0
1450 -1452 0
1448 -1452 0
-1315 -1449 1453 0
1315 -1453 0
1449 -1453 0
1452 1453 -1454 0
-1452 1454 0
-1453 1454 0
-170 -1325 1455 0
170 -1455 0
1325 -1455 0
-1321 -1455 -1456 0
1321 1455 -1456 0
1321 -1455 1456 0
-1321 1455 1456 0
-1456 -1454 -1457 0
1456 1454 -1457 0
1456 -1454 1457 0
-1456 1454 1457 0
-1456 -1454 1458 0
1456 -1458 0
1454 -1458 0
-1321 -1455 1459 0
1321 -1459 0
1455 -1459 0
1458 1459 -1460 0
-1458 1460 0
-1459 1460 0
-178 -1325 1461 0
178 -1461 0
1325 -1461 0
-1324 -1461 -1462 0
1324 1461 -1462 0
1324 -1461 1462 0
-1324 1461 1462 0
-1462 -1460 -1463 0
1462 1460 -1463 0
1462 -1460 1463 0
-1462 1460 1463 0
-1462 -1460 1464 0
1462 -1464 0
1460 -1464 0
-1324 -1461 1465 0
1324 -1465 0
1461 -1465 0
1464 1465 -1466 0
-1464 1466 0
-1465 1466 0
-1 -1467 1468 0
1 -1468 0
1467 -1468 0
-1331 -1468 -1469 0
1331 1468 -1469 0
1331 -1468 1469 0
-1331 1468 1469 0
-1331 -1468 1470 0
1331 -1470 0
1468 -1470 0
-4 -1467 1471 0
4 -1471 0
1467 -1471 0
-1337 -1471 -1472 0
1337 1471 -1472 0
1337 -1471 1472 0
-1337 1471 1472 0
-1472 -1470 -1473 0
1472 1470 -1473 0
1472 -1470 1473 0
-1472 1470 1473 0
-1472 -1470 1474 0
1472 -1474 0
1470 -1474 0
-1337 -1471 1475 0
1337 -1475 0
1471 -1475 0
1474 1475 -1476 0
-1474 1476 0
-1475 1476 0
-10 -1467 1477 0
10 -1477 0
1467 -1477 0
-1343 -1477 -1478 0
1343 1477 -1478 0
1343 -1477 1478 0
-1343 1477 1478 0
-1478 -1476 -1479 0
1478 1476 -1479 0
1478 -1476 1479 0
-1478 1476 1479 0
-1478 -1476 1480 0
1478 -1480 0
1476 -1480 0
-1343 -1477 1481 0
1343 -1481 0
1477 -1481 0
1480 1481 -1482 0
-1480 1482 0
-1481 1482 0
-18 -1467 1483 0
18 -1483 0
1467 -1483 0
-1349 -1483 -1484 0
1349 1483 -1484 0
1349 -1483 1484 0
-1349 1483 1484 0
-1484 -1482 -1485 0
1484 1482 -1485 0
1484 -1482 1485 0
-1484 1482 1485 0
-1484 -1482 1486 0
1484 -1486 0
1482 -1486 0
-1349 -1483 1487 0
1349 -1487 0
1483 -1487 0
1486 1487 -1488 0
-1486 1488 0
-1487 1488 0
-26 -1467 1489 0
26 -1489 0
1467 -1489 0
-1355 -1489 -1490 0
1355 1489 -1490 0
1355 -1489 1490 0
-1355 1489 1490 0
-1490 -1488 -1491 0
1490 1488 -1491 0
1490 -1488 1491 0
-1490 1488 1491 0
-1490 -1488 1492 0
1490 -1492 0
1488 -1492 0
-1355 -1489 1493 0
1355 -1493 0
1489 -1493 0
1492 1493 -1494 0
-1492 1494 0
-1493 1494 0
-34 -1467 1495 0
34 -1495 0
1467 -1495 0
-1361 -1495 -1496 0
1361 1495 -1496 0
1361 -1495 1496 0
-1361 1495 1496 0
-1496 -1494 -1497 0
1496 1494 -1497 0
1496 -1494 1497 0
-1496 1494 1497 0
-1496 -1494 1498 0
1496 -1498 0
1494 -1498 0
-1361 -1495 1499 0
1361 -1499 0
1495 -1499 0
1498 1499 -1500 0
-1498 1500 0
-1499 1500 0
-42 -1467 1501 0
42 -1501 0
1467 -1501 0
-1367 -1501 -1502 0
1367 1501 -1502 0
1367 -1501 1502 0
-1367 1501 1502 0
-1502 -1500 -1503 0
1502 1500 -1503 0
1502 -1500 1503 0
-1502 1500 1503 0
-1502 -1500 1504 0
1502 -1504 0
1500 -1504 0
-1367 -1501 1505 0
1367 -1505 0
1501 -1505 0
1504 1505 -1506 0
-1504 1506 0
-1505 1506 0
-50 -1467 1507 0
50 -1507 0
1467 -1507 0
-1373 -1507 -1508 0
1373 1507 -1508 0
1373 -1507 1508 0
-1373 1507 1508 0
-1508 -1506 -1509 0
1508 1506 -1509 0
1508 -1506 1509 0
-1508 1506 1509 0
-1508 -1506 1510 0
1508 -1510 0
1506 -1510 0
-1373 -1507 1511 0
1373 -1511 0
1507 -1511 0
1510 1511 -1512 0
-1510 1512 0
-1511 1512 0
-58 -1467 1513 0
58 -1513 0
1467 -1513 0
-1379 -1513 -1514 0
1379 1513 -1514 0
1379 -1513 1514 0
-1379 1513 1514 0
-1514 -1512 -1515 0
1514 1512 -1515 0
1514 -1512 1515 0
-1514 1512 1515 0
-1514 -1512 1516 0
1514 -1516 0
1512 -1516 0
-1379 -1513 1517 0
1379 -1517 0
1513 -1517 0
1516 1517 -1518 0
-1516 1518 0
-1517 1518 0
-66 -1467 1519 0
66 -1519 0
1467 -1519 0
-1385 -1519 -1520 0
1385 1519 -1520 0
1385 -1519 1520 0
-1385 1519 1520 0
-1520 -1518 -1521 0
1520 1518 -1521 0
1520 -1518 1521 0
-1520 1518 1521 0
-1520 -1518 1522 0
1520 -1522 0
1518 -1522 0
-1385 -1519 1523 0
1385 -1523 0
1519 -1523 0
1522 1523 -1524 0
-1522 1524 0
-1523 1524 0
-74 -1467 1525 0
74 -1525 0
1467 -1525 0
-1391 -1525 -1526 0
1391 1525 -1526 0
1391 -1525 1526 0
-1391 1525 1526 0
-1526 -1524 -1527 0
1526 1524 -1527 0
1526 -1524 1527 0
-1526 1524 1527 0
-1526 -1524 1528 0
1526 -1528 0
1524 -1528 0
-1391 -1525 1529 0
1391 -1529 0
1525 -1529 0
1528 1529 -1530 0
-1528 1530 0
-1529 1530 0
-82 -1467 1531 0
82 -1531 0
1467 -1531 0
-1397 -1531 -1532 0
1397 1531 -1532 0
1397 -1531 1532 0
-1397 1531 1532 0
-1532 -1530 -1533 0
1532 1530 -1533 0
1532 -1530 1533 0
-1532 1530 1533 0
-1532 -1530 1534 0
1532 -1534 0
1530 -1534 0
-1397 -1531 1535 0
1397 -1535 0
1531 -1535 0
1534 1535 -1536 0
-1534 1536 0
-1535 1536 0
-90 -1467 1537 0
90 -1537 0
1467 -1537 0
-1403 -1537 -1538 0
1403 1537 -1538 0
1403 -1537 1538 0
-1403 1537 1538 0
-1538 -1536 -1539 0
1538 1536 -1539 0
1538 -1536 1539 0
-1538 1536 1539 0
-1538 -1536 1540 0
1538 -1540 0
1536 -1540 0
-1403 -1537 1541 0
1403 -1541 0
1537 -1541 0
1540 1541 -1542 0
-1540 1542 0
-1541 1542 0
-98 -1467 1543 0
98 -1543 0
1467 -1543 0
-1409 -1543 -1544 0
1409 1543 -1544 0
1409 -1543 1544 0
-1409 1543 1544 0
-1544 -1542 -1545 0
1544 1542 -1545 0
1544 -1542 1545 0
-1544 1542 1545 0
-1544 -1542 1546 0
1544 -1546 0
1542 -1546 0
-1409 -1543 1547 0
1409 -1547 0
1543 -1547 0
1546 1547 -1548 0
-1546 1548 0
-1547 1548 0
-106 -1467 1549 0
106 -1549 0
1467 -1549 0
-1415 -1549 -1550 0
1415 1549 -1550 0
1415 -1549 1550 0
-1415 1549 1550 0
-1550 -1548 -1551 0
1550 1548 -1551 0
1550 -1548 1551 0
-1550 1548 1551 0
-1550 -1548 1552 0
1550 -1552 0
1548 -1552 0
-1415 -1549 1553 0
1415 -1553 0
1549 -1553 0
1552 1553 -1554 0
-1552 1554 0
-1553 1554 0
-114 -1467 1555 0
114 -1555 0
1467 -1555 0
-1421 -1555 -1556 0
1421 1555 -1556 0
1421 -1555 1556 0
-1421 1555 1556 0
-1556 -1554 -1557 0
1556 1554 -1557 0
1556 -1554 1557 0
-1556 1554 1557 0
-1556 -1554 1558 0
1556 -1558 0
1554 -1558 0
-1421 -1555 1559 0
1421 -1559 0
1555 -1559 0
1558 1559 -1560 0
-1558 1560 0
-1559 1560 0
-122 -1467 1561 0
122 -1561 0
1467 -1561 0
-1427 -1561 -1562 0
1427 1561 -1562 0
1427 -1561 1562 0
-1427 1561 1562 0
-1562 -1560 -1563 0
1562 1560 -1563 0
1562 -1560 1563 0
-1562 1560 1563 0
-1562 -1560 1564 0
1562 -1564 0
1560 -1564 0
-1427 -1561 1565 0
1427 -1565 0
1561 -1565 0
1564 1565 -1566 0
-1564 1566 0
-1565 1566 0
-130 -1467 1567 0
130 -1567 0
1467 -1567 0
-1433 -1567 -1568 0
1433 1567 -1568 0
1433 -1567 1568 0
-1433 1567 1568 0
-1568 -1566 -1569 0
1568 1566 -1569 0
1568 -1566 1569 0
-1568 1566 1569 0
-1568 -1566 1570 0
1568 -1570 0
1566 -1570 0
-1433 -1567 1571 0
1433 -1571 0
1567 -1571 0
1570 1571 -1572 0
-1570 1572 0
-1571 1572 0
-138 -1467 1573 0
138 -1573 0
1467 -1573 0
-1439 -1573 -1574 0
1439 1573 -1574 0
1439 -1573 1574 0
-1439 1573 1574 0
-1574 -1572 -1575 0
1574 1572 -1575 0
1574 -1572 1575 0
-1574 1572 1575 0
-1574 -1572 1576 0
1574 -1576 0
1572 -1576 0
-1439 -1573 1577 0
1439 -1577 0
1573 -1577 0
1576 1577 -1578 0
-1576 1578 0
-1577 1578 0
-146 -1467 1579 0
146 -1579 0
1467 -1579 0
-1445 -1579 -1580 0
1445 1579 -1580 0
1445 -1579 1580 0
-1445 1579 1580 0
-1580 -1578 -1581 0
1580 1578 -1581 0
1580 -1578 1581 0
-1580 1578 1581 0
-1580 -1578 1582 0
1580 -1582 0
1578 -1582 0
-1445 -1579 1583 0
1445 -1583 0
1579 -1583 0
1582 1583 -1584 0
-1582 1584 0
-1583 1584 0
-154 -1467 1585 0
154 -1585 0
1467 -1585 0
-1451 -1585 -1586 0
1451 1585 -1586 0
1451 -1585 1586 0
-1451 1585 1586 0
-1586 -1584 -1587 0
1586 1584 -1587 0
1586 -1584 1587 0
-1586 1584 1587 0
-1586 -1584 1588 0
1586 -1588 0
1584 -1588 0
-1451 -1585 1589 0
1451 -1589 0
1585 -1589 0
1588 1589 -1590 0
-1588 1590 0
-1589 1590 0
-162 -1467 1591 0
162 -1591 0
1467 -1591 0
-1457 -1591 -1592 0
1457 1591 -1592 0
1457 -1591 1592 0
-1457 1591 1592 0
-1592 -1590 -1593 0
1592 1590 -1593 0
1592 -1590 1593 0
-1592 1590 1593 0
-1592 -1590 1594 0
1592 -1594 0
1590 -1594 0
-1457 -1591 1595 0
1457 -1595 0
1591 -1595 0
1594 1595 -1596 0
-1594 1596 0
-1595 1596 0
-170 -1467 1597 0
170 -1597 0
1467 -1597 0
-1463 -1597 -1598 0
1463 1597 -1598 0
1463 -1597 1598 0
-1463 1597 1598 0
-1598 -1596 -1599 0
1598 1596 -1599 0
1598 -1596 1599 0
-1598 1596 1599 0
-1598 -1596 1600 0
1598 -1600 0
1596 -1600 0
-1463 -1597 1601 0
1463 -1601 0
1597 -1601 0
1600 1601 -1602 0
-1600 1602 0
-1601 1602 0
-178 -1467 1603 0
178 -1603 0
1467 -1603 0
-1466 -1603 -1604 0
1466 1603 -1604 0
1466 -1603 1604 0
-1466 1603 1604 0
-1604 -1602 -1605 0
1604 1602 -1605 0
1604 -1602 1605 0
-1604 1602 1605 0
-1604 -1602 1606 0
1604 -1606 0
1602 -1606 0
-1466 -1603 1607 0
1466 -1607 0
1603 -1607 0
1606 1607 -1608 0
-1606 1608 0
-1607 1608 0
-1 -1609 1610 0
1 -1610 0
1609 -1610 0
-1473 -1610 -1611 0
1473 1610 -1611 0
1473 -1610 1611 0
-1473 1610 1611 0
-1473 -1610 1612 0
1473 -1612 0
1610 -1612 0
-4 -1609 1613 0
4 -1613 0
1609 -1613 0
-1479 -1613 -1614 0
1479 1613 -1614 0
1479 -1613 1614 0
-1479 1613 1614 0
-1614 -1612 -1615 0
1614 1612 -1615 0
1614 -1612 1615 0
-1614 1612 1615 0
-1614 -1612 1616 0
1614 -1616 0
1612 -1616 0
-1479 -1613 1617 0
1479 -1617 0
1613 -1617 0
1616 1617 -1618 0
-1616 1618 0
-1617 1618 0
-10 -1609 1619 0
10 -1619 0
1609 -1619 0
-1485 -1619 -1620 0
1485 1619 -1620 0
1485 -1619 1620 0
-1485 1619 1620 0
-1620 -1618 -1621 0
1620 1618 -1621 0
1620 -1618 1621 0
-1620 1618 1621 0
-1620 -1618 1622 0
1620 -1622 0
1618 -1622 0
-1485 -1619 1623 0
1485 -1623 0
1619 -1623 0
1622 1623 -1624 0
-1622 1624 0
-1623 1624 0
-18 -1609 1625 0
18 -1625 0
1609 -1625 0
-1491 -1625 -1626 0
1491 1625 -1626 0
1491 -1625 1626 0
-1491 1625 1626 0
-1626 -1624 -1627 0
1626 1624 -1627 0
1626 -1624 1627 0
-1626 1624 1627 0
-1626 -1624 1628 0
1626 -1628 0
1624 -1628 0
-1491 -1625 1629 0
1491 -1629 0
1625 -1629 0
1628 1629 -1630 0
-1628 1630 0
-1629 1630 0
-26 -1609 1631 0
26 -1631 0
1609 -1631 0
-1497 -1631 -1632 0
1497 1631 -1632 0
1497 -1631 1632 0
-1497 1631 1632 0
-1632 -1630 -1633 0
1632 1630 -1633 0
1632 -1630 1633 0
-1632 1630 1633 0
-1632 -1630 1634 0
1632 -1634 0
1630 -1634 0
-1497 -1631 1635 0
1497 -1635 0
1631 -1635 0
1634 1635 -1636 0
-1634 1636 0
-1635 1636 0
-34 -1609 1637 0
34 -1637 0
1609 -1637 0
-1503 -1637 -1638 0
1503 1637 -1638 0
1503 -1637 1638 0
-1503 1637 1638 0
-1638 -1636 -1639 0
1638 1636 -1639 0
1638 -1636 1639 0
-1638 1636 1639 0
-1638 -1636 1640 0
1638 -1640 0
1636 -1640 0
-1503 -1637 1641 0
1503 -1641 0
1637 -1641 0
1640 1641 -1642 0
-1640 1642 0
-1641 1642 0
-42 -1609 1643 0
42 -1643 0
1609 -1643 0
-1509 -1643 -1644 0
1509 1643 -1644 0
1509 -1643 1644 0
-1509 1643 1644 0
-1644 -1642 -1645 0
1644 1642 -1645 0
1644 -1642 1645 0
-1644 1642 1645 0
-1644 -1642 1646 0
1644 -1646 0
1642 -1646 0
-1509 -1643 1647 0
1509 -1647 0
1643 -1647 0
1646 1647 -1648 0
-1646 1648 0
-1647 1648 0
-50 -1609 1649 0
50 -1649 0
1609 -1649 0
-1515 -1649 -1650 0
1515 1649 -1650 0
1515 -1649 1650 0
-1515 1649 1650 0
-1650 -1648 -1651 0
1650 1648 -1651 0
1650 -1648 1651 0
-1650 1648 1651 0
-1650 -1648 1652 0
1650 -1652 0
1648 -1652 0
-1515 -1649 1653 0
1515 -1653 0
1649 -1653 0
1652 1653 -1654 0
-1652 1654 0
-1653 1654 0
-58 -1609 1655 0
58 -1655 0
1609 -1655 0
-1521 -1655 -1656 0
1521 1655 -1656 0
1521 -1655 1656 0
-1521 1655 1656 0
-1656 -1654 -1657 0
1656 1654 -1657 0
1656 -1654 1657 0
-1656 1654 1657 0
-1656 -1654 1658 0
1656 -1658 0
1654 -1658 0
-1521 -1655 1659 0
1521 -1659 0
1655 -1659 0
1658 1659 -1660 0
-1658 1660 0
-1659 1660 0
-66 -1609 1661 0
66 -1661 0
1609 -1661 0
-1527 -1661 -1662 0
1527 1661 -1662 0
1527 -1661 1662 0
-1527 1661 1662 0
-1662 -1660 -1663 0
1662 1660 -1663 0
1662 -1660 1663 0
-1662 1660 1663 0
-1662 -1660 1664 0
1662 -1664 0
1660 -1664 0
-1527 -1661 1665 0
1527 -1665 0
1661 -1665 0
1664 1665 -1666 0
-1664 1666 0
-1665 1666 0
-74 -1609 1667 0
74 -1667 0
1609 -1667 0
-1533 -1667 -1668 0
1533 1667 -1668 0
1533 -1667 1668 0
-1533 1667 1668 0
-1668 -1666 -1669 0
1668 1666 -1669 0
1668 -1666 1669 0
-1668 1666 1669 0
-1668 -1666 1670 0
1668 -1670 0
1666 -1670 0
-1533 -1667 1671 0
1533 -1671 0
1667 -1671 0
1670 1671 -1672 0
-1670 1672 0
-1671 1672 0
-82 -1609 1673 0
82 -1673 0
1609 -1673 0
-1539 -1673 -1674 0
1539 1673 -1674 0
1539 -1673 1674 0
-1539 1673 1674 0
-1674 -1672 -1675 0
1674 1672 -1675 0
1674 -1672 1675 0
-1674 1672 1675 0
-1674 -1672 1676 0
1674 -1676 0
1672 -1676 0
-1539 -1673 1677 0
1539 -1677 0
1673 -1677 0
1676 1677 -1678 0
-1676 1678 0
-1677 1678 0
-90 -1609 1679 0
90 -1679 0
1609 -1679 0
-1545 -1679 -1680 0
1545 1679 -1680 0
1545 -1679 1680 0
-1545 1679 1680 0
-1680 -1678 -1681 0
1680 1678 -1681 0
1680 -1678 1681 0
-1680 1678 1681 0
-1680 -1678 1682 0
1680 -1682 0
1678 -1682 0
-1545 -1679 1683 0
1545 -1683 0
1679 -1683 0
1682 1683 -1684 0
-1682 1684 0
-1683 1684 0
-98 -1609 1685 0
98 -1685 0
1609 -1685 0
-1551 -1685 -1686 0
1551 1685 -1686 0
1551 -1685 1686 0
-1551 1685 1686 0
-1686 -1684 -1687 0
1686 1684 -1687 0
1686 -1684 1687 0
-1686 1684 1687 0
-1686 -1684 1688 0
1686 -1688 0
1684 -1688 0
-1551 -1685 1689 0
1551 -1689 0
1685 -1689 0
1688 1689 -1690 0
-1688 1690 0
-1689 1690 0
-106 -1609 1691 0
106 -1691 0
1609 -1691 0
-1557 -1691 -1692 0
1557 1691 -1692 0
1557 -1691 1692 0
-1557 1691 1692 0
-1692 -1690 -1693 0
1692 1690 -1693 0
1692 -1690 1693 0
-1692 1690 1693 0
-1692 -1690 1694 0
1692 -1694 0
1690 -1694 0
-1557 -1691 1695 0
1557 -1695 0
1691 -1695 0
1694 1695 -1696 0
-1694 1696 0
-1695 1696 0
-114 -1609 1697 0
114 -1697 0
1609 -1697 0
-1563 -1697 -1698 0
1563 1697 -1698 0
1563 -1697 1698 0
-1563 1697 1698 0
-1698 -1696 -1699 0
1698 1696 -1699 0
1698 -1696 1699 0
-1698 1696 1699 0
-1698 -1696 1700 0
1698 -1700 0
1696 -1700 0
-1563 -1697 1701 0
1563 -1701 0
1697 -1701 0
1700 1701 -1702 0
-1700 1702 0
-1701 1702 0
-122 -1609 1703 0
122 -1703 0
1609 -1703 0
-1569 -1703 -1704 0
1569 1703 -1704 0
1569 -1703 1704 0
-1569 1703 1704 0
-1704 -1702 -1705 0
1704 1702 -1705 0
1704 -1702 1705 0
-1704 1702 1705 0
-1704 -1702 1706 0
1704 -1706 0
1702 -1706 0
-1569 -1703 1707 0
1569 -1707 0
1703 -1707 0
1706 1707 -1708 0
-1706 1708 0
-1707 1708 0
-130 -1609 1709 0
130 -1709 0
1609 -1709 0
-1575 -1709 -1710 0
1575 1709 -1710 0
1575 -1709 1710 0
-1575 1709 1710 0
-1710 -1708 -1711 0
1710 1708 -1711 0
1710 -1708 1711 0
-1710 1708 1711 0
-1710 -1708 1712 0
1710 -1712 0
1708 -1712 0
-1575 -1709 1713 0
1575 -1713 0
1709 -1713 0
1712 1713 -1714 0
-1712 1714 0
-1713 1714 0
-138 -1609 1715 0
138 -1715 0
1609 -1715 0
-1581 -1715 -1716 0
1581 1715 -1716 0
1581 -1715 1716 0
-1581 1715 1716 0
-1716 -1714 -1717 0
1716 1714 -1717 0
1716 -1714 1717 0
-1716 1714 1717 0
-1716 -1714 1718 0
1716 -1718 0
1714 -1718 0
-1581 -1715 1719 0
1581 -1719 0
1715 -1719 0
1718 1719 -1720 0
-1718 1720 0
-1719 1720 0
-146 -1609 1721 0
146 -1721 0
1609 -1721 0
-1587 -1721 -1722 0
1587 1721 -1722 0
1587 -1721 1722 0
-1587 1721 1722 0
-1722 -1720 -1723 0
1722 1720 -1723 0
1722 -1720 1723 0
-1722 1720 1723 0
-1722 -1720 1724 0
1722 -1724 0
1720 -1724 0
-1587 -1721 1725 0
1587 -1725 0
1721 -1725 0
1724 1725 -1726 0
-1724 1726 0
-1725 1726 0
-154 -1609 1727 0
154 -1727 0
1609 -1727 0
-1593 -1727 -1728 0
1593 1727 -1728 0
1593 -1727 1728 0
-1593 1727 1728 0
-1728 -1726 -1729 0
1728 1726 -1729 0
1728 -1726 1729 0
-1728 1726 1729 0
-1728 -1726 1730 0
1728 -1730 0
1726 -1730 0
-1593 -1727 1731 0
1593 -1731 0
1727 -1731 0
1730 1731 -1732 0
-1730 1732 0
-1731 1732 0
-162 -1609 1733 0
162 -1733 0
1609 -1733 0
-1599 -1733 -1734 0
1599 1733 -1734 0
1599 -1733 1734 0
-1599 1733 1734 0
-1734 -1732 -1735 0
1734 1732 -1735 0
1734 -1732 1735 0
-1734 1732 1735 0
-1734 -1732 1736 0
1734 -1736 0
1732 -1736 0
-1599 -1733 1737 0
1599 -1737 0
1733 -1737 0
1736 1737 -1738 0
-1736 1738 0
-1737 1738 0
-170 -1609 1739 0
170 -1739 0
1609 -1739 0
-1605 -1739 -1740 0
1605 1739 -1740 0
1605 -1739 1740 0
-1605 1739 1740 0
-1740 -1738 -1741 0
1740 1738 -1741 0
1740 -1738 1741 0
-1740 1738 1741 0
-1740 -1738 1742 0
1740 -1742 0
1738 -1742 0
-1605 -1739 1743 0
1605 -1743 0
1739 -1743 0
1742 1743 -1744 0
-1742 1744 0
-1743 1744 0
-178 -1609 1745 0
178 -1745 0
1609 -1745 0
-1608 -1745 -1746 0
1608 1745 -1746 0
1608 -1745 1746 0
-1608 1745 1746 0
-1746 -1744 -1747 0
1746 1744 -1747 0
1746 -1744 1747 0
-1746 1744 1747 0
-1746 -1744 1748 0
1746 -1748 0
1744 -1748 0
-1608 -1745 1749 0
1608 -1749 0
1745 -1749 0
1748 1749 -1750 0
-1748 1750 0
-1749 1750 0
-1 -1751 1752 0
1 -1752 0
1751 -1752 0
-1615 -1752 -1753 0
1615 1752 -1753 0
1615 -1752 1753 0
-1615 1752 1753 0
-1615 -1752 1754 0
1615 -1754 0
1752 -1754 0
-4 -1751 1755 0
4 -1755 0
1751 -1755 0
-1621 -1755 -1756 0
1621 1755 -1756 0
1621 -1755 1756 0
-1621 1755 1756 0
-1756 -1754 -1757 0
1756 1754 -1757 0
1756 -1754 1757 0
-1756 1754 1757 0
-1756 -1754 1758 0
1756 -1758 0
1754 -1758 0
-1621 -1755 1759 0
1621 -1759 0
1755 -1759 0
1758 1759 -1760 0
-1758 1760 0
-1759 1760 0
-10 -1751 1761 0
10 -1761 0
1751 -1761 0
-1627 -1761 -1762 0
1627 1761 -1762 0
1627 -1761 1762 0
-1627 1761 1762 0
-1762 -1760 -1763 0
1762 1760 -1763 0
1762 -1760 1763 0
-1762 1760 1763 0
-1762 -1760 1764 0
1762 -1764 0
1760 -1764 0
-1627 -1761 1765 0
1627 -1765 0
1761 -1765 0
1764 1765 -1766 0
-1764 1766 0
-1765 1766 0
-18 -1751 1767 0
18 -1767 0
1751 -1767 0
-1633 -1767 -1768 0
1633 1767 -1768 0
1633 -1767 1768 0
-1633 1767 1768 0
-1768 -1766 -1769 0
1768 1766 -1769 0
1768 -1766 1769 0
-1768 1766 1769 0
-1768 -1766 1770 0
1768 -1770 0
1766 -1770 0
-1633 -1767 1771 0
1633 -1771 0
1767 -1771 0
1770 1771 -1772 0
-1770 1772 0
-1771 1772 0
-26 -1751 1773 0
26 -1773 0
1751 -1773 0
-1639 -1773 -1774 0
1639 1773 -1774 0
1639 -1773 1774 0
-1639 1773 1774 0
-1774 -1772 -1775 0
1774 1772 -1775 0
1774 -1772 1775 0
-1774 1772 1775 0
-1774 -1772 1776 0
1774 -1776 0
1772 -1776 0
-1639 -1773 1777 0
1639 -1777 0
1773 -1777 0
1776 1777 -1778 0
-1776 1778 0
-1777 1778 0
-34 -1751 1779 0
34 -1779 0
1751 -1779 0
-1645 -1779 -1780 0
1645 1779 -1780 0
1645 -1779 1780 0
-1645 1779 1780 0
-1780 -1778 -1781 0
1780 1778 -1781 0
1780 -1778 1781 0
-1780 1778 1781 0
-1780 -1778 1782 0
1780 -1782 0
1778 -1782 0
-1645 -1779 1783 0
1645 -1783 0
1779 -1783 0
1782 1783 -1784 0
-1782 1784 0
-1783 1784 0
-42 -1751 1785 0
42 -1785 0
1751 -1785 0
-1651 -1785 -1786 0
1651 1785 -1786 0
1651 -1785 1786 0
-1651 1785 1786 0
-1786 -1784 -1787 0
1786 1784 -1787 0
1786 -1784 1787 0
-1786 1784 1787 0
-1786 -1784 1788 0
1786 -1788 0
1784 -1788 0
-1651 -1785 1789 0
1651 -1789 0
1785 -1789 0
1788 1789 -1790 0
-1788 1790 0
-1789 1790 0
-50 -1751 1791 0
50 -1791 0
1751 -1791 0
-1657 -1791 -1792 0
1657 1791 -1792 0
1657 -1791 1792 0
-1657 1791 1792 0
-1792 -1790 -1793 0
1792 1790 -1793 0
1792 -1790 1793 0
-1792 1790 1793 0
-1792 -1790 1794 0
1792 -1794 0
1790 -1794 0
-1657 -1791 1795 0
1657 -1795 0
1791 -1795 0
1794 1795 -1796 0
-1794 1796 0
-1795 1796 0
-58 -1751 1797 0
58 -1797 0
1751 -1797 0
-1663 -1797 -1798 0
1663 1797 -1798 0
1663 -1797 1798 0
-1663 1797 1798 0
-1798 -1796 -1799 0
1798 1796 -1799 0
1798 -1796 1799 0
-1798 1796 1799 0
-1798 -1796 1800 0
1798 -1800 0
1796 -1800 0
-1663 -1797 1801 0
1663 -1801 0
1797 -1801 0
1800 1801 -1802 0
-1800 1802 0
-1801 1802 0
-66 -1751 1803 0
66 -1803 0
1751 -1803 0
-1669 -1803 -1804 0
1669 1803 -1804 0
1669 -1803 1804 0
-1669 1803 1804 0
-1804 -1802 -1805 0
1804 1802 -1805 0
1804 -1802 1805 0
-1804 1802 1805 0
-1804 -1802 1806 0
1804 -1806 0
1802 -1806 0
-1669 -1803 1807 0
1669 -1807 0
1803 -1807 0
1806 1807 -1808 0
-1806 1808 0
-1807 1808 0
-74 -1751 1809 0
74 -1809 0
1751 -1809 0
-1675 -1809 -1810 0
1675 1809 -1810 0
1675 -1809 1810 0
-1675 1809 1810 0
-1810 -1808 -1811 0
1810 1808 -1811 0
1810 -1808 1811 0
-1810 1808 1811 0
-1810 -1808 1812 0
1810 -1812 0
1808 -1812 0
-1675 -1809 1813 0
1675 -1813 0
1809 -1813 0
1812 1813 -1814 0
-1812 1814 0
-1813 1814 0
-82 -1751 1815 0
82 -1815 0
1751 -1815 0
-1681 -1815 -1816 0
1681 1815 -1816 0
1681 -1815 1816 0
-1681 1815 1816 0
-1816 -1814 -1817 0
1816 1814 -1817 0
1816 -1814 1817 0
-1816 1814 1817 0
-1816 -1814 1818 0
1816 -1818 0
1814 -1818 0
-1681 -1815 1819 0
1681 -1819 0
1815 -1819 0
1818 1819 -1820 0
-1818 1820 0
-1819 1820 0
-90 -1751 1821 0
90 -1821 0
1751 -1821 0
-1687 -1821 -1822 0
1687 1821 -1822 0
1687 -1821 1822 0
-1687 1821 1822 0
-1822 -1820 -1823 0
1822 1820 -1823 0
1822 -1820 1823 0
-1822 1820 1823 0
-1822 -1820 1824 0
1822 -1824 0
1820 -1824 0
-1687 -1821 1825 0
1687 -1825 0
1821 -1825 0
1824 1825 -1826 0
-1824 1826 0
-1825 1826 0
-98 -1751 1827 0
98 -1827 0
1751 -1827 0
-1693 -1827 -1828 0
1693 1827 -1828 0
1693 -1827 1828 0
-1693 1827 1828 0
-1828 -1826 -1829 0
1828 1826 -1829 0
1828 -1826 1829 0
-1828 1826 1829 0
-1828 -1826 1830 0
1828 -1830 0
1826 -1830 0
-1693 -1827 1831 0
1693 -1831 0
1827 -1831 0
1830 1831 -1832 0
-1830 1832 0
-1831 1832 0
-106 -1751 1833 0
106 -1833 0
1751 -1833 0
-1699 -1833 -1834 0
1699 1833 -1834 0
1699 -1833 1834 0
-1699 1833 1834 0
-1834 -1832 -1835 0
1834 1832 -1835 0
1834 -1832 1835 0
-1834 1832 1835 0
-1834 -1832 1836 0
1834 -1836 0
1832 -1836 0
-1699 -1833 1837 0
1699 -1837 0
1833 -1837 0
1836 1837 -1838 0
-1836 1838 0
-1837 1838 0
-114 -1751 1839 0
114 -1839 0
1751 -1839 0
-1705 -1839 -1840 0
1705 1839 -1840 0
1705 -1839 1840 0
-1705 1839 1840 0
-1840 -1838 -1841 0
1840 1838 -1841 0
1840 -1838 1841 0
-1840 1838 1841 0
-1840 -1838 1842 0
1840 -1842 0
1838 -1842 0
-1705 -1839 1843 0
1705 -1843 0
1839 -1843 0
1842 1843 -1844 0
-1842 1844 0
-1843 1844 0
-122 -1751 1845 0
122 -1845 0
1751 -1845 0
-1711 -1845 -1846 0
1711 1845 -1846 0
1711 -1845 1846 0
-1711 1845 1846 0
-1846 -1844 -1847 0
1846 1844 -1847 0
1846 -1844 1847 0
-1846 1844 1847 0
-1846 -1844 1848 0
1846 -1848 0
1844 -1848 0
-1711 -1845 1849 0
1711 -1849 0
1845 -1849 0
1848 1849 -1850 0
-1848 1850 0
-1849 1850 0
-130 -1751 1851 0
130 -1851 0
1751 -1851 0
-1717 -1851 -1852 0
1717 1851 -1852 0
1717 -1851 1852 0
-1717 1851 1852 0
-1852 -1850 -1853 0
1852 1850 -1853 0
1852 -1850 1853 0
-1852 1850 1853 0
-1852 -1850 1854 0
1852 -1854 0
1850 -1854 0
-1717 -1851 1855 0
1717 -1855 0
1851 -1855 0
1854 1855 -1856 0
-1854 1856 0
-1855 1856 0
-138 -1751 1857 0
138 -1857 0
1751 -1857 0
-1723 -1857 -1858 0
1723 1857 -1858 0
1723 -1857 1858 0
-1723 1857 1858 0
-1858 -1856 -1859 0
1858 1856 -1859 0
1858 -1856 1859 0
-1858 1856 1859 0
-1858 -1856 1860 0
1858 -1860 0
1856 -1860 0
-1723 -1857 1861 0
1723 -1861 0
1857 -1861 0
1860 1861 -1862 0
-1860 1862 0
-1861 1862 0
-146 -1751 1863 0
146 -1863 0
1751 -1863 0
-1729 -1863 -1864 0
1729 1863 -1864 0
1729 -1863 1864 0
-1729 1863 1864 0
-1864 -1862 -1865 0
1864 1862 -1865 0
1864 -1862 1865 0
-1864 1862 1865 0
-1864 -1862 1866 0
1864 -1866 0
1862 -1866 0
-1729 -1863 1867 0
1729 -1867 0
1863 -1867 0
1866 1867 -1868 0
-1866 1868 0
-1867 1868 0
-154 -1751 1869 0
154 -1869 0
1751 -1869 0
-1735 -1869 -1870 0
1735 1869 -1870 0
1735 -1869 1870 0
-1735 1869 1870 0
-1870 -1868 -1871 0
1870 1868 -1871 0
1870 -1868 1871 0
-1870 1868 1871 0
-1870 -1868 1872 0
1870 -1872 0
1868 -1872 0
-1735 -1869 1873 0
1735 -1873 0
1869 -1873 0
1872 1873 -1874 0
-1872 1874 0
-1873 1874 0
-162 -1751 1875 0
162 -1875 0
1751 -1875 0
-1741 -1875 -1876 0
1741 1875 -1876 0
1741 -1875 1876 0
-1741 1875 1876 0
-1876 -1874 -1877 0
1876 1874 -1877 0
1876 -1874 1877 0
-1876 1874 1877 0
-1876 -1874 1878 0
1876 -1878 0
1874 -1878 0
-1741 -1875 1879 0
1741 -1879 0
1875 -1879 0
1878 1879 -1880 0
-1878 1880 0
-1879 1880 0
-170 -1751 1881 0
170 -1881 0
1751 -1881 0
-1747 -1881 -1882 0
1747 1881 -1882 0
1747 -1881 1882 0
-1747 1881 1882 0
-1882 -1880 -1883 0
1882 1880 -1883 0
1882 -1880 1883 0
-1882 1880 1883 0
-1882 -1880 1884 0
1882 -1884 0
1880 -1884 0
-1747 -1881 1885 0
1747 -1885 0
1881 -1885 0
1884 1885 -1886 0
-1884 1886 0
-1885 1886 0
-178 -1751 1887 0
178 -1887 0
1751 -1887 0
-1750 -1887 -1888 0
1750 1887 -1888 0
1750 -1887 1888 0
-1750 1887 1888 0
-1888 -1886 -1889 0
1888 1886 -1889 0
1888 -1886 1889 0
-1888 1886 1889 0
-1888 -1886 1890 0
1888 -1890 0
1886 -1890 0
-1750 -1887 1891 0
1750 -1891 0
1887 -1891 0
1890 1891 -1892 0
-1890 1892 0
-1891 1892 0
-1 -1893 1894 0
1 -1894 0
1893 -1894 0
-1757 -1894 -1895 0
1757 1894 -1895 0
1757 -1894 1895 0
-1757 1894 1895 0
-1757 -1894 1896 0
1757 -1896 0
1894 -1896 0
-4 -1893 1897 0
4 -1897 0
1893 -1897 0
-1763 -1897 -1898 0
1763 1897 -1898 0
1763 -1897 1898 0
-1763 1897 1898 0
-1898 -1896 -1899 0
1898 1896 -1899 0
1898 -1896 1899 0
-1898 1896 1899 0
-1898 -1896 1900 0
1898 -1900 0
1896 -1900 0
-1763 -1897 1901 0
1763 -1901 0
1897 -1901 0
1900 1901 -1902 0
-1900 1902 0
-1901 1902 0
-10 -1893 1903 0
10 -1903 0
1893 -1903 0
-1769 -1903 -1904 0
1769 1903 -1904 0
1769 -1903 1904 0
-1769 1903 1904 0
-1904 -1902 -1905 0
1904 1902 -1905 0
1904 -1902 1905 0
-1904 1902 1905 0
-1904 -1902 1906 0
1904 -1906 0
1902 -1906 0
-1769 -1903 1907 0
1769 -1907 0
1903 -1907 0
1906 1907 -1908 0
-1906 1908 0
-1907 1908 0
-18 -1893 1909 0
18 -1909 0
1893 -1909 0
-1775 -1909 -1910 0
1775 1909 -1910 0
1775 -1909 1910 0
-1775 1909 1910 0
-1910 -1908 -1911 0
1910 1908 -1911 0
1910 -1908 1911 0
-1910 1908 1911 0
-1910 -1908 1912 0
1910 -1912 0
1908 -1912 0
-1775 -1909 1913 0
1775 -1913 0
1909 -1913 0
1912 1913 -1914 0
-1912 1914 0
-1913 1914 0
-26 -1893 1915 0
26 -1915 0
1893 -1915 0
-1781 -1915 -1916 0
1781 1915 -1916 0
1781 -1915 1916 0
-1781 1915 1916 0
-1916 -1914 -1917 0
1916 1914 -1917 0
1916 -1914 1917 0
-1916 1914 1917 0
-1916 -1914 1918 0
1916 -1918 0
1914 -1918 0
-1781 -1915 1919 0
1781 -1919 0
1915 -1919 0
1918 1919 -1920 0
-1918 1920 0
-1919 1920 0
-34 -1893 1921 0
34 -1921 0
1893 -1921 0
-1787 -1921 -1922 0
1787 1921 -1922 0
1787 -1921 1922 0
-1787 1921 1922 0
-1922 -1920 -1923 0
1922 1920 -1923 0
1922 -1920 1923 0
-1922 1920 1923 0
-1922 -1920 1924 0
1922 -1924 0
1920 -1924 0
-1787 -1921 1925 0
1787 -1925 0
1921 -1925 0
1924 1925 -1926 0
-1924 1926 0
-1925 1926 0
-42 -1893 1927 0
42 -1927 0
1893 -1927 0
-1793 -1927 -1928 0
1793 1927 -1928 0
1793 -1927 1928 0
-1793 1927 1928 0
-1928 -1926 -1929 0
1928 1926 -1929 0
1928 -1926 1929 0
-1928 1926 1929 0
-1928 -1926 1930 0
1928 -1930 0
1926 -1930 0
-1793 -1927 1931 0
1793 -1931 0
1927 -1931 0
1930 1931 -1932 0
-1930 1932 0
-1931 1932 0
-50 -1893 1933 0
50 -1933 0
1893 -1933 0
-1799 -1933 -1934 0
1799 1933 -1934 0
1799 -1933 1934 0
-1799 1933 1934 0
-1934 -1932 -1935 0
1934 1932 -1935 0
1934 -1932 1935 0
-1934 1932 1935 0
-1934 -1932 1936 0
1934 -1936 0
1932 -1936 0
-1799 -1933 1937 0
1799 -1937 0
1933 -1937 0
1936 1937 -1938 0
-1936 1938 0
-1937 1938 0
-58 -1893 1939 0
58 -1939 0
1893 -1939 0
-1805 -1939 -1940 0
1805 1939 -1940 0
1805 -1939 1940 0
-1805 1939 1940 0
-1940 -1938 -1941 0
1940 1938 -1941 0
1940 -1938 1941 0
-1940 1938 1941 0
-1940 -1938 1942 0
1940 -1942 0
1938 -1942 0
-1805 -1939 1943 0
1805 -1943 0
1939 -1943 0
1942 1943 -1944 0
-1942 1944 0
-1943 1944 0
-66 -1893 1945 0
66 -1945 0
1893 -1945 0
-1811 -1945 -1946 0
1811 1945 -1946 0
1811 -1945 1946 0
-1811 1945 1946 0
-1946 -1944 -1947 0
1946 1944 -1947 0
1946 -1944 1947 0
-1946 1944 1947 0
-1946 -1944 1948 0
1946 -1948 0
1944 -1948 0
-1811 -1945 1949 0
1811 -1949 0
1945 -1949 0
1948 1949 -1950 0
-1948 1950 0
-1949 1950 0
-74 -1893 1951 0
74 -1951 0
1893 -1951 0
-1817 -1951 -1952 0
1817 1951 -1952 0
1817 -1951 1952 0
-1817 1951 1952 0
-1952 -1950 -1953 0
1952 1950 -1953 0
1952 -1950 1953 0
-1952 1950 1953 0
-1952 -1950 1954 0
1952 -1954 0
1950 -1954 0
-1817 -1951 1955 0
1817 -1955 0
1951 -1955 0
1954 1955 -1956 0
-1954 1956 0
-1955 1956 0
-82 -1893 1957 0
82 -1957 0
1893 -1957 0
-1823 -1957 -1958 0
1823 1957 -1958 0
1823 -1957 1958 0
-1823 1957 1958 0
-1958 -1956 -1959 0
1958 1956 -1959 0
1958 -1956 1959 0
-1958 1956 1959 0
-1958 -1956 1960 0
1958 -1960 0
1956 -1960 0
-1823 -1957 1961 0
1823 -1961 0
1957 -1961 0
1960 1961 -1962 0
-1960 1962 0
-1961 1962 0
-90 -1893 1963 0
90 -1963 0
1893 -1963 0
-1829 -1963 -1964 0
1829 1963 -1964 0
1829 -1963 1964 0
-1829 1963 1964 0
-1964 -1962 -1965 0
1964 1962 -1965 0
1964 -1962 1965 0
-1964 1962 1965 0
-1964 -1962 1966 0
1964 -1966 0
1962 -1966 0
-1829 -1963 1967 0
1829 -1967 0
1963 -1967 0
1966 1967 -1968 0
-1966 1968 0
-1967 1968 0
-98 -1893 1969 0
98 -1969 0
1893 -1969 0
-1835 -1969 -1970 0
1835 1969 -1970 0
1835 -1969 1970 0
-1835 1969 1970 0
-1970 -1968 -1971 0
1970 1968 -1971 0
1970 -1968 1971 0
-1970 1968 1971 0
-1970 -1968 1972 0
1970 -1972 0
1968 -1972 0
-1835 -1969 1973 0
1835 -1973 0
1969 -1973 0
1972 1973 -1974 0
-1972 1974 0
-1973 1974 0
-106 -1893 1975 0
106 -1975 0
1893 -1975 0
-1841 -1975 -1976 0
1841 1975 -1976 0
1841 -1975 1976 0
-1841 1975 1976 0
-1976 -1974 -1977 0
1976 1974 -1977 0
1976 -1974 1977 0
-1976 1974 1977 0
-1976 -1974 1978 0
1976 -1978 0
1974 -1978 0
-1841 -1975 1979 0
1841 -1979 0
1975 -1979 0
1978 1979 -1980 0
-1978 1980 0
-1979 1980 0
-114 -1893 1981 0
114 -1981 0
1893 -1981 0
-1847 -1981 -1982 0
1847 1981 -1982 0
1847 -1981 1982 0
-1847 1981 1982 0
-1982 -1980 -1983 0
1982 1980 -1983 0
1982 -1980 1983 0
-1982 1980 1983 0
-1982 -1980 1984 0
1982 -1984 0
1980 -1984 0
-1847 -1981 1985 0
1847 -1985 0
1981 -1985 0
1984 1985 -1986 0
-1984 1986 0
-1985 1986 0
-122 -1893 1987 0
122 -1987 0
1893 -1987 0
-1853 -1987 -1988 0
1853 1987 -1988 0
1853 -1987 1988 0
-1853 1987 1988 0
-1988 -1986 -1989 0
1988 1986 -1989 0
1988 -1986 1989 0
-1988 1986 1989 0
-1988 -1986 1990 0
1988 -1990 0
1986 -1990 0
-1853 -1987 1991 0
1853 -1991 0
1987 -1991 0
1990 1991 -1992 0
-1990 1992 0
-1991 1992 0
-130 -1893 1993 0
130 -1993 0
1893 -1993 0
-1859 -1993 -1994 0
1859 1993 -1994 0
1859 -1993 1994 0
-1859 1993 1994 0
-1994 -1992 -1995 0
1994 1992 -1995 0
1994 -1992 1995 0
-1994 1992 1995 0
-1994 -1992 1996 0
1994 -1996 0
1992 -1996 0
-1859 -1993 1997 0
1859 -1997 0
1993 -1997 0
1996 1997 -1998 0
-1996 1998 0
-1997 1998 0
-138 -1893 1999 0
138 -1999 0
1893 -1999 0
-1865 -1999 -2000 0
1865 1999 -2000 0
1865 -1999 2000 0
-1865 1999 2000 0
-2000 -1998 -2001 0
2000 1998 -2001 0
2000 -1998 2001 0
-2000 1998 2001 0
-2000 -1998 2002 0
2000 -2002 0
1998 -2002 0
-1865 -1999 2003 0
1865 -2003 0
1999 -2003 0
2002 2003 -2004 0
-2002 2004 0
-2003 2004 0
-146 -1893 2005 0
146 -2005 0
1893 -2005 0
-1871 -2005 -2006 0
1871 2005 -2006 0
1871 -2005 2006 0
-1871 2005 2006 0
-2006 -2004 -2007 0
2006 2004 -2007 0
2006 -2004 2007 0
-2006 2004 2007 0
-2006 -2004 2008 0
2006 -2008 0
2004 -2008 0
-1871 -2005 2009 0
1871 -2009 0
2005 -2009 0
2008 2009 -2010 0
-2008 2010 0
-2009 2010 0
-154 -1893 2011 0
154 -2011 0
1893 -2011 0
-1877 -2011 -2012 0
1877 2011 -2012 0
1877 -2011 2012 0
-1877 2011 2012 0
-2012 -2010 -2013 0
2012 2010 -2013 0
2012 -2010 2013 0
-2012 2010 2013 0
-2012 -2010 2014 0
2012 -2014 0
2010 -2014 0
-1877 -2011 2015 0
1877 -2015 0
2011 -2015 0
2014 2015 -2016 0
-2014 2016 0
-2015 2016 0
-162 -1893 2017 0
162 -2017 0
1893 -2017 0
-1883 -2017 -2018 0
1883 2017 -2018 0
1883 -2017 2018 0
-1883 2017 2018 0
-2018 -2016 -2019 0
2018 2016 -2019 0
2018 -2016 2019 0
-2018 2016 2019 0
-2018 -2016 2020 0
2018 -2020 0
2016 -2020 0
-1883 -2017 2021 0
1883 -2021 0
2017 -2021 0
2020 2021 -2022 0
-2020 2022 0
-2021 2022 0
-170 -1893 2023 0
170 -2023 0
1893 -2023 0
-1889 -2023 -2024 0
1889 2023 -2024 0
1889 -2023 2024 0
-1889 2023 2024 0
-2024 -2022 -2025 0
2024 2022 -2025 0
2024 -2022 2025 0
-2024 2022 2025 0
-2024 -2022 2026 0
2024 -2026 0
2022 -2026 0
-1889 -2023 2027 0
1889 -2027 0
2023 -2027 0
2026 2027 -2028 0
-2026 2028 0
-2027 2028 0
-178 -1893 2029 0
178 -2029 0
1893 -2029 0
-1892 -2029 -2030 0
1892 2029 -2030 0
1892 -2029 2030 0
-1892 2029 2030 0
-2030 -2028 -2031 0
2030 2028 -2031 0
2030 -2028 2031 0
-2030 2028 2031 0
-2030 -2028 2032 0
2030 -2032 0
2028 -2032 0
-1892 -2029 2033 0
1892 -2033 0
2029 -2033 0
2032 2033 -2034 0
-2032 2034 0
-2033 2034 0
-1 -2035 2036 0
1 -2036 0
2035 -2036 0
-1899 -2036 -2037 0
1899 2036 -2037 0
1899 -2036 2037 0
-1899 2036 2037 0
-1899 -2036 2038 0
1899 -2038 0
2036 -2038 0
-4 -2035 2039 0
4 -2039 0
2035 -2039 0
-1905 -2039 -2040 0
1905 2039 -2040 0
1905 -2039 2040 0
-1905 2039 2040 0
-2040 -2038 -2041 0
2040 2038 -2041 0
2040 -2038 2041 0
-2040 2038 2041 0
-2040 -2038 2042 0
2040 -2042 0
2038 -2042 0
-1905 -2039 2043 0
1905 -2043 0
2039 -2043 0
2042 2043 -2044 0
-2042 2044 0
-2043 2044 0
-10 -2035 2045 0
10 -2045 0
2035 -2045 0
-1911 -2045 -2046 0
1911 2045 -2046 0
1911 -2045 2046 0
-1911 2045 2046 0
-2046 -2044 -2047 0
2046 2044 -2047 0
2046 -2044 2047 0
-2046 2044 2047 0
-2046 -2044 2048 0
2046 -2048 0
2044 -2048 0
-1911 -2045 2049 0
1911 -2049 0
2045 -2049 0
2048 2049 -2050 0
-2048 2050 0
-2049 2050 0
-18 -2035 2051 0
18 -2051 0
2035 -2051 0
-1917 -2051 -2052 0
1917 2051 -2052 0
1917 -2051 2052 0
-1917 2051 2052 0
-2052 -2050 -2053 0
2052 2050 -2053 0
2052 -2050 2053 0
-2052 2050 2053 0
-2052 -2050 2054 0
2052 -2054 0
2050 -2054 0
-1917 -2051 2055 0
1917 -2055 0
2051 -2055 0
2054 2055 -2056 0
-2054 2056 0
-2055 2056 0
-26 -2035 2057 0
26 -2057 0
2035 -2057 0
-1923 -2057 -2058 0
1923 2057 -2058 0
1923 -2057 2058 0
-1923 2057 2058 0
-2058 -2056 -2059 0
2058 2056 -2059 0
2058 -2056 2059 0
-2058 2056 2059 0
-2058 -2056 2060 0
2058 -2060 0
2056 -2060 0
-1923 -2057 2061 0
1923 -2061 0
2057 -2061 0
2060 2061 -2062 0
-2060 2062 0
-2061 2062 0
-34 -2035 2063 0
34 -2063 0
2035 -2063 0
-1929 -2063 -2064 0
1929 2063 -2064 0
1929 -2063 2064 0
-1929 2063 2064 0
-2064 -2062 -2065 0
2064 2062 -2065 0
2064 -2062 2065 0
-2064 2062 2065 0
-2064 -2062 2066 0
2064 -2066 0
2062 -2066 0
-1929 -2063 2067 0
1929 -2067 0
2063 -2067 0
2066 2067 -2068 0
-2066 2068 0
-2067 2068 0
-42 -2035 2069 0
42 -2069 0
2035 -2069 0
-1935 -2069 -2070 0
1935 2069 -2070 0
1935 -2069 2070 0
-1935 2069 2070 0
-2070 -2068 -2071 0
2070 2068 -2071 0
2070 -2068 2071 0
-2070 2068 2071 0
-2070 -2068 2072 0
2070 -2072 0
2068 -2072 0
-1935 -2069 2073 0
1935 -2073 0
2069 -2073 0
2072 2073 -2074 0
-2072 2074 0
-2073 2074 0
-50 -2035 2075 0
50 -2075 0
2035 -2075 0
-1941 -2075 -2076 0
1941 2075 -2076 0
1941 -2075 2076 0
-1941 2075 2076 0
-2076 -2074 -2077 0
2076 2074 -2077 0
2076 -2074 2077 0
-2076 2074 2077 0
-2076 -2074 2078 0
2076 -2078 0
2074 -2078 0
-1941 -2075 2079 0
1941 -2079 0
2075 -2079 0
2078 2079 -2080 0
-2078 2080 0
-2079 2080 0
-58 -2035 2081 0
58 -2081 0
2035 -2081 0
-1947 -2081 -2082 0
1947 2081 -2082 0
1947 -2081 2082 0
-1947 2081 2082 0
-2082 -2080 -2083 0
2082 2080 -2083 0
2082 -2080 2083 0
-2082 2080 2083 0
-2082 -2080 2084 0
2082 -2084 0
2080 -2084 0
-1947 -2081 2085 0
1947 -2085 0
2081 -2085 0
2084 2085 -2086 0
-2084 2086 0
-2085 2086 0
-66 -2035 2087 0
66 -2087 0
2035 -2087 0
-1953 -2087 -2088 0
1953 2087 -2088 0
1953 -2087 2088 0
-1953 2087 2088 0
-2088 -2086 -2089 0
2088 2086 -2089 0
2088 -2086 2089 0
-2088 2086 2089 0
-2088 -2086 2090 0
2088 -2090 0
2086 -2090 0
-1953 -2087 2091 0
1953 -2091 0
2087 -2091 0
2090 2091 -2092 0
-2090 2092 0
-2091 2092 0
-74 -2035 2093 0
74 -2093 0
2035 -2093 0
-1959 -2093 -2094 0
1959 2093 -2094 0
1959 -2093 2094 0
-1959 2093 2094 0
-2094 -2092 -2095 0
2094 2092 -2095 0
2094 -2092 2095 0
-2094 2092 2095 0
-2094 -2092 2096 0
2094 -2096 0
2092 -2096 0
-1959 -2093 2097 0
1959 -2097 0
2093 -2097 0
2096 2097 -2098 0
-2096 2098 0
-2097 2098 0
-82 -2035 2099 0
82 -2099 0
2035 -2099 0
-1965 -2099 -2100 0
1965 2099 -2100 0
1965 -2099 2100 0
-1965 2099 2100 0
-2100 -2098 -2101 0
2100 2098 -2101 0
2100 -2098 2101 0
-2100 2098 2101 0
-2100 -2098 2102 0
2100 -2102 0
2098 -2102 0
-1965 -2099 2103 0
1965 -2103 0
2099 -2103 0
2102 2103 -2104 0
-2102 2104 0
-2103 2104 0
-90 -2035 2105 0
90 -2105 0
2035 -2105 0
-1971 -2105 -2106 0
1971 2105 -2106 0
1971 -2105 2106 0
-1971 2105 2106 0
-2106 -2104 -2107 0
2106 2104 -2107 0
2106 -2104 2107 0
-2106 2104 2107 0
-2106 -2104 2108 0
2106 -2108 0
2104 -2108 0
-1971 -2105 2109 0
1971 -2109 0
2105 -2109 0
2108 2109 -2110 0
-2108 2110 0
-2109 2110 0
-98 -2035 2111 0
98 -2111 0
2035 -2111 0
-1977 -2111 -2112 0
1977 2111 -2112 0
1977 -2111 2112 0
-1977 2111 2112 0
-2112 -2110 -2113 0
2112 2110 -2113 0
2112 -2110 2113 0
-2112 2110 2113 0
-2112 -2110 2114 0
2112 -2114 0
2110 -2114 0
-1977 -2111 2115 0
1977 -2115 0
2111 -2115 0
2114 2115 -2116 0
-2114 2116 0
-2115 2116 0
-106 -2035 2117 0
106 -2117 0
2035 -2117 0
-1983 -2117 -2118 0
1983 2117 -2118 0
1983 -2117 2118 0
-1983 2117 2118 0
-2118 -2116 -2119 0
2118 2116 -2119 0
2118 -2116 2119 0
-2118 2116 2119 0
-2118 -2116 2120 0
2118 -2120 0
2116 -2120 0
-1983 -2117 2121 0
1983 -2121 0
2117 -2121 0
2120 2121 -2122 0
-2120 2122 0
-2121 2122 0
-114 -2035 2123 0
114 -2123 0
2035 -2123 0
-1989 -2123 -2124 0
1989 2123 -2124 0
1989 -2123 2124 0
-1989 2123 2124 0
-2124 -2122 -2125 0
2124 2122 -2125 0
2124 -2122 2125 0
-2124 2122 2125 0
-2124 -2122 2126 0
2124 -2126 0
2122 -2126 0
-1989 -2123 2127 0
1989 -2127 0
2123 -2127 0
2126 2127 -2128 0
-2126 2128 0
-2127 2128 0
-122 -2035 2129 0
122 -2129 0
2035 -2129 0
-1995 -2129 -2130 0
1995 2129 -2130 0
1995 -2129 2130 0
-1995 2129 2130 0
-2130 -2128 -2131 0
2130 2128 -2131 0
2130 -2128 2131 0
-2130 2128 2131 0
-2130 -2128 2132 0
2130 -2132 0
2128 -2132 0
-1995 -2129 2133 0
1995 -2133 0
2129 -2133 0
2132 2133 -2134 0
-2132 2134 0
-2133 2134 0
-130 -2035 2135 0
130 -2135 0
2035 -2135 0
-2001 -2135 -2136 0
2001 2135 -2136 0
2001 -2135 2136 0
-2001 2135 2136 0
-2136 -2134 -2137 0
2136 2134 -2137 0
2136 -2134 2137 0
-2136 2134 2137 0
-2136 -2134 2138 0
2136 -2138 0
2134 -2138 0
-2001 -2135 2139 0
2001 -2139 0
2135 -2139 0
2138 2139 -2140 0
-2138 2140 0
-2139 2140 0
-138 -2035 2141 0
138 -2141 0
2035 -2141 0
-2007 -2141 -2142 0
2007 2141 -2142 0
2007 -2141 2142 0
-2007 2141 2142 0
-2142 -2140 -2143 0
2142 2140 -2143 0
2142 -2140 2143 0
-2142 2140 2143 0
-2142 -2140 2144 0
2142 -2144 0
2140 -2144 0
-2007 -2141 2145 0
2007 -2145 0
2141 -2145 0
2144 2145 -2146 0
-2144 2146 0
-2145 2146 0
-146 -2035 2147 0
146 -2147 0
2035 -2147 0
-2013 -2147 -2148 0
2013 2147 -2148 0
2013 -2147 2148 0
-2013 2147 2148 0
-2148 -2146 -2149 0
2148 2146 -2149 0
2148 -2146 2149 0
-2148 2146 2149 0
-2148 -2146 2150 0
2148 -2150 0
2146 -2150 0
-2013 -2147 2151 0
2013 -2151 0
2147 -2151 0
2150 2151 -2152 0
-2150 2152 0
-2151 2152 0
-154 -2035 2153 0
154 -2153 0
2035 -2153 0
-2019 -2153 -2154 0
2019 2153 -2154 0
2019 -2153 2154 0
-2019 2153 2154 0
-2154 -2152 -2155 0
2154 2152 -2155 0
2154 -2152 2155 0
-2154 2152 2155 0
-2154 -2152 2156 0
2154 -2156 0
2152 -2156 0
-2019 -2153 2157 0
2019 -2157 0
2153 -2157 0
2156 2157 -2158 0
-2156 2158 0
-2157 2158 0
-162 -2035 2159 0
162 -2159 0
2035 -2159 0
-2025 -2159 -2160 0
2025 2159 -2160 0
2025 -2159 2160 0
-2025 2159 2160 0
-2160 -2158 -2161 0
2160 2158 -2161 0
2160 -2158 2161 0
-2160 2158 2161 0
-2160 -2158 2162 0
2160 -2162 0
2158 -2162 0
-2025 -2159 2163 0
2025 -2163 0
2159 -2163 0
2162 2163 -2164 0
-2162 2164 0
-2163 2164 0
-170 -2035 2165 0
170 -2165 0
2035 -2165 0
-2031 -2165 -2166 0
2031 2165 -2166 0
2031 -2165 2166 0
-2031 2165 2166 0
-2166 -2164 -2167 0
2166 2164 -2167 0
2166 -2164 2167 0
-2166 2164 2167 0
-2166 -2164 2168 0
2166 -2168 0
2164 -2168 0
-2031 -2165 2169 0
2031 -2169 0
2165 -2169 0
2168 2169 -2170 0
-2168 2170 0
-2169 2170 0
-178 -2035 2171 0
178 -2171 0
2035 -2171 0
-2034 -2171 -2172 0
2034 2171 -2172 0
2034 -2171 2172 0
-2034 2171 2172 0
-2172 -2170 -2173 0
2172 2170 -2173 0
2172 -2170 2173 0
-2172 2170 2173 0
-2172 -2170 2174 0
2172 -2174 0
2170 -2174 0
-2034 -2171 2175 0
2034 -2175 0
2171 -2175 0
2174 2175 -2176 0
-2174 2176 0
-2175 2176 0
-1 -2177 2178 0
1 -2178 0
2177 -2178 0
-2041 -2178 -2179 0
2041 2178 -2179 0
2041 -2178 2179 0
-2041 2178 2179 0
-2041 -2178 2180 0
2041 -2180 0
2178 -2180 0
-4 -2177 2181 0
4 -2181 0
2177 -2181 0
-2047 -2181 -2182 0
2047 2181 -2182 0
2047 -2181 2182 0
-2047 2181 2182 0
-2182 -2180 -2183 0
2182 2180 -2183 0
2182 -2180 2183 0
-2182 2180 2183 0
-2182 -2180 2184 0
2182 -2184 0
2180 -2184 0
-2047 -2181 2185 0
2047 -2185 0
2181 -2185 0
2184 2185 -2186 0
-2184 2186 0
-2185 2186 0
-10 -2177 2187 0
10 -2187 0
2177 -2187 0
-2053 -2187 -2188 0
2053 2187 -2188 0
2053 -2187 2188 0
-2053 2187 2188 0
-2188 -2186 -2189 0
2188 2186 -2189 0
2188 -2186 2189 0
-2188 2186 2189 0
-2188 -2186 2190 0
2188 -2190 0
2186 -2190 0
-2053 -2187 2191 0
2053 -2191 0
2187 -2191 0
2190 2191 -2192 0
-2190 2192 0
-2191 2192 0
-18 -2177 2193 0
18 -2193 0
2177 -2193 0
-2059 -2193 -2194 0
2059 2193 -2194 0
2059 -2193 2194 0
-2059 2193 2194 0
-2194 -2192 -2195 0
2194 2192 -2195 0
2194 -2192 2195 0
-2194 2192 2195 0
-2194 -2192 2196 0
2194 -2196 0
2192 -2196 0
-2059 -2193 2197 0
2059 -2197 0
2193 -2197 0
2196 2197 -2198 0
-2196 2198 0
-2197 2198 0
-26 -2177 2199 0
26 -2199 0
2177 -2199 0
-2065 -2199 -2200 0
2065 2199 -2200 0
2065 -2199 2200 0
-2065 2199 2200 0
-2200 -2198 -2201 0
2200 2198 -2201 0
2200 -2198 2201 0
-2200 2198 2201 0
-2200 -2198 2202 0
2200 -2202 0
2198 -2202 0
-2065 -2199 2203 0
2065 -2203 0
2199 -2203 0
2202 2203 -2204 0
-2202 2204 0
-2203 2204 0
-34 -2177 2205 0
34 -2205 0
2177 -2205 0
-2071 -2205 -2206 0
2071 2205 -2206 0
2071 -2205 2206 0
-2071 2205 2206 0
-2206 -2204 -2207 0
2206 2204 -2207 0
2206 -2204 2207 0
-2206 2204 2207 0
-2206 -2204 2208 0
2206 -2208 0
2204 -2208 0
-2071 -2205 2209 0
2071 -2209 0
2205 -2209 0
2208 2209 -2210 0
-2208 2210 0
-2209 2210 0
-42 -2177 2211 0
42 -2211 0
2177 -2211 0
-2077 -2211 -2212 0
2077 2211 -2212 0
2077 -2211 2212 0
-2077 2211 2212 0
-2212 -2210 -2213 0
2212 2210 -2213 0
2212 -2210 2213 0
-2212 2210 2213 0
-2212 -2210 2214 0
2212 -2214 0
2210 -2214 0
-2077 -2211 2215 0
2077 -2215 0
2211 -2215 0
2214 2215 -2216 0
-2214 2216 0
-2215 2216 0
-50 -2177 2217 0
50 -2217 0
2177 -2217 0
-2083 -2217 -2218 0
2083 2217 -2218 0
2083 -2217 2218 0
-2083 2217 2218 0
-2218 -2216 -2219 0
2218 2216 -2219 0
2218 -2216 2219 0
-2218 2216 2219 0
-2218 -2216 2220 0
2218 -2220 0
2216 -2220 0
-2083 -2217 2221 0
2083 -2221 0
2217 -2221 0
2220 2221 -2222 0
-2220 2222 0
-2221 2222 0
-58 -2177 2223 0
58 -2223 0
2177 -2223 0
-2089 -2223 -2224 0
2089 2223 -2224 0
2089 -2223 2224 0
-2089 2223 2224 0
-2224 -2222 -2225 0
2224 2222 -2225 0
2224 -2222 2225 0
-2224 2222 2225 0
-2224 -2222 2226 0
2224 -2226 0
2222 -2226 0
-2089 -2223 2227 0
2089 -2227 0
2223 -2227 0
2226 2227 -2228 0
-2226 2228 0
-2227 2228 0
-66 -2177 2229 0
66 -2229 0
2177 -2229 0
-2095 -2229 -2230 0
2095 2229 -2230 0
2095 -2229 2230 0
-2095 2229 2230 0
-2230 -2228 -2231 0
2230 2228 -2231 0
2230 -2228 2231 0
-2230 2228 2231 0
-2230 -2228 2232 0
2230 -2232 0
2228 -2232 0
-2095 -2229 2233 0
2095 -2233 0
2229 -2233 0
2232 2233 -2234 0
-2232 2234 0
-2233 2234 0
-74 -2177 2235 0
74 -2235 0
2177 -2235 0
-2101 -2235 -2236 0
2101 2235 -2236 0
2101 -2235 2236 0
-2101 2235 2236 0
-2236 -2234 -2237 0
2236 2234 -2237 0
2236 -2234 2237 0
-2236 2234 2237 0
-2236 -2234 2238 0
2236 -2238 0
2234 -2238 0
-2101 -2235 2239 0
2101 -2239 0
2235 -2239 0
2238 2239 -2240 0
-2238 2240 0
-2239 2240 0
-82 -2177 2241 0
82 -2241 0
2177 -2241 0
-2107 -2241 -2242 0
2107 2241 -2242 0
2107 -2241 2242 0
-2107 2241 2242 0
-2242 -2240 -2243 0
2242 2240 -2243 0
2242 -2240 2243 0
-2242 2240 2243 0
-2242 -2240 2244 0
2242 -2244 0
2240 -2244 0
-2107 -2241 2245 0
2107 -2245 0
2241 -2245 0
2244 2245 -2246 0
-2244 2246 0
-2245 2246 0
-90 -2177 2247 0
90 -2247 0
2177 -2247 0
-2113 -2247 -2248 0
2113 2247 -2248 0
2113 -2247 2248 0
-2113 2247 2248 0
-2248 -2246 -2249 0
2248 2246 -2249 0
2248 -2246 2249 0
-2248 2246 2249 0
-2248 -2246 2250 0
2248 -2250 0
2246 -2250 0
-2113 -2247 2251 0
2113 -2251 0
2247 -2251 0
2250 2251 -2252 0
-2250 2252 0
-2251 2252 0
-98 -2177 2253 0
98 -2253 0
2177 -2253 0
-2119 -2253 -2254 0
2119 2253 -2254 0
2119 -2253 2254 0
-2119 2253 2254 0
-2254 -2252 -2255 0
2254 2252 -2255 0
2254 -2252 2255 0
-2254 2252 2255 0
-2254 -2252 2256 0
2254 -2256 0
2252 -2256 0
-2119 -2253 2257 0
2119 -2257 0
2253 -2257 0
2256 2257 -2258 0
-2256 2258 0
-2257 2258 0
-106 -2177 2259 0
106 -2259 0
2177 -2259 0
-2125 -2259 -2260 0
2125 2259 -2260 0
2125 -2259 2260 0
-2125 2259 2260 0
-2260 -2258 -2261 0
2260 2258 -2261 0
2260 -2258 2261 0
-2260 2258 2261 0
-2260 -2258 2262 0
2260 -2262 0
2258 -2262 0
-2125 -2259 2263 0
2125 -2263 0
2259 -2263 0
2262 2263 -2264 0
-2262 2264 0
-2263 2264 0
-114 -2177 2265 0
114 -2265 0
2177 -2265 0
-2131 -2265 -2266 0
2131 2265 -2266 0
2131 -2265 2266 0
-2131 2265 2266 0
-2266 -2264 -2267 0
2266 2264 -2267 0
2266 -2264 2267 0
-2266 2264 2267 0
-2266 -2264 2268 0
2266 -2268 0
2264 -2268 0
-2131 -2265 2269 0
2131 -2269 0
2265 -2269 0
2268 2269 -2270 0
-2268 2270 0
-2269 2270 0
-122 -2177 2271 0
122 -2271 0
2177 -2271 0
-2137 -2271 -2272 0
2137 2271 -2272 0
2137 -2271 2272 0
-2137 2271 2272 0
-2272 -2270 -2273 0
2272 2270 -2273 0
2272 -2270 2273 0
-2272 2270 2273 0
-2272 -2270 2274 0
2272 -2274 0
2270 -2274 0
-2137 -2271 2275 0
2137 -2275 0
2271 -2275 0
2274 2275 -2276 0
-2274 2276 0
-2275 2276 0
-130 -2177 2277 0
130 -2277 0
2177 -2277 0
-2143 -2277 -2278 0
2143 2277 -2278 0
2143 -2277 2278 0
-2143 2277 2278 0
-2278 -2276 -2279 0
2278 2276 -2279 0
2278 -2276 2279 0
-2278 2276 2279 0
-2278 -2276 2280 0
2278 -2280 0
2276 -2280 0
-2143 -2277 2281 0
2143 -2281 0
2277 -2281 0
2280 2281 -2282 0
-2280 2282 0
-2281 2282 0
-138 -2177 2283 0
138 -2283 0
2177 -2283 0
-2149 -2283 -2284 0
2149 2283 -2284 0
2149 -2283 2284 0
-2149 2283 2284 0
-2284 -2282 -2285 0
2284 2282 -2285 0
2284 -2282 2285 0
-2284 2282 2285 0
-2284 -2282 2286 0
2284 -2286 0
2282 -2286 0
-2149 -2283 2287 0
2149 -2287 0
2283 -2287 0
2286 2287 -2288 0
-2286 2288 0
-2287 2288 0
-146 -2177 2289 0
146 -2289 0
2177 -2289 0
-2155 -2289 -2290 0
2155 2289 -2290 0
2155 -2289 2290 0
-2155 2289 2290 0
-2290 -2288 -2291 0
2290 2288 -2291 0
2290 -2288 2291 0
-2290 2288 2291 0
-2290 -2288 2292 0
2290 -2292 0
2288 -2292 0
-2155 -2289 2293 0
2155 -2293 0
2289 -2293 0
2292 2293 -2294 0
-2292 2294 0
-2293 2294 0
-154 -2177 2295 0
154 -2295 0
2177 -2295 0
-2161 -2295 -2296 0
2161 2295 -2296 0
2161 -2295 2296 0
-2161 2295 2296 0
-2296 -2294 -2297 0
2296 2294 -2297 0
2296 -2294 2297 0
-2296 2294 2297 0
-2296 -2294 2298 0
2296 -2298 0
2294 -2298 0
-2161 -2295 2299 0
2161 -2299 0
2295 -2299 0
2298 2299 -2300 0
-2298 2300 0
-2299 2300 0
-162 -2177 2301 0
162 -2301 0
2177 -2301 0
-2167 -2301 -2302 0
2167 2301 -2302 0
2167 -2301 2302 0
-2167 2301 2302 0
-2302 -2300 -2303 0
2302 2300 -2303 0
2302 -2300 2303 0
-2302 2300 2303 0
-2302 -2300 2304 0
2302 -2304 0
2300 -2304 0
-2167 -2301 2305 0
2167 -2305 0
2301 -2305 0
2304 2305 -2306 0
-2304 2306 0
-2305 2306 0
-170 -2177 2307 0
170 -2307 0
2177 -2307 0
-2173 -2307 -2308 0
2173 2307 -2308 0
2173 -2307 2308 0
-2173 2307 2308 0
-2308 -2306 -2309 0
2308 2306 -2309 0
2308 -2306 2309 0
-2308 2306 2309 0
-2308 -2306 2310 0
2308 -2310 0
2306 -2310 0
-2173 -2307 2311 0
2173 -2311 0
2307 -2311 0
2310 2311 -2312 0
-2310 2312 0
-2311 2312 0
-178 -2177 2313 0
178 -2313 0
2177 -2313 0
-2176 -2313 -2314 0
2176 2313 -2314 0
2176 -2313 2314 0
-2176 2313 2314 0
-2314 -2312 -2315 0
2314 2312 -2315 0
2314 -2312 2315 0
-2314 2312 2315 0
-2314 -2312 2316 0
2314 -2316 0
2312 -2316 0
-2176 -2313 2317 0
2176 -2317 0
2313 -2317 0
2316 2317 -2318 0
-2316 2318 0
-2317 2318 0
-1 -2319 2320 0
1 -2320 0
2319 -2320 0
-2183 -2320 -2321 0
2183 2320 -2321 0
2183 -2320 2321 0
-2183 2320 2321 0
-2183 -2320 2322 0
2183 -2322 0
2320 -2322 0
-4 -2319 2323 0
4 -2323 0
2319 -2323 0
-2189 -2323 -2324 0
2189 2323 -2324 0
2189 -2323 2324 0
-2189 2323 2324 0
-2324 -2322 -2325 0
2324 2322 -2325 0
2324 -2322 2325 0
-2324 2322 2325 0
-2324 -2322 2326 0
2324 -2326 0
2322 -2326 0
-2189 -2323 2327 0
2189 -2327 0
2323 -2327 0
2326 2327 -2328 0
-2326 2328 0
-2327 2328 0
-10 -2319 2329 0
10 -2329 0
2319 -2329 0
-2195 -2329 -2330 0
2195 2329 -2330 0
2195 -2329 2330 0
-2195 2329 2330 0
-2330 -2328 -2331 0
2330 2328 -2331 0
2330 -2328 2331 0
-2330 2328 2331 0
-2330 -2328 2332 0
2330 -2332 0
2328 -2332 0
-2195 -2329 2333 0
2195 -2333 0
2329 -2333 0
2332 2333 -2334 0
-2332 2334 0
-2333 2334 0
-18 -2319 2335 0
18 -2335 0
2319 -2335 0
-2201 -2335 -2336 0
2201 2335 -2336 0
2201 -2335 2336 0
-2201 2335 2336 0
-2336 -2334 -2337 0
2336 2334 -2337 0
2336 -2334 2337 0
-2336 2334 2337 0
-2336 -2334 2338 0
2336 -2338 0
2334 -2338 0
-2201 -2335 2339 0
2201 -2339 0
2335 -2339 0
2338 2339 -2340 0
-2338 2340 0
-2339 2340 0
-26 -2319 2341 0
26 -2341 0
2319 -2341 0
-2207 -2341 -2342 0
2207 2341 -2342 0
2207 -2341 2342 0
-2207 2341 2342 0
-2342 -2340 -2343 0
2342 2340 -2343 0
2342 -2340 2343 0
-2342 2340 2343 0
-2342 -2340 2344 0
2342 -2344 0
2340 -2344 0
-2207 -2341 2345 0
2207 -2345 0
2341 -2345 0
2344 2345 -2346 0
-2344 2346 0
-2345 2346 0
-34 -2319 2347 0
34 -2347 0
2319 -2347 0
-2213 -2347 -2348 0
2213 2347 -2348 0
2213 -2347 2348 0
-2213 2347 2348 0
-2348 -2346 -2349 0
2348 2346 -2349 0
2348 -2346 2349 0
-2348 2346 2349 0
-2348 -2346 2350 0
2348 -2350 0
2346 -2350 0
-2213 -2347 2351 0
2213 -2351 0
2347 -2351 0
2350 2351 -2352 0
-2350 2352 0
-2351 2352 0
-42 -2319 2353 0
42 -2353 0
2319 -2353 0
-2219 -2353 -2354 0
2219 2353 -2354 0
2219 -2353 2354 0
-2219 2353 2354 0
-2354 -2352 -2355 0
2354 2352 -2355 0
2354 -2352 2355 0
-2354 2352 2355 0
-2354 -2352 2356 0
2354 -2356 0
2352 -2356 0
-2219 -2353 2357 0
2219 -2357 0
2353 -2357 0
2356 2357 -2358 0
-2356 2358 0
-2357 2358 0
-50 -2319 2359 0
50 -2359 0
2319 -2359 0
-2225 -2359 -2360 0
2225 2359 -2360 0
2225 -2359 2360 0
-2225 2359 2360 0
-2360 -2358 -2361 0
2360 2358 -2361 0
2360 -2358 2361 0
-2360 2358 2361 0
-2360 -2358 2362 0
2360 -2362 0
2358 -2362 0
-2225 -2359 2363 0
2225 -2363 0
2359 -2363 0
2362 2363 -2364 0
-2362 2364 0
-2363 2364 0
-58 -2319 2365 0
58 -2365 0
2319 -2365 0
-2231 -2365 -2366 0
2231 2365 -2366 0
2231 -2365 2366 0
-2231 2365 2366 0
-2366 -2364 -2367 0
2366 2364 -2367 0
2366 -2364 2367 0
-2366 2364 2367 0
-2366 -2364 2368 0
2366 -2368 0
2364 -2368 0
-2231 -2365 2369 0
2231 -2369 0
2365 -2369 0
2368 2369 -2370 0
-2368 2370 0
-2369 2370 0
-66 -2319 2371 0
66 -2371 0
2319 -2371 0
-2237 -2371 -2372 0
2237 2371 -2372 0
2237 -2371 2372 0
-2237 2371 2372 0
-2372 -2370 -2373 0
2372 2370 -2373 0
2372 -2370 2373 0
-2372 2370 2373 0
-2372 -2370 2374 0
2372 -2374 0
2370 -2374 0
-2237 -2371 2375 0
2237 -2375 0
2371 -2375 0
2374 2375 -2376 0
-2374 2376 0
-2375 2376 0
-74 -2319 2377 0
74 -2377 0
2319 -2377 0
-2243 -2377 -2378 0
2243 2377 -2378 0
2243 -2377 2378 0
-2243 2377 2378 0
-2378 -2376 -2379 0
2378 2376 -2379 0
2378 -2376 2379 0
-2378 2376 2379 0
-2378 -2376 2380 0
2378 -2380 0
2376 -2380 0
-2243 -2377 2381 0
2243 -2381 0
2377 -2381 0
2380 2381 -2382 0
-2380 2382 0
-2381 2382 0
-82 -2319 2383 0
82 -2383 0
2319 -2383 0
-2249 -2383 -2384 0
2249 2383 -2384 0
2249 -2383 2384 0
-2249 2383 2384 0
-2384 -2382 -2385 0
2384 2382 -2385 0
2384 -2382 2385 0
-2384 2382 2385 0
-2384 -2382 2386 0
2384 -2386 0
2382 -2386 0
-2249 -2383 2387 0
2249 -2387 0
2383 -2387 0
2386 2387 -2388 0
-2386 2388 0
-2387 2388 0
-90 -2319 2389 0
90 -2389 0
2319 -2389 0
-2255 -2389 -2390 0
2255 2389 -2390 0
2255 -2389 2390 0
-2255 2389 2390 0
-2390 -2388 -2391 0
2390 2388 -2391 0
2390 -2388 2391 0
-2390 2388 2391 0
-2390 -2388 2392 0
2390 -2392 0
2388 -2392 0
-2255 -2389 2393 0
2255 -2393 0
2389 -2393 0
2392 2393 -2394 0
-2392 2394 0
-2393 2394 0
-98 -2319 2395 0
98 -2395 0
2319 -2395 0
-2261 -2395 -2396 0
2261 2395 -2396 0
2261 -2395 2396 0
-2261 2395 2396 0
-2396 -2394 -2397 0
2396 2394 -2397 0
2396 -2394 2397 0
-2396 2394 2397 0
-2396 -2394 2398 0
2396 -2398 0
2394 -2398 0
-2261 -2395 2399 0
2261 -2399 0
2395 -2399 0
2398 2399 -2400 0
-2398 2400 0
-2399 2400 0
-106 -2319 2401 0
106 -2401 0
2319 -2401 0
-2267 -2401 -2402 0
2267 2401 -2402 0
2267 -2401 2402 0
-2267 2401 2402 0
-2402 -2400 -2403 0
2402 2400 -2403 0
2402 -2400 2403 0
-2402 2400 2403 0
-2402 -2400 2404 0
2402 -2404 0
2400 -2404 0
-2267 -2401 2405 0
2267 -2405 0
2401 -2405 0
2404 2405 -2406 0
-2404 2406 0
-2405 2406 0
-114 -2319 2407 0
114 -2407 0
2319 -2407 0
-2273 -2407 -2408 0
2273 2407 -2408 0
2273 -2407 2408 0
-2273 2407 2408 0
-2408 -2406 -2409 0
2408 2406 -2409 0
2408 -2406 2409 0
-2408 2406 2409 0
-2408 -2406 2410 0
2408 -2410 0
2406 -2410 0
-2273 -2407 2411 0
2273 -2411 0
2407 -2411 0
2410 2411 -2412 0
-2410 2412 0
-2411 2412 0
-122 -2319 2413 0
122 -2413 0
2319 -2413 0
-2279 -2413 -2414 0
2279 2413 -2414 0
2279 -2413 2414 0
-2279 2413 2414 0
-2414 -2412 -2415 0
2414 2412 -2415 0
2414 -2412 2415 0
-2414 2412 2415 0
-2414 -2412 2416 0
2414 -2416 0
2412 -2416 0
-2279 -2413 2417 0
2279 -2417 0
2413 -2417 0
2416 2417 -2418 0
-2416 2418 0
-2417 2418 0
-130 -2319 2419 0
130 -2419 0
2319 -2419 0
-2285 -2419 -2420 0
2285 2419 -2420 0
2285 -2419 2420 0
-2285 2419 2420 0
-2420 -2418 -2421 0
2420 2418 -2421 0
2420 -2418 2421 0
-2420 2418 2421 0
-2420 -2418 2422 0
2420 -2422 0
2418 -2422 0
-2285 -2419 2423 0
2285 -2423 0
2419 -2423 0
2422 2423 -2424 0
-2422 2424 0
-2423 2424 0
-138 -2319 2425 0
138 -2425 0
2319 -2425 0
-2291 -2425 -2426 0
2291 2425 -2426 0
2291 -2425 2426 0
-2291 2425 2426 0
-2426 -2424 -2427 0
2426 2424 -2427 0
2426 -2424 2427 0
-2426 2424 2427 0
-2426 -2424 2428 0
2426 -2428 0
2424 -2428 0
-2291 -2425 2429 0
2291 -2429 0
2425 -2429 0
2428 2429 -2430 0
-2428 2430 0
-2429 2430 0
-146 -2319 2431 0
146 -2431 0
2319 -2431 0
-2297 -2431 -2432 0
2297 2431 -2432 0
2297 -2431 2432 0
-2297 2431 2432 0
-2432 -2430 -2433 0
2432 2430 -2433 0
2432 -2430 2433 0
-2432 2430 2433 0
-2432 -2430 2434 0
2432 -2434 0
2430 -2434 0
-2297 -2431 2435 0
2297 -2435 0
2431 -2435 0
2434 2435 -2436 0
-2434 2436 0
-2435 2436 0
-154 -2319 2437 0
154 -2437 0
2319 -2437 0
-2303 -2437 -2438 0
2303 2437 -2438 0
2303 -2437 2438 0
-2303 2437 2438 0
-2438 -2436 -2439 0
2438 2436 -2439 0
2438 -2436 2439 0
-2438 2436 2439 0
-2438 -2436 2440 0
2438 -2440 0
2436 -2440 0
-2303 -2437 2441 0
2303 -2441 0
2437 -2441 0
2440 2441 -2442 0
-2440 2442 0
-2441 2442 0
-162 -2319 2443 0
162 -2443 0
2319 -2443 0
-2309 -2443 -2444 0
2309 2443 -2444 0
2309 -2443 2444 0
-2309 2443 2444 0
-2444 -2442 -2445 0
2444 2442 -2445 0
2444 -2442 2445 0
-2444 2442 2445 0
-2444 -2442 2446 0
2444 -2446 0
2442 -2446 0
-2309 -2443 2447 0
2309 -2447 0
2443 -2447 0
2446 2447 -2448 0
-2446 2448 0
-2447 2448 0
-170 -2319 2449 0
170 -2449 0
2319 -2449 0
-2315 -2449 -2450 0
2315 2449 -2450 0
2315 -2449 2450 0
-2315 2449 2450 0
-2450 -2448 -2451 0
2450 2448 -2451 0
2450 -2448 2451 0
-2450 2448 2451 0
-2450 -2448 2452 0
2450 -2452 0
2448 -2452 0
-2315 -2449 2453 0
2315 -2453 0
2449 -2453 0
2452 2453 -2454 0
-2452 2454 0
-2453 2454 0
-178 -2319 2455 0
178 -2455 0
2319 -2455 0
-2318 -2455 -2456 0
2318 2455 -2456 0
2318 -2455 2456 0
-2318 2455 2456 0
-2456 -2454 -2457 0
2456 2454 -2457 0
2456 -2454 2457 0
-2456 2454 2457 0
-2456 -2454 2458 0
2456 -2458 0
2454 -2458 0
-2318 -2455 2459 0
2318 -2459 0
2455 -2459 0
2458 2459 -2460 0
-2458 2460 0
-2459 2460 0
-1 -2461 2462 0
1 -2462 0
2461 -2462 0
-2325 -2462 -2463 0
2325 2462 -2463 0
2325 -2462 2463 0
-2325 2462 2463 0
-2325 -2462 2464 0
2325 -2464 0
2462 -2464 0
-4 -2461 2465 0
4 -2465 0
2461 -2465 0
-2331 -2465 -2466 0
2331 2465 -2466 0
2331 -2465 2466 0
-2331 2465 2466 0
-2466 -2464 -2467 0
2466 2464 -2467 0
2466 -2464 2467 0
-2466 2464 2467 0
-2466 -2464 2468 0
2466 -2468 0
2464 -2468 0
-2331 -2465 2469 0
2331 -2469 0
2465 -2469 0
2468 2469 -2470 0
-2468 2470 0
-2469 2470 0
-10 -2461 2471 0
10 -2471 0
2461 -2471 0
-2337 -2471 -2472 0
2337 2471 -2472 0
2337 -2471 2472 0
-2337 2471 2472 0
-2472 -2470 -2473 0
2472 2470 -2473 0
2472 -2470 2473 0
-2472 2470 2473 0
-2472 -2470 2474 0
2472 -2474 0
2470 -2474 0
-2337 -2471 2475 0
2337 -2475 0
2471 -2475 0
2474 2475 -2476 0
-2474 2476 0
-2475 2476 0
-18 -2461 2477 0
18 -2477 0
2461 -2477 0
-2343 -2477 -2478 0
2343 2477 -2478 0
2343 -2477 2478 0
-2343 2477 2478 0
-2478 -2476 -2479 0
2478 2476 -2479 0
2478 -2476 2479 0
-2478 2476 2479 0
-2478 -2476 2480 0
2478 -2480 0
2476 -2480 0
-2343 -2477 2481 0
2343 -2481 0
2477 -2481 0
2480 2481 -2482 0
-2480 2482 0
-2481 2482 0
-26 -2461 2483 0
26 -2483 0
2461 -2483 0
-2349 -2483 -2484 0
2349 2483 -2484 0
2349 -2483 2484 0
-2349 2483 2484 0
-2484 -2482 -2485 0
2484 2482 -2485 0
2484 -2482 2485 0
-2484 2482 2485 0
-2484 -2482 2486 0
2484 -2486 0
2482 -2486 0
-2349 -2483 2487 0
2349 -2487 0
2483 -2487 0
2486 2487 -2488 0
-2486 2488 0
-2487 2488 0
-34 -2461 2489 0
34 -2489 0
2461 -2489 0
-2355 -2489 -2490 0
2355 2489 -2490 0
2355 -2489 2490 0
-2355 2489 2490 0
-2490 -2488 -2491 0
2490 2488 -2491 0
2490 -2488 2491 0
-2490 2488 2491 0
-2490 -2488 2492 0
2490 -2492 0
2488 -2492 0
-2355 -2489 2493 0
2355 -2493 0
2489 -2493 0
2492 2493 -2494 0
-2492 2494 0
-2493 2494 0
-42 -2461 2495 0
42 -2495 0
2461 -2495 0
-2361 -2495 -2496 0
2361 2495 -2496 0
2361 -2495 2496 0
-2361 2495 2496 0
-2496 -2494 -2497 0
2496 2494 -2497 0
2496 -2494 2497 0
-2496 2494 2497 0
-2496 -2494 2498 0
2496 -2498 0
2494 -2498 0
-2361 -2495 2499 0
2361 -2499 0
2495 -2499 0
2498 2499 -2500 0
-2498 2500 0
-2499 2500 0
-50 -2461 2501 0
50 -2501 0
2461 -2501 0
-2367 -2501 -2502 0
2367 2501 -2502 0
2367 -2501 2502 0
-2367 2501 2502 0
-2502 -2500 -2503 0
2502 2500 -2503 0
2502 -2500 2503 0
-2502 2500 2503 0
-2502 -2500 2504 0
2502 -2504 0
2500 -2504 0
-2367 -2501 2505 0
2367 -2505 0
2501 -2505 0
2504 2505 -2506 0
-2504 2506 0
-2505 2506 0
-58 -2461 2507 0
58 -2507 0
2461 -2507 0
-2373 -2507 -2508 0
2373 2507 -2508 0
2373 -2507 2508 0
-2373 2507 2508 0
-2508 -2506 -2509 0
2508 2506 -2509 0
2508 -2506 2509 0
-2508 2506 2509 0
-2508 -2506 2510 0
2508 -2510 0
2506 -2510 0
-2373 -2507 2511 0
2373 -2511 0
2507 -2511 0
2510 2511 -2512 0
-2510 2512 0
-2511 2512 0
-66 -2461 2513 0
66 -2513 0
2461 -2513 0
-2379 -2513 -2514 0
2379 2513 -2514 0
2379 -2513 2514 0
-2379 2513 2514 0
-2514 -2512 -2515 0
2514 2512 -2515 0
2514 -2512 2515 0
-2514 2512 2515 0
-2514 -2512 2516 0
2514 -2516 0
2512 -2516 0
-2379 -2513 2517 0
2379 -2517 0
2513 -2517 0
2516 2517 -2518 0
-2516 2518 0
-2517 2518 0
-74 -2461 2519 0
74 -2519 0
2461 -2519 0
-2385 -2519 -2520 0
2385 2519 -2520 0
2385 -2519 2520 0
-2385 2519 2520 0
-2520 -2518 -2521 0
2520 2518 -2521 0
2520 -2518 2521 0
-2520 2518 2521 0
-2520 -2518 2522 0
2520 -2522 0
2518 -2522 0
-2385 -2519 2523 0
2385 -2523 0
2519 -2523 0
2522 2523 -2524 0
-2522 2524 0
-2523 2524 0
-82 -2461 2525 0
82 -2525 0
2461 -2525 0
-2391 -2525 -2526 0
2391 2525 -2526 0
2391 -2525 2526 0
-2391 2525 2526 0
-2526 -2524 -2527 0
2526 2524 -2527 0
2526 -2524 2527 0
-2526 2524 2527 0
-2526 -2524 2528 0
2526 -2528 0
2524 -2528 0
-2391 -2525 2529 0
2391 -2529 0
2525 -2529 0
2528 2529 -2530 0
-2528 2530 0
-2529 2530 0
-90 -2461 2531 0
90 -2531 0
2461 -2531 0
-2397 -2531 -2532 0
2397 2531 -2532 0
2397 -2531 2532 0
-2397 2531 2532 0
-2532 -2530 -2533 0
2532 2530 -2533 0
2532 -2530 2533 0
-2532 2530 2533 0
-2532 -2530 2534 0
2532 -2534 0
2530 -2534 0
-2397 -2531 2535 0
2397 -2535 0
2531 -2535 0
2534 2535 -2536 0
-2534 2536 0
-2535 2536 0
-98 -2461 2537 0
98 -2537 0
2461 -2537 0
-2403 -2537 -2538 0
2403 2537 -2538 0
2403 -2537 2538 0
-2403 2537 2538 0
-2538 -2536 -2539 0
2538 2536 -2539 0
2538 -2536 2539 0
-2538 2536 2539 0
-2538 -2536 2540 0
2538 -2540 0
2536 -2540 0
-2403 -2537 2541 0
2403 -2541 0
2537 -2541 0
2540 2541 -2542 0
-2540 2542 0
-2541 2542 0
-106 -2461 2543 0
106 -2543 0
2461 -2543 0
-2409 -2543 -2544 0
2409 2543 -2544 0
2409 -2543 2544 0
-2409 2543 2544 0
-2544 -2542 -2545 0
2544 2542 -2545 0
2544 -2542 2545 0
-2544 2542 2545 0
-2544 -2542 2546 0
2544 -2546 0
2542 -2546 0
-2409 -2543 2547 0
2409 -2547 0
2543 -2547 0
2546 2547 -2548 0
-2546 2548 0
-2547 2548 0
-114 -2461 2549 0
114 -2549 0
2461 -2549 0
-2415 -2549 -2550 0
2415 2549 -2550 0
2415 -2549 2550 0
-2415 2549 2550 0
-2550 -2548 -2551 0
2550 2548 -2551 0
2550 -2548 2551 0
-2550 2548 2551 0
-2550 -2548 2552 0
2550 -2552 0
2548 -2552 0
-2415 -2549 2553 0
2415 -2553 0
2549 -2553 0
2552 2553 -2554 0
-2552 2554 0
-2553 2554 0
-122 -2461 2555 0
122 -2555 0
2461 -2555 0
-2421 -2555 -2556 0
2421 2555 -2556 0
2421 -2555 2556 0
-2421 2555 2556 0
-2556 -2554 -2557 0
2556 2554 -2557 0
2556 -2554 2557 0
-2556 2554 2557 0
-2556 -2554 2558 0
2556 -2558 0
2554 -2558 0
-2421 -2555 2559 0
2421 -2559 0
2555 -2559 0
2558 2559 -2560 0
-2558 2560 0
-2559 2560 0
-130 -2461 2561 0
130 -2561 0
2461 -2561 0
-2427 -2561 -2562 0
2427 2561 -2562 0
2427 -2561 2562 0
-2427 2561 2562 0
-2562 -2560 -2563 0
2562 2560 -2563 0
2562 -2560 2563 0
-2562 2560 2563 0
-2562 -2560 2564 0
2562 -2564 0
2560 -2564 0
-2427 -2561 2565 0
2427 -2565 0
2561 -2565 0
2564 2565 -2566 0
-2564 2566 0
-2565 2566 0
-138 -2461 2567 0
138 -2567 0
2461 -2567 0
-2433 -2567 -2568 0
2433 2567 -2568 0
2433 -2567 2568 0
-2433 2567 2568 0
-2568 -2566 -2569 0
2568 2566 -2569 0
2568 -2566 2569 0
-2568 2566 2569 0
-2568 -2566 2570 0
2568 -2570 0
2566 -2570 0
-2433 -2567 2571 0
2433 -2571 0
2567 -2571 0
2570 2571 -2572 0
-2570 2572 0
-2571 2572 0
-146 -2461 2573 0
146 -2573 0
2461 -2573 0
-2439 -2573 -2574 0
2439 2573 -2574 0
2439 -2573 2574 0
-2439 2573 2574 0
-2574 -2572 -2575 0
2574 2572 -2575 0
2574 -2572 2575 0
-2574 2572 2575 0
-2574 -2572 2576 0
2574 -2576 0
2572 -2576 0
-2439 -2573 2577 0
2439 -2577 0
2573 -2577 0
2576 2577 -2578 0
-2576 2578 0
-2577 2578 0
-154 -2461 2579 0
154 -2579 0
2461 -2579 0
-2445 -2579 -2580 0
2445 2579 -2580 0
2445 -2579 2580 0
-2445 2579 2580 0
-2580 -2578 -2581 0
2580 2578 -2581 0
2580 -2578 2581 0
-2580 2578 2581 0
-2580 -2578 2582 0
2580 -2582 0
2578 -2582 0
-2445 -2579 2583 0
2445 -2583 0
2579 -2583 0
2582 2583 -2584 0
-2582 2584 0
-2583 2584 0
-162 -2461 2585 0
162 -2585 0
2461 -2585 0
-2451 -2585 -2586 0
2451 2585 -2586 0
2451 -2585 2586 0
-2451 2585 2586 0
-2586 -2584 -2587 0
2586 2584 -2587 0
2586 -2584 2587 0
-2586 2584 2587 0
-2586 -2584 2588 0
2586 -2588 0
2584 -2588 0
-2451 -2585 2589 0
2451 -2589 0
2585 -2589 0
2588 2589 -2590 0
-2588 2590 0
-2589 2590 0
-170 -2461 2591 0
170 -2591 0
2461 -2591 0
-2457 -2591 -2592 0
2457 2591 -2592 0
2457 -2591 2592 0
-2457 2591 2592 0
-2592 -2590 -2593 0
2592 2590 -2593 0
2592 -2590 2593 0
-2592 2590 2593 0
-2592 -2590 2594 0
2592 -2594 0
2590 -2594 0
-2457 -2591 2595 0
2457 -2595 0
2591 -2595 0
2594 2595 -2596 0
-2594 2596 0
-2595 2596 0
-178 -2461 2597 0
178 -2597 0
2461 -2597 0
-2460 -2597 -2598 0
2460 2597 -2598 0
2460 -2597 2598 0
-2460 2597 2598 0
-2598 -2596 -2599 0
2598 2596 -2599 0
2598 -2596 2599 0
-2598 2596 2599 0
-2598 -2596 2600 0
2598 -2600 0
2596 -2600 0
-2460 -2597 2601 0
2460 -2601 0
2597 -2601 0
2600 2601 -2602 0
-2600 2602 0
-2601 2602 0
-1 -2603 2604 0
1 -2604 0
2603 -2604 0
-2467 -2604 -2605 0
2467 2604 -2605 0
2467 -2604 2605 0
-2467 2604 2605 0
-2467 -2604 2606 0
2467 -2606 0
2604 -2606 0
-4 -2603 2607 0
4 -2607 0
2603 -2607 0
-2473 -2607 -2608 0
2473 2607 -2608 0
2473 -2607 2608 0
-2473 2607 2608 0
-2608 -2606 -2609 0
2608 2606 -2609 0
2608 -2606 2609 0
-2608 2606 2609 0
-2608 -2606 2610 0
2608 -2610 0
2606 -2610 0
-2473 -2607 2611 0
2473 -2611 0
2607 -2611 0
2610 2611 -2612 0
-2610 2612 0
-2611 2612 0
-10 -2603 2613 0
10 -2613 0
2603 -2613 0
-2479 -2613 -2614 0
2479 2613 -2614 0
2479 -2613 2614 0
-2479 2613 2614 0
-2614 -2612 -2615 0
2614 2612 -2615 0
2614 -2612 2615 0
-2614 2612 2615 0
-2614 -2612 2616 0
2614 -2616 0
2612 -2616 0
-2479 -2613 2617 0
2479 -2617 0
2613 -2617 0
2616 2617 -2618 0
-2616 2618 0
-2617 2618 0
-18 -2603 2619 0
18 -2619 0
2603 -2619 0
-2485 -2619 -2620 0
2485 2619 -2620 0
2485 -2619 2620 0
-2485 2619 2620 0
-2620 -2618 -2621 0
2620 2618 -2621 0
2620 -2618 2621 0
-2620 2618 2621 0
-2620 -2618 2622 0
2620 -2622 0
2618 -2622 0
-2485 -2619 2623 0
2485 -2623 0
2619 -2623 0
2622 2623 -2624 0
-2622 2624 0
-2623 2624 0
-26 -2603 2625 0
26 -2625 0
2603 -2625 0
-2491 -2625 -2626 0
2491 2625 -2626 0
2491 -2625 2626 0
-2491 2625 2626 0
-2626 -2624 -2627 0
2626 2624 -2627 0
2626 -2624 2627 0
-2626 2624 2627 0
-2626 -2624 2628 0
2626 -2628 0
2624 -2628 0
-2491 -2625 2629 0
2491 -2629 0
2625 -2629 0
2628 2629 -2630 0
-2628 2630 0
-2629 2630 0
-34 -2603 2631 0
34 -2631 0
2603 -2631 0
-2497 -2631 -2632 0
2497 2631 -2632 0
2497 -2631 2632 0
-2497 2631 2632 0
-2632 -2630 -2633 0
2632 2630 -2633 0
2632 -2630 2633 0
-2632 2630 2633 0
-2632 -2630 2634 0
2632 -2634 0
2630 -2634 0
-2497 -2631 2635 0
2497 -2635 0
2631 -2635 0
2634 2635 -2636 0
-2634 2636 0
-2635 2636 0
-42 -2603 2637 0
42 -2637 0
2603 -2637 0
-2503 -2637 -2638 0
2503 2637 -2638 0
2503 -2637 2638 0
-2503 2637 2638 0
-2638 -2636 -2639 0
2638 2636 -2639 0
2638 -2636 2639 0
-2638 2636 2639 0
-2638 -2636 2640 0
2638 -2640 0
2636 -2640 0
-2503 -2637 2641 0
2503 -2641 0
2637 -2641 0
2640 2641 -2642 0
-2640 2642 0
-2641 2642 0
-50 -2603 2643 0
50 -2643 0
2603 -2643 0
-2509 -2643 -2644 0
2509 2643 -2644 0
2509 -2643 2644 0
-2509 2643 2644 0
-2644 -2642 -2645 0
2644 2642 -2645 0
2644 -2642 2645 0
-2644 2642 2645 0
-2644 -2642 2646 0
2644 -2646 0
2642 -2646 0
-2509 -2643 2647 0
2509 -2647 0
2643 -2647 0
2646 2647 -2648 0
-2646 2648 0
-2647 2648 0
-58 -2603 2649 0
58 -2649 0
2603 -2649 0
-2515 -2649 -2650 0
2515 2649 -2650 0
2515 -2649 2650 0
-2515 2649 2650 0
-2650 -2648 -2651 0
2650 2648 -2651 0
2650 -2648 2651 0
-2650 2648 2651 0
-2650 -2648 2652 0
2650 -2652 0
2648 -2652 0
-2515 -2649 2653 0
2515 -2653 0
2649 -2653 0
2652 2653 -2654 0
-2652 2654 0
-2653 2654 0
-66 -2603 2655 0
66 -2655 0
2603 -2655 0
-2521 -2655 -2656 0
2521 2655 -2656 0
2521 -2655 2656 0
-2521 2655 2656 0
-2656 -2654 -2657 0
2656 2654 -2657 0
2656 -2654 2657 0
-2656 2654 2657 0
-2656 -2654 2658 0
2656 -2658 0
2654 -2658 0
-2521 -2655 2659 0
2521 -2659 0
2655 -2659 0
2658 2659 -2660 0
-2658 2660 0
-2659 2660 0
-74 -2603 2661 0
74 -2661 0
2603 -2661 0
-2527 -2661 -2662 0
2527 2661 -2662 0
2527 -2661 2662 0
-2527 2661 2662 0
-2662 -2660 -2663 0
2662 2660 -2663 0
2662 -2660 2663 0
-2662 2660 2663 0
-2662 -2660 2664 0
2662 -2664 0
2660 -2664 0
-2527 -2661 2665 0
2527 -2665 0
2661 -2665 0
2664 2665 -2666 0
-2664 2666 0
-2665 2666 0
-82 -2603 2667 0
82 -2667 0
2603 -2667 0
-2533 -2667 -2668 0
2533 2667 -2668 0
2533 -2667 2668 0
-2533 2667 2668 0
-2668 -2666 -2669 0
2668 2666 -2669 0
2668 -2666 2669 0
-2668 2666 2669 0
-2668 -2666 2670 0
2668 -2670 0
2666 -2670 0
-2533 -2667 2671 0
2533 -2671 0
2667 -2671 0
2670 2671 -2672 0
-2670 2672 0
-2671 2672 0
-90 -2603 2673 0
90 -2673 0
2603 -2673 0
-2539 -2673 -2674 0
2539 2673 -2674 0
2539 -2673 2674 0
-2539 2673 2674 0
-2674 -2672 -2675 0
2674 2672 -2675 0
2674 -2672 2675 0
-2674 2672 2675 0
-2674 -2672 2676 0
2674 -2676 0
2672 -2676 0
-2539 -2673 2677 0
2539 -2677 0
2673 -2677 0
2676 2677 -2678 0
-2676 2678 0
-2677 2678 0
-98 -2603 2679 0
98 -2679 0
2603 -2679 0
-2545 -2679 -2680 0
2545 2679 -2680 0
2545 -2679 2680 0
-2545 2679 2680 0
-2680 -2678 -2681 0
2680 2678 -2681 0
2680 -2678 2681 0
-2680 2678 2681 0
-2680 -2678 2682 0
2680 -2682 0
2678 -2682 0
-2545 -2679 2683 0
2545 -2683 0
2679 -2683 0
2682 2683 -2684 0
-2682 2684 0
-2683 2684 0
-106 -2603 2685 0
106 -2685 0
2603 -2685 0
-2551 -2685 -2686 0
2551 2685 -2686 0
2551 -2685 2686 0
-2551 2685 2686 0
-2686 -2684 -2687 0
2686 2684 -2687 0
2686 -2684 2687 0
-2686 2684 2687 0
-2686 -2684 2688 0
2686 -2688 0
2684 -2688 0
-2551 -2685 2689 0
2551 -2689 0
2685 -2689 0
2688 2689 -2690 0
-2688 2690 0
-2689 2690 0
-114 -2603 2691 0
114 -2691 0
2603 -2691 0
-2557 -2691 -2692 0
2557 2691 -2692 0
2557 -2691 2692 0
-2557 2691 2692 0
-2692 -2690 -2693 0
2692 2690 -2693 0
2692 -2690 2693 0
-2692 2690 2693 0
-2692 -2690 2694 0
2692 -2694 0
2690 -2694 0
-2557 -2691 2695 0
2557 -2695 0
2691 -2695 0
2694 2695 -2696 0
-2694 2696 0
-2695 2696 0
-122 -2603 2697 0
122 -2697 0
2603 -2697 0
-2563 -2697 -2698 0
2563 2697 -2698 0
2563 -2697 2698 0
-2563 2697 2698 0
-2698 -2696 -2699 0
2698 2696 -2699 0
2698 -2696 2699 0
-2698 2696 2699 0
-2698 -2696 2700 0
2698 -2700 0
2696 -2700 0
-2563 -2697 2701 0
2563 -2701 0
2697 -2701 0
2700 2701 -2702 0
-2700 2702 0
-2701 2702 0
-130 -2603 2703 0
130 -2703 0
2603 -2703 0
-2569 -2703 -2704 0
2569 2703 -2704 0
2569 -2703 2704 0
-2569 2703 2704 0
-2704 -2702 -2705 0
2704 2702 -2705 0
2704 -2702 2705 0
-2704 2702 2705 0
-2704 -2702 2706 0
2704 -2706 0
2702 -2706 0
-2569 -2703 2707 0
2569 -2707 0
2703 -2707 0
2706 2707 -2708 0
-2706 2708 0
-2707 2708 0
-138 -2603 2709 0
138 -2709 0
2603 -2709 0
-2575 -2709 -2710 0
2575 2709 -2710 0
2575 -2709 2710 0
-2575 2709 2710 0
-2710 -2708 -2711 0
2710 2708 -2711 0
2710 -2708 2711 0
-2710 2708 2711 0
-2710 -2708 2712 0
2710 -2712 0
2708 -2712 0
-2575 -2709 2713 0
2575 -2713 0
2709 -2713 0
2712 2713 -2714 0
-2712 2714 0
-2713 2714 0
-146 -2603 2715 0
146 -2715 0
2603 -2715 0
-2581 -2715 -2716 0
2581 2715 -2716 0
2581 -2715 2716 0
-2581 2715 2716 0
-2716 -2714 -2717 0
2716 2714 -2717 0
2716 -2714 2717 0
-2716 2714 2717 0
-2716 -2714 2718 0
2716 -2718 0
2714 -2718 0
-2581 -2715 2719 0
2581 -2719 0
2715 -2719 0
2718 2719 -2720 0
-2718 2720 0
-2719 2720 0
-154 -2603 2721 0
154 -2721 0
2603 -2721 0
-2587 -2721 -2722 0
2587 2721 -2722 0
2587 -2721 2722 0
-2587 2721 2722 0
-2722 -2720 -2723 0
2722 2720 -2723 0
2722 -2720 2723 0
-2722 2720 2723 0
-2722 -2720 2724 0
2722 -2724 0
2720 -2724 0
-2587 -2721 2725 0
2587 -2725 0
2721 -2725 0
2724 2725 -2726 0
-2724 2726 0
-2725 2726 0
-162 -2603 2727 0
162 -2727 0
2603 -2727 0
-2593 -2727 -2728 0
2593 2727 -2728 0
2593 -2727 2728 0
-2593 2727 2728 0
-2728 -2726 -2729 0
2728 2726 -2729 0
2728 -2726 2729 0
-2728 2726 2729 0
-2728 -2726 2730 0
2728 -2730 0
2726 -2730 0
-2593 -2727 2731 0
2593 -2731 0
2727 -2731 0
2730 2731 -2732 0
-2730 2732 0
-2731 2732 0
-170 -2603 2733 0
170 -2733 0
2603 -2733 0
-2599 -2733 -2734 0
2599 2733 -2734 0
2599 -2733 2734 0
-2599 2733 2734 0
-2734 -2732 -2735 0
2734 2732 -2735 0
2734 -2732 2735 0
-2734 2732 2735 0
-2734 -2732 2736 0
2734 -2736 0
2732 -2736 0
-2599 -2733 2737 0
2599 -2737 0
2733 -2737 0
2736 2737 -2738 0
-2736 2738 0
-2737 2738 0
-178 -2603 2739 0
178 -2739 0
2603 -2739 0
-2602 -2739 -2740 0
2602 2739 -2740 0
2602 -2739 2740 0
-2602 2739 2740 0
-2740 -2738 -2741 0
2740 2738 -2741 0
2740 -2738 2741 0
-2740 2738 2741 0
-2740 -2738 2742 0
2740 -2742 0
2738 -2742 0
-2602 -2739 2743 0
2602 -2743 0
2739 -2743 0
2742 2743 -2744 0
-2742 2744 0
-2743 2744 0
-1 -2745 2746 0
1 -2746 0
2745 -2746 0
-2609 -2746 -2747 0
2609 2746 -2747 0
2609 -2746 2747 0
-2609 2746 2747 0
-2609 -2746 2748 0
2609 -2748 0
2746 -2748 0
-4 -2745 2749 0
4 -2749 0
2745 -2749 0
-2615 -2749 -2750 0
2615 2749 -2750 0
2615 -2749 2750 0
-2615 2749 2750 0
-2750 -2748 -2751 0
2750 2748 -2751 0
2750 -2748 2751 0
-2750 2748 2751 0
-2750 -2748 2752 0
2750 -2752 0
2748 -2752 0
-2615 -2749 2753 0
2615 -2753 0
2749 -2753 0
2752 2753 -2754 0
-2752 2754 0
-2753 2754 0
-10 -2745 2755 0
10 -2755 0
2745 -2755 0
-2621 -2755 -2756 0
2621 2755 -2756 0
2621 -2755 2756 0
-2621 2755 2756 0
-2756 -2754 -2757 0
2756 2754 -2757 0
2756 -2754 2757 0
-2756 2754 2757 0
-2756 -2754 2758 0
2756 -2758 0
2754 -2758 0
-2621 -2755 2759 0
2621 -2759 0
2755 -2759 0
2758 2759 -2760 0
-2758 2760 0
-2759 2760 0
-18 -2745 2761 0
18 -2761 0
2745 -2761 0
-2627 -2761 -2762 0
2627 2761 -2762 0
2627 -2761 2762 0
-2627 2761 2762 0
-2762 -2760 -2763 0
2762 2760 -2763 0
2762 -2760 2763 0
-2762 2760 2763 0
-2762 -2760 2764 0
2762 -2764 0
2760 -2764 0
-2627 -2761 2765 0
2627 -2765 0
2761 -2765 0
2764 2765 -2766 0
-2764 2766 0
-2765 2766 0
-26 -2745 2767 0
26 -2767 0
2745 -2767 0
-2633 -2767 -2768 0
2633 2767 -2768 0
2633 -2767 2768 0
-2633 2767 2768 0
-2768 -2766 -2769 0
2768 2766 -2769 0
2768 -2766 2769 0
-2768 2766 2769 0
-2768 -2766 2770 0
2768 -2770 0
2766 -2770 0
-2633 -2767 2771 0
2633 -2771 0
2767 -2771 0
2770 2771 -2772 0
-2770 2772 0
-2771 2772 0
-34 -2745 2773 0
34 -2773 0
2745 -2773 0
-2639 -2773 -2774 0
2639 2773 -2774 0
2639 -2773 2774 0
-2639 2773 2774 0
-2774 -2772 -2775 0
2774 2772 -2775 0
2774 -2772 2775 0
-2774 2772 2775 0
-2774 -2772 2776 0
2774 -2776 0
2772 -2776 0
-2639 -2773 2777 0
2639 -2777 0
2773 -2777 0
2776 2777 -2778 0
-2776 2778 0
-2777 2778 0
-42 -2745 2779 0
42 -2779 0
2745 -2779 0
-2645 -2779 -2780 0
2645 2779 -2780 0
2645 -2779 2780 0
-2645 2779 2780 0
-2780 -2778 -2781 0
2780 2778 -2781 0
2780 -2778 2781 0
-2780 2778 2781 0
-2780 -2778 2782 0
2780 -2782 0
2778 -2782 0
-2645 -2779 2783 0
2645 -2783 0
2779 -2783 0
2782 2783 -2784 0
-2782 2784 0
-2783 2784 0
-50 -2745 2785 0
50 -2785 0
2745 -2785 0
-2651 -2785 -2786 0
2651 2785 -2786 0
2651 -2785 2786 0
-2651 2785 2786 0
-2786 -2784 -2787 0
2786 2784 -2787 0
2786 -2784 2787 0
-2786 2784 2787 0
-2786 -2784 2788 0
2786 -2788 0
2784 -2788 0
-2651 -2785 2789 0
2651 -2789 0
2785 -2789 0
2788 2789 -2790 0
-2788 2790 0
-2789 2790 0
-58 -2745 2791 0
58 -2791 0
2745 -2791 0
-2657 -2791 -2792 0
2657 2791 -2792 0
2657 -2791 2792 0
-2657 2791 2792 0
-2792 -2790 -2793 0
2792 2790 -2793 0
2792 -2790 2793 0
-2792 2790 2793 0
-2792 -2790 2794 0
2792 -2794 0
2790 -2794 0
-2657 -2791 2795 0
2657 -2795 0
2791 -2795 0
2794 2795 -2796 0
-2794 2796 0
-2795 2796 0
-66 -2745 2797 0
66 -2797 0
2745 -2797 0
-2663 -2797 -2798 0
2663 2797 -2798 0
2663 -2797 2798 0
-2663 2797 2798 0
-2798 -2796 -2799 0
2798 2796 -2799 0
2798 -2796 2799 0
-2798 2796 2799 0
-2798 -2796 2800 0
2798 -2800 0
2796 -2800 0
-2663 -2797 2801 0
2663 -2801 0
2797 -2801 0
2800 2801 -2802 0
-2800 2802 0
-2801 2802 0
-74 -2745 2803 0
74 -2803 0
2745 -2803 0
-2669 -2803 -2804 0
2669 2803 -2804 0
2669 -2803 2804 0
-2669 2803 2804 0
-2804 -2802 -2805 0
2804 2802 -2805 0
2804 -2802 2805 0
-2804 2802 2805 0
-2804 -2802 2806 0
2804 -2806 0
2802 -2806 0
-2669 -2803 2807 0
2669 -2807 0
2803 -2807 0
2806 2807 -2808 0
-2806 2808 0
-2807 2808 0
-82 -2745 2809 0
82 -2809 0
2745 -2809 0
-2675 -2809 -2810 0
2675 2809 -2810 0
2675 -2809 2810 0
-2675 2809 2810 0
-2810 -2808 -2811 0
2810 2808 -2811 0
2810 -2808 2811 0
-2810 2808 2811 0
-2810 -2808 2812 0
2810 -2812 0
2808 -2812 0
-2675 -2809 2813 0
2675 -2813 0
2809 -2813 0
2812 2813 -2814 0
-2812 2814 0
-2813 2814 0
-90 -2745 2815 0
90 -2815 0
2745 -2815 0
-2681 -2815 -2816 0
2681 2815 -2816 0
2681 -2815 2816 0
-2681 2815 2816 0
-2816 -2814 -2817 0
2816 2814 -2817 0
2816 -2814 2817 0
-2816 2814 2817 0
-2816 -2814 2818 0
2816 -2818 0
2814 -2818 0
-2681 -2815 2819 0
2681 -2819 0
2815 -2819 0
2818 2819 -2820 0
-2818 2820 0
-2819 2820 0
-98 -2745 2821 0
98 -2821 0
2745 -2821 0
-2687 -2821 -2822 0
2687 2821 -2822 0
2687 -2821 2822 0
-2687 2821 2822 0
-2822 -2820 -2823 0
2822 2820 -2823 0
2822 -2820 2823 0
-2822 2820 2823 0
-2822 -2820 2824 0
2822 -2824 0
2820 -2824 0
-2687 -2821 2825 0
2687 -2825 0
2821 -2825 0
2824 2825 -2826 0
-2824 2826 0
-2825 2826 0
-106 -2745 2827 0
106 -2827 0
2745 -2827 0
-2693 -2827 -2828 0
2693 2827 -2828 0
2693 -2827 2828 0
-2693 2827 2828 0
-2828 -2826 -2829 0
2828 2826 -2829 0
2828 -2826 2829 0
-2828 2826 2829 0
-2828 -2826 2830 0
2828 -2830 0
2826 -2830 0
-2693 -2827 2831 0
2693 -2831 0
2827 -2831 0
2830 2831 -2832 0
-2830 2832 0
-2831 2832 0
-114 -2745 2833 0
114 -2833 0
2745 -2833 0
-2699 -2833 -2834 0
2699 2833 -2834 0
2699 -2833 2834 0
-2699 2833 2834 0
-2834 -2832 -2835 0
2834 2832 -2835 0
2834 -2832 2835 0
-2834 2832 2835 0
-2834 -2832 2836 0
2834 -2836 0
2832 -2836 0
-2699 -2833 2837 0
2699 -2837 0
2833 -2837 0
2836 2837 -2838 0
-2836 2838 0
-2837 2838 0
-122 -2745 2839 0
122 -2839 0
2745 -2839 0
-2705 -2839 -2840 0
2705 2839 -2840 0
2705 -2839 2840 0
-2705 2839 2840 0
-2840 -2838 -2841 0
2840 2838 -2841 0
2840 -2838 2841 0
-2840 2838 2841 0
-2840 -2838 2842 0
2840 -2842 0
2838 -2842 0
-2705 -2839 2843 0
2705 -2843 0
2839 -2843 0
2842 2843 -2844 0
-2842 2844 0
-2843 2844 0
-130 -2745 2845 0
130 -2845 0
2745 -2845 0
-2711 -2845 -2846 0
2711 2845 -2846 0
2711 -2845 2846 0
-2711 2845 2846 0
-2846 -2844 -2847 0
2846 2844 -2847 0
2846 -2844 2847 0
-2846 2844 2847 0
-2846 -2844 2848 0
2846 -2848 0
2844 -2848 0
-2711 -2845 2849 0
2711 -2849 0
2845 -2849 0
2848 2849 -2850 0
-2848 2850 0
-2849 2850 0
-138 -2745 2851 0
138 -2851 0
2745 -2851 0
-2717 -2851 -2852 0
2717 2851 -2852 0
2717 -2851 2852 0
-2717 2851 2852 0
-2852 -2850 -2853 0
2852 2850 -2853 0
2852 -2850 2853 0
-2852 2850 2853 0
-2852 -2850 2854 0
2852 -2854 0
2850 -2854 0
-2717 -2851 2855 0
2717 -2855 0
2851 -2855 0
2854 2855 -2856 0
-2854 2856 0
-2855 2856 0
-146 -2745 2857 0
146 -2857 0
2745 -2857 0
-2723 -2857 -2858 0
2723 2857 -2858 0
2723 -2857 2858 0
-2723 2857 2858 0
-2858 -2856 -2859 0
2858 2856 -2859 0
2858 -2856 2859 0
-2858 2856 2859 0
-2858 -2856 2860 0
2858 -2860 0
2856 -2860 0
-2723 -2857 2861 0
2723 -2861 0
2857 -2861 0
2860 2861 -2862 0
-2860 2862 0
-2861 2862 0
-154 -2745 2863 0
154 -2863 0
2745 -2863 0
-2729 -2863 -2864 0
2729 2863 -2864 0
2729 -2863 2864 0
-2729 2863 2864 0
-2864 -2862 -2865 0
2864 2862 -2865 0
2864 -2862 2865 0
-2864 2862 2865 0
-2864 -2862 2866 0
2864 -2866 0
2862 -2866 0
-2729 -2863 2867 0
2729 -2867 0
2863 -2867 0
2866 2867 -2868 0
-2866 2868 0
-2867 2868 0
-162 -2745 2869 0
162 -2869 0
2745 -2869 0
-2735 -2869 -2870 0
2735 2869 -2870 0
2735 -2869 2870 0
-2735 2869 2870 0
-2870 -2868 -2871 0
2870 2868 -2871 0
2870 -2868 2871 0
-2870 2868 2871 0
-2870 -2868 2872 0
2870 -2872 0
2868 -2872 0
-2735 -2869 2873 0
2735 -2873 0
2869 -2873 0
2872 2873 -2874 0
-2872 2874 0
-2873 2874 0
-170 -2745 2875 0
170 -2875 0
2745 -2875 0
-2741 -2875 -2876 0
2741 2875 -2876 0
2741 -2875 2876 0
-2741 2875 2876 0
-2876 -2874 -2877 0
2876 2874 -2877 0
2876 -2874 2877 0
-2876 2874 2877 0
-2876 -2874 2878 0
2876 -2878 0
2874 -2878 0
-2741 -2875 2879 0
2741 -2879 0
2875 -2879 0
2878 2879 -2880 0
-2878 2880 0
-2879 2880 0
-178 -2745 2881 0
178 -2881 0
2745 -2881 0
-2744 -2881 -2882 0
2744 2881 -2882 0
2744 -2881 2882 0
-2744 2881 2882 0
-2882 -2880 -2883 0
2882 2880 -2883 0
2882 -2880 2883 0
-2882 2880 2883 0
-2882 -2880 2884 0
2882 -2884 0
2880 -2884 0
-2744 -2881 2885 0
2744 -2885 0
2881 -2885 0
2884 2885 -2886 0
-2884 2886 0
-2885 2886 0
-1 -2887 2888 0
1 -2888 0
2887 -2888 0
-2751 -2888 -2889 0
2751 2888 -2889 0
2751 -2888 2889 0
-2751 2888 2889 0
-2751 -2888 2890 0
2751 -2890 0
2888 -2890 0
-4 -2887 2891 0
4 -2891 0
2887 -2891 0
-2757 -2891 -2892 0
2757 2891 -2892 0
2757 -2891 2892 0
-2757 2891 2892 0
-2892 -2890 -2893 0
2892 2890 -2893 0
2892 -2890 2893 0
-2892 2890 2893 0
-2892 -2890 2894 0
2892 -2894 0
2890 -2894 0
-2757 -2891 2895 0
2757 -2895 0
2891 -2895 0
2894 2895 -2896 0
-2894 2896 0
-2895 2896 0
-10 -2887 2897 0
10 -2897 0
2887 -2897 0
-2763 -2897 -2898 0
2763 2897 -2898 0
2763 -2897 2898 0
-2763 2897 2898 0
-2898 -2896 -2899 0
2898 2896 -2899 0
2898 -2896 2899 0
-2898 2896 2899 0
-2898 -2896 2900 0
2898 -2900 0
2896 -2900 0
-2763 -2897 2901 0
2763 -2901 0
2897 -2901 0
2900 2901 -2902 0
-2900 2902 0
-2901 2902 0
-18 -2887 2903 0
18 -2903 0
2887 -2903 0
-2769 -2903 -2904 0
2769 2903 -2904 0
2769 -2903 2904 0
-2769 2903 2904 0
-2904 -2902 -2905 0
2904 2902 -2905 0
2904 -2902 2905 0
-2904 2902 2905 0
-2904 -2902 2906 0
2904 -2906 0
2902 -2906 0
-2769 -2903 2907 0
2769 -2907 0
2903 -2907 0
2906 2907 -2908 0
-2906 2908 0
-2907 2908 0
-26 -2887 2909 0
26 -2909 0
2887 -2909 0
-2775 -2909 -2910 0
2775 2909 -2910 0
2775 -2909 2910 0
-2775 2909 2910 0
-2910 -2908 -2911 0
2910 2908 -2911 0
2910 -2908 2911 0
-2910 2908 2911 0
-2910 -2908 2912 0
2910 -2912 0
2908 -2912 0
-2775 -2909 2913 0
2775 -2913 0
2909 -2913 0
2912 2913 -2914 0
-2912 2914 0
-2913 2914 0
-34 -2887 2915 0
34 -2915 0
2887 -2915 0
-2781 -2915 -2916 0
2781 2915 -2916 0
2781 -2915 2916 0
-2781 2915 2916 0
-2916 -2914 -2917 0
2916 2914 -2917 0
2916 -2914 2917 0
-2916 2914 2917 0
-2916 -2914 2918 0
2916 -2918 0
2914 -2918 0
-2781 -2915 2919 0
2781 -2919 0
2915 -2919 0
2918 2919 -2920 0
-2918 2920 0
-2919 2920 0
-42 -2887 2921 0
42 -2921 0
2887 -2921 0
-2787 -2921 -2922 0
2787 2921 -2922 0
2787 -2921 2922 0
-2787 2921 2922 0
-2922 -2920 -2923 0
2922 2920 -2923 0
2922 -2920 2923 0
-2922 2920 2923 0
-2922 -2920 2924 0
2922 -2924 0
2920 -2924 0
-2787 -2921 2925 0
2787 -2925 0
2921 -2925 0
2924 2925 -2926 0
-2924 2926 0
-2925 2926 0
-50 -2887 2927 0
50 -2927 0
2887 -2927 0
-2793 -2927 -2928 0
2793 2927 -2928 0
2793 -2927 2928 0
-2793 2927 2928 0
-2928 -2926 -2929 0
2928 2926 -2929 0
2928 -2926 2929 0
-2928 2926 2929 0
-2928 -2926 2930 0
2928 -2930 0
2926 -2930 0
-2793 -2927 2931 0
2793 -2931 0
2927 -2931 0
2930 2931 -2932 0
-2930 2932 0
-2931 2932 0
-58 -2887 2933 0
58 -2933 0
2887 -2933 0
-2799 -2933 -2934 0
2799 2933 -2934 0
2799 -2933 2934 0
-2799 2933 2934 0
-2934 -2932 -2935 0
2934 2932 -2935 0
2934 -2932 2935 0
-2934 2932 2935 0
-2934 -2932 2936 0
2934 -2936 0
2932 -2936 0
-2799 -2933 2937 0
2799 -2937 0
2933 -2937 0
2936 2937 -2938 0
-2936 2938 0
-2937 2938 0
-66 -2887 2939 0
66 -2939 0
2887 -2939 0
-2805 -2939 -2940 0
2805 2939 -2940 0
2805 -2939 2940 0
-2805 2939 2940 0
-2940 -2938 -2941 0
2940 2938 -2941 0
2940 -2938 2941 0
-2940 2938 2941 0
-2940 -2938 2942 0
2940 -2942 0
2938 -2942 0
-2805 -2939 2943 0
2805 -2943 0
2939 -2943 0
2942 2943 -2944 0
-2942 2944 0
-2943 2944 0
-74 -2887 2945 0
74 -2945 0
2887 -2945 0
-2811 -2945 -2946 0
2811 2945 -2946 0
2811 -2945 2946 0
-2811 2945 2946 0
-2946 -2944 -2947 0
2946 2944 -2947 0
2946 -2944 2947 0
-2946 2944 2947 0
-2946 -2944 2948 0
2946 -2948 0
2944 -2948 0
-2811 -2945 2949 0
2811 -2949 0
2945 -2949 0
2948 2949 -2950 0
-2948 2950 0
-2949 2950 0
-82 -2887 2951 0
82 -2951 0
2887 -2951 0
-2817 -2951 -2952 0
2817 2951 -2952 0
2817 -2951 2952 0
-2817 2951 2952 0
-2952 -2950 -2953 0
2952 2950 -2953 0
2952 -2950 2953 0
-2952 2950 2953 0
-2952 -2950 2954 0
2952 -2954 0
2950 -2954 0
-2817 -2951 2955 0
2817 -2955 0
2951 -2955 0
2954 2955 -2956 0
-2954 2956 0
-2955 2956 0
-90 -2887 2957 0
90 -2957 0
2887 -2957 0
-2823 -2957 -2958 0
2823 2957 -2958 0
2823 -2957 2958 0
-2823 2957 2958 0
-2958 -2956 -2959 0
2958 2956 -2959 0
2958 -2956 2959 0
-2958 2956 2959 0
-2958 -2956 2960 0
2958 -2960 0
2956 -2960 0
-2823 -2957 2961 0
2823 -2961 0
2957 -2961 0
2960 2961 -2962 0
-2960 2962 0
-2961 2962 0
-98 -2887 2963 0
98 -2963 0
2887 -2963 0
-2829 -2963 -2964 0
2829 2963 -2964 0
2829 -2963 2964 0
-2829 2963 2964 0
-2964 -2962 -2965 0
2964 2962 -2965 0
2964 -2962 2965 0
-2964 2962 2965 0
-2964 -2962 2966 0
2964 -2966 0
2962 -2966 0
-2829 -2963 2967 0
2829 -2967 0
2963 -2967 0
2966 2967 -2968 0
-2966 2968 0
-2967 2968 0
-106 -2887 2969 0
106 -2969 0
2887 -2969 0
-2835 -2969 -2970 0
2835 2969 -2970 0
2835 -2969 2970 0
-2835 2969 2970 0
-2970 -2968 -2971 0
2970 2968 -2971 0
2970 -2968 2971 0
-2970 2968 2971 0
-2970 -2968 2972 0
2970 -2972 0
2968 -2972 0
-2835 -2969 2973 0
2835 -2973 0
2969 -2973 0
2972 2973 -2974 0
-2972 2974 0
-2973 2974 0
-114 -2887 2975 0
114 -2975 0
2887 -2975 0
-2841 -2975 -2976 0
2841 2975 -2976 0
2841 -2975 2976 0
-2841 2975 2976 0
-2976 -2974 -2977 0
2976 2974 -2977 0
2976 -2974 2977 0
-2976 2974 2977 0
-2976 -2974 2978 0
2976 -2978 0
2974 -2978 0
-2841 -2975 2979 0
2841 -2979 0
2975 -2979 0
2978 2979 -2980 0
-2978 2980 0
-2979 2980 0
-122 -2887 2981 0
122 -2981 0
2887 -2981 0
-2847 -2981 -2982 0
2847 2981 -2982 0
2847 -2981 2982 0
-2847 2981 2982 0
-2982 -2980 -2983 0
2982 2980 -2983 0
2982 -2980 2983 0
-2982 2980 2983 0
-2982 -2980 2984 0
2982 -2984 0
2980 -2984 0
-2847 -2981 2985 0
2847 -2985 0
2981 -2985 0
2984 2985 -2986 0
-2984 2986 0
-2985 2986 0
-130 -2887 2987 0
130 -2987 0
2887 -2987 0
-2853 -2987 -2988 0
2853 2987 -2988 0
2853 -2987 2988 0
-2853 2987 2988 0
-2988 -2986 -2989 0
2988 2986 -2989 0
2988 -2986 2989 0
-2988 2986 2989 0
-2988 -2986 2990 0
2988 -2990 0
2986 -2990 0
-2853 -2987 2991 0
2853 -2991 0
2987 -2991 0
2990 2991 -2992 0
-2990 2992 0
-2991 2992 0
-138 -2887 2993 0
138 -2993 0
2887 -2993 0
-2859 -2993 -2994 0
2859 2993 -2994 0
2859 -2993 2994 0
-2859 2993 2994 0
-2994 -2992 -2995 0
2994 2992 -2995 0
2994 -2992 2995 0
-2994 2992 2995 0
-2994 -2992 2996 0
2994 -2996 0
2992 -2996 0
-2859 -2993 2997 0
2859 -2997 0
2993 -2997 0
2996 2997 -2998 0
-2996 2998 0
-2997 2998 0
-146 -2887 2999 0
146 -2999 0
2887 -2999 0
-2865 -2999 -3000 0
2865 2999 -3000 0
2865 -2999 3000 0
-2865 2999 3000 0
-3000 -2998 -3001 0
3000 2998 -3001 0
3000 -2998 3001 0
-3000 2998 3001 0
-3000 -2998 3002 0
3000 -3002 0
2998 -3002 0
-2865 -2999 3003 0
2865 -3003 0
2999 -3003 0
3002 3003 -3004 0
-3002 3004 0
-3003 3004 0
-154 -2887 3005 0
154 -3005 0
2887 -3005 0
-2871 -3005 -3006 0
2871 3005 -3006 0
2871 -3005 3006 0
-2871 3005 3006 0
-3006 -3004 -3007 0
3006 3004 -3007 0
3006 -3004 3007 0
-3006 3004 3007 0
-3006 -3004 3008 0
3006 -3008 0
3004 -3008 0
-2871 -3005 3009 0
2871 -3009 0
3005 -3009 0
3008 3009 -3010 0
-3008 3010 0
-3009 3010 0
-162 -2887 3011 0
162 -3011 0
2887 -3011 0
-2877 -3011 -3012 0
2877 3011 -3012 0
2877 -3011 3012 0
-2877 3011 3012 0
-3012 -3010 -3013 0
3012 3010 -3013 0
3012 -3010 3013 0
-3012 3010 3013 0
-3012 -3010 3014 0
3012 -3014 0
3010 -3014 0
-2877 -3011 3015 0
2877 -3015 0
3011 -3015 0
3014 3015 -3016 0
-3014 3016 0
-3015 3016 0
-170 -2887 3017 0
170 -3017 0
2887 -3017 0
-2883 -3017 -3018 0
2883 3017 -3018 0
2883 -3017 3018 0
-2883 3017 3018 0
-3018 -3016 -3019 0
3018 3016 -3019 0
3018 -3016 3019 0
-3018 3016 3019 0
-3018 -3016 3020 0
3018 -3020 0
3016 -3020 0
-2883 -3017 3021 0
2883 -3021 0
3017 -3021 0
3020 3021 -3022 0
-3020 3022 0
-3021 3022 0
-178 -2887 3023 0
178 -3023 0
2887 -3023 0
-2886 -3023 -3024 0
2886 3023 -3024 0
2886 -3023 3024 0
-2886 3023 3024 0
-3024 -3022 -3025 0
3024 3022 -3025 0
3024 -3022 3025 0
-3024 3022 3025 0
-3024 -3022 3026 0
3024 -3026 0
3022 -3026 0
-2886 -3023 3027 0
2886 -3027 0
3023 -3027 0
3026 3027 -3028 0
-3026 3028 0
-3027 3028 0
-1 -3029 3030 0
1 -3030 0
3029 -3030 0
-2893 -3030 -3031 0
2893 3030 -3031 0
2893 -3030 3031 0
-2893 3030 3031 0
-2893 -3030 3032 0
2893 -3032 0
3030 -3032 0
-4 -3029 3033 0
4 -3033 0
3029 -3033 0
-2899 -3033 -3034 0
2899 3033 -3034 0
2899 -3033 3034 0
-2899 3033 3034 0
-3034 -3032 -3035 0
3034 3032 -3035 0
3034 -3032 3035 0
-3034 3032 3035 0
-3034 -3032 3036 0
3034 -3036 0
3032 -3036 0
-2899 -3033 3037 0
2899 -3037 0
3033 -3037 0
3036 3037 -3038 0
-3036 3038 0
-3037 3038 0
-10 -3029 3039 0
10 -3039 0
3029 -3039 0
-2905 -3039 -3040 0
2905 3039 -3040 0
2905 -3039 3040 0
-2905 3039 3040 0
-3040 -3038 -3041 0
3040 3038 -3041 0
3040 -3038 3041 0
-3040 3038 3041 0
-3040 -3038 3042 0
3040 -3042 0
3038 -3042 0
-2905 -3039 3043 0
2905 -3043 0
3039 -3043 0
3042 3043 -3044 0
-3042 3044 0
-3043 3044 0
-18 -3029 3045 0
18 -3045 0
3029 -3045 0
-2911 -3045 -3046 0
2911 3045 -3046 0
2911 -3045 3046 0
-2911 3045 3046 0
-3046 -3044 -3047 0
3046 3044 -3047 0
3046 -3044 3047 0
-3046 3044 3047 0
-3046 -3044 3048 0
3046 -3048 0
3044 -3048 0
-2911 -3045 3049 0
2911 -3049 0
3045 -3049 0
3048 3049 -3050 0
-3048 3050 0
-3049 3050 0
-26 -3029 3051 0
26 -3051 0
3029 -3051 0
-2917 -3051 -3052 0
2917 3051 -3052 0
2917 -3051 3052 0
-2917 3051 3052 0
-3052 -3050 -3053 0
3052 3050 -3053 0
3052 -3050 3053 0
-3052 3050 3053 0
-3052 -3050 3054 0
3052 -3054 0
3050 -3054 0
-2917 -3051 3055 0
2917 -3055 0
3051 -3055 0
3054 3055 -3056 0
-3054 3056 0
-3055 3056 0
-34 -3029 3057 0
34 -3057 0
3029 -3057 0
-2923 -3057 -3058 0
2923 3057 -3058 0
2923 -3057 3058 0
-2923 3057 3058 0
-3058 -3056 -3059 0
3058 3056 -3059 0
3058 -3056 3059 0
-3058 3056 3059 0
-3058 -3056 3060 0
3058 -3060 0
3056 -3060 0
-2923 -3057 3061 0
2923 -3061 0
3057 -3061 0
3060 3061 -3062 0
-3060 3062 0
-3061 3062 0
-42 -3029 3063 0
42 -3063 0
3029 -3063 0
-2929 -3063 -3064 0
2929 3063 -3064 0
2929 -3063 3064 0
-2929 3063 3064 0
-3064 -3062 -3065 0
3064 3062 -3065 0
3064 -3062 3065 0
-3064 3062 3065 0
-3064 -3062 3066 0
3064 -3066 0
3062 -3066 0
-2929 -3063 3067 0
2929 -3067 0
3063 -3067 0
3066 3067 -3068 0
-3066 3068 0
-3067 3068 0
-50 -3029 3069 0
50 -3069 0
3029 -3069 0
-2935 -3069 -3070 0
2935 3069 -3070 0
2935 -3069 3070 0
-2935 3069 3070 0
-3070 -3068 -3071 0
3070 3068 -3071 0
3070 -3068 3071 0
-3070 3068 3071 0
-3070 -3068 3072 0
3070 -3072 0
3068 -3072 0
-2935 -3069 3073 0
2935 -3073 0
3069 -3073 0
3072 3073 -3074 0
-3072 3074 0
-3073 3074 0
-58 -3029 3075 0
58 -3075 0
3029 -3075 0
-2941 -3075 -3076 0
2941 3075 -3076 0
2941 -3075 3076 0
-2941 3075 3076 0
-3076 -3074 -3077 0
3076 3074 -3077 0
3076 -3074 3077 0
-3076 3074 3077 0
-3076 -3074 3078 0
3076 -3078 0
3074 -3078 0
-2941 -3075 3079 0
2941 -3079 0
3075 -3079 0
3078 3079 -3080 0
-3078 3080 0
-3079 3080 0
-66 -3029 3081 0
66 -3081 0
3029 -3081 0
-2947 -3081 -3082 0
2947 3081 -3082 0
2947 -3081 3082 0
-2947 3081 3082 0
-3082 -3080 -3083 0
3082 3080 -3083 0
3082 -3080 3083 0
-3082 3080 3083 0
-3082 -3080 3084 0
3082 -3084 0
3080 -3084 0
-2947 -3081 3085 0
2947 -3085 0
3081 -3085 0
3084 3085 -3086 0
-3084 3086 0
-3085 3086 0
-74 -3029 3087 0
74 -3087 0
3029 -3087 0
-2953 -3087 -3088 0
2953 3087 -3088 0
2953 -3087 3088 0
-2953 3087 3088 0
-3088 -3086 -3089 0
3088 3086 -3089 0
3088 -3086 3089 0
-3088 3086 3089 0
-3088 -3086 3090 0
3088 -3090 0
3086 -3090 0
-2953 -3087 3091 0
2953 -3091 0
3087 -3091 0
3090 3091 -3092 0
-3090 3092 0
-3091 3092 0
-82 -3029 3093 0
82 -3093 0
3029 -3093 0
-2959 -3093 -3094 0
2959 3093 -3094 0
2959 -3093 3094 0
-2959 3093 3094 0
-3094 -3092 -3095 0
3094 3092 -3095 0
3094 -3092 3095 0
-3094 3092 3095 0
-3094 -3092 3096 0
3094 -3096 0
3092 -3096 0
-2959 -3093 3097 0
2959 -3097 0
3093 -3097 0
3096 3097 -3098 0
-3096 3098 0
-3097 3098 0
-90 -3029 3099 0
90 -3099 0
3029 -3099 0
-2965 -3099 -3100 0
2965 3099 -3100 0
2965 -3099 3100 0
-2965 3099 3100 0
-3100 -3098 -3101 0
3100 3098 -3101 0
3100 -3098 3101 0
-3100 3098 3101 0
-3100 -3098 3102 0
3100 -3102 0
3098 -3102 0
-2965 -3099 3103 0
2965 -3103 0
3099 -3103 0
3102 3103 -3104 0
-3102 3104 0
-3103 3104 0
-98 -3029 3105 0
98 -3105 0
3029 -3105 0
-2971 -3105 -3106 0
2971 3105 -3106 0
2971 -3105 3106 0
-2971 3105 3106 0
-3106 -3104 -3107 0
3106 3104 -3107 0
3106 -3104 3107 0
-3106 3104 3107 0
-3106 -3104 3108 0
3106 -3108 0
3104 -3108 0
-2971 -3105 3109 0
2971 -3109 0
3105 -3109 0
3108 3109 -3110 0
-3108 3110 0
-3109 3110 0
-106 -3029 3111 0
106 -3111 0
3029 -3111 0
-2977 -3111 -3112 0
2977 3111 -3112 0
2977 -3111 3112 0
-2977 3111 3112 0
-3112 -3110 -3113 0
3112 3110 -3113 0
3112 -3110 3113 0
-3112 3110 3113 0
-3112 -3110 3114 0
3112 -3114 0
3110 -3114 0
-2977 -3111 3115 0
2977 -3115 0
3111 -3115 0
3114 3115 -3116 0
-3114 3116 0
-3115 3116 0
-114 -3029 3117 0
114 -3117 0
3029 -3117 0
-2983 -3117 -3118 0
2983 3117 -3118 0
2983 -3117 3118 0
-2983 3117 3118 0
-3118 -3116 -3119 0
3118 3116 -3119 0
3118 -3116 3119 0
-3118 3116 3119 0
-3118 -3116 3120 0
3118 -3120 0
3116 -3120 0
-2983 -3117 3121 0
2983 -3121 0
3117 -3121 0
3120 3121 -3122 0
-3120 3122 0
-3121 3122 0
-122 -3029 3123 0
122 -3123 0
3029 -3123 0
-2989 -3123 -3124 0
2989 3123 -3124 0
2989 -3123 3124 0
-2989 3123 3124 0
-3124 -3122 -3125 0
3124 3122 -3125 0
3124 -3122 3125 0
-3124 3122 3125 0
-3124 -3122 3126 0
3124 -3126 0
3122 -3126 0
-2989 -3123 3127 0
2989 -3127 0
3123 -3127 0
3126 3127 -3128 0
-3126 3128 0
-3127 3128 0
-130 -3029 3129 0
130 -3129 0
3029 -3129 0
-2995 -3129 -3130 0
2995 3129 -3130 0
2995 -3129 3130 0
-2995 3129 3130 0
-3130 -3128 -3131 0
3130 3128 -3131 0
3130 -3128 3131 0
-3130 3128 3131 0
-3130 -3128 3132 0
3130 -3132 0
3128 -3132 0
-2995 -3129 3133 0
2995 -3133 0
3129 -3133 0
3132 3133 -3134 0
-3132 3134 0
-3133 3134 0
-138 -3029 3135 0
138 -3135 0
3029 -3135 0
-3001 -3135 -3136 0
3001 3135 -3136 0
3001 -3135 3136 0
-3001 3135 3136 0
-3136 -3134 -3137 0
3136 3134 -3137 0
3136 -3134 3137 0
-3136 3134 3137 0
-3136 -3134 3138 0
3136 -3138 0
3134 -3138 0
-3001 -3135 3139 0
3001 -3139 0
3135 -3139 0
3138 3139 -3140 0
-3138 3140 0
-3139 3140 0
-146 -3029 3141 0
146 -3141 0
3029 -3141 0
-3007 -3141 -3142 0
3007 3141 -3142 0
3007 -3141 3142 0
-3007 3141 3142 0
-3142 -3140 -3143 0
3142 3140 -3143 0
3142 -3140 3143 0
-3142 3140 3143 0
-3142 -3140 3144 0
3142 -3144 0
3140 -3144 0
-3007 -3141 3145 0
3007 -3145 0
3141 -3145 0
3144 3145 -3146 0
-3144 3146 0
-3145 3146 0
-154 -3029 3147 0
154 -3147 0
3029 -3147 0
-3013 -3147 -3148 0
3013 3147 -3148 0
3013 -3147 3148 0
-3013 3147 3148 0
-3148 -3146 -3149 0
3148 3146 -3149 0
3148 -3146 3149 0
-3148 3146 3149 0
-3148 -3146 3150 0
3148 -3150 0
3146 -3150 0
-3013 -3147 3151 0
3013 -3151 0
3147 -3151 0
3150 3151 -3152 0
-3150 3152 0
-3151 3152 0
-162 -3029 3153 0
162 -3153 0
3029 -3153 0
-3019 -3153 -3154 0
3019 3153 -3154 0
3019 -3153 3154 0
-3019 3153 3154 0
-3154 -3152 -3155 0
3154 3152 -3155 0
3154 -3152 3155 0
-3154 3152 3155 0
-3154 -3152 3156 0
3154 -3156 0
3152 -3156 0
-3019 -3153 3157 0
3019 -3157 0
3153 -3157 0
3156 3157 -3158 0
-3156 3158 0
-3157 3158 0
-170 -3029 3159 0
170 -3159 0
3029 -3159 0
-3025 -3159 -3160 0
3025 3159 -3160 0
3025 -3159 3160 0
-3025 3159 3160 0
-3160 -3158 -3161 0
3160 3158 -3161 0
3160 -3158 3161 0
-3160 3158 3161 0
-3160 -3158 3162 0
3160 -3162 0
3158 -3162 0
-3025 -3159 3163 0
3025 -3163 0
3159 -3163 0
3162 3163 -3164 0
-3162 3164 0
-3163 3164 0
-178 -3029 3165 0
178 -3165 0
3029 -3165 0
-3028 -3165 -3166 0
3028 3165 -3166 0
3028 -3165 3166 0
-3028 3165 3166 0
-3166 -3164 -3167 0
3166 3164 -3167 0
3166 -3164 3167 0
-3166 3164 3167 0
-3166 -3164 3168 0
3166 -3168 0
3164 -3168 0
-3028 -3165 3169 0
3028 -3169 0
3165 -3169 0
3168 3169 -3170 0
-3168 3170 0
-3169 3170 0
-1 -3171 3172 0
1 -3172 0
3171 -3172 0
-3035 -3172 -3173 0
3035 3172 -3173 0
3035 -3172 3173 0
-3035 3172 3173 0
-3035 -3172 3174 0
3035 -3174 0
3172 -3174 0
-4 -3171 3175 0
4 -3175 0
3171 -3175 0
-3041 -3175 -3176 0
3041 3175 -3176 0
3041 -3175 3176 0
-3041 3175 3176 0
-3176 -3174 -3177 0
3176 3174 -3177 0
3176 -3174 3177 0
-3176 3174 3177 0
-3176 -3174 3178 0
3176 -3178 0
3174 -3178 0
-3041 -3175 3179 0
3041 -3179 0
3175 -3179 0
3178 3179 -3180 0
-3178 3180 0
-3179 3180 0
-10 -3171 3181 0
10 -3181 0
3171 -3181 0
-3047 -3181 -3182 0
3047 3181 -3182 0
3047 -3181 3182 0
-3047 3181 3182 0
-3182 -3180 -3183 0
3182 3180 -3183 0
3182 -3180 3183 0
-3182 3180 3183 0
-3182 -3180 3184 0
3182 -3184 0
3180 -3184 0
-3047 -3181 3185 0
3047 -3185 0
3181 -3185 0
3184 3185 -3186 0
-3184 3186 0
-3185 3186 0
-18 -3171 3187 0
18 -3187 0
3171 -3187 0
-3053 -3187 -3188 0
3053 3187 -3188 0
3053 -3187 3188 0
-3053 3187 3188 0
-3188 -3186 -3189 0
3188 3186 -3189 0
3188 -3186 3189 0
-3188 3186 3189 0
-3188 -3186 3190 0
3188 -3190 0
3186 -3190 0
-3053 -3187 3191 0
3053 -3191 0
3187 -3191 0
3190 3191 -3192 0
-3190 3192 0
-3191 3192 0
-26 -3171 3193 0
26 -3193 0
3171 -3193 0
-3059 -3193 -3194 0
3059 3193 -3194 0
3059 -3193 3194 0
-3059 3193 3194 0
-3194 -3192 -3195 0
3194 3192 -3195 0
3194 -3192 3195 0
-3194 3192 3195 0
-3194 -3192 3196 0
3194 -3196 0
3192 -3196 0
-3059 -3193 3197 0
3059 -3197 0
3193 -3197 0
3196 3197 -3198 0
-3196 3198 0
-3197 3198 0
-34 -3171 3199 0
34 -3199 0
3171 -3199 0
-3065 -3199 -3200 0
3065 3199 -3200 0
3065 -3199 3200 0
-3065 3199 3200 0
-3200 -3198 -3201 0
3200 3198 -3201 0
3200 -3198 3201 0
-3200 3198 3201 0
-3200 -3198 3202 0
3200 -3202 0
3198 -3202 0
-3065 -3199 3203 0
3065 -3203 0
3199 -3203 0
3202 3203 -3204 0
-3202 3204 0
-3203 3204 0
-42 -3171 3205 0
42 -3205 0
3171 -3205 0
-3071 -3205 -3206 0
3071 3205 -3206 0
3071 -3205 3206 0
-3071 3205 3206 0
-3206 -3204 -3207 0
3206 3204 -3207 0
3206 -3204 3207 0
-3206 3204 3207 0
-3206 -3204 3208 0
3206 -3208 0
3204 -3208 0
-3071 -3205 3209 0
3071 -3209 0
3205 -3209 0
3208 3209 -3210 0
-3208 3210 0
-3209 3210 0
-50 -3171 3211 0
50 -3211 0
3171 -3211 0
-3077 -3211 -3212 0
3077 3211 -3212 0
3077 -3211 3212 0
-3077 3211 3212 0
-3212 -3210 -3213 0
3212 3210 -3213 0
3212 -3210 3213 0
-3212 3210 3213 0
-3212 -3210 3214 0
3212 -3214 0
3210 -3214 0
-3077 -3211 3215 0
3077 -3215 0
3211 -3215 0
3214 3215 -3216 0
-3214 3216 0
-3215 3216 0
-58 -3171 3217 0
58 -3217 0
3171 -3217 0
-3083 -3217 -3218 0
3083 3217 -3218 0
3083 -3217 3218 0
-3083 3217 3218 0
-3218 -3216 -3219 0
3218 3216 -3219 0
3218 -3216 3219 0
-3218 3216 3219 0
-3218 -3216 3220 0
3218 -3220 0
3216 -3220 0
-3083 -3217 3221 0
3083 -3221 0
3217 -3221 0
3220 3221 -3222 0
-3220 3222 0
-3221 3222 0
-66 -3171 3223 0
66 -3223 0
3171 -3223 0
-3089 -3223 -3224 0
3089 3223 -3224 0
3089 -3223 3224 0
-3089 3223 3224 0
-3224 -3222 -3225 0
3224 3222 -3225 0
3224 -3222 3225 0
-3224 3222 3225 0
-3224 -3222 3226 0
3224 -3226 0
3222 -3226 0
-3089 -3223 3227 0
3089 -3227 0
3223 -3227 0
3226 3227 -3228 0
-3226 3228 0
-3227 3228 0
-74 -3171 3229 0
74 -3229 0
3171 -3229 0
-3095 -3229 -3230 0
3095 3229 -3230 0
3095 -3229 3230 0
-3095 3229 3230 0
-3230 -3228 -3231 0
3230 3228 -3231 0
3230 -3228 3231 0
-3230 3228 3231 0
-3230 -3228 3232 0
3230 -3232 0
3228 -3232 0
-3095 -3229 3233 0
3095 -3233 0
3229 -3233 0
3232 3233 -3234 0
-3232 3234 0
-3233 3234 0
-82 -3171 3235 0
82 -3235 0
3171 -3235 0
-3101 -3235 -3236 0
3101 3235 -3236 0
3101 -3235 3236 0
-3101 3235 3236 0
-3236 -3234 -3237 0
3236 3234 -3237 0
3236 -3234 3237 0
-3236 3234 3237 0
-3236 -3234 3238 0
3236 -3238 0
3234 -3238 0
-3101 -3235 3239 0
3101 -3239 0
3235 -3239 0
3238 3239 -3240 0
-3238 3240 0
-3239 3240 0
-90 -3171 3241 0
90 -3241 0
3171 -3241 0
-3107 -3241 -3242 0
3107 3241 -3242 0
3107 -3241 3242 0
-3107 3241 3242 0
-3242 -3240 -3243 0
3242 3240 -3243 0
3242 -3240 3243 0
-3242 3240 3243 0
-3242 -3240 3244 0
3242 -3244 0
3240 -3244 0
-3107 -3241 3245 0
3107 -3245 0
3241 -3245 0
3244 3245 -3246 0
-3244 3246 0
-3245 3246 0
-98 -3171 3247 0
98 -3247 0
3171 -3247 0
-3113 -3247 -3248 0
3113 3247 -3248 0
3113 -3247 3248 0
-3113 3247 3248 0
-3248 -3246 -3249 0
3248 3246 -3249 0
3248 -3246 3249 0
-3248 3246 3249 0
-3248 -3246 3250 0
3248 -3250 0
3246 -3250 0
-3113 -3247 3251 0
3113 -3251 0
3247 -3251 0
3250 3251 -3252 0
-3250 3252 0
-3251 3252 0
-106 -3171 3253 0
106 -3253 0
3171 -3253 0
-3119 -3253 -3254 0
3119 3253 -3254 0
3119 -3253 3254 0
-3119 3253 3254 0
-3254 -3252 -3255 0
3254 3252 -3255 0
3254 -3252 3255 0
-3254 3252 3255 0
-3254 -3252 3256 0
3254 -3256 0
3252 -3256 0
-3119 -3253 3257 0
3119 -3257 0
3253 -3257 0
3256 3257 -3258 0
-3256 3258 0
-3257 3258 0
-114 -3171 3259 0
114 -3259 0
3171 -3259 0
-3125 -3259 -3260 0
3125 3259 -3260 0
3125 -3259 3260 0
-3125 3259 3260 0
-3260 -3258 -3261 0
3260 3258 -3261 0
3260 -3258 3261 0
-3260 3258 3261 0
-3260 -3258 3262 0
3260 -3262 0
3258 -3262 0
-3125 -3259 3263 0
3125 -3263 0
3259 -3263 0
3262 3263 -3264 0
-3262 3264 0
-3263 3264 0
-122 -3171 3265 0
122 -3265 0
3171 -3265 0
-3131 -3265 -3266 0
3131 3265 -3266 0
3131 -3265 3266 0
-3131 3265 3266 0
-3266 -3264 -3267 0
3266 3264 -3267 0
3266 -3264 3267 0
-3266 3264 3267 0
-3266 -3264 3268 0
3266 -3268 0
3264 -3268 0
-3131 -3265 3269 0
3131 -3269 0
3265 -3269 0
3268 3269 -3270 0
-3268 3270 0
-3269 3270 0
-130 -3171 3271 0
130 -3271 0
3171 -3271 0
-3137 -3271 -3272 0
3137 3271 -3272 0
3137 -3271 3272 0
-3137 3271 3272 0
-3272 -3270 -3273 0
3272 3270 -3273 0
3272 -3270 3273 0
-3272 3270 3273 0
-3272 -3270 3274 0
3272 -3274 0
3270 -3274 0
-3137 -3271 3275 0
3137 -3275 0
3271 -3275 0
3274 3275 -3276 0
-3274 3276 0
-3275 3276 0
-138 -3171 3277 0
138 -3277 0
3171 -3277 0
-3143 -3277 -3278 0
3143 3277 -3278 0
3143 -3277 3278 0
-3143 3277 3278 0
-3278 -3276 -3279 0
3278 3276 -3279 0
3278 -3276 3279 0
-3278 3276 3279 0
-3278 -3276 3280 0
3278 -3280 0
3276 -3280 0
-3143 -3277 3281 0
3143 -3281 0
3277 -3281 0
3280 3281 -3282 0
-3280 3282 0
-3281 3282 0
-146 -3171 3283 0
146 -3283 0
3171 -3283 0
-3149 -3283 -3284 0
3149 3283 -3284 0
3149 -3283 3284 0
-3149 3283 3284 0
-3284 -3282 -3285 0
3284 3282 -3285 0
3284 -3282 3285 0
-3284 3282 3285 0
-3284 -3282 3286 0
3284 -3286 0
3282 -3286 0
-3149 -3283 3287 0
3149 -3287 0
3283 -3287 0
3286 3287 -3288 0
-3286 3288 0
-3287 3288 0
-154 -3171 3289 0
154 -3289 0
3171 -3289 0
-3155 -3289 -3290 0
3155 3289 -3290 0
3155 -3289 3290 0
-3155 3289 3290 0
-3290 -3288 -3291 0
3290 3288 -3291 0
3290 -3288 3291 0
-3290 3288 3291 0
-3290 -3288 3292 0
3290 -3292 0
3288 -3292 0
-3155 -3289 3293 0
3155 -3293 0
3289 -3293 0
3292 3293 -3294 0
-3292 3294 0
-3293 3294 0
-162 -3171 3295 0
162 -3295 0
3171 -3295 0
-3161 -3295 -3296 0
3161 3295 -3296 0
3161 -3295 3296 0
-3161 3295 3296 0
-3296 -3294 -3297 0
3296 3294 -3297 0
3296 -3294 3297 0
-3296 3294 3297 0
-3296 -3294 3298 0
3296 -3298 0
3294 -3298 0
-3161 -3295 3299 0
3161 -3299 0
3295 -3299 0
3298 3299 -3300 0
-3298 3300 0
-3299 3300 0
-170 -3171 3301 0
170 -3301 0
3171 -3301 0
-3167 -3301 -3302 0
3167 3301 -3302 0
3167 -3301 3302 0
-3167 3301 3302 0
-3302 -3300 -3303 0
3302 3300 -3303 0
3302 -3300 3303 0
-3302 3300 3303 0
-3302 -3300 3304 0
3302 -3304 0
3300 -3304 0
-3167 -3301 3305 0
3167 -3305 0
3301 -3305 0
3304 3305 -3306 0
-3304 3306 0
-3305 3306 0
-178 -3171 3307 0
178 -3307 0
3171 -3307 0
-3170 -3307 -3308 0
3170 3307 -3308 0
3170 -3307 3308 0
-3170 3307 3308 0
-3308 -3306 -3309 0
3308 3306 -3309 0
3308 -3306 3309 0
-3308 3306 3309 0
-3308 -3306 3310 0
3308 -3310 0
3306 -3310 0
-3170 -3307 3311 0
3170 -3311 0
3307 -3311 0
3310 3311 -3312 0
-3310 3312 0
-3311 3312 0
3 0
8 0
-191 0
333 0
-475 0
-617 0
759 0
-901 0
-1043 0
-1185 0
-1327 0
-1469 0
-1611 0
1753 0
-1895 0
2037 0
-2179 0
-2321 0
-2463 0
-2605 0
-2747 0
-2889 0
3031 0
-3173 0
-3177 0
-3183 0
-3189 0
-3195 0
-3201 0
-3207 0
-3213 0
-3219 0
-3225 0
-3231 0
-3237 0
-3243 0
-3249 0
-3255 0
-3261 0
-3267 0
-3273 0
-3279 0
-3285 0
-3291 0
-3297 0
-3303 0
-3309 0
-3312 0
