p cnf 4536 14980
-1 -2 3 0
1 -3 0
2 -3 0
-4 -2 5 0
4 -5 0
2 -5 0
-1 -6 7 0
1 -7 0
6 -7 0
-5 -7 -8 0
5 7 -8 0
5 -7 8 0
-5 7 8 0
-5 -7 9 0
5 -9 0
7 -9 0
-10 -2 11 0
10 -11 0
2 -11 0
-4 -6 12 0
4 -12 0
6 -12 0
-11 -12 -13 0
11 12 -13 0
11 -12 13 0
-11 12 13 0
-13 -9 -14 0
13 9 -14 0
13 -9 14 0
-13 9 14 0
-13 -9 15 0
13 -15 0
9 -15 0
-11 -12 16 0
11 -16 0
12 -16 0
15 16 -17 0
-15 17 0
-16 17 0
-18 -2 19 0
18 -19 0
2 -19 0
-10 -6 20 0
10 -20 0
6 -20 0
-19 -20 -21 0
19 20 -21 0
19 -20 21 0
-19 20 21 0
-21 -17 -22 0
21 17 -22 0
21 -17 22 0
-21 17 22 0
-21 -17 23 0
21 -23 0
17 -23 0
-19 -20 24 0
19 -24 0
20 -24 0
23 24 -25 0
-23 25 0
-24 25 0
-26 -2 27 0
26 -27 0
2 -27 0
-18 -6 28 0
18 -28 0
6 -28 0
-27 -28 -29 0
27 28 -29 0
27 -28 29 0
-27 28 29 0
-29 -25 -30 0
29 25 -30 0
29 -25 30 0
-29 25 30 0
-29 -25 31 0
29 -31 0
25 -31 0
-27 -28 32 0
27 -32 0
28 -32 0
31 32 -33 0
-31 33 0
-32 33 0
-34 -2 35 0
34 -35 0
2 -35 0
-26 -6 36 0
26 -36 0
6 -36 0
-35 -36 -37 0
35 36 -37 0
35 -36 37 0
-35 36 37 0
-37 -33 -38 0
37 33 -38 0
37 -33 38 0
-37 33 38 0
-37 -33 39 0
37 -39 0
33 -39 0
-35 -36 40 0
35 -40 0
36 -40 0
39 40 -41 0
-39 41 0
-40 41 0
-42 -2 43 0
42 -43 0
2 -43 0
-34 -6 44 0
34 -44 0
6 -44 0
-43 -44 -45 0
43 44 -45 0
43 -44 45 0
-43 44 45 0
-45 -41 -46 0
45 41 -46 0
45 -41 46 0
-45 41 46 0
-45 -41 47 0
45 -47 0
41 -47 0
-43 -44 48 0
43 -48 0
44 -48 0
47 48 -49 0
-47 49 0
-48 49 0
-50 -2 51 0
50 -51 0
2 -51 0
-42 -6 52 0
42 -52 0
6 -52 0
-51 -52 -53 0
51 52 -53 0
51 -52 53 0
-51 52 53 0
-53 -49 -54 0
53 49 -54 0
53 -49 54 0
-53 49 54 0
-53 -49 55 0
53 -55 0
49 -55 0
-51 -52 56 0
51 -56 0
52 -56 0
55 56 -57 0
-55 57 0
-56 57 0
-58 -2 59 0
58 -59 0
2 -59 0
-50 -6 60 0
50 -60 0
6 -60 0
-59 -60 -61 0
59 60 -61 0
59 -60 61 0
-59 60 61 0
-61 -57 -62 0
61 57 -62 0
61 -57 62 0
-61 57 62 0
-61 -57 63 0
61 -63 0
57 -63 0
-59 -60 64 0
59 -64 0
60 -64 0
63 64 -65 0
-63 65 0
-64 65 0
-66 -2 67 0
66 -67 0
2 -67 0
-58 -6 68 0
58 -68 0
6 -68 0
-67 -68 -69 0
67 68 -69 0
67 -68 69 0
-67 68 69 0
-69 -65 -70 0
69 65 -70 0
69 -65 70 0
-69 65 70 0
-69 -65 71 0
69 -71 0
65 -71 0
-67 -68 72 0
67 -72 0
68 -72 0
71 72 -73 0
-71 73 0
-72 73 0
-74 -2 75 0
74 -75 0
2 -75 0
-66 -6 76 0
66 -76 0
6 -76 0
-75 -76 -77 0
75 76 -77 0
75 -76 77 0
-75 76 77 0
-77 -73 -78 0
77 73 -78 0
77 -73 78 0
-77 73 78 0
-77 -73 79 0
77 -79 0
73 -79 0
-75 -76 80 0
75 -80 0
76 -80 0
79 80 -81 0
-79 81 0
-80 81 0
-82 -2 83 0
82 -83 0
2 -83 0
-74 -6 84 0
74 -84 0
6 -84 0
-83 -84 -85 0
83 84 -85 0
83 -84 85 0
-83 84 85 0
-85 -81 -86 0
85 81 -86 0
85 -81 86 0
-85 81 86 0
-85 -81 87 0
85 -87 0
81 -87 0
-83 -84 88 0
83 -88 0
84 -88 0
87 88 -89 0
-87 89 0
-88 89 0
-90 -2 91 0
90 -91 0
2 -91 0
-82 -6 92 0
82 -92 0
6 -92 0
-91 -92 -93 0
91 92 -93 0
91 -92 93 0
-91 92 93 0
-93 -89 -94 0
93 89 -94 0
93 -89 94 0
-93 89 94 0
-93 -89 95 0
93 -95 0
89 -95 0
-91 -92 96 0
91 -96 0
92 -96 0
95 96 -97 0
-95 97 0
-96 97 0
-98 -2 99 0
98 -99 0
2 -99 0
-90 -6 100 0
90 -100 0
6 -100 0
-99 -100 -101 0
99 100 -101 0
99 -100 101 0
-99 100 101 0
-101 -97 -102 0
101 97 -102 0
101 -97 102 0
-101 97 102 0
-101 -97 103 0
101 -103 0
97 -103 0
-99 -100 104 0
99 -104 0
100 -104 0
103 104 -105 0
-103 105 0
-104 105 0
-106 -2 107 0
106 -107 0
2 -107 0
-98 -6 108 0
98 -108 0
6 -108 0
-107 -108 -109 0
107 108 -109 0
107 -108 109 0
-107 108 109 0
-109 -105 -110 0
109 105 -110 0
109 -105 110 0
-109 105 110 0
-109 -105 111 0
109 -111 0
105 -111 0
-107 -108 112 0
107 -112 0
108 -112 0
111 112 -113 0
-111 113 0
-112 113 0
-114 -2 115 0
114 -115 0
2 -115 0
-106 -6 116 0
106 -116 0
6 -116 0
-115 -116 -117 0
115 116 -117 0
115 -116 117 0
-115 116 117 0
-117 -113 -118 0
117 113 -118 0
117 -113 118 0
-117 113 118 0
-117 -113 119 0
117 -119 0
113 -119 0
-115 -116 120 0
115 -120 0
116 -120 0
119 120 -121 0
-119 121 0
-120 121 0
-122 -2 123 0
122 -123 0
2 -123 0
-114 -6 124 0
114 -124 0
6 -124 0
-123 -124 -125 0
123 124 -125 0
123 -124 125 0
-123 124 125 0
-125 -121 -126 0
125 121 -126 0
125 -121 126 0
-125 121 126 0
-125 -121 127 0
125 -127 0
121 -127 0
-123 -124 128 0
123 -128 0
124 -128 0
127 128 -129 0
-127 129 0
-128 129 0
-130 -2 131 0
130 -131 0
2 -131 0
-122 -6 132 0
122 -132 0
6 -132 0
-131 -132 -133 0
131 132 -133 0
131 -132 133 0
-131 132 133 0
-133 -129 -134 0
133 129 -134 0
133 -129 134 0
-133 129 134 0
-133 -129 135 0
133 -135 0
129 -135 0
-131 -132 136 0
131 -136 0
132 -136 0
135 136 -137 0
-135 137 0
-136 137 0
-138 -2 139 0
138 -139 0
2 -139 0
-130 -6 140 0
130 -140 0
6 -140 0
-139 -140 -141 0
139 140 -141 0
139 -140 141 0
-139 140 141 0
-141 -137 -142 0
141 137 -142 0
141 -137 142 0
-141 137 142 0
-141 -137 143 0
141 -143 0
137 -143 0
-139 -140 144 0
139 -144 0
140 -144 0
143 144 -145 0
-143 145 0
-144 145 0
-146 -2 147 0
146 -147 0
2 -147 0
-138 -6 148 0
138 -148 0
6 -148 0
-147 -148 -149 0
147 148 -149 0
147 -148 149 0
-147 148 149 0
-149 -145 -150 0
149 145 -150 0
149 -145 150 0
-149 145 150 0
-149 -145 151 0
149 -151 0
145 -151 0
-147 -148 152 0
147 -152 0
148 -152 0
151 152 -153 0
-151 153 0
-152 153 0
-154 -2 155 0
154 -155 0
2 -155 0
-146 -6 156 0
146 -156 0
6 -156 0
-155 -156 -157 0
155 156 -157 0
155 -156 157 0
-155 156 157 0
-157 -153 -158 0
157 153 -158 0
157 -153 158 0
-157 153 158 0
-157 -153 159 0
157 -159 0
153 -159 0
-155 -156 160 0
155 -160 0
156 -160 0
159 160 -161 0
-159 161 0
-160 161 0
-162 -2 163 0
162 -163 0
2 -163 0
-154 -6 164 0
154 -164 0
6 -164 0
-163 -164 -165 0
163 164 -165 0
163 -164 165 0
-163 164 165 0
-165 -161 -166 0
165 161 -166 0
165 -161 166 0
-165 161 166 0
-165 -161 167 0
165 -167 0
161 -167 0
-163 -164 168 0
163 -168 0
164 -168 0
167 168 -169 0
-167 169 0
-168 169 0
-170 -2 171 0
170 -171 0
2 -171 0
-162 -6 172 0
162 -172 0
6 -172 0
-171 -172 -173 0
171 172 -173 0
171 -172 173 0
-171 172 173 0
-173 -169 -174 0
173 169 -174 0
173 -169 174 0
-173 169 174 0
-173 -169 175 0
173 -175 0
169 -175 0
-171 -172 176 0
171 -176 0
172 -176 0
175 176 -177 0
-175 177 0
-176 177 0
-178 -2 179 0
178 -179 0
2 -179 0
-170 -6 180 0
170 -180 0
6 -180 0
-179 -180 -181 0
179 180 -181 0
179 -180 181 0
-179 180 181 0
-181 -177 -182 0
181 177 -182 0
181 -177 182 0
-181 177 182 0
-181 -177 183 0
181 -183 0
177 -183 0
-179 -180 184 0
179 -184 0
180 -184 0
183 184 -185 0
-183 185 0
-184 185 0
-186 -2 187 0
186 -187 0
2 -187 0
-178 -6 188 0
178 -188 0
6 -188 0
-187 -188 -189 0
187 188 -189 0
187 -188 189 0
-187 188 189 0
-189 -185 -190 0
189 185 -190 0
189 -185 190 0
-189 185 190 0
-189 -185 191 0
189 -191 0
185 -191 0
-187 -188 192 0
187 -192 0
188 -192 0
191 192 -193 0
-191 193 0
-192 193 0
-194 -2 195 0
194 -195 0
2 -195 0
-186 -6 196 0
186 -196 0
6 -196 0
-195 -196 -197 0
195 196 -197 0
195 -196 197 0
-195 196 197 0
-197 -193 -198 0
197 193 -198 0
197 -193 198 0
-197 193 198 0
-197 -193 199 0
197 -199 0
193 -199 0
-195 -196 200 0
195 -200 0
196 -200 0
199 200 -201 0
-199 201 0
-200 201 0
-202 -2 203 0
202 -203 0
2 -203 0
-194 -6 204 0
194 -204 0
6 -204 0
-203 -204 -205 0
203 204 -205 0
203 -204 205 0
-203 204 205 0
-205 -201 -206 0
205 201 -206 0
205 -201 206 0
-205 201 206 0
-205 -201 207 0
205 -207 0
201 -207 0
-203 -204 208 0
203 -208 0
204 -208 0
207 208 -209 0
-207 209 0
-208 209 0
-210 -2 211 0
210 -211 0
2 -211 0
-202 -6 212 0
202 -212 0
6 -212 0
-211 -212 -213 0
211 212 -213 0
211 -212 213 0
-211 212 213 0
-213 -209 -214 0
213 209 -214 0
213 -209 214 0
-213 209 214 0
-213 -209 215 0
213 -215 0
209 -215 0
-211 -212 216 0
211 -216 0
212 -216 0
215 216 -217 0
-215 217 0
-216 217 0
-210 -6 218 0
210 -218 0
6 -218 0
-217 -218 -219 0
217 218 -219 0
217 -218 219 0
-217 218 219 0
-217 -218 220 0
217 -220 0
218 -220 0
-1 -221 222 0
1 -222 0
221 -222 0
-14 -222 -223 0
14 222 -223 0
14 -222 223 0
-14 222 223 0
-14 -222 224 0
14 -224 0
222 -224 0
-4 -221 225 0
4 -225 0
221 -225 0
-22 -225 -226 0
22 225 -226 0
22 -225 226 0
-22 225 226 0
-226 -224 -227 0
226 224 -227 0
226 -224 227 0
-226 224 227 0
-226 -224 228 0
226 -228 0
224 -228 0
-22 -225 229 0
22 -229 0
225 -229 0
228 229 -230 0
-228 230 0
-229 230 0
-10 -221 231 0
10 -231 0
221 -231 0
-30 -231 -232 0
30 231 -232 0
30 -231 232 0
-30 231 232 0
-232 -230 -233 0
232 230 -233 0
232 -230 233 0
-232 230 233 0
-232 -230 234 0
232 -234 0
230 -234 0
-30 -231 235 0
30 -235 0
231 -235 0
234 235 -236 0
-234 236 0
-235 236 0
-18 -221 237 0
18 -237 0
221 -237 0
-38 -237 -238 0
38 237 -238 0
38 -237 238 0
-38 237 238 0
-238 -236 -239 0
238 236 -239 0
238 -236 239 0
-238 236 239 0
-238 -236 240 0
238 -240 0
236 -240 0
-38 -237 241 0
38 -241 0
237 -241 0
240 241 -242 0
-240 242 0
-241 242 0
-26 -221 243 0
26 -243 0
221 -243 0
-46 -243 -244 0
46 243 -244 0
46 -243 244 0
-46 243 244 0
-244 -242 -245 0
244 242 -245 0
244 -242 245 0
-244 242 245 0
-244 -242 246 0
244 -246 0
242 -246 0
-46 -243 247 0
46 -247 0
243 -247 0
246 247 -248 0
-246 248 0
-247 248 0
-34 -221 249 0
34 -249 0
221 -249 0
-54 -249 -250 0
54 249 -250 0
54 -249 250 0
-54 249 250 0
-250 -248 -251 0
250 248 -251 0
250 -248 251 0
-250 248 251 0
-250 -248 252 0
250 -252 0
248 -252 0
-54 -249 253 0
54 -253 0
249 -253 0
252 253 -254 0
-252 254 0
-253 254 0
-42 -221 255 0
42 -255 0
221 -255 0
-62 -255 -256 0
62 255 -256 0
62 -255 256 0
-62 255 256 0
-256 -254 -257 0
256 254 -257 0
256 -254 257 0
-256 254 257 0
-256 -254 258 0
256 -258 0
254 -258 0
-62 -255 259 0
62 -259 0
255 -259 0
258 259 -260 0
-258 260 0
-259 260 0
-50 -221 261 0
50 -261 0
221 -261 0
-70 -261 -262 0
70 261 -262 0
70 -261 262 0
-70 261 262 0
-262 -260 -263 0
262 260 -263 0
262 -260 263 0
-262 260 263 0
-262 -260 264 0
262 -264 0
260 -264 0
-70 -261 265 0
70 -265 0
261 -265 0
264 265 -266 0
-264 266 0
-265 266 0
-58 -221 267 0
58 -267 0
221 -267 0
-78 -267 -268 0
78 267 -268 0
78 -267 268 0
-78 267 268 0
-268 -266 -269 0
268 266 -269 0
268 -266 269 0
-268 266 269 0
-268 -266 270 0
268 -270 0
266 -270 0
-78 -267 271 0
78 -271 0
267 -271 0
270 271 -272 0
-270 272 0
-271 272 0
-66 -221 273 0
66 -273 0
221 -273 0
-86 -273 -274 0
86 273 -274 0
86 -273 274 0
-86 273 274 0
-274 -272 -275 0
274 272 -275 0
274 -272 275 0
-274 272 275 0
-274 -272 276 0
274 -276 0
272 -276 0
-86 -273 277 0
86 -277 0
273 -277 0
276 277 -278 0
-276 278 0
-277 278 0
-74 -221 279 0
74 -279 0
221 -279 0
-94 -279 -280 0
94 279 -280 0
94 -279 280 0
-94 279 280 0
-280 -278 -281 0
280 278 -281 0
280 -278 281 0
-280 278 281 0
-280 -278 282 0
280 -282 0
278 -282 0
-94 -279 283 0
94 -283 0
279 -283 0
282 283 -284 0
-282 284 0
-283 284 0
-82 -221 285 0
82 -285 0
221 -285 0
-102 -285 -286 0
102 285 -286 0
102 -285 286 0
-102 285 286 0
-286 -284 -287 0
286 284 -287 0
286 -284 287 0
-286 284 287 0
-286 -284 288 0
286 -288 0
284 -288 0
-102 -285 289 0
102 -289 0
285 -289 0
288 289 -290 0
-288 290 0
-289 290 0
-90 -221 291 0
90 -291 0
221 -291 0
-110 -291 -292 0
110 291 -292 0
110 -291 292 0
-110 291 292 0
-292 -290 -293 0
292 290 -293 0
292 -290 293 0
-292 290 293 0
-292 -290 294 0
292 -294 0
290 -294 0
-110 -291 295 0
110 -295 0
291 -295 0
294 295 -296 0
-294 296 0
-295 296 0
-98 -221 297 0
98 -297 0
221 -297 0
-118 -297 -298 0
118 297 -298 0
118 -297 298 0
-118 297 298 0
-298 -296 -299 0
298 296 -299 0
298 -296 299 0
-298 296 299 0
-298 -296 300 0
298 -300 0
296 -300 0
-118 -297 301 0
118 -301 0
297 -301 0
300 301 -302 0
-300 302 0
-301 302 0
-106 -221 303 0
106 -303 0
221 -303 0
-126 -303 -304 0
126 303 -304 0
126 -303 304 0
-126 303 304 0
-304 -302 -305 0
304 302 -305 0
304 -302 305 0
-304 302 305 0
-304 -302 306 0
304 -306 0
302 -306 0
-126 -303 307 0
126 -307 0
303 -307 0
306 307 -308 0
-306 308 0
-307 308 0
-114 -221 309 0
114 -309 0
221 -309 0
-134 -309 -310 0
134 309 -310 0
134 -309 310 0
-134 309 310 0
-310 -308 -311 0
310 308 -311 0
310 -308 311 0
-310 308 311 0
-310 -308 312 0
310 -312 0
308 -312 0
-134 -309 313 0
134 -313 0
309 -313 0
312 313 -314 0
-312 314 0
-313 314 0
-122 -221 315 0
122 -315 0
221 -315 0
-142 -315 -316 0
142 315 -316 0
142 -315 316 0
-142 315 316 0
-316 -314 -317 0
316 314 -317 0
316 -314 317 0
-316 314 317 0
-316 -314 318 0
316 -318 0
314 -318 0
-142 -315 319 0
142 -319 0
315 -319 0
318 319 -320 0
-318 320 0
-319 320 0
-130 -221 321 0
130 -321 0
221 -321 0
-150 -321 -322 0
150 321 -322 0
150 -321 322 0
-150 321 322 0
-322 -320 -323 0
322 320 -323 0
322 -320 323 0
-322 320 323 0
-322 -320 324 0
322 -324 0
320 -324 0
-150 -321 325 0
150 -325 0
321 -325 0
324 325 -326 0
-324 326 0
-325 326 0
-138 -221 327 0
138 -327 0
221 -327 0
-158 -327 -328 0
158 327 -328 0
158 -327 328 0
-158 327 328 0
-328 -326 -329 0
328 326 -329 0
328 -326 329 0
-328 326 329 0
-328 -326 330 0
328 -330 0
326 -330 0
-158 -327 331 0
158 -331 0
327 -331 0
330 331 -332 0
-330 332 0
-331 332 0
-146 -221 333 0
146 -333 0
221 -333 0
-166 -333 -334 0
166 333 -334 0
166 -333 334 0
-166 333 334 0
-334 -332 -335 0
334 332 -335 0
334 -332 335 0
-334 332 335 0
-334 -332 336 0
334 -336 0
332 -336 0
-166 -333 337 0
166 -337 0
333 -337 0
336 337 -338 0
-336 338 0
-337 338 0
-154 -221 339 0
154 -339 0
221 -339 0
-174 -339 -340 0
174 339 -340 0
174 -339 340 0
-174 339 340 0
-340 -338 -341 0
340 338 -341 0
340 -338 341 0
-340 338 341 0
-340 -338 342 0
340 -342 0
338 -342 0
-174 -339 343 0
174 -343 0
339 -343 0
342 343 -344 0
-342 344 0
-343 344 0
-162 -221 345 0
162 -345 0
221 -345 0
-182 -345 -346 0
182 345 -346 0
182 -345 346 0
-182 345 346 0
-346 -344 -347 0
346 344 -347 0
346 -344 347 0
-346 344 347 0
-346 -344 348 0
346 -348 0
344 -348 0
-182 -345 349 0
182 -349 0
345 -349 0
348 349 -350 0
-348 350 0
-349 350 0
-170 -221 351 0
170 -351 0
221 -351 0
-190 -351 -352 0
190 351 -352 0
190 -351 352 0
-190 351 352 0
-352 -350 -353 0
352 350 -353 0
352 -350 353 0
-352 350 353 0
-352 -350 354 0
352 -354 0
350 -354 0
-190 -351 355 0
190 -355 0
351 -355 0
354 355 -356 0
-354 356 0
-355 356 0
-178 -221 357 0
178 -357 0
221 -357 0
-198 -357 -358 0
198 357 -358 0
198 -357 358 0
-198 357 358 0
-358 -356 -359 0
358 356 -359 0
358 -356 359 0
-358 356 359 0
-358 -356 360 0
358 -360 0
356 -360 0
-198 -357 361 0
198 -361 0
357 -361 0
360 361 -362 0
-360 362 0
-361 362 0
-186 -221 363 0
186 -363 0
221 -363 0
-206 -363 -364 0
206 363 -364 0
206 -363 364 0
-206 363 364 0
-364 -362 -365 0
364 362 -365 0
364 -362 365 0
-364 362 365 0
-364 -362 366 0
364 -366 0
362 -366 0
-206 -363 367 0
206 -367 0
363 -367 0
366 367 -368 0
-366 368 0
-367 368 0
-194 -221 369 0
194 -369 0
221 -369 0
-214 -369 -370 0
214 369 -370 0
214 -369 370 0
-214 369 370 0
-370 -368 -371 0
370 368 -371 0
370 -368 371 0
-370 368 371 0
-370 -368 372 0
370 -372 0
368 -372 0
-214 -369 373 0
214 -373 0
369 -373 0
372 373 -374 0
-372 374 0
-373 374 0
-202 -221 375 0
202 -375 0
221 -375 0
-219 -375 -376 0
219 375 -376 0
219 -375 376 0
-219 375 376 0
-376 -374 -377 0
376 374 -377 0
376 -374 377 0
-376 374 377 0
-376 -374 378 0
376 -378 0
374 -378 0
-219 -375 379 0
219 -379 0
375 -379 0
378 379 -380 0
-378 380 0
-379 380 0
-210 -221 381 0
210 -381 0
221 -381 0
-220 -381 -382 0
220 381 -382 0
220 -381 382 0
-220 381 382 0
-382 -380 -383 0
382 380 -383 0
382 -380 383 0
-382 380 383 0
-382 -380 384 0
382 -384 0
380 -384 0
-220 -381 385 0
220 -385 0
381 -385 0
384 385 -386 0
-384 386 0
-385 386 0
-1 -387 388 0
1 -388 0
387 -388 0
-227 -388 -389 0
227 388 -389 0
227 -388 389 0
-227 388 389 0
-227 -388 390 0
227 -390 0
388 -390 0
-4 -387 391 0
4 -391 0
387 -391 0
-233 -391 -392 0
233 391 -392 0
233 -391 392 0
-233 391 392 0
-392 -390 -393 0
392 390 -393 0
392 -390 393 0
-392 390 393 0
-392 -390 394 0
392 -394 0
390 -394 0
-233 -391 395 0
233 -395 0
391 -395 0
394 395 -396 0
-394 396 0
-395 396 0
-10 -387 397 0
10 -397 0
387 -397 0
-239 -397 -398 0
239 397 -398 0
239 -397 398 0
-239 397 398 0
-398 -396 -399 0
398 396 -399 0
398 -396 399 0
-398 396 399 0
-398 -396 400 0
398 -400 0
396 -400 0
-239 -397 401 0
239 -401 0
397 -401 0
400 401 -402 0
-400 402 0
-401 402 0
-18 -387 403 0
18 -403 0
387 -403 0
-245 -403 -404 0
245 403 -404 0
245 -403 404 0
-245 403 404 0
-404 -402 -405 0
404 402 -405 0
404 -402 405 0
-404 402 405 0
-404 -402 406 0
404 -406 0
402 -406 0
-245 -403 407 0
245 -407 0
403 -407 0
406 407 -408 0
-406 408 0
-407 408 0
-26 -387 409 0
26 -409 0
387 -409 0
-251 -409 -410 0
251 409 -410 0
251 -409 410 0
-251 409 410 0
-410 -408 -411 0
410 408 -411 0
410 -408 411 0
-410 408 411 0
-410 -408 412 0
410 -412 0
408 -412 0
-251 -409 413 0
251 -413 0
409 -413 0
412 413 -414 0
-412 414 0
-413 414 0
-34 -387 415 0
34 -415 0
387 -415 0
-257 -415 -416 0
257 415 -416 0
257 -415 416 0
-257 415 416 0
-416 -414 -417 0
416 414 -417 0
416 -414 417 0
-416 414 417 0
-416 -414 418 0
416 -418 0
414 -418 0
-257 -415 419 0
257 -419 0
415 -419 0
418 419 -420 0
-418 420 0
-419 420 0
-42 -387 421 0
42 -421 0
387 -421 0
-263 -421 -422 0
263 421 -422 0
263 -421 422 0
-263 421 422 0
-422 -420 -423 0
422 420 -423 0
422 -420 423 0
-422 420 423 0
-422 -420 424 0
422 -424 0
420 -424 0
-263 -421 425 0
263 -425 0
421 -425 0
424 425 -426 0
-424 426 0
-425 426 0
-50 -387 427 0
50 -427 0
387 -427 0
-269 -427 -428 0
269 427 -428 0
269 -427 428 0
-269 427 428 0
-428 -426 -429 0
428 426 -429 0
428 -426 429 0
-428 426 429 0
-428 -426 430 0
428 -430 0
426 -430 0
-269 -427 431 0
269 -431 0
427 -431 0
430 431 -432 0
-430 432 0
-431 432 0
-58 -387 433 0
58 -433 0
387 -433 0
-275 -433 -434 0
275 433 -434 0
275 -433 434 0
-275 433 434 0
-434 -432 -435 0
434 432 -435 0
434 -432 435 0
-434 432 435 0
-434 -432 436 0
434 -436 0
432 -436 0
-275 -433 437 0
275 -437 0
433 -437 0
436 437 -438 0
-436 438 0
-437 438 0
-66 -387 439 0
66 -439 0
387 -439 0
-281 -439 -440 0
281 439 -440 0
281 -439 440 0
-281 439 440 0
-440 -438 -441 0
440 438 -441 0
440 -438 441 0
-440 438 441 0
-440 -438 442 0
440 -442 0
438 -442 0
-281 -439 443 0
281 -443 0
439 -443 0
442 443 -444 0
-442 444 0
-443 444 0
-74 -387 445 0
74 -445 0
387 -445 0
-287 -445 -446 0
287 445 -446 0
287 -445 446 0
-287 445 446 0
-446 -444 -447 0
446 444 -447 0
446 -444 447 0
-446 444 447 0
-446 -444 448 0
446 -448 0
444 -448 0
-287 -445 449 0
287 -449 0
445 -449 0
448 449 -450 0
-448 450 0
-449 450 0
-82 -387 451 0
82 -451 0
387 -451 0
-293 -451 -452 0
293 451 -452 0
293 -451 452 0
-293 451 452 0
-452 -450 -453 0
452 450 -453 0
452 -450 453 0
-452 450 453 0
-452 -450 454 0
452 -454 0
450 -454 0
-293 -451 455 0
293 -455 0
451 -455 0
454 455 -456 0
-454 456 0
-455 456 0
-90 -387 457 0
90 -457 0
387 -457 0
-299 -457 -458 0
299 457 -458 0
299 -457 458 0
-299 457 458 0
-458 -456 -459 0
458 456 -459 0
458 -456 459 0
-458 456 459 0
-458 -456 460 0
458 -460 0
456 -460 0
-299 -457 461 0
299 -461 0
457 -461 0
460 461 -462 0
-460 462 0
-461 462 0
-98 -387 463 0
98 -463 0
387 -463 0
-305 -463 -464 0
305 463 -464 0
305 -463 464 0
-305 463 464 0
-464 -462 -465 0
464 462 -465 0
464 -462 465 0
-464 462 465 0
-464 -462 466 0
464 -466 0
462 -466 0
-305 -463 467 0
305 -467 0
463 -467 0
466 467 -468 0
-466 468 0
-467 468 0
-106 -387 469 0
106 -469 0
387 -469 0
-311 -469 -470 0
311 469 -470 0
311 -469 470 0
-311 469 470 0
-470 -468 -471 0
470 468 -471 0
470 -468 471 0
-470 468 471 0
-470 -468 472 0
470 -472 0
468 -472 0
-311 -469 473 0
311 -473 0
469 -473 0
472 473 -474 0
-472 474 0
-473 474 0
-114 -387 475 0
114 -475 0
387 -475 0
-317 -475 -476 0
317 475 -476 0
317 -475 476 0
-317 475 476 0
-476 -474 -477 0
476 474 -477 0
476 -474 477 0
-476 474 477 0
-476 -474 478 0
476 -478 0
474 -478 0
-317 -475 479 0
317 -479 0
475 -479 0
478 479 -480 0
-478 480 0
-479 480 0
-122 -387 481 0
122 -481 0
387 -481 0
-323 -481 -482 0
323 481 -482 0
323 -481 482 0
-323 481 482 0
-482 -480 -483 0
482 480 -483 0
482 -480 483 0
-482 480 483 0
-482 -480 484 0
482 -484 0
480 -484 0
-323 -481 485 0
323 -485 0
481 -485 0
484 485 -486 0
-484 486 0
-485 486 0
-130 -387 487 0
130 -487 0
387 -487 0
-329 -487 -488 0
329 487 -488 0
329 -487 488 0
-329 487 488 0
-488 -486 -489 0
488 486 -489 0
488 -486 489 0
-488 486 489 0
-488 -486 490 0
488 -490 0
486 -490 0
-329 -487 491 0
329 -491 0
487 -491 0
490 491 -492 0
-490 492 0
-491 492 0
-138 -387 493 0
138 -493 0
387 -493 0
-335 -493 -494 0
335 493 -494 0
335 -493 494 0
-335 493 494 0
-494 -492 -495 0
494 492 -495 0
494 -492 495 0
-494 492 495 0
-494 -492 496 0
494 -496 0
492 -496 0
-335 -493 497 0
335 -497 0
493 -497 0
496 497 -498 0
-496 498 0
-497 498 0
-146 -387 499 0
146 -499 0
387 -499 0
-341 -499 -500 0
341 499 -500 0
341 -499 500 0
-341 499 500 0
-500 -498 -501 0
500 498 -501 0
500 -498 501 0
-500 498 501 0
-500 -498 502 0
500 -502 0
498 -502 0
-341 -499 503 0
341 -503 0
499 -503 0
502 503 -504 0
-502 504 0
-503 504 0
-154 -387 505 0
154 -505 0
387 -505 0
-347 -505 -506 0
347 505 -506 0
347 -505 506 0
-347 505 506 0
-506 -504 -507 0
506 504 -507 0
506 -504 507 0
-506 504 507 0
-506 -504 508 0
506 -508 0
504 -508 0
-347 -505 509 0
347 -509 0
505 -509 0
508 509 -510 0
-508 510 0
-509 510 0
-162 -387 511 0
162 -511 0
387 -511 0
-353 -511 -512 0
353 511 -512 0
353 -511 512 0
-353 511 512 0
-512 -510 -513 0
512 510 -513 0
512 -510 513 0
-512 510 513 0
-512 -510 514 0
512 -514 0
510 -514 0
-353 -511 515 0
353 -515 0
511 -515 0
514 515 -516 0
-514 516 0
-515 516 0
-170 -387 517 0
170 -517 0
387 -517 0
-359 -517 -518 0
359 517 -518 0
359 -517 518 0
-359 517 518 0
-518 -516 -519 0
518 516 -519 0
518 -516 519 0
-518 516 519 0
-518 -516 520 0
518 -520 0
516 -520 0
-359 -517 521 0
359 -521 0
517 -521 0
520 521 -522 0
-520 522 0
-521 522 0
-178 -387 523 0
178 -523 0
387 -523 0
-365 -523 -524 0
365 523 -524 0
365 -523 524 0
-365 523 524 0
-524 -522 -525 0
524 522 -525 0
524 -522 525 0
-524 522 525 0
-524 -522 526 0
524 -526 0
522 -526 0
-365 -523 527 0
365 -527 0
523 -527 0
526 527 -528 0
-526 528 0
-527 528 0
-186 -387 529 0
186 -529 0
387 -529 0
-371 -529 -530 0
371 529 -530 0
371 -529 530 0
-371 529 530 0
-530 -528 -531 0
530 528 -531 0
530 -528 531 0
-530 528 531 0
-530 -528 532 0
530 -532 0
528 -532 0
-371 -529 533 0
371 -533 0
529 -533 0
532 533 -534 0
-532 534 0
-533 534 0
-194 -387 535 0
194 -535 0
387 -535 0
-377 -535 -536 0
377 535 -536 0
377 -535 536 0
-377 535 536 0
-536 -534 -537 0
536 534 -537 0
536 -534 537 0
-536 534 537 0
-536 -534 538 0
536 -538 0
534 -538 0
-377 -535 539 0
377 -539 0
535 -539 0
538 539 -540 0
-538 540 0
-539 540 0
-202 -387 541 0
202 -541 0
387 -541 0
-383 -541 -542 0
383 541 -542 0
383 -541 542 0
-383 541 542 0
-542 -540 -543 0
542 540 -543 0
542 -540 543 0
-542 540 543 0
-542 -540 544 0
542 -544 0
540 -544 0
-383 -541 545 0
383 -545 0
541 -545 0
544 545 -546 0
-544 546 0
-545 546 0
-210 -387 547 0
210 -547 0
387 -547 0
-386 -547 -548 0
386 547 -548 0
386 -547 548 0
-386 547 548 0
-548 -546 -549 0
548 546 -549 0
548 -546 549 0
-548 546 549 0
-548 -546 550 0
548 -550 0
546 -550 0
-386 -547 551 0
386 -551 0
547 -551 0
550 551 -552 0
-550 552 0
-551 552 0
-1 -553 554 0
1 -554 0
553 -554 0
-393 -554 -555 0
393 554 -555 0
393 -554 555 0
-393 554 555 0
-393 -554 556 0
393 -556 0
554 -556 0
-4 -553 557 0
4 -557 0
553 -557 0
-399 -557 -558 0
399 557 -558 0
399 -557 558 0
-399 557 558 0
-558 -556 -559 0
558 556 -559 0
558 -556 559 0
-558 556 559 0
-558 -556 560 0
558 -560 0
556 -560 0
-399 -557 561 0
399 -561 0
557 -561 0
560 561 -562 0
-560 562 0
-561 562 0
-10 -553 563 0
10 -563 0
553 -563 0
-405 -563 -564 0
405 563 -564 0
405 -563 564 0
-405 563 564 0
-564 -562 -565 0
564 562 -565 0
564 -562 565 0
-564 562 565 0
-564 -562 566 0
564 -566 0
562 -566 0
-405 -563 567 0
405 -567 0
563 -567 0
566 567 -568 0
-566 568 0
-567 568 0
-18 -553 569 0
18 -569 0
553 -569 0
-411 -569 -570 0
411 569 -570 0
411 -569 570 0
-411 569 570 0
-570 -568 -571 0
570 568 -571 0
570 -568 571 0
-570 568 571 0
-570 -568 572 0
570 -572 0
568 -572 0
-411 -569 573 0
411 -573 0
569 -573 0
572 573 -574 0
-572 574 0
-573 574 0
-26 -553 575 0
26 -575 0
553 -575 0
-417 -575 -576 0
417 575 -576 0
417 -575 576 0
-417 575 576 0
-576 -574 -577 0
576 574 -577 0
576 -574 577 0
-576 574 577 0
-576 -574 578 0
576 -578 0
574 -578 0
-417 -575 579 0
417 -579 0
575 -579 0
578 579 -580 0
-578 580 0
-579 580 0
-34 -553 581 0
34 -581 0
553 -581 0
-423 -581 -582 0
423 581 -582 0
423 -581 582 0
-423 581 582 0
-582 -580 -583 0
582 580 -583 0
582 -580 583 0
-582 580 583 0
-582 -580 584 0
582 -584 0
580 -584 0
-423 -581 585 0
423 -585 0
581 -585 0
584 585 -586 0
-584 586 0
-585 586 0
-42 -553 587 0
42 -587 0
553 -587 0
-429 -587 -588 0
429 587 -588 0
429 -587 588 0
-429 587 588 0
-588 -586 -589 0
588 586 -589 0
588 -586 589 0
-588 586 589 0
-588 -586 590 0
588 -590 0
586 -590 0
-429 -587 591 0
429 -591 0
587 -591 0
590 591 -592 0
-590 592 0
-591 592 0
-50 -553 593 0
50 -593 0
553 -593 0
-435 -593 -594 0
435 593 -594 0
435 -593 594 0
-435 593 594 0
-594 -592 -595 0
594 592 -595 0
594 -592 595 0
-594 592 595 0
-594 -592 596 0
594 -596 0
592 -596 0
-435 -593 597 0
435 -597 0
593 -597 0
596 597 -598 0
-596 598 0
-597 598 0
-58 -553 599 0
58 -599 0
553 -599 0
-441 -599 -600 0
441 599 -600 0
441 -599 600 0
-441 599 600 0
-600 -598 -601 0
600 598 -601 0
600 -598 601 0
-600 598 601 0
-600 -598 602 0
600 -602 0
598 -602 0
-441 -599 603 0
441 -603 0
599 -603 0
602 603 -604 0
-602 604 0
-603 604 0
-66 -553 605 0
66 -605 0
553 -605 0
-447 -605 -606 0
447 605 -606 0
447 -605 606 0
-447 605 606 0
-606 -604 -607 0
606 604 -607 0
606 -604 607 0
-606 604 607 0
-606 -604 608 0
606 -608 0
604 -608 0
-447 -605 609 0
447 -609 0
605 -609 0
608 609 -610 0
-608 610 0
-609 610 0
-74 -553 611 0
74 -611 0
553 -611 0
-453 -611 -612 0
453 611 -612 0
453 -611 612 0
-453 611 612 0
-612 -610 -613 0
612 610 -613 0
612 -610 613 0
-612 610 613 0
-612 -610 614 0
612 -614 0
610 -614 0
-453 -611 615 0
453 -615 0
611 -615 0
614 615 -616 0
-614 616 0
-615 616 0
-82 -553 617 0
82 -617 0
553 -617 0
-459 -617 -618 0
459 617 -618 0
459 -617 618 0
-459 617 618 0
-618 -616 -619 0
618 616 -619 0
618 -616 619 0
-618 616 619 0
-618 -616 620 0
618 -620 0
616 -620 0
-459 -617 621 0
459 -621 0
617 -621 0
620 621 -622 0
-620 622 0
-621 622 0
-90 -553 623 0
90 -623 0
553 -623 0
-465 -623 -624 0
465 623 -624 0
465 -623 624 0
-465 623 624 0
-624 -622 -625 0
624 622 -625 0
624 -622 625 0
-624 622 625 0
-624 -622 626 0
624 -626 0
622 -626 0
-465 -623 627 0
465 -627 0
623 -627 0
626 627 -628 0
-626 628 0
-627 628 0
-98 -553 629 0
98 -629 0
553 -629 0
-471 -629 -630 0
471 629 -630 0
471 -629 630 0
-471 629 630 0
-630 -628 -631 0
630 628 -631 0
630 -628 631 0
-630 628 631 0
-630 -628 632 0
630 -632 0
628 -632 0
-471 -629 633 0
471 -633 0
629 -633 0
632 633 -634 0
-632 634 0
-633 634 0
-106 -553 635 0
106 -635 0
553 -635 0
-477 -635 -636 0
477 635 -636 0
477 -635 636 0
-477 635 636 0
-636 -634 -637 0
636 634 -637 0
636 -634 637 0
-636 634 637 0
-636 -634 638 0
636 -638 0
634 -638 0
-477 -635 639 0
477 -639 0
635 -639 0
638 639 -640 0
-638 640 0
-639 640 0
-114 -553 641 0
114 -641 0
553 -641 0
-483 -641 -642 0
483 641 -642 0
483 -641 642 0
-483 641 642 0
-642 -640 -643 0
642 640 -643 0
642 -640 643 0
-642 640 643 0
-642 -640 644 0
642 -644 0
640 -644 0
-483 -641 645 0
483 -645 0
641 -645 0
644 645 -646 0
-644 646 0
-645 646 0
-122 -553 647 0
122 -647 0
553 -647 0
-489 -647 -648 0
489 647 -648 0
489 -647 648 0
-489 647 648 0
-648 -646 -649 0
648 646 -649 0
648 -646 649 0
-648 646 649 0
-648 -646 650 0
648 -650 0
646 -650 0
-489 -647 651 0
489 -651 0
647 -651 0
650 651 -652 0
-650 652 0
-651 652 0
-130 -553 653 0
130 -653 0
553 -653 0
-495 -653 -654 0
495 653 -654 0
495 -653 654 0
-495 653 654 0
-654 -652 -655 0
654 652 -655 0
654 -652 655 0
-654 652 655 0
-654 -652 656 0
654 -656 0
652 -656 0
-495 -653 657 0
495 -657 0
653 -657 0
656 657 -658 0
-656 658 0
-657 658 0
-138 -553 659 0
138 -659 0
553 -659 0
-501 -659 -660 0
501 659 -660 0
501 -659 660 0
-501 659 660 0
-660 -658 -661 0
660 658 -661 0
660 -658 661 0
-660 658 661 0
-660 -658 662 0
660 -662 0
658 -662 0
-501 -659 663 0
501 -663 0
659 -663 0
662 663 -664 0
-662 664 0
-663 664 0
-146 -553 665 0
146 -665 0
553 -665 0
-507 -665 -666 0
507 665 -666 0
507 -665 666 0
-507 665 666 0
-666 -664 -667 0
666 664 -667 0
666 -664 667 0
-666 664 667 0
-666 -664 668 0
666 -668 0
664 -668 0
-507 -665 669 0
507 -669 0
665 -669 0
668 669 -670 0
-668 670 0
-669 670 0
-154 -553 671 0
154 -671 0
553 -671 0
-513 -671 -672 0
513 671 -672 0
513 -671 672 0
-513 671 672 0
-672 -670 -673 0
672 670 -673 0
672 -670 673 0
-672 670 673 0
-672 -670 674 0
672 -674 0
670 -674 0
-513 -671 675 0
513 -675 0
671 -675 0
674 675 -676 0
-674 676 0
-675 676 0
-162 -553 677 0
162 -677 0
553 -677 0
-519 -677 -678 0
519 677 -678 0
519 -677 678 0
-519 677 678 0
-678 -676 -679 0
678 676 -679 0
678 -676 679 0
-678 676 679 0
-678 -676 680 0
678 -680 0
676 -680 0
-519 -677 681 0
519 -681 0
677 -681 0
680 681 -682 0
-680 682 0
-681 682 0
-170 -553 683 0
170 -683 0
553 -683 0
-525 -683 -684 0
525 683 -684 0
525 -683 684 0
-525 683 684 0
-684 -682 -685 0
684 682 -685 0
684 -682 685 0
-684 682 685 0
-684 -682 686 0
684 -686 0
682 -686 0
-525 -683 687 0
525 -687 0
683 -687 0
686 687 -688 0
-686 688 0
-687 688 0
-178 -553 689 0
178 -689 0
553 -689 0
-531 -689 -690 0
531 689 -690 0
531 -689 690 0
-531 689 690 0
-690 -688 -691 0
690 688 -691 0
690 -688 691 0
-690 688 691 0
-690 -688 692 0
690 -692 0
688 -692 0
-531 -689 693 0
531 -693 0
689 -693 0
692 693 -694 0
-692 694 0
-693 694 0
-186 -553 695 0
186 -695 0
553 -695 0
-537 -695 -696 0
537 695 -696 0
537 -695 696 0
-537 695 696 0
-696 -694 -697 0
696 694 -697 0
696 -694 697 0
-696 694 697 0
-696 -694 698 0
696 -698 0
694 -698 0
-537 -695 699 0
537 -699 0
695 -699 0
698 699 -700 0
-698 700 0
-699 700 0
-194 -553 701 0
194 -701 0
553 -701 0
-543 -701 -702 0
543 701 -702 0
543 -701 702 0
-543 701 702 0
-702 -700 -703 0
702 700 -703 0
702 -700 703 0
-702 700 703 0
-702 -700 704 0
702 -704 0
700 -704 0
-543 -701 705 0
543 -705 0
701 -705 0
704 705 -706 0
-704 706 0
-705 706 0
-202 -553 707 0
202 -707 0
553 -707 0
-549 -707 -708 0
549 707 -708 0
549 -707 708 0
-549 707 708 0
-708 -706 -709 0
708 706 -709 0
708 -706 709 0
-708 706 709 0
-708 -706 710 0
708 -710 0
706 -710 0
-549 -707 711 0
549 -711 0
707 -711 0
710 711 -712 0
-710 712 0
-711 712 0
-210 -553 713 0
210 -713 0
553 -713 0
-552 -713 -714 0
552 713 -714 0
552 -713 714 0
-552 713 714 0
-714 -712 -715 0
714 712 -715 0
714 -712 715 0
-714 712 715 0
-714 -712 716 0
714 -716 0
712 -716 0
-552 -713 717 0
552 -717 0
713 -717 0
716 717 -718 0
-716 718 0
-717 718 0
-1 -719 720 0
1 -720 0
719 -720 0
-559 -720 -721 0
559 720 -721 0
559 -720 721 0
-559 720 721 0
-559 -720 722 0
559 -722 0
720 -722 0
-4 -719 723 0
4 -723 0
719 -723 0
-565 -723 -724 0
565 723 -724 0
565 -723 724 0
-565 723 724 0
-724 -722 -725 0
724 722 -725 0
724 -722 725 0
-724 722 725 0
-724 -722 726 0
724 -726 0
722 -726 0
-565 -723 727 0
565 -727 0
723 -727 0
726 727 -728 0
-726 728 0
-727 728 0
-10 -719 729 0
10 -729 0
719 -729 0
-571 -729 -730 0
571 729 -730 0
571 -729 730 0
-571 729 730 0
-730 -728 -731 0
730 728 -731 0
730 -728 731 0
-730 728 731 0
-730 -728 732 0
730 -732 0
728 -732 0
-571 -729 733 0
571 -733 0
729 -733 0
732 733 -734 0
-732 734 0
-733 734 0
-18 -719 735 0
18 -735 0
719 -735 0
-577 -735 -736 0
577 735 -736 0
577 -735 736 0
-577 735 736 0
-736 -734 -737 0
736 734 -737 0
736 -734 737 0
-736 734 737 0
-736 -734 738 0
736 -738 0
734 -738 0
-577 -735 739 0
577 -739 0
735 -739 0
738 739 -740 0
-738 740 0
-739 740 0
-26 -719 741 0
26 -741 0
719 -741 0
-583 -741 -742 0
583 741 -742 0
583 -741 742 0
-583 741 742 0
-742 -740 -743 0
742 740 -743 0
742 -740 743 0
-742 740 743 0
-742 -740 744 0
742 -744 0
740 -744 0
-583 -741 745 0
583 -745 0
741 -745 0
744 745 -746 0
-744 746 0
-745 746 0
-34 -719 747 0
34 -747 0
719 -747 0
-589 -747 -748 0
589 747 -748 0
589 -747 748 0
-589 747 748 0
-748 -746 -749 0
748 746 -749 0
748 -746 749 0
-748 746 749 0
-748 -746 750 0
748 -750 0
746 -750 0
-589 -747 751 0
589 -751 0
747 -751 0
750 751 -752 0
-750 752 0
-751 752 0
-42 -719 753 0
42 -753 0
719 -753 0
-595 -753 -754 0
595 753 -754 0
595 -753 754 0
-595 753 754 0
-754 -752 -755 0
754 752 -755 0
754 -752 755 0
-754 752 755 0
-754 -752 756 0
754 -756 0
752 -756 0
-595 -753 757 0
595 -757 0
753 -757 0
756 757 -758 0
-756 758 0
-757 758 0
-50 -719 759 0
50 -759 0
719 -759 0
-601 -759 -760 0
601 759 -760 0
601 -759 760 0
-601 759 760 0
-760 -758 -761 0
760 758 -761 0
760 -758 761 0
-760 758 761 0
-760 -758 762 0
760 -762 0
758 -762 0
-601 -759 763 0
601 -763 0
759 -763 0
762 763 -764 0
-762 764 0
-763 764 0
-58 -719 765 0
58 -765 0
719 -765 0
-607 -765 -766 0
607 765 -766 0
607 -765 766 0
-607 765 766 0
-766 -764 -767 0
766 764 -767 0
766 -764 767 0
-766 764 767 0
-766 -764 768 0
766 -768 0
764 -768 0
-607 -765 769 0
607 -769 0
765 -769 0
768 769 -770 0
-768 770 0
-769 770 0
-66 -719 771 0
66 -771 0
719 -771 0
-613 -771 -772 0
613 771 -772 0
613 -771 772 0
-613 771 772 0
-772 -770 -773 0
772 770 -773 0
772 -770 773 0
-772 770 773 0
-772 -770 774 0
772 -774 0
770 -774 0
-613 -771 775 0
613 -775 0
771 -775 0
774 775 -776 0
-774 776 0
-775 776 0
-74 -719 777 0
74 -777 0
719 -777 0
-619 -777 -778 0
619 777 -778 0
619 -777 778 0
-619 777 778 0
-778 -776 -779 0
778 776 -779 0
778 -776 779 0
-778 776 779 0
-778 -776 780 0
778 -780 0
776 -780 0
-619 -777 781 0
619 -781 0
777 -781 0
780 781 -782 0
-780 782 0
-781 782 0
-82 -719 783 0
82 -783 0
719 -783 0
-625 -783 -784 0
625 783 -784 0
625 -783 784 0
-625 783 784 0
-784 -782 -785 0
784 782 -785 0
784 -782 785 0
-784 782 785 0
-784 -782 786 0
784 -786 0
782 -786 0
-625 -783 787 0
625 -787 0
783 -787 0
786 787 -788 0
-786 788 0
-787 788 0
-90 -719 789 0
90 -789 0
719 -789 0
-631 -789 -790 0
631 789 -790 0
631 -789 790 0
-631 789 790 0
-790 -788 -791 0
790 788 -791 0
790 -788 791 0
-790 788 791 0
-790 -788 792 0
790 -792 0
788 -792 0
-631 -789 793 0
631 -793 0
789 -793 0
792 793 -794 0
-792 794 0
-793 794 0
-98 -719 795 0
98 -795 0
719 -795 0
-637 -795 -796 0
637 795 -796 0
637 -795 796 0
-637 795 796 0
-796 -794 -797 0
796 794 -797 0
796 -794 797 0
-796 794 797 0
-796 -794 798 0
796 -798 0
794 -798 0
-637 -795 799 0
637 -799 0
795 -799 0
798 799 -800 0
-798 800 0
-799 800 0
-106 -719 801 0
106 -801 0
719 -801 0
-643 -801 -802 0
643 801 -802 0
643 -801 802 0
-643 801 802 0
-802 -800 -803 0
802 800 -803 0
802 -800 803 0
-802 800 803 0
-802 -800 804 0
802 -804 0
800 -804 0
-643 -801 805 0
643 -805 0
801 -805 0
804 805 -806 0
-804 806 0
-805 806 0
-114 -719 807 0
114 -807 0
719 -807 0
-649 -807 -808 0
649 807 -808 0
649 -807 808 0
-649 807 808 0
-808 -806 -809 0
808 806 -809 0
808 -806 809 0
-808 806 809 0
-808 -806 810 0
808 -810 0
806 -810 0
-649 -807 811 0
649 -811 0
807 -811 0
810 811 -812 0
-810 812 0
-811 812 0
-122 -719 813 0
122 -813 0
719 -813 0
-655 -813 -814 0
655 813 -814 0
655 -813 814 0
-655 813 814 0
-814 -812 -815 0
814 812 -815 0
814 -812 815 0
-814 812 815 0
-814 -812 816 0
814 -816 0
812 -816 0
-655 -813 817 0
655 -817 0
813 -817 0
816 817 -818 0
-816 818 0
-817 818 0
-130 -719 819 0
130 -819 0
719 -819 0
-661 -819 -820 0
661 819 -820 0
661 -819 820 0
-661 819 820 0
-820 -818 -821 0
820 818 -821 0
820 -818 821 0
-820 818 821 0
-820 -818 822 0
820 -822 0
818 -822 0
-661 -819 823 0
661 -823 0
819 -823 0
822 823 -824 0
-822 824 0
-823 824 0
-138 -719 825 0
138 -825 0
719 -825 0
-667 -825 -826 0
667 825 -826 0
667 -825 826 0
-667 825 826 0
-826 -824 -827 0
826 824 -827 0
826 -824 827 0
-826 824 827 0
-826 -824 828 0
826 -828 0
824 -828 0
-667 -825 829 0
667 -829 0
825 -829 0
828 829 -830 0
-828 830 0
-829 830 0
-146 -719 831 0
146 -831 0
719 -831 0
-673 -831 -832 0
673 831 -832 0
673 -831 832 0
-673 831 832 0
-832 -830 -833 0
832 830 -833 0
832 -830 833 0
-832 830 833 0
-832 -830 834 0
832 -834 0
830 -834 0
-673 -831 835 0
673 -835 0
831 -835 0
834 835 -836 0
-834 836 0
-835 836 0
-154 -719 837 0
154 -837 0
719 -837 0
-679 -837 -838 0
679 837 -838 0
679 -837 838 0
-679 837 838 0
-838 -836 -839 0
838 836 -839 0
838 -836 839 0
-838 836 839 0
-838 -836 840 0
838 -840 0
836 -840 0
-679 -837 841 0
679 -841 0
837 -841 0
840 841 -842 0
-840 842 0
-841 842 0
-162 -719 843 0
162 -843 0
719 -843 0
-685 -843 -844 0
685 843 -844 0
685 -843 844 0
-685 843 844 0
-844 -842 -845 0
844 842 -845 0
844 -842 845 0
-844 842 845 0
-844 -842 846 0
844 -846 0
842 -846 0
-685 -843 847 0
685 -847 0
843 -847 0
846 847 -848 0
-846 848 0
-847 848 0
-170 -719 849 0
170 -849 0
719 -849 0
-691 -849 -850 0
691 849 -850 0
691 -849 850 0
-691 849 850 0
-850 -848 -851 0
850 848 -851 0
850 -848 851 0
-850 848 851 0
-850 -848 852 0
850 -852 0
848 -852 0
-691 -849 853 0
691 -853 0
849 -853 0
852 853 -854 0
-852 854 0
-853 854 0
-178 -719 855 0
178 -855 0
719 -855 0
-697 -855 -856 0
697 855 -856 0
697 -855 856 0
-697 855 856 0
-856 -854 -857 0
856 854 -857 0
856 -854 857 0
-856 854 857 0
-856 -854 858 0
856 -858 0
854 -858 0
-697 -855 859 0
697 -859 0
855 -859 0
858 859 -860 0
-858 860 0
-859 860 0
-186 -719 861 0
186 -861 0
719 -861 0
-703 -861 -862 0
703 861 -862 0
703 -861 862 0
-703 861 862 0
-862 -860 -863 0
862 860 -863 0
862 -860 863 0
-862 860 863 0
-862 -860 864 0
862 -864 0
860 -864 0
-703 -861 865 0
703 -865 0
861 -865 0
864 865 -866 0
-864 866 0
-865 866 0
-194 -719 867 0
194 -867 0
719 -867 0
-709 -867 -868 0
709 867 -868 0
709 -867 868 0
-709 867 868 0
-868 -866 -869 0
868 866 -869 0
868 -866 869 0
-868 866 869 0
-868 -866 870 0
868 -870 0
866 -870 0
-709 -867 871 0
709 -871 0
867 -871 0
870 871 -872 0
-870 872 0
-871 872 0
-202 -719 873 0
202 -873 0
719 -873 0
-715 -873 -874 0
715 873 -874 0
715 -873 874 0
-715 873 874 0
-874 -872 -875 0
874 872 -875 0
874 -872 875 0
-874 872 875 0
-874 -872 876 0
874 -876 0
872 -876 0
-715 -873 877 0
715 -877 0
873 -877 0
876 877 -878 0
-876 878 0
-877 878 0
-210 -719 879 0
210 -879 0
719 -879 0
-718 -879 -880 0
718 879 -880 0
718 -879 880 0
-718 879 880 0
-880 -878 -881 0
880 878 -881 0
880 -878 881 0
-880 878 881 0
-880 -878 882 0
880 -882 0
878 -882 0
-718 -879 883 0
718 -883 0
879 -883 0
882 883 -884 0
-882 884 0
-883 884 0
-1 -885 886 0
1 -886 0
885 -886 0
-725 -886 -887 0
725 886 -887 0
725 -886 887 0
-725 886 887 0
-725 -886 888 0
725 -888 0
886 -888 0
-4 -885 889 0
4 -889 0
885 -889 0
-731 -889 -890 0
731 889 -890 0
731 -889 890 0
-731 889 890 0
-890 -888 -891 0
890 888 -891 0
890 -888 891 0
-890 888 891 0
-890 -888 892 0
890 -892 0
888 -892 0
-731 -889 893 0
731 -893 0
889 -893 0
892 893 -894 0
-892 894 0
-893 894 0
-10 -885 895 0
10 -895 0
885 -895 0
-737 -895 -896 0
737 895 -896 0
737 -895 896 0
-737 895 896 0
-896 -894 -897 0
896 894 -897 0
896 -894 897 0
-896 894 897 0
-896 -894 898 0
896 -898 0
894 -898 0
-737 -895 899 0
737 -899 0
895 -899 0
898 899 -900 0
-898 900 0
-899 900 0
-18 -885 901 0
18 -901 0
885 -901 0
-743 -901 -902 0
743 901 -902 0
743 -901 902 0
-743 901 902 0
-902 -900 -903 0
902 900 -903 0
902 -900 903 0
-902 900 903 0
-902 -900 904 0
902 -904 0
900 -904 0
-743 -901 905 0
743 -905 0
901 -905 0
904 905 -906 0
-904 906 0
-905 906 0
-26 -885 907 0
26 -907 0
885 -907 0
-749 -907 -908 0
749 907 -908 0
749 -907 908 0
-749 907 908 0
-908 -906 -909 0
908 906 -909 0
908 -906 909 0
-908 906 909 0
-908 -906 910 0
908 -910 0
906 -910 0
-749 -907 911 0
749 -911 0
907 -911 0
910 911 -912 0
-910 912 0
-911 912 0
-34 -885 913 0
34 -913 0
885 -913 0
-755 -913 -914 0
755 913 -914 0
755 -913 914 0
-755 913 914 0
-914 -912 -915 0
914 912 -915 0
914 -912 915 0
-914 912 915 0
-914 -912 916 0
914 -916 0
912 -916 0
-755 -913 917 0
755 -917 0
913 -917 0
916 917 -918 0
-916 918 0
-917 918 0
-42 -885 919 0
42 -919 0
885 -919 0
-761 -919 -920 0
761 919 -920 0
761 -919 920 0
-761 919 920 0
-920 -918 -921 0
920 918 -921 0
920 -918 921 0
-920 918 921 0
-920 -918 922 0
920 -922 0
918 -922 0
-761 -919 923 0
761 -923 0
919 -923 0
922 923 -924 0
-922 924 0
-923 924 0
-50 -885 925 0
50 -925 0
885 -925 0
-767 -925 -926 0
767 925 -926 0
767 -925 926 0
-767 925 926 0
-926 -924 -927 0
926 924 -927 0
926 -924 927 0
-926 924 927 0
-926 -924 928 0
926 -928 0
924 -928 0
-767 -925 929 0
767 -929 0
925 -929 0
928 929 -930 0
-928 930 0
-929 930 0
-58 -885 931 0
58 -931 0
885 -931 0
-773 -931 -932 0
773 931 -932 0
773 -931 932 0
-773 931 932 0
-932 -930 -933 0
932 930 -933 0
932 -930 933 0
-932 930 933 0
-932 -930 934 0
932 -934 0
930 -934 0
-773 -931 935 0
773 -935 0
931 -935 0
934 935 -936 0
-934 936 0
-935 936 0
-66 -885 937 0
66 -937 0
885 -937 0
-779 -937 -938 0
779 937 -938 0
779 -937 938 0
-779 937 938 0
-938 -936 -939 0
938 936 -939 0
938 -936 939 0
-938 936 939 0
-938 -936 940 0
938 -940 0
936 -940 0
-779 -937 941 0
779 -941 0
937 -941 0
940 941 -942 0
-940 942 0
-941 942 0
-74 -885 943 0
74 -943 0
885 -943 0
-785 -943 -944 0
785 943 -944 0
785 -943 944 0
-785 943 944 0
-944 -942 -945 0
944 942 -945 0
944 -942 945 0
-944 942 945 0
-944 -942 946 0
944 -946 0
942 -946 0
-785 -943 947 0
785 -947 0
943 -947 0
946 947 -948 0
-946 948 0
-947 948 0
-82 -885 949 0
82 -949 0
885 -949 0
-791 -949 -950 0
791 949 -950 0
791 -949 950 0
-791 949 950 0
-950 -948 -951 0
950 948 -951 0
950 -948 951 0
-950 948 951 0
-950 -948 952 0
950 -952 0
948 -952 0
-791 -949 953 0
791 -953 0
949 -953 0
952 953 -954 0
-952 954 0
-953 954 0
-90 -885 955 0
90 -955 0
885 -955 0
-797 -955 -956 0
797 955 -956 0
797 -955 956 0
-797 955 956 0
-956 -954 -957 0
956 954 -957 0
956 -954 957 0
-956 954 957 0
-956 -954 958 0
956 -958 0
954 -958 0
-797 -955 959 0
797 -959 0
955 -959 0
958 959 -960 0
-958 960 0
-959 960 0
-98 -885 961 0
98 -961 0
885 -961 0
-803 -961 -962 0
803 961 -962 0
803 -961 962 0
-803 961 962 0
-962 -960 -963 0
962 960 -963 0
962 -960 963 0
-962 960 963 0
-962 -960 964 0
962 -964 0
960 -964 0
-803 -961 965 0
803 -965 0
961 -965 0
964 965 -966 0
-964 966 0
-965 966 0
-106 -885 967 0
106 -967 0
885 -967 0
-809 -967 -968 0
809 967 -968 0
809 -967 968 0
-809 967 968 0
-968 -966 -969 0
968 966 -969 0
968 -966 969 0
-968 966 969 0
-968 -966 970 0
968 -970 0
966 -970 0
-809 -967 971 0
809 -971 0
967 -971 0
970 971 -972 0
-970 972 0
-971 972 0
-114 -885 973 0
114 -973 0
885 -973 0
-815 -973 -974 0
815 973 -974 0
815 -973 974 0
-815 973 974 0
-974 -972 -975 0
974 972 -975 0
974 -972 975 0
-974 972 975 0
-974 -972 976 0
974 -976 0
972 -976 0
-815 -973 977 0
815 -977 0
973 -977 0
976 977 -978 0
-976 978 0
-977 978 0
-122 -885 979 0
122 -979 0
885 -979 0
-821 -979 -980 0
821 979 -980 0
821 -979 980 0
-821 979 980 0
-980 -978 -981 0
980 978 -981 0
980 -978 981 0
-980 978 981 0
-980 -978 982 0
980 -982 0
978 -982 0
-821 -979 983 0
821 -983 0
979 -983 0
982 983 -984 0
-982 984 0
-983 984 0
-130 -885 985 0
130 -985 0
885 -985 0
-827 -985 -986 0
827 985 -986 0
827 -985 986 0
-827 985 986 0
-986 -984 -987 0
986 984 -987 0
986 -984 987 0
-986 984 987 0
-986 -984 988 0
986 -988 0
984 -988 0
-827 -985 989 0
827 -989 0
985 -989 0
988 989 -990 0
-988 990 0
-989 990 0
-138 -885 991 0
138 -991 0
885 -991 0
-833 -991 -992 0
833 991 -992 0
833 -991 992 0
-833 991 992 0
-992 -990 -993 0
992 990 -993 0
992 -990 993 0
-992 990 993 0
-992 -990 994 0
992 -994 0
990 -994 0
-833 -991 995 0
833 -995 0
991 -995 0
994 995 -996 0
-994 996 0
-995 996 0
-146 -885 997 0
146 -997 0
885 -997 0
-839 -997 -998 0
839 997 -998 0
839 -997 998 0
-839 997 998 0
-998 -996 -999 0
998 996 -999 0
998 -996 999 0
-998 996 999 0
-998 -996 1000 0
998 -1000 0
996 -1000 0
-839 -997 1001 0
839 -1001 0
997 -1001 0
1000 1001 -1002 0
-1000 1002 0
-1001 1002 0
-154 -885 1003 0
154 -1003 0
885 -1003 0
-845 -1003 -1004 0
845 1003 -1004 0
845 -1003 1004 0
-845 1003 1004 0
-1004 -1002 -1005 0
1004 1002 -1005 0
1004 -1002 1005 0
-1004 1002 1005 0
-1004 -1002 1006 0
1004 -1006 0
1002 -1006 0
-845 -1003 1007 0
845 -1007 0
1003 -1007 0
1006 1007 -1008 0
-1006 1008 0
-1007 1008 0
-162 -885 1009 0
162 -1009 0
885 -1009 0
-851 -1009 -1010 0
851 1009 -1010 0
851 -1009 1010 0
-851 1009 1010 0
-1010 -1008 -1011 0
1010 1008 -1011 0
1010 -1008 1011 0
-1010 1008 1011 0
-1010 -1008 1012 0
1010 -1012 0
1008 -1012 0
-851 -1009 1013 0
851 -1013 0
1009 -1013 0
1012 1013 -1014 0
-1012 1014 0
-1013 1014 0
-170 -885 1015 0
170 -1015 0
885 -1015 0
-857 -1015 -1016 0
857 1015 -1016 0
857 -1015 1016 0
-857 1015 1016 0
-1016 -1014 -1017 0
1016 1014 -1017 0
1016 -1014 1017 0
-1016 1014 1017 0
-1016 -1014 1018 0
1016 -1018 0
1014 -1018 0
-857 -1015 1019 0
857 -1019 0
1015 -1019 0
1018 1019 -1020 0
-1018 1020 0
-1019 1020 0
-178 -885 1021 0
178 -1021 0
885 -1021 0
-863 -1021 -1022 0
863 1021 -1022 0
863 -1021 1022 0
-863 1021 1022 0
-1022 -1020 -1023 0
1022 1020 -1023 0
1022 -1020 1023 0
-1022 1020 1023 0
-1022 -1020 1024 0
1022 -1024 0
1020 -1024 0
-863 -1021 1025 0
863 -1025 0
1021 -1025 0
1024 1025 -1026 0
-1024 1026 0
-1025 1026 0
-186 -885 1027 0
186 -1027 0
885 -1027 0
-869 -1027 -1028 0
869 1027 -1028 0
869 -1027 1028 0
-869 1027 1028 0
-1028 -1026 -1029 0
1028 1026 -1029 0
1028 -1026 1029 0
-1028 1026 1029 0
-1028 -1026 1030 0
1028 -1030 0
1026 -1030 0
-869 -1027 1031 0
869 -1031 0
1027 -1031 0
1030 1031 -1032 0
-1030 1032 0
-1031 1032 0
-194 -885 1033 0
194 -1033 0
885 -1033 0
-875 -1033 -1034 0
875 1033 -1034 0
875 -1033 1034 0
-875 1033 1034 0
-1034 -1032 -1035 0
1034 1032 -1035 0
1034 -1032 1035 0
-1034 1032 1035 0
-1034 -1032 1036 0
1034 -1036 0
1032 -1036 0
-875 -1033 1037 0
875 -1037 0
1033 -1037 0
1036 1037 -1038 0
-1036 1038 0
-1037 1038 0
-202 -885 1039 0
202 -1039 0
885 -1039 0
-881 -1039 -1040 0
881 1039 -1040 0
881 -1039 1040 0
-881 1039 1040 0
-1040 -1038 -1041 0
1040 1038 -1041 0
1040 -1038 1041 0
-1040 1038 1041 0
-1040 -1038 1042 0
1040 -1042 0
1038 -1042 0
-881 -1039 1043 0
881 -1043 0
1039 -1043 0
1042 1043 -1044 0
-1042 1044 0
-1043 1044 0
-210 -885 1045 0
210 -1045 0
885 -1045 0
-884 -1045 -1046 0
884 1045 -1046 0
884 -1045 1046 0
-884 1045 1046 0
-1046 -1044 -1047 0
1046 1044 -1047 0
1046 -1044 1047 0
-1046 1044 1047 0
-1046 -1044 1048 0
1046 -1048 0
1044 -1048 0
-884 -1045 1049 0
884 -1049 0
1045 -1049 0
1048 1049 -1050 0
-1048 1050 0
-1049 1050 0
-1 -1051 1052 0
1 -1052 0
1051 -1052 0
-891 -1052 -1053 0
891 1052 -1053 0
891 -1052 1053 0
-891 1052 1053 0
-891 -1052 1054 0
891 -1054 0
1052 -1054 0
-4 -1051 1055 0
4 -1055 0
1051 -1055 0
-897 -1055 -1056 0
897 1055 -1056 0
897 -1055 1056 0
-897 1055 1056 0
-1056 -1054 -1057 0
1056 1054 -1057 0
1056 -1054 1057 0
-1056 1054 1057 0
-1056 -1054 1058 0
1056 -1058 0
1054 -1058 0
-897 -1055 1059 0
897 -1059 0
1055 -1059 0
1058 1059 -1060 0
-1058 1060 0
-1059 1060 0
-10 -1051 1061 0
10 -1061 0
1051 -1061 0
-903 -1061 -1062 0
903 1061 -1062 0
903 -1061 1062 0
-903 1061 1062 0
-1062 -1060 -1063 0
1062 1060 -1063 0
1062 -1060 1063 0
-1062 1060 1063 0
-1062 -1060 1064 0
1062 -1064 0
1060 -1064 0
-903 -1061 1065 0
903 -1065 0
1061 -1065 0
1064 1065 -1066 0
-1064 1066 0
-1065 1066 0
-18 -1051 1067 0
18 -1067 0
1051 -1067 0
-909 -1067 -1068 0
909 1067 -1068 0
909 -1067 1068 0
-909 1067 1068 0
-1068 -1066 -1069 0
1068 1066 -1069 0
1068 -1066 1069 0
-1068 1066 1069 0
-1068 -1066 1070 0
1068 -1070 0
1066 -1070 0
-909 -1067 1071 0
909 -1071 0
1067 -1071 0
1070 1071 -1072 0
-1070 1072 0
-1071 1072 0
-26 -1051 1073 0
26 -1073 0
1051 -1073 0
-915 -1073 -1074 0
915 1073 -1074 0
915 -1073 1074 0
-915 1073 1074 0
-1074 -1072 -1075 0
1074 1072 -1075 0
1074 -1072 1075 0
-1074 1072 1075 0
-1074 -1072 1076 0
1074 -1076 0
1072 -1076 0
-915 -1073 1077 0
915 -1077 0
1073 -1077 0
1076 1077 -1078 0
-1076 1078 0
-1077 1078 0
-34 -1051 1079 0
34 -1079 0
1051 -1079 0
-921 -1079 -1080 0
921 1079 -1080 0
921 -1079 1080 0
-921 1079 1080 0
-1080 -1078 -1081 0
1080 1078 -1081 0
1080 -1078 1081 0
-1080 1078 1081 0
-1080 -1078 1082 0
1080 -1082 0
1078 -1082 0
-921 -1079 1083 0
921 -1083 0
1079 -1083 0
1082 1083 -1084 0
-1082 1084 0
-1083 1084 0
-42 -1051 1085 0
42 -1085 0
1051 -1085 0
-927 -1085 -1086 0
927 1085 -1086 0
927 -1085 1086 0
-927 1085 1086 0
-1086 -1084 -1087 0
1086 1084 -1087 0
1086 -1084 1087 0
-1086 1084 1087 0
-1086 -1084 1088 0
1086 -1088 0
1084 -1088 0
-927 -1085 1089 0
927 -1089 0
1085 -1089 0
1088 1089 -1090 0
-1088 1090 0
-1089 1090 0
-50 -1051 1091 0
50 -1091 0
1051 -1091 0
-933 -1091 -1092 0
933 1091 -1092 0
933 -1091 1092 0
-933 1091 1092 0
-1092 -1090 -1093 0
1092 1090 -1093 0
1092 -1090 1093 0
-1092 1090 1093 0
-1092 -1090 1094 0
1092 -1094 0
1090 -1094 0
-933 -1091 1095 0
933 -1095 0
1091 -1095 0
1094 1095 -1096 0
-1094 1096 0
-1095 1096 0
-58 -1051 1097 0
58 -1097 0
1051 -1097 0
-939 -1097 -1098 0
939 1097 -1098 0
939 -1097 1098 0
-939 1097 1098 0
-1098 -1096 -1099 0
1098 1096 -1099 0
1098 -1096 1099 0
-1098 1096 1099 0
-1098 -1096 1100 0
1098 -1100 0
1096 -1100 0
-939 -1097 1101 0
939 -1101 0
1097 -1101 0
1100 1101 -1102 0
-1100 1102 0
-1101 1102 0
-66 -1051 1103 0
66 -1103 0
1051 -1103 0
-945 -1103 -1104 0
945 1103 -1104 0
945 -1103 1104 0
-945 1103 1104 0
-1104 -1102 -1105 0
1104 1102 -1105 0
1104 -1102 1105 0
-1104 1102 1105 0
-1104 -1102 1106 0
1104 -1106 0
1102 -1106 0
-945 -1103 1107 0
945 -1107 0
1103 -1107 0
1106 1107 -1108 0
-1106 1108 0
-1107 1108 0
-74 -1051 1109 0
74 -1109 0
1051 -1109 0
-951 -1109 -1110 0
951 1109 -1110 0
951 -1109 1110 0
-951 1109 1110 0
-1110 -1108 -1111 0
1110 1108 -1111 0
1110 -1108 1111 0
-1110 1108 1111 0
-1110 -1108 1112 0
1110 -1112 0
1108 -1112 0
-951 -1109 1113 0
951 -1113 0
1109 -1113 0
1112 1113 -1114 0
-1112 1114 0
-1113 1114 0
-82 -1051 1115 0
82 -1115 0
1051 -1115 0
-957 -1115 -1116 0
957 1115 -1116 0
957 -1115 1116 0
-957 1115 1116 0
-1116 -1114 -1117 0
1116 1114 -1117 0
1116 -1114 1117 0
-1116 1114 1117 0
-1116 -1114 1118 0
1116 -1118 0
1114 -1118 0
-957 -1115 1119 0
957 -1119 0
1115 -1119 0
1118 1119 -1120 0
-1118 1120 0
-1119 1120 0
-90 -1051 1121 0
90 -1121 0
1051 -1121 0
-963 -1121 -1122 0
963 1121 -1122 0
963 -1121 1122 0
-963 1121 1122 0
-1122 -1120 -1123 0
1122 1120 -1123 0
1122 -1120 1123 0
-1122 1120 1123 0
-1122 -1120 1124 0
1122 -1124 0
1120 -1124 0
-963 -1121 1125 0
963 -1125 0
1121 -1125 0
1124 1125 -1126 0
-1124 1126 0
-1125 1126 0
-98 -1051 1127 0
98 -1127 0
1051 -1127 0
-969 -1127 -1128 0
969 1127 -1128 0
969 -1127 1128 0
-969 1127 1128 0
-1128 -1126 -1129 0
1128 1126 -1129 0
1128 -1126 1129 0
-1128 1126 1129 0
-1128 -1126 1130 0
1128 -1130 0
1126 -1130 0
-969 -1127 1131 0
969 -1131 0
1127 -1131 0
1130 1131 -1132 0
-1130 1132 0
-1131 1132 0
-106 -1051 1133 0
106 -1133 0
1051 -1133 0
-975 -1133 -1134 0
975 1133 -1134 0
975 -1133 1134 0
-975 1133 1134 0
-1134 -1132 -1135 0
1134 1132 -1135 0
1134 -1132 1135 0
-1134 1132 1135 0
-1134 -1132 1136 0
1134 -1136 0
1132 -1136 0
-975 -1133 1137 0
975 -1137 0
1133 -1137 0
1136 1137 -1138 0
-1136 1138 0
-1137 1138 0
-114 -1051 1139 0
114 -1139 0
1051 -1139 0
-981 -1139 -1140 0
981 1139 -1140 0
981 -1139 1140 0
-981 1139 1140 0
-1140 -1138 -1141 0
1140 1138 -1141 0
1140 -1138 1141 0
-1140 1138 1141 0
-1140 -1138 1142 0
1140 -1142 0
1138 -1142 0
-981 -1139 1143 0
981 -1143 0
1139 -1143 0
1142 1143 -1144 0
-1142 1144 0
-1143 1144 0
-122 -1051 1145 0
122 -1145 0
1051 -1145 0
-987 -1145 -1146 0
987 1145 -1146 0
987 -1145 1146 0
-987 1145 1146 0
-1146 -1144 -1147 0
1146 1144 -1147 0
1146 -1144 1147 0
-1146 1144 1147 0
-1146 -1144 1148 0
1146 -1148 0
1144 -1148 0
-987 -1145 1149 0
987 -1149 0
1145 -1149 0
1148 1149 -1150 0
-1148 1150 0
-1149 1150 0
-130 -1051 1151 0
130 -1151 0
1051 -1151 0
-993 -1151 -1152 0
993 1151 -1152 0
993 -1151 1152 0
-993 1151 1152 0
-1152 -1150 -1153 0
1152 1150 -1153 0
1152 -1150 1153 0
-1152 1150 1153 0
-1152 -1150 1154 0
1152 -1154 0
1150 -1154 0
-993 -1151 1155 0
993 -1155 0
1151 -1155 0
1154 1155 -1156 0
-1154 1156 0
-1155 1156 0
-138 -1051 1157 0
138 -1157 0
1051 -1157 0
-999 -1157 -1158 0
999 1157 -1158 0
999 -1157 1158 0
-999 1157 1158 0
-1158 -1156 -1159 0
1158 1156 -1159 0
1158 -1156 1159 0
-1158 1156 1159 0
-1158 -1156 1160 0
1158 -1160 0
1156 -1160 0
-999 -1157 1161 0
999 -1161 0
1157 -1161 0
1160 1161 -1162 0
-1160 1162 0
-1161 1162 0
-146 -1051 1163 0
146 -1163 0
1051 -1163 0
-1005 -1163 -1164 0
1005 1163 -1164 0
1005 -1163 1164 0
-1005 1163 1164 0
-1164 -1162 -1165 0
1164 1162 -1165 0
1164 -1162 1165 0
-1164 1162 1165 0
-1164 -1162 1166 0
1164 -1166 0
1162 -1166 0
-1005 -1163 1167 0
1005 -1167 0
1163 -1167 0
1166 1167 -1168 0
-1166 1168 0
-1167 1168 0
-154 -1051 1169 0
154 -1169 0
1051 -1169 0
-1011 -1169 -1170 0
1011 1169 -1170 0
1011 -1169 1170 0
-1011 1169 1170 0
-1170 -1168 -1171 0
1170 1168 -1171 0
1170 -1168 1171 0
-1170 1168 1171 0
-1170 -1168 1172 0
1170 -1172 0
1168 -1172 0
-1011 -1169 1173 0
1011 -1173 0
1169 -1173 0
1172 1173 -1174 0
-1172 1174 0
-1173 1174 0
-162 -1051 1175 0
162 -1175 0
1051 -1175 0
-1017 -1175 -1176 0
1017 1175 -1176 0
1017 -1175 1176 0
-1017 1175 1176 0
-1176 -1174 -1177 0
1176 1174 -1177 0
1176 -1174 1177 0
-1176 1174 1177 0
-1176 -1174 1178 0
1176 -1178 0
1174 -1178 0
-1017 -1175 1179 0
1017 -1179 0
1175 -1179 0
1178 1179 -1180 0
-1178 1180 0
-1179 1180 0
-170 -1051 1181 0
170 -1181 0
1051 -1181 0
-1023 -1181 -1182 0
1023 1181 -1182 0
1023 -1181 1182 0
-1023 1181 1182 0
-1182 -1180 -1183 0
1182 1180 -1183 0
1182 -1180 1183 0
-1182 1180 1183 0
-1182 -1180 1184 0
1182 -1184 0
1180 -1184 0
-1023 -1181 1185 0
1023 -1185 0
1181 -1185 0
1184 1185 -1186 0
-1184 1186 0
-1185 1186 0
-178 -1051 1187 0
178 -1187 0
1051 -1187 0
-1029 -1187 -1188 0
1029 1187 -1188 0
1029 -1187 1188 0
-1029 1187 1188 0
-1188 -1186 -1189 0
1188 1186 -1189 0
1188 -1186 1189 0
-1188 1186 1189 0
-1188 -1186 1190 0
1188 -1190 0
1186 -1190 0
-1029 -1187 1191 0
1029 -1191 0
1187 -1191 0
1190 1191 -1192 0
-1190 1192 0
-1191 1192 0
-186 -1051 1193 0
186 -1193 0
1051 -1193 0
-1035 -1193 -1194 0
1035 1193 -1194 0
1035 -1193 1194 0
-1035 1193 1194 0
-1194 -1192 -1195 0
1194 1192 -1195 0
1194 -1192 1195 0
-1194 1192 1195 0
-1194 -1192 1196 0
1194 -1196 0
1192 -1196 0
-1035 -1193 1197 0
1035 -1197 0
1193 -1197 0
1196 1197 -1198 0
-1196 1198 0
-1197 1198 0
-194 -1051 1199 0
194 -1199 0
1051 -1199 0
-1041 -1199 -1200 0
1041 1199 -1200 0
1041 -1199 1200 0
-1041 1199 1200 0
-1200 -1198 -1201 0
1200 1198 -1201 0
1200 -1198 1201 0
-1200 1198 1201 0
-1200 -1198 1202 0
1200 -1202 0
1198 -1202 0
-1041 -1199 1203 0
1041 -1203 0
1199 -1203 0
1202 1203 -1204 0
-1202 1204 0
-1203 1204 0
-202 -1051 1205 0
202 -1205 0
1051 -1205 0
-1047 -1205 -1206 0
1047 1205 -1206 0
1047 -1205 1206 0
-1047 1205 1206 0
-1206 -1204 -1207 0
1206 1204 -1207 0
1206 -1204 1207 0
-1206 1204 1207 0
-1206 -1204 1208 0
1206 -1208 0
1204 -1208 0
-1047 -1205 1209 0
1047 -1209 0
1205 -1209 0
1208 1209 -1210 0
-1208 1210 0
-1209 1210 0
-210 -1051 1211 0
210 -1211 0
1051 -1211 0
-1050 -1211 -1212 0
1050 1211 -1212 0
1050 -1211 1212 0
-1050 1211 1212 0
-1212 -1210 -1213 0
1212 1210 -1213 0
1212 -1210 1213 0
-1212 1210 1213 0
-1212 -1210 1214 0
1212 -1214 0
1210 -1214 0
-1050 -1211 1215 0
1050 -1215 0
1211 -1215 0
1214 1215 -1216 0
-1214 1216 0
-1215 1216 0
-1 -1217 1218 0
1 -1218 0
1217 -1218 0
-1057 -1218 -1219 0
1057 1218 -1219 0
1057 -1218 1219 0
-1057 1218 1219 0
-1057 -1218 1220 0
1057 -1220 0
1218 -1220 0
-4 -1217 1221 0
4 -1221 0
1217 -1221 0
-1063 -1221 -1222 0
1063 1221 -1222 0
1063 -1221 1222 0
-1063 1221 1222 0
-1222 -1220 -1223 0
1222 1220 -1223 0
1222 -1220 1223 0
-1222 1220 1223 0
-1222 -1220 1224 0
1222 -1224 0
1220 -1224 0
-1063 -1221 1225 0
1063 -1225 0
1221 -1225 0
1224 1225 -1226 0
-1224 1226 0
-1225 1226 0
-10 -1217 1227 0
10 -1227 0
1217 -1227 0
-1069 -1227 -1228 0
1069 1227 -1228 0
1069 -1227 1228 0
-1069 1227 1228 0
-1228 -1226 -1229 0
1228 1226 -1229 0
1228 -1226 1229 0
-1228 1226 1229 0
-1228 -1226 1230 0
1228 -1230 0
1226 -1230 0
-1069 -1227 1231 0
1069 -1231 0
1227 -1231 0
1230 1231 -1232 0
-1230 1232 0
-1231 1232 0
-18 -1217 1233 0
18 -1233 0
1217 -1233 0
-1075 -1233 -1234 0
1075 1233 -1234 0
1075 -1233 1234 0
-1075 1233 1234 0
-1234 -1232 -1235 0
1234 1232 -1235 0
1234 -1232 1235 0
-1234 1232 1235 0
-1234 -1232 1236 0
1234 -1236 0
1232 -1236 0
-1075 -1233 1237 0
1075 -1237 0
1233 -1237 0
1236 1237 -1238 0
-1236 1238 0
-1237 1238 0
-26 -1217 1239 0
26 -1239 0
1217 -1239 0
-1081 -1239 -1240 0
1081 1239 -1240 0
1081 -1239 1240 0
-1081 1239 1240 0
-1240 -1238 -1241 0
1240 1238 -1241 0
1240 -1238 1241 0
-1240 1238 1241 0
-1240 -1238 1242 0
1240 -1242 0
1238 -1242 0
-1081 -1239 1243 0
1081 -1243 0
1239 -1243 0
1242 1243 -1244 0
-1242 1244 0
-1243 1244 0
-34 -1217 1245 0
34 -1245 0
1217 -1245 0
-1087 -1245 -1246 0
1087 1245 -1246 0
1087 -1245 1246 0
-1087 1245 1246 0
-1246 -1244 -1247 0
1246 1244 -1247 0
1246 -1244 1247 0
-1246 1244 1247 0
-1246 -1244 1248 0
1246 -1248 0
1244 -1248 0
-1087 -1245 1249 0
1087 -1249 0
1245 -1249 0
1248 1249 -1250 0
-1248 1250 0
-1249 1250 0
-42 -1217 1251 0
42 -1251 0
1217 -1251 0
-1093 -1251 -1252 0
1093 1251 -1252 0
1093 -1251 1252 0
-1093 1251 1252 0
-1252 -1250 -1253 0
1252 1250 -1253 0
1252 -1250 1253 0
-1252 1250 1253 0
-1252 -1250 1254 0
1252 -1254 0
1250 -1254 0
-1093 -1251 1255 0
1093 -1255 0
1251 -1255 0
1254 1255 -1256 0
-1254 1256 0
-1255 1256 0
-50 -1217 1257 0
50 -1257 0
1217 -1257 0
-1099 -1257 -1258 0
1099 1257 -1258 0
1099 -1257 1258 0
-1099 1257 1258 0
-1258 -1256 -1259 0
1258 1256 -1259 0
1258 -1256 1259 0
-1258 1256 1259 0
-1258 -1256 1260 0
1258 -1260 0
1256 -1260 0
-1099 -1257 1261 0
1099 -1261 0
1257 -1261 0
1260 1261 -1262 0
-1260 1262 0
-1261 1262 0
-58 -1217 1263 0
58 -1263 0
1217 -1263 0
-1105 -1263 -1264 0
1105 1263 -1264 0
1105 -1263 1264 0
-1105 1263 1264 0
-1264 -1262 -1265 0
1264 1262 -1265 0
1264 -1262 1265 0
-1264 1262 1265 0
-1264 -1262 1266 0
1264 -1266 0
1262 -1266 0
-1105 -1263 1267 0
1105 -1267 0
1263 -1267 0
1266 1267 -1268 0
-1266 1268 0
-1267 1268 0
-66 -1217 1269 0
66 -1269 0
1217 -1269 0
-1111 -1269 -1270 0
1111 1269 -1270 0
1111 -1269 1270 0
-1111 1269 1270 0
-1270 -1268 -1271 0
1270 1268 -1271 0
1270 -1268 1271 0
-1270 1268 1271 0
-1270 -1268 1272 0
1270 -1272 0
1268 -1272 0
-1111 -1269 1273 0
1111 -1273 0
1269 -1273 0
1272 1273 -1274 0
-1272 1274 0
-1273 1274 0
-74 -1217 1275 0
74 -1275 0
1217 -1275 0
-1117 -1275 -1276 0
1117 1275 -1276 0
1117 -1275 1276 0
-1117 1275 1276 0
-1276 -1274 -1277 0
1276 1274 -1277 0
1276 -1274 1277 0
-1276 1274 1277 0
-1276 -1274 1278 0
1276 -1278 0
1274 -1278 0
-1117 -1275 1279 0
1117 -1279 0
1275 -1279 0
1278 1279 -1280 0
-1278 1280 0
-1279 1280 0
-82 -1217 1281 0
82 -1281 0
1217 -1281 0
-1123 -1281 -1282 0
1123 1281 -1282 0
1123 -1281 1282 0
-1123 1281 1282 0
-1282 -1280 -1283 0
1282 1280 -1283 0
1282 -1280 1283 0
-1282 1280 1283 0
-1282 -1280 1284 0
1282 -1284 0
1280 -1284 0
-1123 -1281 1285 0
1123 -1285 0
1281 -1285 0
1284 1285 -1286 0
-1284 1286 0
-1285 1286 0
-90 -1217 1287 0
90 -1287 0
1217 -1287 0
-1129 -1287 -1288 0
1129 1287 -1288 0
1129 -1287 1288 0
-1129 1287 1288 0
-1288 -1286 -1289 0
1288 1286 -1289 0
1288 -1286 1289 0
-1288 1286 1289 0
-1288 -1286 1290 0
1288 -1290 0
1286 -1290 0
-1129 -1287 1291 0
1129 -1291 0
1287 -1291 0
1290 1291 -1292 0
-1290 1292 0
-1291 1292 0
-98 -1217 1293 0
98 -1293 0
1217 -1293 0
-1135 -1293 -1294 0
1135 1293 -1294 0
1135 -1293 1294 0
-1135 1293 1294 0
-1294 -1292 -1295 0
1294 1292 -1295 0
1294 -1292 1295 0
-1294 1292 1295 0
-1294 -1292 1296 0
1294 -1296 0
1292 -1296 0
-1135 -1293 1297 0
1135 -1297 0
1293 -1297 0
1296 1297 -1298 0
-1296 1298 0
-1297 1298 0
-106 -1217 1299 0
106 -1299 0
1217 -1299 0
-1141 -1299 -1300 0
1141 1299 -1300 0
1141 -1299 1300 0
-1141 1299 1300 0
-1300 -1298 -1301 0
1300 1298 -1301 0
1300 -1298 1301 0
-1300 1298 1301 0
-1300 -1298 1302 0
1300 -1302 0
1298 -1302 0
-1141 -1299 1303 0
1141 -1303 0
1299 -1303 0
1302 1303 -1304 0
-1302 1304 0
-1303 1304 0
-114 -1217 1305 0
114 -1305 0
1217 -1305 0
-1147 -1305 -1306 0
1147 1305 -1306 0
1147 -1305 1306 0
-1147 1305 1306 0
-1306 -1304 -1307 0
1306 1304 -1307 0
1306 -1304 1307 0
-1306 1304 1307 0
-1306 -1304 1308 0
1306 -1308 0
1304 -1308 0
-1147 -1305 1309 0
1147 -1309 0
1305 -1309 0
1308 1309 -1310 0
-1308 1310 0
-1309 1310 0
-122 -1217 1311 0
122 -1311 0
1217 -1311 0
-1153 -1311 -1312 0
1153 1311 -1312 0
1153 -1311 1312 0
-1153 1311 1312 0
-1312 -1310 -1313 0
1312 1310 -1313 0
1312 -1310 1313 0
-1312 1310 1313 0
-1312 -1310 1314 0
1312 -1314 0
1310 -1314 0
-1153 -1311 1315 0
1153 -1315 0
1311 -1315 0
1314 1315 -1316 0
-1314 1316 0
-1315 1316 0
-130 -1217 1317 0
130 -1317 0
1217 -1317 0
-1159 -1317 -1318 0
1159 1317 -1318 0
1159 -1317 1318 0
-1159 1317 1318 0
-1318 -1316 -1319 0
1318 1316 -1319 0
1318 -1316 1319 0
-1318 1316 1319 0
-1318 -1316 1320 0
1318 -1320 0
1316 -1320 0
-1159 -1317 1321 0
1159 -1321 0
1317 -1321 0
1320 1321 -1322 0
-1320 1322 0
-1321 1322 0
-138 -1217 1323 0
138 -1323 0
1217 -1323 0
-1165 -1323 -1324 0
1165 1323 -1324 0
1165 -1323 1324 0
-1165 1323 1324 0
-1324 -1322 -1325 0
1324 1322 -1325 0
1324 -1322 1325 0
-1324 1322 1325 0
-1324 -1322 1326 0
1324 -1326 0
1322 -1326 0
-1165 -1323 1327 0
1165 -1327 0
1323 -1327 0
1326 1327 -1328 0
-1326 1328 0
-1327 1328 0
-146 -1217 1329 0
146 -1329 0
1217 -1329 0
-1171 -1329 -1330 0
1171 1329 -1330 0
1171 -1329 1330 0
-1171 1329 1330 0
-1330 -1328 -1331 0
1330 1328 -1331 0
1330 -1328 1331 0
-1330 1328 1331 0
-1330 -1328 1332 0
1330 -1332 0
1328 -1332 0
-1171 -1329 1333 0
1171 -1333 0
1329 -1333 0
1332 1333 -1334 0
-1332 1334 0
-1333 1334 0
-154 -1217 1335 0
154 -1335 0
1217 -1335 0
-1177 -1335 -1336 0
1177 1335 -1336 0
1177 -1335 1336 0
-1177 1335 1336 0
-1336 -1334 -1337 0
1336 1334 -1337 0
1336 -1334 1337 0
-1336 1334 1337 0
-1336 -1334 1338 0
1336 -1338 0
1334 -1338 0
-1177 -1335 1339 0
1177 -1339 0
1335 -1339 0
1338 1339 -1340 0
-1338 1340 0
-1339 1340 0
-162 -1217 1341 0
162 -1341 0
1217 -1341 0
-1183 -1341 -1342 0
1183 1341 -1342 0
1183 -1341 1342 0
-1183 1341 1342 0
-1342 -1340 -1343 0
1342 1340 -1343 0
1342 -1340 1343 0
-1342 1340 1343 0
-1342 -1340 1344 0
1342 -1344 0
1340 -1344 0
-1183 -1341 1345 0
1183 -1345 0
1341 -1345 0
1344 1345 -1346 0
-1344 1346 0
-1345 1346 0
-170 -1217 1347 0
170 -1347 0
1217 -1347 0
-1189 -1347 -1348 0
1189 1347 -1348 0
1189 -1347 1348 0
-1189 1347 1348 0
-1348 -1346 -1349 0
1348 1346 -1349 0
1348 -1346 1349 0
-1348 1346 1349 0
-1348 -1346 1350 0
1348 -1350 0
1346 -1350 0
-1189 -1347 1351 0
1189 -1351 0
1347 -1351 0
1350 1351 -1352 0
-1350 1352 0
-1351 1352 0
-178 -1217 1353 0
178 -1353 0
1217 -1353 0
-1195 -1353 -1354 0
1195 1353 -1354 0
1195 -1353 1354 0
-1195 1353 1354 0
-1354 -1352 -1355 0
1354 1352 -1355 0
1354 -1352 1355 0
-1354 1352 1355 0
-1354 -1352 1356 0
1354 -1356 0
1352 -1356 0
-1195 -1353 1357 0
1195 -1357 0
1353 -1357 0
1356 1357 -1358 0
-1356 1358 0
-1357 1358 0
-186 -1217 1359 0
186 -1359 0
1217 -1359 0
-1201 -1359 -1360 0
1201 1359 -1360 0
1201 -1359 1360 0
-1201 1359 1360 0
-1360 -1358 -1361 0
1360 1358 -1361 0
1360 -1358 1361 0
-1360 1358 1361 0
-1360 -1358 1362 0
1360 -1362 0
1358 -1362 0
-1201 -1359 1363 0
1201 -1363 0
1359 -1363 0
1362 1363 -1364 0
-1362 1364 0
-1363 1364 0
-194 -1217 1365 0
194 -1365 0
1217 -1365 0
-1207 -1365 -1366 0
1207 1365 -1366 0
1207 -1365 1366 0
-1207 1365 1366 0
-1366 -1364 -1367 0
1366 1364 -1367 0
1366 -1364 1367 0
-1366 1364 1367 0
-1366 -1364 1368 0
1366 -1368 0
1364 -1368 0
-1207 -1365 1369 0
1207 -1369 0
1365 -1369 0
1368 1369 -1370 0
-1368 1370 0
-1369 1370 0
-202 -1217 1371 0
202 -1371 0
1217 -1371 0
-1213 -1371 -1372 0
1213 1371 -1372 0
1213 -1371 1372 0
-1213 1371 1372 0
-1372 -1370 -1373 0
1372 1370 -1373 0
1372 -1370 1373 0
-1372 1370 1373 0
-1372 -1370 1374 0
1372 -1374 0
1370 -1374 0
-1213 -1371 1375 0
1213 -1375 0
1371 -1375 0
1374 1375 -1376 0
-1374 1376 0
-1375 1376 0
-210 -1217 1377 0
210 -1377 0
1217 -1377 0
-1216 -1377 -1378 0
1216 1377 -1378 0
1216 -1377 1378 0
-1216 1377 1378 0
-1378 -1376 -1379 0
1378 1376 -1379 0
1378 -1376 1379 0
-1378 1376 1379 0
-1378 -1376 1380 0
1378 -1380 0
1376 -1380 0
-1216 -1377 1381 0
1216 -1381 0
1377 -1381 0
1380 1381 -1382 0
-1380 1382 0
-1381 1382 0
-1 -1383 1384 0
1 -1384 0
1383 -1384 0
-1223 -1384 -1385 0
1223 1384 -1385 0
1223 -1384 1385 0
-1223 1384 1385 0
-1223 -1384 1386 0
1223 -1386 0
1384 -1386 0
-4 -1383 1387 0
4 -1387 0
1383 -1387 0
-1229 -1387 -1388 0
1229 1387 -1388 0
1229 -1387 1388 0
-1229 1387 1388 0
-1388 -1386 -1389 0
1388 1386 -1389 0
1388 -1386 1389 0
-1388 1386 1389 0
-1388 -1386 1390 0
1388 -1390 0
1386 -1390 0
-1229 -1387 1391 0
1229 -1391 0
1387 -1391 0
1390 1391 -1392 0
-1390 1392 0
-1391 1392 0
-10 -1383 1393 0
10 -1393 0
1383 -1393 0
-1235 -1393 -1394 0
1235 1393 -1394 0
1235 -1393 1394 0
-1235 1393 1394 0
-1394 -1392 -1395 0
1394 1392 -1395 0
1394 -1392 1395 0
-1394 1392 1395 0
-1394 -1392 1396 0
1394 -1396 0
1392 -1396 0
-1235 -1393 1397 0
1235 -1397 0
1393 -1397 0
1396 1397 -1398 0
-1396 1398 0
-1397 1398 0
-18 -1383 1399 0
18 -1399 0
1383 -1399 0
-1241 -1399 -1400 0
1241 1399 -1400 0
1241 -1399 1400 0
-1241 1399 1400 0
-1400 -1398 -1401 0
1400 1398 -1401 0
1400 -1398 1401 0
-1400 1398 1401 0
-1400 -1398 1402 0
1400 -1402 0
1398 -1402 0
-1241 -1399 1403 0
1241 -1403 0
1399 -1403 0
1402 1403 -1404 0
-1402 1404 0
-1403 1404 0
-26 -1383 1405 0
26 -1405 0
1383 -1405 0
-1247 -1405 -1406 0
1247 1405 -1406 0
1247 -1405 1406 0
-1247 1405 1406 0
-1406 -1404 -1407 0
1406 1404 -1407 0
1406 -1404 1407 0
-1406 1404 1407 0
-1406 -1404 1408 0
1406 -1408 0
1404 -1408 0
-1247 -1405 1409 0
1247 -1409 0
1405 -1409 0
1408 1409 -1410 0
-1408 1410 0
-1409 1410 0
-34 -1383 1411 0
34 -1411 0
1383 -1411 0
-1253 -1411 -1412 0
1253 1411 -1412 0
1253 -1411 1412 0
-1253 1411 1412 0
-1412 -1410 -1413 0
1412 1410 -1413 0
1412 -1410 1413 0
-1412 1410 1413 0
-1412 -1410 1414 0
1412 -1414 0
1410 -1414 0
-1253 -1411 1415 0
1253 -1415 0
1411 -1415 0
1414 1415 -1416 0
-1414 1416 0
-1415 1416 0
-42 -1383 1417 0
42 -1417 0
1383 -1417 0
-1259 -1417 -1418 0
1259 1417 -1418 0
1259 -1417 1418 0
-1259 1417 1418 0
-1418 -1416 -1419 0
1418 1416 -1419 0
1418 -1416 1419 0
-1418 1416 1419 0
-1418 -1416 1420 0
1418 -1420 0
1416 -1420 0
-1259 -1417 1421 0
1259 -1421 0
1417 -1421 0
1420 1421 -1422 0
-1420 1422 0
-1421 1422 0
-50 -1383 1423 0
50 -1423 0
1383 -1423 0
-1265 -1423 -1424 0
1265 1423 -1424 0
1265 -1423 1424 0
-1265 1423 1424 0
-1424 -1422 -1425 0
1424 1422 -1425 0
1424 -1422 1425 0
-1424 1422 1425 0
-1424 -1422 1426 0
1424 -1426 0
1422 -1426 0
-1265 -1423 1427 0
1265 -1427 0
1423 -1427 0
1426 1427 -1428 0
-1426 1428 0
-1427 1428 0
-58 -1383 1429 0
58 -1429 0
1383 -1429 0
-1271 -1429 -1430 0
1271 1429 -1430 0
1271 -1429 1430 0
-1271 1429 1430 0
-1430 -1428 -1431 0
1430 1428 -1431 0
1430 -1428 1431 0
-1430 1428 1431 0
-1430 -1428 1432 0
1430 -1432 0
1428 -1432 0
-1271 -1429 1433 0
1271 -1433 0
1429 -1433 0
1432 1433 -1434 0
-1432 1434 0
-1433 1434 0
-66 -1383 1435 0
66 -1435 0
1383 -1435 0
-1277 -1435 -1436 0
1277 1435 -1436 0
1277 -1435 1436 0
-1277 1435 1436 0
-1436 -1434 -1437 0
1436 1434 -1437 0
1436 -1434 1437 0
-1436 1434 1437 0
-1436 -1434 1438 0
1436 -1438 0
1434 -1438 0
-1277 -1435 1439 0
1277 -1439 0
1435 -1439 0
1438 1439 -1440 0
-1438 1440 0
-1439 1440 0
-74 -1383 1441 0
74 -1441 0
1383 -1441 0
-1283 -1441 -1442 0
1283 1441 -1442 0
1283 -1441 1442 0
-1283 1441 1442 0
-1442 -1440 -1443 0
1442 1440 -1443 0
1442 -1440 1443 0
-1442 1440 1443 0
-1442 -1440 1444 0
1442 -1444 0
1440 -1444 0
-1283 -1441 1445 0
1283 -1445 0
1441 -1445 0
1444 1445 -1446 0
-1444 1446 0
-1445 1446 0
-82 -1383 1447 0
82 -1447 0
1383 -1447 0
-1289 -1447 -1448 0
1289 1447 -1448 0
1289 -1447 1448 0
-1289 1447 1448 0
-1448 -1446 -1449 0
1448 1446 -1449 0
1448 -1446 1449 0
-1448 1446 1449 0
-1448 -1446 1450 0
1448 -1450 0
1446 -1450 0
-1289 -1447 1451 0
1289 -1451 0
1447 -1451 0
1450 1451 -1452 0
-1450 1452 0
-1451 1452 0
-90 -1383 1453 0
90 -1453 0
1383 -1453 0
-1295 -1453 -1454 0
1295 1453 -1454 0
1295 -1453 1454 0
-1295 1453 1454 0
-1454 -1452 -1455 0
1454 1452 -1455 0
1454 -1452 1455 0
-1454 1452 1455 0
-1454 -1452 1456 0
1454 -1456 0
1452 -1456 0
-1295 -1453 1457 0
1295 -1457 0
1453 -1457 0
1456 1457 -1458 0
-1456 1458 0
-1457 1458 0
-98 -1383 1459 0
98 -1459 0
1383 -1459 0
-1301 -1459 -1460 0
1301 1459 -1460 0
1301 -1459 1460 0
-1301 1459 1460 0
-1460 -1458 -1461 0
1460 1458 -1461 0
1460 -1458 1461 0
-1460 1458 1461 0
-1460 -1458 1462 0
1460 -1462 0
1458 -1462 0
-1301 -1459 1463 0
1301 -1463 0
1459 -1463 0
1462 1463 -1464 0
-1462 1464 0
-1463 1464 0
-106 -1383 1465 0
106 -1465 0
1383 -1465 0
-1307 -1465 -1466 0
1307 1465 -1466 0
1307 -1465 1466 0
-1307 1465 1466 0
-1466 -1464 -1467 0
1466 1464 -1467 0
1466 -1464 1467 0
-1466 1464 1467 0
-1466 -1464 1468 0
1466 -1468 0
1464 -1468 0
-1307 -1465 1469 0
1307 -1469 0
1465 -1469 0
1468 1469 -1470 0
-1468 1470 0
-1469 1470 0
-114 -1383 1471 0
114 -1471 0
1383 -1471 0
-1313 -1471 -1472 0
1313 1471 -1472 0
1313 -1471 1472 0
-1313 1471 1472 0
-1472 -1470 -1473 0
1472 1470 -1473 0
1472 -1470 1473 0
-1472 1470 1473 0
-1472 -1470 1474 0
1472 -1474 0
1470 -1474 0
-1313 -1471 1475 0
1313 -1475 0
1471 -1475 0
1474 1475 -1476 0
-1474 1476 0
-1475 1476 0
-122 -1383 1477 0
122 -1477 0
1383 -1477 0
-1319 -1477 -1478 0
1319 1477 -1478 0
1319 -1477 1478 0
-1319 1477 1478 0
-1478 -1476 -1479 0
1478 1476 -1479 0
1478 -1476 1479 0
-1478 1476 1479 0
-1478 -1476 1480 0
1478 -1480 0
1476 -1480 0
-1319 -1477 1481 0
1319 -1481 0
1477 -1481 0
1480 1481 -1482 0
-1480 1482 0
-1481 1482 0
-130 -1383 1483 0
130 -1483 0
1383 -1483 0
-1325 -1483 -1484 0
1325 1483 -1484 0
1325 -1483 1484 0
-1325 1483 1484 0
-1484 -1482 -1485 0
1484 1482 -1485 0
1484 -1482 1485 0
-1484 1482 1485 0
-1484 -1482 1486 0
1484 -1486 0
1482 -1486 0
-1325 -1483 1487 0
1325 -1487 0
1483 -1487 0
1486 1487 -1488 0
-1486 1488 0
-1487 1488 0
-138 -1383 1489 0
138 -1489 0
1383 -1489 0
-1331 -1489 -1490 0
1331 1489 -1490 0
1331 -1489 1490 0
-1331 1489 1490 0
-1490 -1488 -1491 0
1490 1488 -1491 0
1490 -1488 1491 0
-1490 1488 1491 0
-1490 -1488 1492 0
1490 -1492 0
1488 -1492 0
-1331 -1489 1493 0
1331 -1493 0
1489 -1493 0
1492 1493 -1494 0
-1492 1494 0
-1493 1494 0
-146 -1383 1495 0
146 -1495 0
1383 -1495 0
-1337 -1495 -1496 0
1337 1495 -1496 0
1337 -1495 1496 0
-1337 1495 1496 0
-1496 -1494 -1497 0
1496 1494 -1497 0
1496 -1494 1497 0
-1496 1494 1497 0
-1496 -1494 1498 0
1496 -1498 0
1494 -1498 0
-1337 -1495 1499 0
1337 -1499 0
1495 -1499 0
1498 1499 -1500 0
-1498 1500 0
-1499 1500 0
-154 -1383 1501 0
154 -1501 0
1383 -1501 0
-1343 -1501 -1502 0
1343 1501 -1502 0
1343 -1501 1502 0
-1343 1501 1502 0
-1502 -1500 -1503 0
1502 1500 -1503 0
1502 -1500 1503 0
-1502 1500 1503 0
-1502 -1500 1504 0
1502 -1504 0
1500 -1504 0
-1343 -1501 1505 0
1343 -1505 0
1501 -1505 0
1504 1505 -1506 0
-1504 1506 0
-1505 1506 0
-162 -1383 1507 0
162 -1507 0
1383 -1507 0
-1349 -1507 -1508 0
1349 1507 -1508 0
1349 -1507 1508 0
-1349 1507 1508 0
-1508 -1506 -1509 0
1508 1506 -1509 0
1508 -1506 1509 0
-1508 1506 1509 0
-1508 -1506 1510 0
1508 -1510 0
1506 -1510 0
-1349 -1507 1511 0
1349 -1511 0
1507 -1511 0
1510 1511 -1512 0
-1510 1512 0
-1511 1512 0
-170 -1383 1513 0
170 -1513 0
1383 -1513 0
-1355 -1513 -1514 0
1355 1513 -1514 0
1355 -1513 1514 0
-1355 1513 1514 0
-1514 -1512 -1515 0
1514 1512 -1515 0
1514 -1512 1515 0
-1514 1512 1515 0
-1514 -1512 1516 0
1514 -1516 0
1512 -1516 0
-1355 -1513 1517 0
1355 -1517 0
1513 -1517 0
1516 1517 -1518 0
-1516 1518 0
-1517 1518 0
-178 -1383 1519 0
178 -1519 0
1383 -1519 0
-1361 -1519 -1520 0
1361 1519 -1520 0
1361 -1519 1520 0
-1361 1519 1520 0
-1520 -1518 -1521 0
1520 1518 -1521 0
1520 -1518 1521 0
-1520 1518 1521 0
-1520 -1518 1522 0
1520 -1522 0
1518 -1522 0
-1361 -1519 1523 0
1361 -1523 0
1519 -1523 0
1522 1523 -1524 0
-1522 1524 0
-1523 1524 0
-186 -1383 1525 0
186 -1525 0
1383 -1525 0
-1367 -1525 -1526 0
1367 1525 -1526 0
1367 -1525 1526 0
-1367 1525 1526 0
-1526 -1524 -1527 0
1526 1524 -1527 0
1526 -1524 1527 0
-1526 1524 1527 0
-1526 -1524 1528 0
1526 -1528 0
1524 -1528 0
-1367 -1525 1529 0
1367 -1529 0
1525 -1529 0
1528 1529 -1530 0
-1528 1530 0
-1529 1530 0
-194 -1383 1531 0
194 -1531 0
1383 -1531 0
-1373 -1531 -1532 0
1373 1531 -1532 0
1373 -1531 1532 0
-1373 1531 1532 0
-1532 -1530 -1533 0
1532 1530 -1533 0
1532 -1530 1533 0
-1532 1530 1533 0
-1532 -1530 1534 0
1532 -1534 0
1530 -1534 0
-1373 -1531 1535 0
1373 -1535 0
1531 -1535 0
1534 1535 -1536 0
-1534 1536 0
-1535 1536 0
-202 -1383 1537 0
202 -1537 0
1383 -1537 0
-1379 -1537 -1538 0
1379 1537 -1538 0
1379 -1537 1538 0
-1379 1537 1538 0
-1538 -1536 -1539 0
1538 1536 -1539 0
1538 -1536 1539 0
-1538 1536 1539 0
-1538 -1536 1540 0
1538 -1540 0
1536 -1540 0
-1379 -1537 1541 0
1379 -1541 0
1537 -1541 0
1540 1541 -1542 0
-1540 1542 0
-1541 1542 0
-210 -1383 1543 0
210 -1543 0
1383 -1543 0
-1382 -1543 -1544 0
1382 1543 -1544 0
1382 -1543 1544 0
-1382 1543 1544 0
-1544 -1542 -1545 0
1544 1542 -1545 0
1544 -1542 1545 0
-1544 1542 1545 0
-1544 -1542 1546 0
1544 -1546 0
1542 -1546 0
-1382 -1543 1547 0
1382 -1547 0
1543 -1547 0
1546 1547 -1548 0
-1546 1548 0
-1547 1548 0
-1 -1549 1550 0
1 -1550 0
1549 -1550 0
-1389 -1550 -1551 0
1389 1550 -1551 0
1389 -1550 1551 0
-1389 1550 1551 0
-1389 -1550 1552 0
1389 -1552 0
1550 -1552 0
-4 -1549 1553 0
4 -1553 0
1549 -1553 0
-1395 -1553 -1554 0
1395 1553 -1554 0
1395 -1553 1554 0
-1395 1553 1554 0
-1554 -1552 -1555 0
1554 1552 -1555 0
1554 -1552 1555 0
-1554 1552 1555 0
-1554 -1552 1556 0
1554 -1556 0
1552 -1556 0
-1395 -1553 1557 0
1395 -1557 0
1553 -1557 0
1556 1557 -1558 0
-1556 1558 0
-1557 1558 0
-10 -1549 1559 0
10 -1559 0
1549 -1559 0
-1401 -1559 -1560 0
1401 1559 -1560 0
1401 -1559 1560 0
-1401 1559 1560 0
-1560 -1558 -1561 0
1560 1558 -1561 0
1560 -1558 1561 0
-1560 1558 1561 0
-1560 -1558 1562 0
1560 -1562 0
1558 -1562 0
-1401 -1559 1563 0
1401 -1563 0
1559 -1563 0
1562 1563 -1564 0
-1562 1564 0
-1563 1564 0
-18 -1549 1565 0
18 -1565 0
1549 -1565 0
-1407 -1565 -1566 0
1407 1565 -1566 0
1407 -1565 1566 0
-1407 1565 1566 0
-1566 -1564 -1567 0
1566 1564 -1567 0
1566 -1564 1567 0
-1566 1564 1567 0
-1566 -1564 1568 0
1566 -1568 0
1564 -1568 0
-1407 -1565 1569 0
1407 -1569 0
1565 -1569 0
1568 1569 -1570 0
-1568 1570 0
-1569 1570 0
-26 -1549 1571 0
26 -1571 0
1549 -1571 0
-1413 -1571 -1572 0
1413 1571 -1572 0
1413 -1571 1572 0
-1413 1571 1572 0
-1572 -1570 -1573 0
1572 1570 -1573 0
1572 -1570 1573 0
-1572 1570 1573 0
-1572 -1570 1574 0
1572 -1574 0
1570 -1574 0
-1413 -1571 1575 0
1413 -1575 0
1571 -1575 0
1574 1575 -1576 0
-1574 1576 0
-1575 1576 0
-34 -1549 1577 0
34 -1577 0
1549 -1577 0
-1419 -1577 -1578 0
1419 1577 -1578 0
1419 -1577 1578 0
-1419 1577 1578 0
-1578 -1576 -1579 0
1578 1576 -1579 0
1578 -1576 1579 0
-1578 1576 1579 0
-1578 -1576 1580 0
1578 -1580 0
1576 -1580 0
-1419 -1577 1581 0
1419 -1581 0
1577 -1581 0
1580 1581 -1582 0
-1580 1582 0
-1581 1582 0
-42 -1549 1583 0
42 -1583 0
1549 -1583 0
-1425 -1583 -1584 0
1425 1583 -1584 0
1425 -1583 1584 0
-1425 1583 1584 0
-1584 -1582 -1585 0
1584 1582 -1585 0
1584 -1582 1585 0
-1584 1582 1585 0
-1584 -1582 1586 0
1584 -1586 0
1582 -1586 0
-1425 -1583 1587 0
1425 -1587 0
1583 -1587 0
1586 1587 -1588 0
-1586 1588 0
-1587 1588 0
-50 -1549 1589 0
50 -1589 0
1549 -1589 0
-1431 -1589 -1590 0
1431 1589 -1590 0
1431 -1589 1590 0
-1431 1589 1590 0
-1590 -1588 -1591 0
1590 1588 -1591 0
1590 -1588 1591 0
-1590 1588 1591 0
-1590 -1588 1592 0
1590 -1592 0
1588 -1592 0
-1431 -1589 1593 0
1431 -1593 0
1589 -1593 0
1592 1593 -1594 0
-1592 1594 0
-1593 1594 0
-58 -1549 1595 0
58 -1595 0
1549 -1595 0
-1437 -1595 -1596 0
1437 1595 -1596 0
1437 -1595 1596 0
-1437 1595 1596 0
-1596 -1594 -1597 0
1596 1594 -1597 0
1596 -1594 1597 0
-1596 1594 1597 0
-1596 -1594 1598 0
1596 -1598 0
1594 -1598 0
-1437 -1595 1599 0
1437 -1599 0
1595 -1599 0
1598 1599 -1600 0
-1598 1600 0
-1599 1600 0
-66 -1549 1601 0
66 -1601 0
1549 -1601 0
-1443 -1601 -1602 0
1443 1601 -1602 0
1443 -1601 1602 0
-1443 1601 1602 0
-1602 -1600 -1603 0
1602 1600 -1603 0
1602 -1600 1603 0
-1602 1600 1603 0
-1602 -1600 1604 0
1602 -1604 0
1600 -1604 0
-1443 -1601 1605 0
1443 -1605 0
1601 -1605 0
1604 1605 -1606 0
-1604 1606 0
-1605 1606 0
-74 -1549 1607 0
74 -1607 0
1549 -1607 0
-1449 -1607 -1608 0
1449 1607 -1608 0
1449 -1607 1608 0
-1449 1607 1608 0
-1608 -1606 -1609 0
1608 1606 -1609 0
1608 -1606 1609 0
-1608 1606 1609 0
-1608 -1606 1610 0
1608 -1610 0
1606 -1610 0
-1449 -1607 1611 0
1449 -1611 0
1607 -1611 0
1610 1611 -1612 0
-1610 1612 0
-1611 1612 0
-82 -1549 1613 0
82 -1613 0
1549 -1613 0
-1455 -1613 -1614 0
1455 1613 -1614 0
1455 -1613 1614 0
-1455 1613 1614 0
-1614 -1612 -1615 0
1614 1612 -1615 0
1614 -1612 1615 0
-1614 1612 1615 0
-1614 -1612 1616 0
1614 -1616 0
1612 -1616 0
-1455 -1613 1617 0
1455 -1617 0
1613 -1617 0
1616 1617 -1618 0
-1616 1618 0
-1617 1618 0
-90 -1549 1619 0
90 -1619 0
1549 -1619 0
-1461 -1619 -1620 0
1461 1619 -1620 0
1461 -1619 1620 0
-1461 1619 1620 0
-1620 -1618 -1621 0
1620 1618 -1621 0
1620 -1618 1621 0
-1620 1618 1621 0
-1620 -1618 1622 0
1620 -1622 0
1618 -1622 0
-1461 -1619 1623 0
1461 -1623 0
1619 -1623 0
1622 1623 -1624 0
-1622 1624 0
-1623 1624 0
-98 -1549 1625 0
98 -1625 0
1549 -1625 0
-1467 -1625 -1626 0
1467 1625 -1626 0
1467 -1625 1626 0
-1467 1625 1626 0
-1626 -1624 -1627 0
1626 1624 -1627 0
1626 -1624 1627 0
-1626 1624 1627 0
-1626 -1624 1628 0
1626 -1628 0
1624 -1628 0
-1467 -1625 1629 0
1467 -1629 0
1625 -1629 0
1628 1629 -1630 0
-1628 1630 0
-1629 1630 0
-106 -1549 1631 0
106 -1631 0
1549 -1631 0
-1473 -1631 -1632 0
1473 1631 -1632 0
1473 -1631 1632 0
-1473 1631 1632 0
-1632 -1630 -1633 0
1632 1630 -1633 0
1632 -1630 1633 0
-1632 1630 1633 0
-1632 -1630 1634 0
1632 -1634 0
1630 -1634 0
-1473 -1631 1635 0
1473 -1635 0
1631 -1635 0
1634 1635 -1636 0
-1634 1636 0
-1635 1636 0
-114 -1549 1637 0
114 -1637 0
1549 -1637 0
-1479 -1637 -1638 0
1479 1637 -1638 0
1479 -1637 1638 0
-1479 1637 1638 0
-1638 -1636 -1639 0
1638 1636 -1639 0
1638 -1636 1639 0
-1638 1636 1639 0
-1638 -1636 1640 0
1638 -1640 0
1636 -1640 0
-1479 -1637 1641 0
1479 -1641 0
1637 -1641 0
1640 1641 -1642 0
-1640 1642 0
-1641 1642 0
-122 -1549 1643 0
122 -1643 0
1549 -1643 0
-1485 -1643 -1644 0
1485 1643 -1644 0
1485 -1643 1644 0
-1485 1643 1644 0
-1644 -1642 -1645 0
1644 1642 -1645 0
1644 -1642 1645 0
-1644 1642 1645 0
-1644 -1642 1646 0
1644 -1646 0
1642 -1646 0
-1485 -1643 1647 0
1485 -1647 0
1643 -1647 0
1646 1647 -1648 0
-1646 1648 0
-1647 1648 0
-130 -1549 1649 0
130 -1649 0
1549 -1649 0
-1491 -1649 -1650 0
1491 1649 -1650 0
1491 -1649 1650 0
-1491 1649 1650 0
-1650 -1648 -1651 0
1650 1648 -1651 0
1650 -1648 1651 0
-1650 1648 1651 0
-1650 -1648 1652 0
1650 -1652 0
1648 -1652 0
-1491 -1649 1653 0
1491 -1653 0
1649 -1653 0
1652 1653 -1654 0
-1652 1654 0
-1653 1654 0
-138 -1549 1655 0
138 -1655 0
1549 -1655 0
-1497 -1655 -1656 0
1497 1655 -1656 0
1497 -1655 1656 0
-1497 1655 1656 0
-1656 -1654 -1657 0
1656 1654 -1657 0
1656 -1654 1657 0
-1656 1654 1657 0
-1656 -1654 1658 0
1656 -1658 0
1654 -1658 0
-1497 -1655 1659 0
1497 -1659 0
1655 -1659 0
1658 1659 -1660 0
-1658 1660 0
-1659 1660 0
-146 -1549 1661 0
146 -1661 0
1549 -1661 0
-1503 -1661 -1662 0
1503 1661 -1662 0
1503 -1661 1662 0
-1503 1661 1662 0
-1662 -1660 -1663 0
1662 1660 -1663 0
1662 -1660 1663 0
-1662 1660 1663 0
-1662 -1660 1664 0
1662 -1664 0
1660 -1664 0
-1503 -1661 1665 0
1503 -1665 0
1661 -1665 0
1664 1665 -1666 0
-1664 1666 0
-1665 1666 0
-154 -1549 1667 0
154 -1667 0
1549 -1667 0
-1509 -1667 -1668 0
1509 1667 -1668 0
1509 -1667 1668 0
-1509 1667 1668 0
-1668 -1666 -1669 0
1668 1666 -1669 0
1668 -1666 1669 0
-1668 1666 1669 0
-1668 -1666 1670 0
1668 -1670 0
1666 -1670 0
-1509 -1667 1671 0
1509 -1671 0
1667 -1671 0
1670 1671 -1672 0
-1670 1672 0
-1671 1672 0
-162 -1549 1673 0
162 -1673 0
1549 -1673 0
-1515 -1673 -1674 0
1515 1673 -1674 0
1515 -1673 1674 0
-1515 1673 1674 0
-1674 -1672 -1675 0
1674 1672 -1675 0
1674 -1672 1675 0
-1674 1672 1675 0
-1674 -1672 1676 0
1674 -1676 0
1672 -1676 0
-1515 -1673 1677 0
1515 -1677 0
1673 -1677 0
1676 1677 -1678 0
-1676 1678 0
-1677 1678 0
-170 -1549 1679 0
170 -1679 0
1549 -1679 0
-1521 -1679 -1680 0
1521 1679 -1680 0
1521 -1679 1680 0
-1521 1679 1680 0
-1680 -1678 -1681 0
1680 1678 -1681 0
1680 -1678 1681 0
-1680 1678 1681 0
-1680 -1678 1682 0
1680 -1682 0
1678 -1682 0
-1521 -1679 1683 0
1521 -1683 0
1679 -1683 0
1682 1683 -1684 0
-1682 1684 0
-1683 1684 0
-178 -1549 1685 0
178 -1685 0
1549 -1685 0
-1527 -1685 -1686 0
1527 1685 -1686 0
1527 -1685 1686 0
-1527 1685 1686 0
-1686 -1684 -1687 0
1686 1684 -1687 0
1686 -1684 1687 0
-1686 1684 1687 0
-1686 -1684 1688 0
1686 -1688 0
1684 -1688 0
-1527 -1685 1689 0
1527 -1689 0
1685 -1689 0
1688 1689 -1690 0
-1688 1690 0
-1689 1690 0
-186 -1549 1691 0
186 -1691 0
1549 -1691 0
-1533 -1691 -1692 0
1533 1691 -1692 0
1533 -1691 1692 0
-1533 1691 1692 0
-1692 -1690 -1693 0
1692 1690 -1693 0
1692 -1690 1693 0
-1692 1690 1693 0
-1692 -1690 1694 0
1692 -1694 0
1690 -1694 0
-1533 -1691 1695 0
1533 -1695 0
1691 -1695 0
1694 1695 -1696 0
-1694 1696 0
-1695 1696 0
-194 -1549 1697 0
194 -1697 0
1549 -1697 0
-1539 -1697 -1698 0
1539 1697 -1698 0
1539 -1697 1698 0
-1539 1697 1698 0
-1698 -1696 -1699 0
1698 1696 -1699 0
1698 -1696 1699 0
-1698 1696 1699 0
-1698 -1696 1700 0
1698 -1700 0
1696 -1700 0
-1539 -1697 1701 0
1539 -1701 0
1697 -1701 0
1700 1701 -1702 0
-1700 1702 0
-1701 1702 0
-202 -1549 1703 0
202 -1703 0
1549 -1703 0
-1545 -1703 -1704 0
1545 1703 -1704 0
1545 -1703 1704 0
-1545 1703 1704 0
-1704 -1702 -1705 0
1704 1702 -1705 0
1704 -1702 1705 0
-1704 1702 1705 0
-1704 -1702 1706 0
1704 -1706 0
1702 -1706 0
-1545 -1703 1707 0
1545 -1707 0
1703 -1707 0
1706 1707 -1708 0
-1706 1708 0
-1707 1708 0
-210 -1549 1709 0
210 -1709 0
1549 -1709 0
-1548 -1709 -1710 0
1548 1709 -1710 0
1548 -1709 1710 0
-1548 1709 1710 0
-1710 -1708 -1711 0
1710 1708 -1711 0
1710 -1708 1711 0
-1710 1708 1711 0
-1710 -1708 1712 0
1710 -1712 0
1708 -1712 0
-1548 -1709 1713 0
1548 -1713 0
1709 -1713 0
1712 1713 -1714 0
-1712 1714 0
-1713 1714 0
-1 -1715 1716 0
1 -1716 0
1715 -1716 0
-1555 -1716 -1717 0
1555 1716 -1717 0
1555 -1716 1717 0
-1555 1716 1717 0
-1555 -1716 1718 0
1555 -1718 0
1716 -1718 0
-4 -1715 1719 0
4 -1719 0
1715 -1719 0
-1561 -1719 -1720 0
1561 1719 -1720 0
1561 -1719 1720 0
-1561 1719 1720 0
-1720 -1718 -1721 0
1720 1718 -1721 0
1720 -1718 1721 0
-1720 1718 1721 0
-1720 -1718 1722 0
1720 -1722 0
1718 -1722 0
-1561 -1719 1723 0
1561 -1723 0
1719 -1723 0
1722 1723 -1724 0
-1722 1724 0
-1723 1724 0
-10 -1715 1725 0
10 -1725 0
1715 -1725 0
-1567 -1725 -1726 0
1567 1725 -1726 0
1567 -1725 1726 0
-1567 1725 1726 0
-1726 -1724 -1727 0
1726 1724 -1727 0
1726 -1724 1727 0
-1726 1724 1727 0
-1726 -1724 1728 0
1726 -1728 0
1724 -1728 0
-1567 -1725 1729 0
1567 -1729 0
1725 -1729 0
1728 1729 -1730 0
-1728 1730 0
-1729 1730 0
-18 -1715 1731 0
18 -1731 0
1715 -1731 0
-1573 -1731 -1732 0
1573 1731 -1732 0
1573 -1731 1732 0
-1573 1731 1732 0
-1732 -1730 -1733 0
1732 1730 -1733 0
1732 -1730 1733 0
-1732 1730 1733 0
-1732 -1730 1734 0
1732 -1734 0
1730 -1734 0
-1573 -1731 1735 0
1573 -1735 0
1731 -1735 0
1734 1735 -1736 0
-1734 1736 0
-1735 1736 0
-26 -1715 1737 0
26 -1737 0
1715 -1737 0
-1579 -1737 -1738 0
1579 1737 -1738 0
1579 -1737 1738 0
-1579 1737 1738 0
-1738 -1736 -1739 0
1738 1736 -1739 0
1738 -1736 1739 0
-1738 1736 1739 0
-1738 -1736 1740 0
1738 -1740 0
1736 -1740 0
-1579 -1737 1741 0
1579 -1741 0
1737 -1741 0
1740 1741 -1742 0
-1740 1742 0
-1741 1742 0
-34 -1715 1743 0
34 -1743 0
1715 -1743 0
-1585 -1743 -1744 0
1585 1743 -1744 0
1585 -1743 1744 0
-1585 1743 1744 0
-1744 -1742 -1745 0
1744 1742 -1745 0
1744 -1742 1745 0
-1744 1742 1745 0
-1744 -1742 1746 0
1744 -1746 0
1742 -1746 0
-1585 -1743 1747 0
1585 -1747 0
1743 -1747 0
1746 1747 -1748 0
-1746 1748 0
-1747 1748 0
-42 -1715 1749 0
42 -1749 0
1715 -1749 0
-1591 -1749 -1750 0
1591 1749 -1750 0
1591 -1749 1750 0
-1591 1749 1750 0
-1750 -1748 -1751 0
1750 1748 -1751 0
1750 -1748 1751 0
-1750 1748 1751 0
-1750 -1748 1752 0
1750 -1752 0
1748 -1752 0
-1591 -1749 1753 0
1591 -1753 0
1749 -1753 0
1752 1753 -1754 0
-1752 1754 0
-1753 1754 0
-50 -1715 1755 0
50 -1755 0
1715 -1755 0
-1597 -1755 -1756 0
1597 1755 -1756 0
1597 -1755 1756 0
-1597 1755 1756 0
-1756 -1754 -1757 0
1756 1754 -1757 0
1756 -1754 1757 0
-1756 1754 1757 0
-1756 -1754 1758 0
1756 -1758 0
1754 -1758 0
-1597 -1755 1759 0
1597 -1759 0
1755 -1759 0
1758 1759 -1760 0
-1758 1760 0
-1759 1760 0
-58 -1715 1761 0
58 -1761 0
1715 -1761 0
-1603 -1761 -1762 0
1603 1761 -1762 0
1603 -1761 1762 0
-1603 1761 1762 0
-1762 -1760 -1763 0
1762 1760 -1763 0
1762 -1760 1763 0
-1762 1760 1763 0
-1762 -1760 1764 0
1762 -1764 0
1760 -1764 0
-1603 -1761 1765 0
1603 -1765 0
1761 -1765 0
1764 1765 -1766 0
-1764 1766 0
-1765 1766 0
-66 -1715 1767 0
66 -1767 0
1715 -1767 0
-1609 -1767 -1768 0
1609 1767 -1768 0
1609 -1767 1768 0
-1609 1767 1768 0
-1768 -1766 -1769 0
1768 1766 -1769 0
1768 -1766 1769 0
-1768 1766 1769 0
-1768 -1766 1770 0
1768 -1770 0
1766 -1770 0
-1609 -1767 1771 0
1609 -1771 0
1767 -1771 0
1770 1771 -1772 0
-1770 1772 0
-1771 1772 0
-74 -1715 1773 0
74 -1773 0
1715 -1773 0
-1615 -1773 -1774 0
1615 1773 -1774 0
1615 -1773 1774 0
-1615 1773 1774 0
-1774 -1772 -1775 0
1774 1772 -1775 0
1774 -1772 1775 0
-1774 1772 1775 0
-1774 -1772 1776 0
1774 -1776 0
1772 -1776 0
-1615 -1773 1777 0
1615 -1777 0
1773 -1777 0
1776 1777 -1778 0
-1776 1778 0
-1777 1778 0
-82 -1715 1779 0
82 -1779 0
1715 -1779 0
-1621 -1779 -1780 0
1621 1779 -1780 0
1621 -1779 1780 0
-1621 1779 1780 0
-1780 -1778 -1781 0
1780 1778 -1781 0
1780 -1778 1781 0
-1780 1778 1781 0
-1780 -1778 1782 0
1780 -1782 0
1778 -1782 0
-1621 -1779 1783 0
1621 -1783 0
1779 -1783 0
1782 1783 -1784 0
-1782 1784 0
-1783 1784 0
-90 -1715 1785 0
90 -1785 0
1715 -1785 0
-1627 -1785 -1786 0
1627 1785 -1786 0
1627 -1785 1786 0
-1627 1785 1786 0
-1786 -1784 -1787 0
1786 1784 -1787 0
1786 -1784 1787 0
-1786 1784 1787 0
-1786 -1784 1788 0
1786 -1788 0
1784 -1788 0
-1627 -1785 1789 0
1627 -1789 0
1785 -1789 0
1788 1789 -1790 0
-1788 1790 0
-1789 1790 0
-98 -1715 1791 0
98 -1791 0
1715 -1791 0
-1633 -1791 -1792 0
1633 1791 -1792 0
1633 -1791 1792 0
-1633 1791 1792 0
-1792 -1790 -1793 0
1792 1790 -1793 0
1792 -1790 1793 0
-1792 1790 1793 0
-1792 -1790 1794 0
1792 -1794 0
1790 -1794 0
-1633 -1791 1795 0
1633 -1795 0
1791 -1795 0
1794 1795 -1796 0
-1794 1796 0
-1795 1796 0
-106 -1715 1797 0
106 -1797 0
1715 -1797 0
-1639 -1797 -1798 0
1639 1797 -1798 0
1639 -1797 1798 0
-1639 1797 1798 0
-1798 -1796 -1799 0
1798 1796 -1799 0
1798 -1796 1799 0
-1798 1796 1799 0
-1798 -1796 1800 0
1798 -1800 0
1796 -1800 0
-1639 -1797 1801 0
1639 -1801 0
1797 -1801 0
1800 1801 -1802 0
-1800 1802 0
-1801 1802 0
-114 -1715 1803 0
114 -1803 0
1715 -1803 0
-1645 -1803 -1804 0
1645 1803 -1804 0
1645 -1803 1804 0
-1645 1803 1804 0
-1804 -1802 -1805 0
1804 1802 -1805 0
1804 -1802 1805 0
-1804 1802 1805 0
-1804 -1802 1806 0
1804 -1806 0
1802 -1806 0
-1645 -1803 1807 0
1645 -1807 0
1803 -1807 0
1806 1807 -1808 0
-1806 1808 0
-1807 1808 0
-122 -1715 1809 0
122 -1809 0
1715 -1809 0
-1651 -1809 -1810 0
1651 1809 -1810 0
1651 -1809 1810 0
-1651 1809 1810 0
-1810 -1808 -1811 0
1810 1808 -1811 0
1810 -1808 1811 0
-1810 1808 1811 0
-1810 -1808 1812 0
1810 -1812 0
1808 -1812 0
-1651 -1809 1813 0
1651 -1813 0
1809 -1813 0
1812 1813 -1814 0
-1812 1814 0
-1813 1814 0
-130 -1715 1815 0
130 -1815 0
1715 -1815 0
-1657 -1815 -1816 0
1657 1815 -1816 0
1657 -1815 1816 0
-1657 1815 1816 0
-1816 -1814 -1817 0
1816 1814 -1817 0
1816 -1814 1817 0
-1816 1814 1817 0
-1816 -1814 1818 0
1816 -1818 0
1814 -1818 0
-1657 -1815 1819 0
1657 -1819 0
1815 -1819 0
1818 1819 -1820 0
-1818 1820 0
-1819 1820 0
-138 -1715 1821 0
138 -1821 0
1715 -1821 0
-1663 -1821 -1822 0
1663 1821 -1822 0
1663 -1821 1822 0
-1663 1821 1822 0
-1822 -1820 -1823 0
1822 1820 -1823 0
1822 -1820 1823 0
-1822 1820 1823 0
-1822 -1820 1824 0
1822 -1824 0
1820 -1824 0
-1663 -1821 1825 0
1663 -1825 0
1821 -1825 0
1824 1825 -1826 0
-1824 1826 0
-1825 1826 0
-146 -1715 1827 0
146 -1827 0
1715 -1827 0
-1669 -1827 -1828 0
1669 1827 -1828 0
1669 -1827 1828 0
-1669 1827 1828 0
-1828 -1826 -1829 0
1828 1826 -1829 0
1828 -1826 1829 0
-1828 1826 1829 0
-1828 -1826 1830 0
1828 -1830 0
1826 -1830 0
-1669 -1827 1831 0
1669 -1831 0
1827 -1831 0
1830 1831 -1832 0
-1830 1832 0
-1831 1832 0
-154 -1715 1833 0
154 -1833 0
1715 -1833 0
-1675 -1833 -1834 0
1675 1833 -1834 0
1675 -1833 1834 0
-1675 1833 1834 0
-1834 -1832 -1835 0
1834 1832 -1835 0
1834 -1832 1835 0
-1834 1832 1835 0
-1834 -1832 1836 0
1834 -1836 0
1832 -1836 0
-1675 -1833 1837 0
1675 -1837 0
1833 -1837 0
1836 1837 -1838 0
-1836 1838 0
-1837 1838 0
-162 -1715 1839 0
162 -1839 0
1715 -1839 0
-1681 -1839 -1840 0
1681 1839 -1840 0
1681 -1839 1840 0
-1681 1839 1840 0
-1840 -1838 -1841 0
1840 1838 -1841 0
1840 -1838 1841 0
-1840 1838 1841 0
-1840 -1838 1842 0
1840 -1842 0
1838 -1842 0
-1681 -1839 1843 0
1681 -1843 0
1839 -1843 0
1842 1843 -1844 0
-1842 1844 0
-1843 1844 0
-170 -1715 1845 0
170 -1845 0
1715 -1845 0
-1687 -1845 -1846 0
1687 1845 -1846 0
1687 -1845 1846 0
-1687 1845 1846 0
-1846 -1844 -1847 0
1846 1844 -1847 0
1846 -1844 1847 0
-1846 1844 1847 0
-1846 -1844 1848 0
1846 -1848 0
1844 -1848 0
-1687 -1845 1849 0
1687 -1849 0
1845 -1849 0
1848 1849 -1850 0
-1848 1850 0
-1849 1850 0
-178 -1715 1851 0
178 -1851 0
1715 -1851 0
-1693 -1851 -1852 0
1693 1851 -1852 0
1693 -1851 1852 0
-1693 1851 1852 0
-1852 -1850 -1853 0
1852 1850 -1853 0
1852 -1850 1853 0
-1852 1850 1853 0
-1852 -1850 1854 0
1852 -1854 0
1850 -1854 0
-1693 -1851 1855 0
1693 -1855 0
1851 -1855 0
1854 1855 -1856 0
-1854 1856 0
-1855 1856 0
-186 -1715 1857 0
186 -1857 0
1715 -1857 0
-1699 -1857 -1858 0
1699 1857 -1858 0
1699 -1857 1858 0
-1699 1857 1858 0
-1858 -1856 -1859 0
1858 1856 -1859 0
1858 -1856 1859 0
-1858 1856 1859 0
-1858 -1856 1860 0
1858 -1860 0
1856 -1860 0
-1699 -1857 1861 0
1699 -1861 0
1857 -1861 0
1860 1861 -1862 0
-1860 1862 0
-1861 1862 0
-194 -1715 1863 0
194 -1863 0
1715 -1863 0
-1705 -1863 -1864 0
1705 1863 -1864 0
1705 -1863 1864 0
-1705 1863 1864 0
-1864 -1862 -1865 0
1864 1862 -1865 0
1864 -1862 1865 0
-1864 1862 1865 0
-1864 -1862 1866 0
1864 -1866 0
1862 -1866 0
-1705 -1863 1867 0
1705 -1867 0
1863 -1867 0
1866 1867 -1868 0
-1866 1868 0
-1867 1868 0
-202 -1715 1869 0
202 -1869 0
1715 -1869 0
-1711 -1869 -1870 0
1711 1869 -1870 0
1711 -1869 1870 0
-1711 1869 1870 0
-1870 -1868 -1871 0
1870 1868 -1871 0
1870 -1868 1871 0
-1870 1868 1871 0
-1870 -1868 1872 0
1870 -1872 0
1868 -1872 0
-1711 -1869 1873 0
1711 -1873 0
1869 -1873 0
1872 1873 -1874 0
-1872 1874 0
-1873 1874 0
-210 -1715 1875 0
210 -1875 0
1715 -1875 0
-1714 -1875 -1876 0
1714 1875 -1876 0
1714 -1875 1876 0
-1714 1875 1876 0
-1876 -1874 -1877 0
1876 1874 -1877 0
1876 -1874 1877 0
-1876 1874 1877 0
-1876 -1874 1878 0
1876 -1878 0
1874 -1878 0
-1714 -1875 1879 0
1714 -1879 0
1875 -1879 0
1878 1879 -1880 0
-1878 1880 0
-1879 1880 0
-1 -1881 1882 0
1 -1882 0
1881 -1882 0
-1721 -1882 -1883 0
1721 1882 -1883 0
1721 -1882 1883 0
-1721 1882 1883 0
-1721 -1882 1884 0
1721 -1884 0
1882 -1884 0
-4 -1881 1885 0
4 -1885 0
1881 -1885 0
-1727 -1885 -1886 0
1727 1885 -1886 0
1727 -1885 1886 0
-1727 1885 1886 0
-1886 -1884 -1887 0
1886 1884 -1887 0
1886 -1884 1887 0
-1886 1884 1887 0
-1886 -1884 1888 0
1886 -1888 0
1884 -1888 0
-1727 -1885 1889 0
1727 -1889 0
1885 -1889 0
1888 1889 -1890 0
-1888 1890 0
-1889 1890 0
-10 -1881 1891 0
10 -1891 0
1881 -1891 0
-1733 -1891 -1892 0
1733 1891 -1892 0
1733 -1891 1892 0
-1733 1891 1892 0
-1892 -1890 -1893 0
1892 1890 -1893 0
1892 -1890 1893 0
-1892 1890 1893 0
-1892 -1890 1894 0
1892 -1894 0
1890 -1894 0
-1733 -1891 1895 0
1733 -1895 0
1891 -1895 0
1894 1895 -1896 0
-1894 1896 0
-1895 1896 0
-18 -1881 1897 0
18 -1897 0
1881 -1897 0
-1739 -1897 -1898 0
1739 1897 -1898 0
1739 -1897 1898 0
-1739 1897 1898 0
-1898 -1896 -1899 0
1898 1896 -1899 0
1898 -1896 1899 0
-1898 1896 1899 0
-1898 -1896 1900 0
1898 -1900 0
1896 -1900 0
-1739 -1897 1901 0
1739 -1901 0
1897 -1901 0
1900 1901 -1902 0
-1900 1902 0
-1901 1902 0
-26 -1881 1903 0
26 -1903 0
1881 -1903 0
-1745 -1903 -1904 0
1745 1903 -1904 0
1745 -1903 1904 0
-1745 1903 1904 0
-1904 -1902 -1905 0
1904 1902 -1905 0
1904 -1902 1905 0
-1904 1902 1905 0
-1904 -1902 1906 0
1904 -1906 0
1902 -1906 0
-1745 -1903 1907 0
1745 -1907 0
1903 -1907 0
1906 1907 -1908 0
-1906 1908 0
-1907 1908 0
-34 -1881 1909 0
34 -1909 0
1881 -1909 0
-1751 -1909 -1910 0
1751 1909 -1910 0
1751 -1909 1910 0
-1751 1909 1910 0
-1910 -1908 -1911 0
1910 1908 -1911 0
1910 -1908 1911 0
-1910 1908 1911 0
-1910 -1908 1912 0
1910 -1912 0
1908 -1912 0
-1751 -1909 1913 0
1751 -1913 0
1909 -1913 0
1912 1913 -1914 0
-1912 1914 0
-1913 1914 0
-42 -1881 1915 0
42 -1915 0
1881 -1915 0
-1757 -1915 -1916 0
1757 1915 -1916 0
1757 -1915 1916 0
-1757 1915 1916 0
-1916 -1914 -1917 0
1916 1914 -1917 0
1916 -1914 1917 0
-1916 1914 1917 0
-1916 -1914 1918 0
1916 -1918 0
1914 -1918 0
-1757 -1915 1919 0
1757 -1919 0
1915 -1919 0
1918 1919 -1920 0
-1918 1920 0
-1919 1920 0
-50 -1881 1921 0
50 -1921 0
1881 -1921 0
-1763 -1921 -1922 0
1763 1921 -1922 0
1763 -1921 1922 0
-1763 1921 1922 0
-1922 -1920 -1923 0
1922 1920 -1923 0
1922 -1920 1923 0
-1922 1920 1923 0
-1922 -1920 1924 0
1922 -1924 0
1920 -1924 0
-1763 -1921 1925 0
1763 -1925 0
1921 -1925 0
1924 1925 -1926 0
-1924 1926 0
-1925 1926 0
-58 -1881 1927 0
58 -1927 0
1881 -1927 0
-1769 -1927 -1928 0
1769 1927 -1928 0
1769 -1927 1928 0
-1769 1927 1928 0
-1928 -1926 -1929 0
1928 1926 -1929 0
1928 -1926 1929 0
-1928 1926 1929 0
-1928 -1926 1930 0
1928 -1930 0
1926 -1930 0
-1769 -1927 1931 0
1769 -1931 0
1927 -1931 0
1930 1931 -1932 0
-1930 1932 0
-1931 1932 0
-66 -1881 1933 0
66 -1933 0
1881 -1933 0
-1775 -1933 -1934 0
1775 1933 -1934 0
1775 -1933 1934 0
-1775 1933 1934 0
-1934 -1932 -1935 0
1934 1932 -1935 0
1934 -1932 1935 0
-1934 1932 1935 0
-1934 -1932 1936 0
1934 -1936 0
1932 -1936 0
-1775 -1933 1937 0
1775 -1937 0
1933 -1937 0
1936 1937 -1938 0
-1936 1938 0
-1937 1938 0
-74 -1881 1939 0
74 -1939 0
1881 -1939 0
-1781 -1939 -1940 0
1781 1939 -1940 0
1781 -1939 1940 0
-1781 1939 1940 0
-1940 -1938 -1941 0
1940 1938 -1941 0
1940 -1938 1941 0
-1940 1938 1941 0
-1940 -1938 1942 0
1940 -1942 0
1938 -1942 0
-1781 -1939 1943 0
1781 -1943 0
1939 -1943 0
1942 1943 -1944 0
-1942 1944 0
-1943 1944 0
-82 -1881 1945 0
82 -1945 0
1881 -1945 0
-1787 -1945 -1946 0
1787 1945 -1946 0
1787 -1945 1946 0
-1787 1945 1946 0
-1946 -1944 -1947 0
1946 1944 -1947 0
1946 -1944 1947 0
-1946 1944 1947 0
-1946 -1944 1948 0
1946 -1948 0
1944 -1948 0
-1787 -1945 1949 0
1787 -1949 0
1945 -1949 0
1948 1949 -1950 0
-1948 1950 0
-1949 1950 0
-90 -1881 1951 0
90 -1951 0
1881 -1951 0
-1793 -1951 -1952 0
1793 1951 -1952 0
1793 -1951 1952 0
-1793 1951 1952 0
-1952 -1950 -1953 0
1952 1950 -1953 0
1952 -1950 1953 0
-1952 1950 1953 0
-1952 -1950 1954 0
1952 -1954 0
1950 -1954 0
-1793 -1951 1955 0
1793 -1955 0
1951 -1955 0
1954 1955 -1956 0
-1954 1956 0
-1955 1956 0
-98 -1881 1957 0
98 -1957 0
1881 -1957 0
-1799 -1957 -1958 0
1799 1957 -1958 0
1799 -1957 1958 0
-1799 1957 1958 0
-1958 -1956 -1959 0
1958 1956 -1959 0
1958 -1956 1959 0
-1958 1956 1959 0
-1958 -1956 1960 0
1958 -1960 0
1956 -1960 0
-1799 -1957 1961 0
1799 -1961 0
1957 -1961 0
1960 1961 -1962 0
-1960 1962 0
-1961 1962 0
-106 -1881 1963 0
106 -1963 0
1881 -1963 0
-1805 -1963 -1964 0
1805 1963 -1964 0
1805 -1963 1964 0
-1805 1963 1964 0
-1964 -1962 -1965 0
1964 1962 -1965 0
1964 -1962 1965 0
-1964 1962 1965 0
-1964 -1962 1966 0
1964 -1966 0
1962 -1966 0
-1805 -1963 1967 0
1805 -1967 0
1963 -1967 0
1966 1967 -1968 0
-1966 1968 0
-1967 1968 0
-114 -1881 1969 0
114 -1969 0
1881 -1969 0
-1811 -1969 -1970 0
1811 1969 -1970 0
1811 -1969 1970 0
-1811 1969 1970 0
-1970 -1968 -1971 0
1970 1968 -1971 0
1970 -1968 1971 0
-1970 1968 1971 0
-1970 -1968 1972 0
1970 -1972 0
1968 -1972 0
-1811 -1969 1973 0
1811 -1973 0
1969 -1973 0
1972 1973 -1974 0
-1972 1974 0
-1973 1974 0
-122 -1881 1975 0
122 -1975 0
1881 -1975 0
-1817 -1975 -1976 0
1817 1975 -1976 0
1817 -1975 1976 0
-1817 1975 1976 0
-1976 -1974 -1977 0
1976 1974 -1977 0
1976 -1974 1977 0
-1976 1974 1977 0
-1976 -1974 1978 0
1976 -1978 0
1974 -1978 0
-1817 -1975 1979 0
1817 -1979 0
1975 -1979 0
1978 1979 -1980 0
-1978 1980 0
-1979 1980 0
-130 -1881 1981 0
130 -1981 0
1881 -1981 0
-1823 -1981 -1982 0
1823 1981 -1982 0
1823 -1981 1982 0
-1823 1981 1982 0
-1982 -1980 -1983 0
1982 1980 -1983 0
1982 -1980 1983 0
-1982 1980 1983 0
-1982 -1980 1984 0
1982 -1984 0
1980 -1984 0
-1823 -1981 1985 0
1823 -1985 0
1981 -1985 0
1984 1985 -1986 0
-1984 1986 0
-1985 1986 0
-138 -1881 1987 0
138 -1987 0
1881 -1987 0
-1829 -1987 -1988 0
1829 1987 -1988 0
1829 -1987 1988 0
-1829 1987 1988 0
-1988 -1986 -1989 0
1988 1986 -1989 0
1988 -1986 1989 0
-1988 1986 1989 0
-1988 -1986 1990 0
1988 -1990 0
1986 -1990 0
-1829 -1987 1991 0
1829 -1991 0
1987 -1991 0
1990 1991 -1992 0
-1990 1992 0
-1991 1992 0
-146 -1881 1993 0
146 -1993 0
1881 -1993 0
-1835 -1993 -1994 0
1835 1993 -1994 0
1835 -1993 1994 0
-1835 1993 1994 0
-1994 -1992 -1995 0
1994 1992 -1995 0
1994 -1992 1995 0
-1994 1992 1995 0
-1994 -1992 1996 0
1994 -1996 0
1992 -1996 0
-1835 -1993 1997 0
1835 -1997 0
1993 -1997 0
1996 1997 -1998 0
-1996 1998 0
-1997 1998 0
-154 -1881 1999 0
154 -1999 0
1881 -1999 0
-1841 -1999 -2000 0
1841 1999 -2000 0
1841 -1999 2000 0
-1841 1999 2000 0
-2000 -1998 -2001 0
2000 1998 -2001 0
2000 -1998 2001 0
-2000 1998 2001 0
-2000 -1998 2002 0
2000 -2002 0
1998 -2002 0
-1841 -1999 2003 0
1841 -2003 0
1999 -2003 0
2002 2003 -2004 0
-2002 2004 0
-2003 2004 0
-162 -1881 2005 0
162 -2005 0
1881 -2005 0
-1847 -2005 -2006 0
1847 2005 -2006 0
1847 -2005 2006 0
-1847 2005 2006 0
-2006 -2004 -2007 0
2006 2004 -2007 0
2006 -2004 2007 0
-2006 2004 2007 0
-2006 -2004 2008 0
2006 -2008 0
2004 -2008 0
-1847 -2005 2009 0
1847 -2009 0
2005 -2009 0
2008 2009 -2010 0
-2008 2010 0
-2009 2010 0
-170 -1881 2011 0
170 -2011 0
1881 -2011 0
-1853 -2011 -2012 0
1853 2011 -2012 0
1853 -2011 2012 0
-1853 2011 2012 0
-2012 -2010 -2013 0
2012 2010 -2013 0
2012 -2010 2013 0
-2012 2010 2013 0
-2012 -2010 2014 0
2012 -2014 0
2010 -2014 0
-1853 -2011 2015 0
1853 -2015 0
2011 -2015 0
2014 2015 -2016 0
-2014 2016 0
-2015 2016 0
-178 -1881 2017 0
178 -2017 0
1881 -2017 0
-1859 -2017 -2018 0
1859 2017 -2018 0
1859 -2017 2018 0
-1859 2017 2018 0
-2018 -2016 -2019 0
2018 2016 -2019 0
2018 -2016 2019 0
-2018 2016 2019 0
-2018 -2016 2020 0
2018 -2020 0
2016 -2020 0
-1859 -2017 2021 0
1859 -2021 0
2017 -2021 0
2020 2021 -2022 0
-2020 2022 0
-2021 2022 0
-186 -1881 2023 0
186 -2023 0
1881 -2023 0
-1865 -2023 -2024 0
1865 2023 -2024 0
1865 -2023 2024 0
-1865 2023 2024 0
-2024 -2022 -2025 0
2024 2022 -2025 0
2024 -2022 2025 0
-2024 2022 2025 0
-2024 -2022 2026 0
2024 -2026 0
2022 -2026 0
-1865 -2023 2027 0
1865 -2027 0
2023 -2027 0
2026 2027 -2028 0
-2026 2028 0
-2027 2028 0
-194 -1881 2029 0
194 -2029 0
1881 -2029 0
-1871 -2029 -2030 0
1871 2029 -2030 0
1871 -2029 2030 0
-1871 2029 2030 0
-2030 -2028 -2031 0
2030 2028 -2031 0
2030 -2028 2031 0
-2030 2028 2031 0
-2030 -2028 2032 0
2030 -2032 0
2028 -2032 0
-1871 -2029 2033 0
1871 -2033 0
2029 -2033 0
2032 2033 -2034 0
-2032 2034 0
-2033 2034 0
-202 -1881 2035 0
202 -2035 0
1881 -2035 0
-1877 -2035 -2036 0
1877 2035 -2036 0
1877 -2035 2036 0
-1877 2035 2036 0
-2036 -2034 -2037 0
2036 2034 -2037 0
2036 -2034 2037 0
-2036 2034 2037 0
-2036 -2034 2038 0
2036 -2038 0
2034 -2038 0
-1877 -2035 2039 0
1877 -2039 0
2035 -2039 0
2038 2039 -2040 0
-2038 2040 0
-2039 2040 0
-210 -1881 2041 0
210 -2041 0
1881 -2041 0
-1880 -2041 -2042 0
1880 2041 -2042 0
1880 -2041 2042 0
-1880 2041 2042 0
-2042 -2040 -2043 0
2042 2040 -2043 0
2042 -2040 2043 0
-2042 2040 2043 0
-2042 -2040 2044 0
2042 -2044 0
2040 -2044 0
-1880 -2041 2045 0
1880 -2045 0
2041 -2045 0
2044 2045 -2046 0
-2044 2046 0
-2045 2046 0
-1 -2047 2048 0
1 -2048 0
2047 -2048 0
-1887 -2048 -2049 0
1887 2048 -2049 0
1887 -2048 2049 0
-1887 2048 2049 0
-1887 -2048 2050 0
1887 -2050 0
2048 -2050 0
-4 -2047 2051 0
4 -2051 0
2047 -2051 0
-1893 -2051 -2052 0
1893 2051 -2052 0
1893 -2051 2052 0
-1893 2051 2052 0
-2052 -2050 -2053 0
2052 2050 -2053 0
2052 -2050 2053 0
-2052 2050 2053 0
-2052 -2050 2054 0
2052 -2054 0
2050 -2054 0
-1893 -2051 2055 0
1893 -2055 0
2051 -2055 0
2054 2055 -2056 0
-2054 2056 0
-2055 2056 0
-10 -2047 2057 0
10 -2057 0
2047 -2057 0
-1899 -2057 -2058 0
1899 2057 -2058 0
1899 -2057 2058 0
-1899 2057 2058 0
-2058 -2056 -2059 0
2058 2056 -2059 0
2058 -2056 2059 0
-2058 2056 2059 0
-2058 -2056 2060 0
2058 -2060 0
2056 -2060 0
-1899 -2057 2061 0
1899 -2061 0
2057 -2061 0
2060 2061 -2062 0
-2060 2062 0
-2061 2062 0
-18 -2047 2063 0
18 -2063 0
2047 -2063 0
-1905 -2063 -2064 0
1905 2063 -2064 0
1905 -2063 2064 0
-1905 2063 2064 0
-2064 -2062 -2065 0
2064 2062 -2065 0
2064 -2062 2065 0
-2064 2062 2065 0
-2064 -2062 2066 0
2064 -2066 0
2062 -2066 0
-1905 -2063 2067 0
1905 -2067 0
2063 -2067 0
2066 2067 -2068 0
-2066 2068 0
-2067 2068 0
-26 -2047 2069 0
26 -2069 0
2047 -2069 0
-1911 -2069 -2070 0
1911 2069 -2070 0
1911 -2069 2070 0
-1911 2069 2070 0
-2070 -2068 -2071 0
2070 2068 -2071 0
2070 -2068 2071 0
-2070 2068 2071 0
-2070 -2068 2072 0
2070 -2072 0
2068 -2072 0
-1911 -2069 2073 0
1911 -2073 0
2069 -2073 0
2072 2073 -2074 0
-2072 2074 0
-2073 2074 0
-34 -2047 2075 0
34 -2075 0
2047 -2075 0
-1917 -2075 -2076 0
1917 2075 -2076 0
1917 -2075 2076 0
-1917 2075 2076 0
-2076 -2074 -2077 0
2076 2074 -2077 0
2076 -2074 2077 0
-2076 2074 2077 0
-2076 -2074 2078 0
2076 -2078 0
2074 -2078 0
-1917 -2075 2079 0
1917 -2079 0
2075 -2079 0
2078 2079 -2080 0
-2078 2080 0
-2079 2080 0
-42 -2047 2081 0
42 -2081 0
2047 -2081 0
-1923 -2081 -2082 0
1923 2081 -2082 0
1923 -2081 2082 0
-1923 2081 2082 0
-2082 -2080 -2083 0
2082 2080 -2083 0
2082 -2080 2083 0
-2082 2080 2083 0
-2082 -2080 2084 0
2082 -2084 0
2080 -2084 0
-1923 -2081 2085 0
1923 -2085 0
2081 -2085 0
2084 2085 -2086 0
-2084 2086 0
-2085 2086 0
-50 -2047 2087 0
50 -2087 0
2047 -2087 0
-1929 -2087 -2088 0
1929 2087 -2088 0
1929 -2087 2088 0
-1929 2087 2088 0
-2088 -2086 -2089 0
2088 2086 -2089 0
2088 -2086 2089 0
-2088 2086 2089 0
-2088 -2086 2090 0
2088 -2090 0
2086 -2090 0
-1929 -2087 2091 0
1929 -2091 0
2087 -2091 0
2090 2091 -2092 0
-2090 2092 0
-2091 2092 0
-58 -2047 2093 0
58 -2093 0
2047 -2093 0
-1935 -2093 -2094 0
1935 2093 -2094 0
1935 -2093 2094 0
-1935 2093 2094 0
-2094 -2092 -2095 0
2094 2092 -2095 0
2094 -2092 2095 0
-2094 2092 2095 0
-2094 -2092 2096 0
2094 -2096 0
2092 -2096 0
-1935 -2093 2097 0
1935 -2097 0
2093 -2097 0
2096 2097 -2098 0
-2096 2098 0
-2097 2098 0
-66 -2047 2099 0
66 -2099 0
2047 -2099 0
-1941 -2099 -2100 0
1941 2099 -2100 0
1941 -2099 2100 0
-1941 2099 2100 0
-2100 -2098 -2101 0
2100 2098 -2101 0
2100 -2098 2101 0
-2100 2098 2101 0
-2100 -2098 2102 0
2100 -2102 0
2098 -2102 0
-1941 -2099 2103 0
1941 -2103 0
2099 -2103 0
2102 2103 -2104 0
-2102 2104 0
-2103 2104 0
-74 -2047 2105 0
74 -2105 0
2047 -2105 0
-1947 -2105 -2106 0
1947 2105 -2106 0
1947 -2105 2106 0
-1947 2105 2106 0
-2106 -2104 -2107 0
2106 2104 -2107 0
2106 -2104 2107 0
-2106 2104 2107 0
-2106 -2104 2108 0
2106 -2108 0
2104 -2108 0
-1947 -2105 2109 0
1947 -2109 0
2105 -2109 0
2108 2109 -2110 0
-2108 2110 0
-2109 2110 0
-82 -2047 2111 0
82 -2111 0
2047 -2111 0
-1953 -2111 -2112 0
1953 2111 -2112 0
1953 -2111 2112 0
-1953 2111 2112 0
-2112 -2110 -2113 0
2112 2110 -2113 0
2112 -2110 2113 0
-2112 2110 2113 0
-2112 -2110 2114 0
2112 -2114 0
2110 -2114 0
-1953 -2111 2115 0
1953 -2115 0
2111 -2115 0
2114 2115 -2116 0
-2114 2116 0
-2115 2116 0
-90 -2047 2117 0
90 -2117 0
2047 -2117 0
-1959 -2117 -2118 0
1959 2117 -2118 0
1959 -2117 2118 0
-1959 2117 2118 0
-2118 -2116 -2119 0
2118 2116 -2119 0
2118 -2116 2119 0
-2118 2116 2119 0
-2118 -2116 2120 0
2118 -2120 0
2116 -2120 0
-1959 -2117 2121 0
1959 -2121 0
2117 -2121 0
2120 2121 -2122 0
-2120 2122 0
-2121 2122 0
-98 -2047 2123 0
98 -2123 0
2047 -2123 0
-1965 -2123 -2124 0
1965 2123 -2124 0
1965 -2123 2124 0
-1965 2123 2124 0
-2124 -2122 -2125 0
2124 2122 -2125 0
2124 -2122 2125 0
-2124 2122 2125 0
-2124 -2122 2126 0
2124 -2126 0
2122 -2126 0
-1965 -2123 2127 0
1965 -2127 0
2123 -2127 0
2126 2127 -2128 0
-2126 2128 0
-2127 2128 0
-106 -2047 2129 0
106 -2129 0
2047 -2129 0
-1971 -2129 -2130 0
1971 2129 -2130 0
1971 -2129 2130 0
-1971 2129 2130 0
-2130 -2128 -2131 0
2130 2128 -2131 0
2130 -2128 2131 0
-2130 2128 2131 0
-2130 -2128 2132 0
2130 -2132 0
2128 -2132 0
-1971 -2129 2133 0
1971 -2133 0
2129 -2133 0
2132 2133 -2134 0
-2132 2134 0
-2133 2134 0
-114 -2047 2135 0
114 -2135 0
2047 -2135 0
-1977 -2135 -2136 0
1977 2135 -2136 0
1977 -2135 2136 0
-1977 2135 2136 0
-2136 -2134 -2137 0
2136 2134 -2137 0
2136 -2134 2137 0
-2136 2134 2137 0
-2136 -2134 2138 0
2136 -2138 0
2134 -2138 0
-1977 -2135 2139 0
1977 -2139 0
2135 -2139 0
2138 2139 -2140 0
-2138 2140 0
-2139 2140 0
-122 -2047 2141 0
122 -2141 0
2047 -2141 0
-1983 -2141 -2142 0
1983 2141 -2142 0
1983 -2141 2142 0
-1983 2141 2142 0
-2142 -2140 -2143 0
2142 2140 -2143 0
2142 -2140 2143 0
-2142 2140 2143 0
-2142 -2140 2144 0
2142 -2144 0
2140 -2144 0
-1983 -2141 2145 0
1983 -2145 0
2141 -2145 0
2144 2145 -2146 0
-2144 2146 0
-2145 2146 0
-130 -2047 2147 0
130 -2147 0
2047 -2147 0
-1989 -2147 -2148 0
1989 2147 -2148 0
1989 -2147 2148 0
-1989 2147 2148 0
-2148 -2146 -2149 0
2148 2146 -2149 0
2148 -2146 2149 0
-2148 2146 2149 0
-2148 -2146 2150 0
2148 -2150 0
2146 -2150 0
-1989 -2147 2151 0
1989 -2151 0
2147 -2151 0
2150 2151 -2152 0
-2150 2152 0
-2151 2152 0
-138 -2047 2153 0
138 -2153 0
2047 -2153 0
-1995 -2153 -2154 0
1995 2153 -2154 0
1995 -2153 2154 0
-1995 2153 2154 0
-2154 -2152 -2155 0
2154 2152 -2155 0
2154 -2152 2155 0
-2154 2152 2155 0
-2154 -2152 2156 0
2154 -2156 0
2152 -2156 0
-1995 -2153 2157 0
1995 -2157 0
2153 -2157 0
2156 2157 -2158 0
-2156 2158 0
-2157 2158 0
-146 -2047 2159 0
146 -2159 0
2047 -2159 0
-2001 -2159 -2160 0
2001 2159 -2160 0
2001 -2159 2160 0
-2001 2159 2160 0
-2160 -2158 -2161 0
2160 2158 -2161 0
2160 -2158 2161 0
-2160 2158 2161 0
-2160 -2158 2162 0
2160 -2162 0
2158 -2162 0
-2001 -2159 2163 0
2001 -2163 0
2159 -2163 0
2162 2163 -2164 0
-2162 2164 0
-2163 2164 0
-154 -2047 2165 0
154 -2165 0
2047 -2165 0
-2007 -2165 -2166 0
2007 2165 -2166 0
2007 -2165 2166 0
-2007 2165 2166 0
-2166 -2164 -2167 0
2166 2164 -2167 0
2166 -2164 2167 0
-2166 2164 2167 0
-2166 -2164 2168 0
2166 -2168 0
2164 -2168 0
-2007 -2165 2169 0
2007 -2169 0
2165 -2169 0
2168 2169 -2170 0
-2168 2170 0
-2169 2170 0
-162 -2047 2171 0
162 -2171 0
2047 -2171 0
-2013 -2171 -2172 0
2013 2171 -2172 0
2013 -2171 2172 0
-2013 2171 2172 0
-2172 -2170 -2173 0
2172 2170 -2173 0
2172 -2170 2173 0
-2172 2170 2173 0
-2172 -2170 2174 0
2172 -2174 0
2170 -2174 0
-2013 -2171 2175 0
2013 -2175 0
2171 -2175 0
2174 2175 -2176 0
-2174 2176 0
-2175 2176 0
-170 -2047 2177 0
170 -2177 0
2047 -2177 0
-2019 -2177 -2178 0
2019 2177 -2178 0
2019 -2177 2178 0
-2019 2177 2178 0
-2178 -2176 -2179 0
2178 2176 -2179 0
2178 -2176 2179 0
-2178 2176 2179 0
-2178 -2176 2180 0
2178 -2180 0
2176 -2180 0
-2019 -2177 2181 0
2019 -2181 0
2177 -2181 0
2180 2181 -2182 0
-2180 2182 0
-2181 2182 0
-178 -2047 2183 0
178 -2183 0
2047 -2183 0
-2025 -2183 -2184 0
2025 2183 -2184 0
2025 -2183 2184 0
-2025 2183 2184 0
-2184 -2182 -2185 0
2184 2182 -2185 0
2184 -2182 2185 0
-2184 2182 2185 0
-2184 -2182 2186 0
2184 -2186 0
2182 -2186 0
-2025 -2183 2187 0
2025 -2187 0
2183 -2187 0
2186 2187 -2188 0
-2186 2188 0
-2187 2188 0
-186 -2047 2189 0
186 -2189 0
2047 -2189 0
-2031 -2189 -2190 0
2031 2189 -2190 0
2031 -2189 2190 0
-2031 2189 2190 0
-2190 -2188 -2191 0
2190 2188 -2191 0
2190 -2188 2191 0
-2190 2188 2191 0
-2190 -2188 2192 0
2190 -2192 0
2188 -2192 0
-2031 -2189 2193 0
2031 -2193 0
2189 -2193 0
2192 2193 -2194 0
-2192 2194 0
-2193 2194 0
-194 -2047 2195 0
194 -2195 0
2047 -2195 0
-2037 -2195 -2196 0
2037 2195 -2196 0
2037 -2195 2196 0
-2037 2195 2196 0
-2196 -2194 -2197 0
2196 2194 -2197 0
2196 -2194 2197 0
-2196 2194 2197 0
-2196 -2194 2198 0
2196 -2198 0
2194 -2198 0
-2037 -2195 2199 0
2037 -2199 0
2195 -2199 0
2198 2199 -2200 0
-2198 2200 0
-2199 2200 0
-202 -2047 2201 0
202 -2201 0
2047 -2201 0
-2043 -2201 -2202 0
2043 2201 -2202 0
2043 -2201 2202 0
-2043 2201 2202 0
-2202 -2200 -2203 0
2202 2200 -2203 0
2202 -2200 2203 0
-2202 2200 2203 0
-2202 -2200 2204 0
2202 -2204 0
2200 -2204 0
-2043 -2201 2205 0
2043 -2205 0
2201 -2205 0
2204 2205 -2206 0
-2204 2206 0
-2205 2206 0
-210 -2047 2207 0
210 -2207 0
2047 -2207 0
-2046 -2207 -2208 0
2046 2207 -2208 0
2046 -2207 2208 0
-2046 2207 2208 0
-2208 -2206 -2209 0
2208 2206 -2209 0
2208 -2206 2209 0
-2208 2206 2209 0
-2208 -2206 2210 0
2208 -2210 0
2206 -2210 0
-2046 -2207 2211 0
2046 -2211 0
2207 -2211 0
2210 2211 -2212 0
-2210 2212 0
-2211 2212 0
-1 -2213 2214 0
1 -2214 0
2213 -2214 0
-2053 -2214 -2215 0
2053 2214 -2215 0
2053 -2214 2215 0
-2053 2214 2215 0
-2053 -2214 2216 0
2053 -2216 0
2214 -2216 0
-4 -2213 2217 0
4 -2217 0
2213 -2217 0
-2059 -2217 -2218 0
2059 2217 -2218 0
2059 -2217 2218 0
-2059 2217 2218 0
-2218 -2216 -2219 0
2218 2216 -2219 0
2218 -2216 2219 0
-2218 2216 2219 0
-2218 -2216 2220 0
2218 -2220 0
2216 -2220 0
-2059 -2217 2221 0
2059 -2221 0
2217 -2221 0
2220 2221 -2222 0
-2220 2222 0
-2221 2222 0
-10 -2213 2223 0
10 -2223 0
2213 -2223 0
-2065 -2223 -2224 0
2065 2223 -2224 0
2065 -2223 2224 0
-2065 2223 2224 0
-2224 -2222 -2225 0
2224 2222 -2225 0
2224 -2222 2225 0
-2224 2222 2225 0
-2224 -2222 2226 0
2224 -2226 0
2222 -2226 0
-2065 -2223 2227 0
2065 -2227 0
2223 -2227 0
2226 2227 -2228 0
-2226 2228 0
-2227 2228 0
-18 -2213 2229 0
18 -2229 0
2213 -2229 0
-2071 -2229 -2230 0
2071 2229 -2230 0
2071 -2229 2230 0
-2071 2229 2230 0
-2230 -2228 -2231 0
2230 2228 -2231 0
2230 -2228 2231 0
-2230 2228 2231 0
-2230 -2228 2232 0
2230 -2232 0
2228 -2232 0
-2071 -2229 2233 0
2071 -2233 0
2229 -2233 0
2232 2233 -2234 0
-2232 2234 0
-2233 2234 0
-26 -2213 2235 0
26 -2235 0
2213 -2235 0
-2077 -2235 -2236 0
2077 2235 -2236 0
2077 -2235 2236 0
-2077 2235 2236 0
-2236 -2234 -2237 0
2236 2234 -2237 0
2236 -2234 2237 0
-2236 2234 2237 0
-2236 -2234 2238 0
2236 -2238 0
2234 -2238 0
-2077 -2235 2239 0
2077 -2239 0
2235 -2239 0
2238 2239 -2240 0
-2238 2240 0
-2239 2240 0
-34 -2213 2241 0
34 -2241 0
2213 -2241 0
-2083 -2241 -2242 0
2083 2241 -2242 0
2083 -2241 2242 0
-2083 2241 2242 0
-2242 -2240 -2243 0
2242 2240 -2243 0
2242 -2240 2243 0
-2242 2240 2243 0
-2242 -2240 2244 0
2242 -2244 0
2240 -2244 0
-2083 -2241 2245 0
2083 -2245 0
2241 -2245 0
2244 2245 -2246 0
-2244 2246 0
-2245 2246 0
-42 -2213 2247 0
42 -2247 0
2213 -2247 0
-2089 -2247 -2248 0
2089 2247 -2248 0
2089 -2247 2248 0
-2089 2247 2248 0
-2248 -2246 -2249 0
2248 2246 -2249 0
2248 -2246 2249 0
-2248 2246 2249 0
-2248 -2246 2250 0
2248 -2250 0
2246 -2250 0
-2089 -2247 2251 0
2089 -2251 0
2247 -2251 0
2250 2251 -2252 0
-2250 2252 0
-2251 2252 0
-50 -2213 2253 0
50 -2253 0
2213 -2253 0
-2095 -2253 -2254 0
2095 2253 -2254 0
2095 -2253 2254 0
-2095 2253 2254 0
-2254 -2252 -2255 0
2254 2252 -2255 0
2254 -2252 2255 0
-2254 2252 2255 0
-2254 -2252 2256 0
2254 -2256 0
2252 -2256 0
-2095 -2253 2257 0
2095 -2257 0
2253 -2257 0
2256 2257 -2258 0
-2256 2258 0
-2257 2258 0
-58 -2213 2259 0
58 -2259 0
2213 -2259 0
-2101 -2259 -2260 0
2101 2259 -2260 0
2101 -2259 2260 0
-2101 2259 2260 0
-2260 -2258 -2261 0
2260 2258 -2261 0
2260 -2258 2261 0
-2260 2258 2261 0
-2260 -2258 2262 0
2260 -2262 0
2258 -2262 0
-2101 -2259 2263 0
2101 -2263 0
2259 -2263 0
2262 2263 -2264 0
-2262 2264 0
-2263 2264 0
-66 -2213 2265 0
66 -2265 0
2213 -2265 0
-2107 -2265 -2266 0
2107 2265 -2266 0
2107 -2265 2266 0
-2107 2265 2266 0
-2266 -2264 -2267 0
2266 2264 -2267 0
2266 -2264 2267 0
-2266 2264 2267 0
-2266 -2264 2268 0
2266 -2268 0
2264 -2268 0
-2107 -2265 2269 0
2107 -2269 0
2265 -2269 0
2268 2269 -2270 0
-2268 2270 0
-2269 2270 0
-74 -2213 2271 0
74 -2271 0
2213 -2271 0
-2113 -2271 -2272 0
2113 2271 -2272 0
2113 -2271 2272 0
-2113 2271 2272 0
-2272 -2270 -2273 0
2272 2270 -2273 0
2272 -2270 2273 0
-2272 2270 2273 0
-2272 -2270 2274 0
2272 -2274 0
2270 -2274 0
-2113 -2271 2275 0
2113 -2275 0
2271 -2275 0
2274 2275 -2276 0
-2274 2276 0
-2275 2276 0
-82 -2213 2277 0
82 -2277 0
2213 -2277 0
-2119 -2277 -2278 0
2119 2277 -2278 0
2119 -2277 2278 0
-2119 2277 2278 0
-2278 -2276 -2279 0
2278 2276 -2279 0
2278 -2276 2279 0
-2278 2276 2279 0
-2278 -2276 2280 0
2278 -2280 0
2276 -2280 0
-2119 -2277 2281 0
2119 -2281 0
2277 -2281 0
2280 2281 -2282 0
-2280 2282 0
-2281 2282 0
-90 -2213 2283 0
90 -2283 0
2213 -2283 0
-2125 -2283 -2284 0
2125 2283 -2284 0
2125 -2283 2284 0
-2125 2283 2284 0
-2284 -2282 -2285 0
2284 2282 -2285 0
2284 -2282 2285 0
-2284 2282 2285 0
-2284 -2282 2286 0
2284 -2286 0
2282 -2286 0
-2125 -2283 2287 0
2125 -2287 0
2283 -2287 0
2286 2287 -2288 0
-2286 2288 0
-2287 2288 0
-98 -2213 2289 0
98 -2289 0
2213 -2289 0
-2131 -2289 -2290 0
2131 2289 -2290 0
2131 -2289 2290 0
-2131 2289 2290 0
-2290 -2288 -2291 0
2290 2288 -2291 0
2290 -2288 2291 0
-2290 2288 2291 0
-2290 -2288 2292 0
2290 -2292 0
2288 -2292 0
-2131 -2289 2293 0
2131 -2293 0
2289 -2293 0
2292 2293 -2294 0
-2292 2294 0
-2293 2294 0
-106 -2213 2295 0
106 -2295 0
2213 -2295 0
-2137 -2295 -2296 0
2137 2295 -2296 0
2137 -2295 2296 0
-2137 2295 2296 0
-2296 -2294 -2297 0
2296 2294 -2297 0
2296 -2294 2297 0
-2296 2294 2297 0
-2296 -2294 2298 0
2296 -2298 0
2294 -2298 0
-2137 -2295 2299 0
2137 -2299 0
2295 -2299 0
2298 2299 -2300 0
-2298 2300 0
-2299 2300 0
-114 -2213 2301 0
114 -2301 0
2213 -2301 0
-2143 -2301 -2302 0
2143 2301 -2302 0
2143 -2301 2302 0
-2143 2301 2302 0
-2302 -2300 -2303 0
2302 2300 -2303 0
2302 -2300 2303 0
-2302 2300 2303 0
-2302 -2300 2304 0
2302 -2304 0
2300 -2304 0
-2143 -2301 2305 0
2143 -2305 0
2301 -2305 0
2304 2305 -2306 0
-2304 2306 0
-2305 2306 0
-122 -2213 2307 0
122 -2307 0
2213 -2307 0
-2149 -2307 -2308 0
2149 2307 -2308 0
2149 -2307 2308 0
-2149 2307 2308 0
-2308 -2306 -2309 0
2308 2306 -2309 0
2308 -2306 2309 0
-2308 2306 2309 0
-2308 -2306 2310 0
2308 -2310 0
2306 -2310 0
-2149 -2307 2311 0
2149 -2311 0
2307 -2311 0
2310 2311 -2312 0
-2310 2312 0
-2311 2312 0
-130 -2213 2313 0
130 -2313 0
2213 -2313 0
-2155 -2313 -2314 0
2155 2313 -2314 0
2155 -2313 2314 0
-2155 2313 2314 0
-2314 -2312 -2315 0
2314 2312 -2315 0
2314 -2312 2315 0
-2314 2312 2315 0
-2314 -2312 2316 0
2314 -2316 0
2312 -2316 0
-2155 -2313 2317 0
2155 -2317 0
2313 -2317 0
2316 2317 -2318 0
-2316 2318 0
-2317 2318 0
-138 -2213 2319 0
138 -2319 0
2213 -2319 0
-2161 -2319 -2320 0
2161 2319 -2320 0
2161 -2319 2320 0
-2161 2319 2320 0
-2320 -2318 -2321 0
2320 2318 -2321 0
2320 -2318 2321 0
-2320 2318 2321 0
-2320 -2318 2322 0
2320 -2322 0
2318 -2322 0
-2161 -2319 2323 0
2161 -2323 0
2319 -2323 0
2322 2323 -2324 0
-2322 2324 0
-2323 2324 0
-146 -2213 2325 0
146 -2325 0
2213 -2325 0
-2167 -2325 -2326 0
2167 2325 -2326 0
2167 -2325 2326 0
-2167 2325 2326 0
-2326 -2324 -2327 0
2326 2324 -2327 0
2326 -2324 2327 0
-2326 2324 2327 0
-2326 -2324 2328 0
2326 -2328 0
2324 -2328 0
-2167 -2325 2329 0
2167 -2329 0
2325 -2329 0
2328 2329 -2330 0
-2328 2330 0
-2329 2330 0
-154 -2213 2331 0
154 -2331 0
2213 -2331 0
-2173 -2331 -2332 0
2173 2331 -2332 0
2173 -2331 2332 0
-2173 2331 2332 0
-2332 -2330 -2333 0
2332 2330 -2333 0
2332 -2330 2333 0
-2332 2330 2333 0
-2332 -2330 2334 0
2332 -2334 0
2330 -2334 0
-2173 -2331 2335 0
2173 -2335 0
2331 -2335 0
2334 2335 -2336 0
-2334 2336 0
-2335 2336 0
-162 -2213 2337 0
162 -2337 0
2213 -2337 0
-2179 -2337 -2338 0
2179 2337 -2338 0
2179 -2337 2338 0
-2179 2337 2338 0
-2338 -2336 -2339 0
2338 2336 -2339 0
2338 -2336 2339 0
-2338 2336 2339 0
-2338 -2336 2340 0
2338 -2340 0
2336 -2340 0
-2179 -2337 2341 0
2179 -2341 0
2337 -2341 0
2340 2341 -2342 0
-2340 2342 0
-2341 2342 0
-170 -2213 2343 0
170 -2343 0
2213 -2343 0
-2185 -2343 -2344 0
2185 2343 -2344 0
2185 -2343 2344 0
-2185 2343 2344 0
-2344 -2342 -2345 0
2344 2342 -2345 0
2344 -2342 2345 0
-2344 2342 2345 0
-2344 -2342 2346 0
2344 -2346 0
2342 -2346 0
-2185 -2343 2347 0
2185 -2347 0
2343 -2347 0
2346 2347 -2348 0
-2346 2348 0
-2347 2348 0
-178 -2213 2349 0
178 -2349 0
2213 -2349 0
-2191 -2349 -2350 0
2191 2349 -2350 0
2191 -2349 2350 0
-2191 2349 2350 0
-2350 -2348 -2351 0
2350 2348 -2351 0
2350 -2348 2351 0
-2350 2348 2351 0
-2350 -2348 2352 0
2350 -2352 0
2348 -2352 0
-2191 -2349 2353 0
2191 -2353 0
2349 -2353 0
2352 2353 -2354 0
-2352 2354 0
-2353 2354 0
-186 -2213 2355 0
186 -2355 0
2213 -2355 0
-2197 -2355 -2356 0
2197 2355 -2356 0
2197 -2355 2356 0
-2197 2355 2356 0
-2356 -2354 -2357 0
2356 2354 -2357 0
2356 -2354 2357 0
-2356 2354 2357 0
-2356 -2354 2358 0
2356 -2358 0
2354 -2358 0
-2197 -2355 2359 0
2197 -2359 0
2355 -2359 0
2358 2359 -2360 0
-2358 2360 0
-2359 2360 0
-194 -2213 2361 0
194 -2361 0
2213 -2361 0
-2203 -2361 -2362 0
2203 2361 -2362 0
2203 -2361 2362 0
-2203 2361 2362 0
-2362 -2360 -2363 0
2362 2360 -2363 0
2362 -2360 2363 0
-2362 2360 2363 0
-2362 -2360 2364 0
2362 -2364 0
2360 -2364 0
-2203 -2361 2365 0
2203 -2365 0
2361 -2365 0
2364 2365 -2366 0
-2364 2366 0
-2365 2366 0
-202 -2213 2367 0
202 -2367 0
2213 -2367 0
-2209 -2367 -2368 0
2209 2367 -2368 0
2209 -2367 2368 0
-2209 2367 2368 0
-2368 -2366 -2369 0
2368 2366 -2369 0
2368 -2366 2369 0
-2368 2366 2369 0
-2368 -2366 2370 0
2368 -2370 0
2366 -2370 0
-2209 -2367 2371 0
2209 -2371 0
2367 -2371 0
2370 2371 -2372 0
-2370 2372 0
-2371 2372 0
-210 -2213 2373 0
210 -2373 0
2213 -2373 0
-2212 -2373 -2374 0
2212 2373 -2374 0
2212 -2373 2374 0
-2212 2373 2374 0
-2374 -2372 -2375 0
2374 2372 -2375 0
2374 -2372 2375 0
-2374 2372 2375 0
-2374 -2372 2376 0
2374 -2376 0
2372 -2376 0
-2212 -2373 2377 0
2212 -2377 0
2373 -2377 0
2376 2377 -2378 0
-2376 2378 0
-2377 2378 0
-1 -2379 2380 0
1 -2380 0
2379 -2380 0
-2219 -2380 -2381 0
2219 2380 -2381 0
2219 -2380 2381 0
-2219 2380 2381 0
-2219 -2380 2382 0
2219 -2382 0
2380 -2382 0
-4 -2379 2383 0
4 -2383 0
2379 -2383 0
-2225 -2383 -2384 0
2225 2383 -2384 0
2225 -2383 2384 0
-2225 2383 2384 0
-2384 -2382 -2385 0
2384 2382 -2385 0
2384 -2382 2385 0
-2384 2382 2385 0
-2384 -2382 2386 0
2384 -2386 0
2382 -2386 0
-2225 -2383 2387 0
2225 -2387 0
2383 -2387 0
2386 2387 -2388 0
-2386 2388 0
-2387 2388 0
-10 -2379 2389 0
10 -2389 0
2379 -2389 0
-2231 -2389 -2390 0
2231 2389 -2390 0
2231 -2389 2390 0
-2231 2389 2390 0
-2390 -2388 -2391 0
2390 2388 -2391 0
2390 -2388 2391 0
-2390 2388 2391 0
-2390 -2388 2392 0
2390 -2392 0
2388 -2392 0
-2231 -2389 2393 0
2231 -2393 0
2389 -2393 0
2392 2393 -2394 0
-2392 2394 0
-2393 2394 0
-18 -2379 2395 0
18 -2395 0
2379 -2395 0
-2237 -2395 -2396 0
2237 2395 -2396 0
2237 -2395 2396 0
-2237 2395 2396 0
-2396 -2394 -2397 0
2396 2394 -2397 0
2396 -2394 2397 0
-2396 2394 2397 0
-2396 -2394 2398 0
2396 -2398 0
2394 -2398 0
-2237 -2395 2399 0
2237 -2399 0
2395 -2399 0
2398 2399 -2400 0
-2398 2400 0
-2399 2400 0
-26 -2379 2401 0
26 -2401 0
2379 -2401 0
-2243 -2401 -2402 0
2243 2401 -2402 0
2243 -2401 2402 0
-2243 2401 2402 0
-2402 -2400 -2403 0
2402 2400 -2403 0
2402 -2400 2403 0
-2402 2400 2403 0
-2402 -2400 2404 0
2402 -2404 0
2400 -2404 0
-2243 -2401 2405 0
2243 -2405 0
2401 -2405 0
2404 2405 -2406 0
-2404 2406 0
-2405 2406 0
-34 -2379 2407 0
34 -2407 0
2379 -2407 0
-2249 -2407 -2408 0
2249 2407 -2408 0
2249 -2407 2408 0
-2249 2407 2408 0
-2408 -2406 -2409 0
2408 2406 -2409 0
2408 -2406 2409 0
-2408 2406 2409 0
-2408 -2406 2410 0
2408 -2410 0
2406 -2410 0
-2249 -2407 2411 0
2249 -2411 0
2407 -2411 0
2410 2411 -2412 0
-2410 2412 0
-2411 2412 0
-42 -2379 2413 0
42 -2413 0
2379 -2413 0
-2255 -2413 -2414 0
2255 2413 -2414 0
2255 -2413 2414 0
-2255 2413 2414 0
-2414 -2412 -2415 0
2414 2412 -2415 0
2414 -2412 2415 0
-2414 2412 2415 0
-2414 -2412 2416 0
2414 -2416 0
2412 -2416 0
-2255 -2413 2417 0
2255 -2417 0
2413 -2417 0
2416 2417 -2418 0
-2416 2418 0
-2417 2418 0
-50 -2379 2419 0
50 -2419 0
2379 -2419 0
-2261 -2419 -2420 0
2261 2419 -2420 0
2261 -2419 2420 0
-2261 2419 2420 0
-2420 -2418 -2421 0
2420 2418 -2421 0
2420 -2418 2421 0
-2420 2418 2421 0
-2420 -2418 2422 0
2420 -2422 0
2418 -2422 0
-2261 -2419 2423 0
2261 -2423 0
2419 -2423 0
2422 2423 -2424 0
-2422 2424 0
-2423 2424 0
-58 -2379 2425 0
58 -2425 0
2379 -2425 0
-2267 -2425 -2426 0
2267 2425 -2426 0
2267 -2425 2426 0
-2267 2425 2426 0
-2426 -2424 -2427 0
2426 2424 -2427 0
2426 -2424 2427 0
-2426 2424 2427 0
-2426 -2424 2428 0
2426 -2428 0
2424 -2428 0
-2267 -2425 2429 0
2267 -2429 0
2425 -2429 0
2428 2429 -2430 0
-2428 2430 0
-2429 2430 0
-66 -2379 2431 0
66 -2431 0
2379 -2431 0
-2273 -2431 -2432 0
2273 2431 -2432 0
2273 -2431 2432 0
-2273 2431 2432 0
-2432 -2430 -2433 0
2432 2430 -2433 0
2432 -2430 2433 0
-2432 2430 2433 0
-2432 -2430 2434 0
2432 -2434 0
2430 -2434 0
-2273 -2431 2435 0
2273 -2435 0
2431 -2435 0
2434 2435 -2436 0
-2434 2436 0
-2435 2436 0
-74 -2379 2437 0
74 -2437 0
2379 -2437 0
-2279 -2437 -2438 0
2279 2437 -2438 0
2279 -2437 2438 0
-2279 2437 2438 0
-2438 -2436 -2439 0
2438 2436 -2439 0
2438 -2436 2439 0
-2438 2436 2439 0
-2438 -2436 2440 0
2438 -2440 0
2436 -2440 0
-2279 -2437 2441 0
2279 -2441 0
2437 -2441 0
2440 2441 -2442 0
-2440 2442 0
-2441 2442 0
-82 -2379 2443 0
82 -2443 0
2379 -2443 0
-2285 -2443 -2444 0
2285 2443 -2444 0
2285 -2443 2444 0
-2285 2443 2444 0
-2444 -2442 -2445 0
2444 2442 -2445 0
2444 -2442 2445 0
-2444 2442 2445 0
-2444 -2442 2446 0
2444 -2446 0
2442 -2446 0
-2285 -2443 2447 0
2285 -2447 0
2443 -2447 0
2446 2447 -2448 0
-2446 2448 0
-2447 2448 0
-90 -2379 2449 0
90 -2449 0
2379 -2449 0
-2291 -2449 -2450 0
2291 2449 -2450 0
2291 -2449 2450 0
-2291 2449 2450 0
-2450 -2448 -2451 0
2450 2448 -2451 0
2450 -2448 2451 0
-2450 2448 2451 0
-2450 -2448 2452 0
2450 -2452 0
2448 -2452 0
-2291 -2449 2453 0
2291 -2453 0
2449 -2453 0
2452 2453 -2454 0
-2452 2454 0
-2453 2454 0
-98 -2379 2455 0
98 -2455 0
2379 -2455 0
-2297 -2455 -2456 0
2297 2455 -2456 0
2297 -2455 2456 0
-2297 2455 2456 0
-2456 -2454 -2457 0
2456 2454 -2457 0
2456 -2454 2457 0
-2456 2454 2457 0
-2456 -2454 2458 0
2456 -2458 0
2454 -2458 0
-2297 -2455 2459 0
2297 -2459 0
2455 -2459 0
2458 2459 -2460 0
-2458 2460 0
-2459 2460 0
-106 -2379 2461 0
106 -2461 0
2379 -2461 0
-2303 -2461 -2462 0
2303 2461 -2462 0
2303 -2461 2462 0
-2303 2461 2462 0
-2462 -2460 -2463 0
2462 2460 -2463 0
2462 -2460 2463 0
-2462 2460 2463 0
-2462 -2460 2464 0
2462 -2464 0
2460 -2464 0
-2303 -2461 2465 0
2303 -2465 0
2461 -2465 0
2464 2465 -2466 0
-2464 2466 0
-2465 2466 0
-114 -2379 2467 0
114 -2467 0
2379 -2467 0
-2309 -2467 -2468 0
2309 2467 -2468 0
2309 -2467 2468 0
-2309 2467 2468 0
-2468 -2466 -2469 0
2468 2466 -2469 0
2468 -2466 2469 0
-2468 2466 2469 0
-2468 -2466 2470 0
2468 -2470 0
2466 -2470 0
-2309 -2467 2471 0
2309 -2471 0
2467 -2471 0
2470 2471 -2472 0
-2470 2472 0
-2471 2472 0
-122 -2379 2473 0
122 -2473 0
2379 -2473 0
-2315 -2473 -2474 0
2315 2473 -2474 0
2315 -2473 2474 0
-2315 2473 2474 0
-2474 -2472 -2475 0
2474 2472 -2475 0
2474 -2472 2475 0
-2474 2472 2475 0
-2474 -2472 2476 0
2474 -2476 0
2472 -2476 0
-2315 -2473 2477 0
2315 -2477 0
2473 -2477 0
2476 2477 -2478 0
-2476 2478 0
-2477 2478 0
-130 -2379 2479 0
130 -2479 0
2379 -2479 0
-2321 -2479 -2480 0
2321 2479 -2480 0
2321 -2479 2480 0
-2321 2479 2480 0
-2480 -2478 -2481 0
2480 2478 -2481 0
2480 -2478 2481 0
-2480 2478 2481 0
-2480 -2478 2482 0
2480 -2482 0
2478 -2482 0
-2321 -2479 2483 0
2321 -2483 0
2479 -2483 0
2482 2483 -2484 0
-2482 2484 0
-2483 2484 0
-138 -2379 2485 0
138 -2485 0
2379 -2485 0
-2327 -2485 -2486 0
2327 2485 -2486 0
2327 -2485 2486 0
-2327 2485 2486 0
-2486 -2484 -2487 0
2486 2484 -2487 0
2486 -2484 2487 0
-2486 2484 2487 0
-2486 -2484 2488 0
2486 -2488 0
2484 -2488 0
-2327 -2485 2489 0
2327 -2489 0
2485 -2489 0
2488 2489 -2490 0
-2488 2490 0
-2489 2490 0
-146 -2379 2491 0
146 -2491 0
2379 -2491 0
-2333 -2491 -2492 0
2333 2491 -2492 0
2333 -2491 2492 0
-2333 2491 2492 0
-2492 -2490 -2493 0
2492 2490 -2493 0
2492 -2490 2493 0
-2492 2490 2493 0
-2492 -2490 2494 0
2492 -2494 0
2490 -2494 0
-2333 -2491 2495 0
2333 -2495 0
2491 -2495 0
2494 2495 -2496 0
-2494 2496 0
-2495 2496 0
-154 -2379 2497 0
154 -2497 0
2379 -2497 0
-2339 -2497 -2498 0
2339 2497 -2498 0
2339 -2497 2498 0
-2339 2497 2498 0
-2498 -2496 -2499 0
2498 2496 -2499 0
2498 -2496 2499 0
-2498 2496 2499 0
-2498 -2496 2500 0
2498 -2500 0
2496 -2500 0
-2339 -2497 2501 0
2339 -2501 0
2497 -2501 0
2500 2501 -2502 0
-2500 2502 0
-2501 2502 0
-162 -2379 2503 0
162 -2503 0
2379 -2503 0
-2345 -2503 -2504 0
2345 2503 -2504 0
2345 -2503 2504 0
-2345 2503 2504 0
-2504 -2502 -2505 0
2504 2502 -2505 0
2504 -2502 2505 0
-2504 2502 2505 0
-2504 -2502 2506 0
2504 -2506 0
2502 -2506 0
-2345 -2503 2507 0
2345 -2507 0
2503 -2507 0
2506 2507 -2508 0
-2506 2508 0
-2507 2508 0
-170 -2379 2509 0
170 -2509 0
2379 -2509 0
-2351 -2509 -2510 0
2351 2509 -2510 0
2351 -2509 2510 0
-2351 2509 2510 0
-2510 -2508 -2511 0
2510 2508 -2511 0
2510 -2508 2511 0
-2510 2508 2511 0
-2510 -2508 2512 0
2510 -2512 0
2508 -2512 0
-2351 -2509 2513 0
2351 -2513 0
2509 -2513 0
2512 2513 -2514 0
-2512 2514 0
-2513 2514 0
-178 -2379 2515 0
178 -2515 0
2379 -2515 0
-2357 -2515 -2516 0
2357 2515 -2516 0
2357 -2515 2516 0
-2357 2515 2516 0
-2516 -2514 -2517 0
2516 2514 -2517 0
2516 -2514 2517 0
-2516 2514 2517 0
-2516 -2514 2518 0
2516 -2518 0
2514 -2518 0
-2357 -2515 2519 0
2357 -2519 0
2515 -2519 0
2518 2519 -2520 0
-2518 2520 0
-2519 2520 0
-186 -2379 2521 0
186 -2521 0
2379 -2521 0
-2363 -2521 -2522 0
2363 2521 -2522 0
2363 -2521 2522 0
-2363 2521 2522 0
-2522 -2520 -2523 0
2522 2520 -2523 0
2522 -2520 2523 0
-2522 2520 2523 0
-2522 -2520 2524 0
2522 -2524 0
2520 -2524 0
-2363 -2521 2525 0
2363 -2525 0
2521 -2525 0
2524 2525 -2526 0
-2524 2526 0
-2525 2526 0
-194 -2379 2527 0
194 -2527 0
2379 -2527 0
-2369 -2527 -2528 0
2369 2527 -2528 0
2369 -2527 2528 0
-2369 2527 2528 0
-2528 -2526 -2529 0
2528 2526 -2529 0
2528 -2526 2529 0
-2528 2526 2529 0
-2528 -2526 2530 0
2528 -2530 0
2526 -2530 0
-2369 -2527 2531 0
2369 -2531 0
2527 -2531 0
2530 2531 -2532 0
-2530 2532 0
-2531 2532 0
-202 -2379 2533 0
202 -2533 0
2379 -2533 0
-2375 -2533 -2534 0
2375 2533 -2534 0
2375 -2533 2534 0
-2375 2533 2534 0
-2534 -2532 -2535 0
2534 2532 -2535 0
2534 -2532 2535 0
-2534 2532 2535 0
-2534 -2532 2536 0
2534 -2536 0
2532 -2536 0
-2375 -2533 2537 0
2375 -2537 0
2533 -2537 0
2536 2537 -2538 0
-2536 2538 0
-2537 2538 0
-210 -2379 2539 0
210 -2539 0
2379 -2539 0
-2378 -2539 -2540 0
2378 2539 -2540 0
2378 -2539 2540 0
-2378 2539 2540 0
-2540 -2538 -2541 0
2540 2538 -2541 0
2540 -2538 2541 0
-2540 2538 2541 0
-2540 -2538 2542 0
2540 -2542 0
2538 -2542 0
-2378 -2539 2543 0
2378 -2543 0
2539 -2543 0
2542 2543 -2544 0
-2542 2544 0
-2543 2544 0
-1 -2545 2546 0
1 -2546 0
2545 -2546 0
-2385 -2546 -2547 0
2385 2546 -2547 0
2385 -2546 2547 0
-2385 2546 2547 0
-2385 -2546 2548 0
2385 -2548 0
2546 -2548 0
-4 -2545 2549 0
4 -2549 0
2545 -2549 0
-2391 -2549 -2550 0
2391 2549 -2550 0
2391 -2549 2550 0
-2391 2549 2550 0
-2550 -2548 -2551 0
2550 2548 -2551 0
2550 -2548 2551 0
-2550 2548 2551 0
-2550 -2548 2552 0
2550 -2552 0
2548 -2552 0
-2391 -2549 2553 0
2391 -2553 0
2549 -2553 0
2552 2553 -2554 0
-2552 2554 0
-2553 2554 0
-10 -2545 2555 0
10 -2555 0
2545 -2555 0
-2397 -2555 -2556 0
2397 2555 -2556 0
2397 -2555 2556 0
-2397 2555 2556 0
-2556 -2554 -2557 0
2556 2554 -2557 0
2556 -2554 2557 0
-2556 2554 2557 0
-2556 -2554 2558 0
2556 -2558 0
2554 -2558 0
-2397 -2555 2559 0
2397 -2559 0
2555 -2559 0
2558 2559 -2560 0
-2558 2560 0
-2559 2560 0
-18 -2545 2561 0
18 -2561 0
2545 -2561 0
-2403 -2561 -2562 0
2403 2561 -2562 0
2403 -2561 2562 0
-2403 2561 2562 0
-2562 -2560 -2563 0
2562 2560 -2563 0
2562 -2560 2563 0
-2562 2560 2563 0
-2562 -2560 2564 0
2562 -2564 0
2560 -2564 0
-2403 -2561 2565 0
2403 -2565 0
2561 -2565 0
2564 2565 -2566 0
-2564 2566 0
-2565 2566 0
-26 -2545 2567 0
26 -2567 0
2545 -2567 0
-2409 -2567 -2568 0
2409 2567 -2568 0
2409 -2567 2568 0
-2409 2567 2568 0
-2568 -2566 -2569 0
2568 2566 -2569 0
2568 -2566 2569 0
-2568 2566 2569 0
-2568 -2566 2570 0
2568 -2570 0
2566 -2570 0
-2409 -2567 2571 0
2409 -2571 0
2567 -2571 0
2570 2571 -2572 0
-2570 2572 0
-2571 2572 0
-34 -2545 2573 0
34 -2573 0
2545 -2573 0
-2415 -2573 -2574 0
2415 2573 -2574 0
2415 -2573 2574 0
-2415 2573 2574 0
-2574 -2572 -2575 0
2574 2572 -2575 0
2574 -2572 2575 0
-2574 2572 2575 0
-2574 -2572 2576 0
2574 -2576 0
2572 -2576 0
-2415 -2573 2577 0
2415 -2577 0
2573 -2577 0
2576 2577 -2578 0
-2576 2578 0
-2577 2578 0
-42 -2545 2579 0
42 -2579 0
2545 -2579 0
-2421 -2579 -2580 0
2421 2579 -2580 0
2421 -2579 2580 0
-2421 2579 2580 0
-2580 -2578 -2581 0
2580 2578 -2581 0
2580 -2578 2581 0
-2580 2578 2581 0
-2580 -2578 2582 0
2580 -2582 0
2578 -2582 0
-2421 -2579 2583 0
2421 -2583 0
2579 -2583 0
2582 2583 -2584 0
-2582 2584 0
-2583 2584 0
-50 -2545 2585 0
50 -2585 0
2545 -2585 0
-2427 -2585 -2586 0
2427 2585 -2586 0
2427 -2585 2586 0
-2427 2585 2586 0
-2586 -2584 -2587 0
2586 2584 -2587 0
2586 -2584 2587 0
-2586 2584 2587 0
-2586 -2584 2588 0
2586 -2588 0
2584 -2588 0
-2427 -2585 2589 0
2427 -2589 0
2585 -2589 0
2588 2589 -2590 0
-2588 2590 0
-2589 2590 0
-58 -2545 2591 0
58 -2591 0
2545 -2591 0
-2433 -2591 -2592 0
2433 2591 -2592 0
2433 -2591 2592 0
-2433 2591 2592 0
-2592 -2590 -2593 0
2592 2590 -2593 0
2592 -2590 2593 0
-2592 2590 2593 0
-2592 -2590 2594 0
2592 -2594 0
2590 -2594 0
-2433 -2591 2595 0
2433 -2595 0
2591 -2595 0
2594 2595 -2596 0
-2594 2596 0
-2595 2596 0
-66 -2545 2597 0
66 -2597 0
2545 -2597 0
-2439 -2597 -2598 0
2439 2597 -2598 0
2439 -2597 2598 0
-2439 2597 2598 0
-2598 -2596 -2599 0
2598 2596 -2599 0
2598 -2596 2599 0
-2598 2596 2599 0
-2598 -2596 2600 0
2598 -2600 0
2596 -2600 0
-2439 -2597 2601 0
2439 -2601 0
2597 -2601 0
2600 2601 -2602 0
-2600 2602 0
-2601 2602 0
-74 -2545 2603 0
74 -2603 0
2545 -2603 0
-2445 -2603 -2604 0
2445 2603 -2604 0
2445 -2603 2604 0
-2445 2603 2604 0
-2604 -2602 -2605 0
2604 2602 -2605 0
2604 -2602 2605 0
-2604 2602 2605 0
-2604 -2602 2606 0
2604 -2606 0
2602 -2606 0
-2445 -2603 2607 0
2445 -2607 0
2603 -2607 0
2606 2607 -2608 0
-2606 2608 0
-2607 2608 0
-82 -2545 2609 0
82 -2609 0
2545 -2609 0
-2451 -2609 -2610 0
2451 2609 -2610 0
2451 -2609 2610 0
-2451 2609 2610 0
-2610 -2608 -2611 0
2610 2608 -2611 0
2610 -2608 2611 0
-2610 2608 2611 0
-2610 -2608 2612 0
2610 -2612 0
2608 -2612 0
-2451 -2609 2613 0
2451 -2613 0
2609 -2613 0
2612 2613 -2614 0
-2612 2614 0
-2613 2614 0
-90 -2545 2615 0
90 -2615 0
2545 -2615 0
-2457 -2615 -2616 0
2457 2615 -2616 0
2457 -2615 2616 0
-2457 2615 2616 0
-2616 -2614 -2617 0
2616 2614 -2617 0
2616 -2614 2617 0
-2616 2614 2617 0
-2616 -2614 2618 0
2616 -2618 0
2614 -2618 0
-2457 -2615 2619 0
2457 -2619 0
2615 -2619 0
2618 2619 -2620 0
-2618 2620 0
-2619 2620 0
-98 -2545 2621 0
98 -2621 0
2545 -2621 0
-2463 -2621 -2622 0
2463 2621 -2622 0
2463 -2621 2622 0
-2463 2621 2622 0
-2622 -2620 -2623 0
2622 2620 -2623 0
2622 -2620 2623 0
-2622 2620 2623 0
-2622 -2620 2624 0
2622 -2624 0
2620 -2624 0
-2463 -2621 2625 0
2463 -2625 0
2621 -2625 0
2624 2625 -2626 0
-2624 2626 0
-2625 2626 0
-106 -2545 2627 0
106 -2627 0
2545 -2627 0
-2469 -2627 -2628 0
2469 2627 -2628 0
2469 -2627 2628 0
-2469 2627 2628 0
-2628 -2626 -2629 0
2628 2626 -2629 0
2628 -2626 2629 0
-2628 2626 2629 0
-2628 -2626 2630 0
2628 -2630 0
2626 -2630 0
-2469 -2627 2631 0
2469 -2631 0
2627 -2631 0
2630 2631 -2632 0
-2630 2632 0
-2631 2632 0
-114 -2545 2633 0
114 -2633 0
2545 -2633 0
-2475 -2633 -2634 0
2475 2633 -2634 0
2475 -2633 2634 0
-2475 2633 2634 0
-2634 -2632 -2635 0
2634 2632 -2635 0
2634 -2632 2635 0
-2634 2632 2635 0
-2634 -2632 2636 0
2634 -2636 0
2632 -2636 0
-2475 -2633 2637 0
2475 -2637 0
2633 -2637 0
2636 2637 -2638 0
-2636 2638 0
-2637 2638 0
-122 -2545 2639 0
122 -2639 0
2545 -2639 0
-2481 -2639 -2640 0
2481 2639 -2640 0
2481 -2639 2640 0
-2481 2639 2640 0
-2640 -2638 -2641 0
2640 2638 -2641 0
2640 -2638 2641 0
-2640 2638 2641 0
-2640 -2638 2642 0
2640 -2642 0
2638 -2642 0
-2481 -2639 2643 0
2481 -2643 0
2639 -2643 0
2642 2643 -2644 0
-2642 2644 0
-2643 2644 0
-130 -2545 2645 0
130 -2645 0
2545 -2645 0
-2487 -2645 -2646 0
2487 2645 -2646 0
2487 -2645 2646 0
-2487 2645 2646 0
-2646 -2644 -2647 0
2646 2644 -2647 0
2646 -2644 2647 0
-2646 2644 2647 0
-2646 -2644 2648 0
2646 -2648 0
2644 -2648 0
-2487 -2645 2649 0
2487 -2649 0
2645 -2649 0
2648 2649 -2650 0
-2648 2650 0
-2649 2650 0
-138 -2545 2651 0
138 -2651 0
2545 -2651 0
-2493 -2651 -2652 0
2493 2651 -2652 0
2493 -2651 2652 0
-2493 2651 2652 0
-2652 -2650 -2653 0
2652 2650 -2653 0
2652 -2650 2653 0
-2652 2650 2653 0
-2652 -2650 2654 0
2652 -2654 0
2650 -2654 0
-2493 -2651 2655 0
2493 -2655 0
2651 -2655 0
2654 2655 -2656 0
-2654 2656 0
-2655 2656 0
-146 -2545 2657 0
146 -2657 0
2545 -2657 0
-2499 -2657 -2658 0
2499 2657 -2658 0
2499 -2657 2658 0
-2499 2657 2658 0
-2658 -2656 -2659 0
2658 2656 -2659 0
2658 -2656 2659 0
-2658 2656 2659 0
-2658 -2656 2660 0
2658 -2660 0
2656 -2660 0
-2499 -2657 2661 0
2499 -2661 0
2657 -2661 0
2660 2661 -2662 0
-2660 2662 0
-2661 2662 0
-154 -2545 2663 0
154 -2663 0
2545 -2663 0
-2505 -2663 -2664 0
2505 2663 -2664 0
2505 -2663 2664 0
-2505 2663 2664 0
-2664 -2662 -2665 0
2664 2662 -2665 0
2664 -2662 2665 0
-2664 2662 2665 0
-2664 -2662 2666 0
2664 -2666 0
2662 -2666 0
-2505 -2663 2667 0
2505 -2667 0
2663 -2667 0
2666 2667 -2668 0
-2666 2668 0
-2667 2668 0
-162 -2545 2669 0
162 -2669 0
2545 -2669 0
-2511 -2669 -2670 0
2511 2669 -2670 0
2511 -2669 2670 0
-2511 2669 2670 0
-2670 -2668 -2671 0
2670 2668 -2671 0
2670 -2668 2671 0
-2670 2668 2671 0
-2670 -2668 2672 0
2670 -2672 0
2668 -2672 0
-2511 -2669 2673 0
2511 -2673 0
2669 -2673 0
2672 2673 -2674 0
-2672 2674 0
-2673 2674 0
-170 -2545 2675 0
170 -2675 0
2545 -2675 0
-2517 -2675 -2676 0
2517 2675 -2676 0
2517 -2675 2676 0
-2517 2675 2676 0
-2676 -2674 -2677 0
2676 2674 -2677 0
2676 -2674 2677 0
-2676 2674 2677 0
-2676 -2674 2678 0
2676 -2678 0
2674 -2678 0
-2517 -2675 2679 0
2517 -2679 0
2675 -2679 0
2678 2679 -2680 0
-2678 2680 0
-2679 2680 0
-178 -2545 2681 0
178 -2681 0
2545 -2681 0
-2523 -2681 -2682 0
2523 2681 -2682 0
2523 -2681 2682 0
-2523 2681 2682 0
-2682 -2680 -2683 0
2682 2680 -2683 0
2682 -2680 2683 0
-2682 2680 2683 0
-2682 -2680 2684 0
2682 -2684 0
2680 -2684 0
-2523 -2681 2685 0
2523 -2685 0
2681 -2685 0
2684 2685 -2686 0
-2684 2686 0
-2685 2686 0
-186 -2545 2687 0
186 -2687 0
2545 -2687 0
-2529 -2687 -2688 0
2529 2687 -2688 0
2529 -2687 2688 0
-2529 2687 2688 0
-2688 -2686 -2689 0
2688 2686 -2689 0
2688 -2686 2689 0
-2688 2686 2689 0
-2688 -2686 2690 0
2688 -2690 0
2686 -2690 0
-2529 -2687 2691 0
2529 -2691 0
2687 -2691 0
2690 2691 -2692 0
-2690 2692 0
-2691 2692 0
-194 -2545 2693 0
194 -2693 0
2545 -2693 0
-2535 -2693 -2694 0
2535 2693 -2694 0
2535 -2693 2694 0
-2535 2693 2694 0
-2694 -2692 -2695 0
2694 2692 -2695 0
2694 -2692 2695 0
-2694 2692 2695 0
-2694 -2692 2696 0
2694 -2696 0
2692 -2696 0
-2535 -2693 2697 0
2535 -2697 0
2693 -2697 0
2696 2697 -2698 0
-2696 2698 0
-2697 2698 0
-202 -2545 2699 0
202 -2699 0
2545 -2699 0
-2541 -2699 -2700 0
2541 2699 -2700 0
2541 -2699 2700 0
-2541 2699 2700 0
-2700 -2698 -2701 0
2700 2698 -2701 0
2700 -2698 2701 0
-2700 2698 2701 0
-2700 -2698 2702 0
2700 -2702 0
2698 -2702 0
-2541 -2699 2703 0
2541 -2703 0
2699 -2703 0
2702 2703 -2704 0
-2702 2704 0
-2703 2704 0
-210 -2545 2705 0
210 -2705 0
2545 -2705 0
-2544 -2705 -2706 0
2544 2705 -2706 0
2544 -2705 2706 0
-2544 2705 2706 0
-2706 -2704 -2707 0
2706 2704 -2707 0
2706 -2704 2707 0
-2706 2704 2707 0
-2706 -2704 2708 0
2706 -2708 0
2704 -2708 0
-2544 -2705 2709 0
2544 -2709 0
2705 -2709 0
2708 2709 -2710 0
-2708 2710 0
-2709 2710 0
-1 -2711 2712 0
1 -2712 0
2711 -2712 0
-2551 -2712 -2713 0
2551 2712 -2713 0
2551 -2712 2713 0
-2551 2712 2713 0
-2551 -2712 2714 0
2551 -2714 0
2712 -2714 0
-4 -2711 2715 0
4 -2715 0
2711 -2715 0
-2557 -2715 -2716 0
2557 2715 -2716 0
2557 -2715 2716 0
-2557 2715 2716 0
-2716 -2714 -2717 0
2716 2714 -2717 0
2716 -2714 2717 0
-2716 2714 2717 0
-2716 -2714 2718 0
2716 -2718 0
2714 -2718 0
-2557 -2715 2719 0
2557 -2719 0
2715 -2719 0
2718 2719 -2720 0
-2718 2720 0
-2719 2720 0
-10 -2711 2721 0
10 -2721 0
2711 -2721 0
-2563 -2721 -2722 0
2563 2721 -2722 0
2563 -2721 2722 0
-2563 2721 2722 0
-2722 -2720 -2723 0
2722 2720 -2723 0
2722 -2720 2723 0
-2722 2720 2723 0
-2722 -2720 2724 0
2722 -2724 0
2720 -2724 0
-2563 -2721 2725 0
2563 -2725 0
2721 -2725 0
2724 2725 -2726 0
-2724 2726 0
-2725 2726 0
-18 -2711 2727 0
18 -2727 0
2711 -2727 0
-2569 -2727 -2728 0
2569 2727 -2728 0
2569 -2727 2728 0
-2569 2727 2728 0
-2728 -2726 -2729 0
2728 2726 -2729 0
2728 -2726 2729 0
-2728 2726 2729 0
-2728 -2726 2730 0
2728 -2730 0
2726 -2730 0
-2569 -2727 2731 0
2569 -2731 0
2727 -2731 0
2730 2731 -2732 0
-2730 2732 0
-2731 2732 0
-26 -2711 2733 0
26 -2733 0
2711 -2733 0
-2575 -2733 -2734 0
2575 2733 -2734 0
2575 -2733 2734 0
-2575 2733 2734 0
-2734 -2732 -2735 0
2734 2732 -2735 0
2734 -2732 2735 0
-2734 2732 2735 0
-2734 -2732 2736 0
2734 -2736 0
2732 -2736 0
-2575 -2733 2737 0
2575 -2737 0
2733 -2737 0
2736 2737 -2738 0
-2736 2738 0
-2737 2738 0
-34 -2711 2739 0
34 -2739 0
2711 -2739 0
-2581 -2739 -2740 0
2581 2739 -2740 0
2581 -2739 2740 0
-2581 2739 2740 0
-2740 -2738 -2741 0
2740 2738 -2741 0
2740 -2738 2741 0
-2740 2738 2741 0
-2740 -2738 2742 0
2740 -2742 0
2738 -2742 0
-2581 -2739 2743 0
2581 -2743 0
2739 -2743 0
2742 2743 -2744 0
-2742 2744 0
-2743 2744 0
-42 -2711 2745 0
42 -2745 0
2711 -2745 0
-2587 -2745 -2746 0
2587 2745 -2746 0
2587 -2745 2746 0
-2587 2745 2746 0
-2746 -2744 -2747 0
2746 2744 -2747 0
2746 -2744 2747 0
-2746 2744 2747 0
-2746 -2744 2748 0
2746 -2748 0
2744 -2748 0
-2587 -2745 2749 0
2587 -2749 0
2745 -2749 0
2748 2749 -2750 0
-2748 2750 0
-2749 2750 0
-50 -2711 2751 0
50 -2751 0
2711 -2751 0
-2593 -2751 -2752 0
2593 2751 -2752 0
2593 -2751 2752 0
-2593 2751 2752 0
-2752 -2750 -2753 0
2752 2750 -2753 0
2752 -2750 2753 0
-2752 2750 2753 0
-2752 -2750 2754 0
2752 -2754 0
2750 -2754 0
-2593 -2751 2755 0
2593 -2755 0
2751 -2755 0
2754 2755 -2756 0
-2754 2756 0
-2755 2756 0
-58 -2711 2757 0
58 -2757 0
2711 -2757 0
-2599 -2757 -2758 0
2599 2757 -2758 0
2599 -2757 2758 0
-2599 2757 2758 0
-2758 -2756 -2759 0
2758 2756 -2759 0
2758 -2756 2759 0
-2758 2756 2759 0
-2758 -2756 2760 0
2758 -2760 0
2756 -2760 0
-2599 -2757 2761 0
2599 -2761 0
2757 -2761 0
2760 2761 -2762 0
-2760 2762 0
-2761 2762 0
-66 -2711 2763 0
66 -2763 0
2711 -2763 0
-2605 -2763 -2764 0
2605 2763 -2764 0
2605 -2763 2764 0
-2605 2763 2764 0
-2764 -2762 -2765 0
2764 2762 -2765 0
2764 -2762 2765 0
-2764 2762 2765 0
-2764 -2762 2766 0
2764 -2766 0
2762 -2766 0
-2605 -2763 2767 0
2605 -2767 0
2763 -2767 0
2766 2767 -2768 0
-2766 2768 0
-2767 2768 0
-74 -2711 2769 0
74 -2769 0
2711 -2769 0
-2611 -2769 -2770 0
2611 2769 -2770 0
2611 -2769 2770 0
-2611 2769 2770 0
-2770 -2768 -2771 0
2770 2768 -2771 0
2770 -2768 2771 0
-2770 2768 2771 0
-2770 -2768 2772 0
2770 -2772 0
2768 -2772 0
-2611 -2769 2773 0
2611 -2773 0
2769 -2773 0
2772 2773 -2774 0
-2772 2774 0
-2773 2774 0
-82 -2711 2775 0
82 -2775 0
2711 -2775 0
-2617 -2775 -2776 0
2617 2775 -2776 0
2617 -2775 2776 0
-2617 2775 2776 0
-2776 -2774 -2777 0
2776 2774 -2777 0
2776 -2774 2777 0
-2776 2774 2777 0
-2776 -2774 2778 0
2776 -2778 0
2774 -2778 0
-2617 -2775 2779 0
2617 -2779 0
2775 -2779 0
2778 2779 -2780 0
-2778 2780 0
-2779 2780 0
-90 -2711 2781 0
90 -2781 0
2711 -2781 0
-2623 -2781 -2782 0
2623 2781 -2782 0
2623 -2781 2782 0
-2623 2781 2782 0
-2782 -2780 -2783 0
2782 2780 -2783 0
2782 -2780 2783 0
-2782 2780 2783 0
-2782 -2780 2784 0
2782 -2784 0
2780 -2784 0
-2623 -2781 2785 0
2623 -2785 0
2781 -2785 0
2784 2785 -2786 0
-2784 2786 0
-2785 2786 0
-98 -2711 2787 0
98 -2787 0
2711 -2787 0
-2629 -2787 -2788 0
2629 2787 -2788 0
2629 -2787 2788 0
-2629 2787 2788 0
-2788 -2786 -2789 0
2788 2786 -2789 0
2788 -2786 2789 0
-2788 2786 2789 0
-2788 -2786 2790 0
2788 -2790 0
2786 -2790 0
-2629 -2787 2791 0
2629 -2791 0
2787 -2791 0
2790 2791 -2792 0
-2790 2792 0
-2791 2792 0
-106 -2711 2793 0
106 -2793 0
2711 -2793 0
-2635 -2793 -2794 0
2635 2793 -2794 0
2635 -2793 2794 0
-2635 2793 2794 0
-2794 -2792 -2795 0
2794 2792 -2795 0
2794 -2792 2795 0
-2794 2792 2795 0
-2794 -2792 2796 0
2794 -2796 0
2792 -2796 0
-2635 -2793 2797 0
2635 -2797 0
2793 -2797 0
2796 2797 -2798 0
-2796 2798 0
-2797 2798 0
-114 -2711 2799 0
114 -2799 0
2711 -2799 0
-2641 -2799 -2800 0
2641 2799 -2800 0
2641 -2799 2800 0
-2641 2799 2800 0
-2800 -2798 -2801 0
2800 2798 -2801 0
2800 -2798 2801 0
-2800 2798 2801 0
-2800 -2798 2802 0
2800 -2802 0
2798 -2802 0
-2641 -2799 2803 0
2641 -2803 0
2799 -2803 0
2802 2803 -2804 0
-2802 2804 0
-2803 2804 0
-122 -2711 2805 0
122 -2805 0
2711 -2805 0
-2647 -2805 -2806 0
2647 2805 -2806 0
2647 -2805 2806 0
-2647 2805 2806 0
-2806 -2804 -2807 0
2806 2804 -2807 0
2806 -2804 2807 0
-2806 2804 2807 0
-2806 -2804 2808 0
2806 -2808 0
2804 -2808 0
-2647 -2805 2809 0
2647 -2809 0
2805 -2809 0
2808 2809 -2810 0
-2808 2810 0
-2809 2810 0
-130 -2711 2811 0
130 -2811 0
2711 -2811 0
-2653 -2811 -2812 0
2653 2811 -2812 0
2653 -2811 2812 0
-2653 2811 2812 0
-2812 -2810 -2813 0
2812 2810 -2813 0
2812 -2810 2813 0
-2812 2810 2813 0
-2812 -2810 2814 0
2812 -2814 0
2810 -2814 0
-2653 -2811 2815 0
2653 -2815 0
2811 -2815 0
2814 2815 -2816 0
-2814 2816 0
-2815 2816 0
-138 -2711 2817 0
138 -2817 0
2711 -2817 0
-2659 -2817 -2818 0
2659 2817 -2818 0
2659 -2817 2818 0
-2659 2817 2818 0
-2818 -2816 -2819 0
2818 2816 -2819 0
2818 -2816 2819 0
-2818 2816 2819 0
-2818 -2816 2820 0
2818 -2820 0
2816 -2820 0
-2659 -2817 2821 0
2659 -2821 0
2817 -2821 0
2820 2821 -2822 0
-2820 2822 0
-2821 2822 0
-146 -2711 2823 0
146 -2823 0
2711 -2823 0
-2665 -2823 -2824 0
2665 2823 -2824 0
2665 -2823 2824 0
-2665 2823 2824 0
-2824 -2822 -2825 0
2824 2822 -2825 0
2824 -2822 2825 0
-2824 2822 2825 0
-2824 -2822 2826 0
2824 -2826 0
2822 -2826 0
-2665 -2823 2827 0
2665 -2827 0
2823 -2827 0
2826 2827 -2828 0
-2826 2828 0
-2827 2828 0
-154 -2711 2829 0
154 -2829 0
2711 -2829 0
-2671 -2829 -2830 0
2671 2829 -2830 0
2671 -2829 2830 0
-2671 2829 2830 0
-2830 -2828 -2831 0
2830 2828 -2831 0
2830 -2828 2831 0
-2830 2828 2831 0
-2830 -2828 2832 0
2830 -2832 0
2828 -2832 0
-2671 -2829 2833 0
2671 -2833 0
2829 -2833 0
2832 2833 -2834 0
-2832 2834 0
-2833 2834 0
-162 -2711 2835 0
162 -2835 0
2711 -2835 0
-2677 -2835 -2836 0
2677 2835 -2836 0
2677 -2835 2836 0
-2677 2835 2836 0
-2836 -2834 -2837 0
2836 2834 -2837 0
2836 -2834 2837 0
-2836 2834 2837 0
-2836 -2834 2838 0
2836 -2838 0
2834 -2838 0
-2677 -2835 2839 0
2677 -2839 0
2835 -2839 0
2838 2839 -2840 0
-2838 2840 0
-2839 2840 0
-170 -2711 2841 0
170 -2841 0
2711 -2841 0
-2683 -2841 -2842 0
2683 2841 -2842 0
2683 -2841 2842 0
-2683 2841 2842 0
-2842 -2840 -2843 0
2842 2840 -2843 0
2842 -2840 2843 0
-2842 2840 2843 0
-2842 -2840 2844 0
2842 -2844 0
2840 -2844 0
-2683 -2841 2845 0
2683 -2845 0
2841 -2845 0
2844 2845 -2846 0
-2844 2846 0
-2845 2846 0
-178 -2711 2847 0
178 -2847 0
2711 -2847 0
-2689 -2847 -2848 0
2689 2847 -2848 0
2689 -2847 2848 0
-2689 2847 2848 0
-2848 -2846 -2849 0
2848 2846 -2849 0
2848 -2846 2849 0
-2848 2846 2849 0
-2848 -2846 2850 0
2848 -2850 0
2846 -2850 0
-2689 -2847 2851 0
2689 -2851 0
2847 -2851 0
2850 2851 -2852 0
-2850 2852 0
-2851 2852 0
-186 -2711 2853 0
186 -2853 0
2711 -2853 0
-2695 -2853 -2854 0
2695 2853 -2854 0
2695 -2853 2854 0
-2695 2853 2854 0
-2854 -2852 -2855 0
2854 2852 -2855 0
2854 -2852 2855 0
-2854 2852 2855 0
-2854 -2852 2856 0
2854 -2856 0
2852 -2856 0
-2695 -2853 2857 0
2695 -2857 0
2853 -2857 0
2856 2857 -2858 0
-2856 2858 0
-2857 2858 0
-194 -2711 2859 0
194 -2859 0
2711 -2859 0
-2701 -2859 -2860 0
2701 2859 -2860 0
2701 -2859 2860 0
-2701 2859 2860 0
-2860 -2858 -2861 0
2860 2858 -2861 0
2860 -2858 2861 0
-2860 2858 2861 0
-2860 -2858 2862 0
2860 -2862 0
2858 -2862 0
-2701 -2859 2863 0
2701 -2863 0
2859 -2863 0
2862 2863 -2864 0
-2862 2864 0
-2863 2864 0
-202 -2711 2865 0
202 -2865 0
2711 -2865 0
-2707 -2865 -2866 0
2707 2865 -2866 0
2707 -2865 2866 0
-2707 2865 2866 0
-2866 -2864 -2867 0
2866 2864 -2867 0
2866 -2864 2867 0
-2866 2864 2867 0
-2866 -2864 2868 0
2866 -2868 0
2864 -2868 0
-2707 -2865 2869 0
2707 -2869 0
2865 -2869 0
2868 2869 -2870 0
-2868 2870 0
-2869 2870 0
-210 -2711 2871 0
210 -2871 0
2711 -2871 0
-2710 -2871 -2872 0
2710 2871 -2872 0
2710 -2871 2872 0
-2710 2871 2872 0
-2872 -2870 -2873 0
2872 2870 -2873 0
2872 -2870 2873 0
-2872 2870 2873 0
-2872 -2870 2874 0
2872 -2874 0
2870 -2874 0
-2710 -2871 2875 0
2710 -2875 0
2871 -2875 0
2874 2875 -2876 0
-2874 2876 0
-2875 2876 0
-1 -2877 2878 0
1 -2878 0
2877 -2878 0
-2717 -2878 -2879 0
2717 2878 -2879 0
2717 -2878 2879 0
-2717 2878 2879 0
-2717 -2878 2880 0
2717 -2880 0
2878 -2880 0
-4 -2877 2881 0
4 -2881 0
2877 -2881 0
-2723 -2881 -2882 0
2723 2881 -2882 0
2723 -2881 2882 0
-2723 2881 2882 0
-2882 -2880 -2883 0
2882 2880 -2883 0
2882 -2880 2883 0
-2882 2880 2883 0
-2882 -2880 2884 0
2882 -2884 0
2880 -2884 0
-2723 -2881 2885 0
2723 -2885 0
2881 -2885 0
2884 2885 -2886 0
-2884 2886 0
-2885 2886 0
-10 -2877 2887 0
10 -2887 0
2877 -2887 0
-2729 -2887 -2888 0
2729 2887 -2888 0
2729 -2887 2888 0
-2729 2887 2888 0
-2888 -2886 -2889 0
2888 2886 -2889 0
2888 -2886 2889 0
-2888 2886 2889 0
-2888 -2886 2890 0
2888 -2890 0
2886 -2890 0
-2729 -2887 2891 0
2729 -2891 0
2887 -2891 0
2890 2891 -2892 0
-2890 2892 0
-2891 2892 0
-18 -2877 2893 0
18 -2893 0
2877 -2893 0
-2735 -2893 -2894 0
2735 2893 -2894 0
2735 -2893 2894 0
-2735 2893 2894 0
-2894 -2892 -2895 0
2894 2892 -2895 0
2894 -2892 2895 0
-2894 2892 2895 0
-2894 -2892 2896 0
2894 -2896 0
2892 -2896 0
-2735 -2893 2897 0
2735 -2897 0
2893 -2897 0
2896 2897 -2898 0
-2896 2898 0
-2897 2898 0
-26 -2877 2899 0
26 -2899 0
2877 -2899 0
-2741 -2899 -2900 0
2741 2899 -2900 0
2741 -2899 2900 0
-2741 2899 2900 0
-2900 -2898 -2901 0
2900 2898 -2901 0
2900 -2898 2901 0
-2900 2898 2901 0
-2900 -2898 2902 0
2900 -2902 0
2898 -2902 0
-2741 -2899 2903 0
2741 -2903 0
2899 -2903 0
2902 2903 -2904 0
-2902 2904 0
-2903 2904 0
-34 -2877 2905 0
34 -2905 0
2877 -2905 0
-2747 -2905 -2906 0
2747 2905 -2906 0
2747 -2905 2906 0
-2747 2905 2906 0
-2906 -2904 -2907 0
2906 2904 -2907 0
2906 -2904 2907 0
-2906 2904 2907 0
-2906 -2904 2908 0
2906 -2908 0
2904 -2908 0
-2747 -2905 2909 0
2747 -2909 0
2905 -2909 0
2908 2909 -2910 0
-2908 2910 0
-2909 2910 0
-42 -2877 2911 0
42 -2911 0
2877 -2911 0
-2753 -2911 -2912 0
2753 2911 -2912 0
2753 -2911 2912 0
-2753 2911 2912 0
-2912 -2910 -2913 0
2912 2910 -2913 0
2912 -2910 2913 0
-2912 2910 2913 0
-2912 -2910 2914 0
2912 -2914 0
2910 -2914 0
-2753 -2911 2915 0
2753 -2915 0
2911 -2915 0
2914 2915 -2916 0
-2914 2916 0
-2915 2916 0
-50 -2877 2917 0
50 -2917 0
2877 -2917 0
-2759 -2917 -2918 0
2759 2917 -2918 0
2759 -2917 2918 0
-2759 2917 2918 0
-2918 -2916 -2919 0
2918 2916 -2919 0
2918 -2916 2919 0
-2918 2916 2919 0
-2918 -2916 2920 0
2918 -2920 0
2916 -2920 0
-2759 -2917 2921 0
2759 -2921 0
2917 -2921 0
2920 2921 -2922 0
-2920 2922 0
-2921 2922 0
-58 -2877 2923 0
58 -2923 0
2877 -2923 0
-2765 -2923 -2924 0
2765 2923 -2924 0
2765 -2923 2924 0
-2765 2923 2924 0
-2924 -2922 -2925 0
2924 2922 -2925 0
2924 -2922 2925 0
-2924 2922 2925 0
-2924 -2922 2926 0
2924 -2926 0
2922 -2926 0
-2765 -2923 2927 0
2765 -2927 0
2923 -2927 0
2926 2927 -2928 0
-2926 2928 0
-2927 2928 0
-66 -2877 2929 0
66 -2929 0
2877 -2929 0
-2771 -2929 -2930 0
2771 2929 -2930 0
2771 -2929 2930 0
-2771 2929 2930 0
-2930 -2928 -2931 0
2930 2928 -2931 0
2930 -2928 2931 0
-2930 2928 2931 0
-2930 -2928 2932 0
2930 -2932 0
2928 -2932 0
-2771 -2929 2933 0
2771 -2933 0
2929 -2933 0
2932 2933 -2934 0
-2932 2934 0
-2933 2934 0
-74 -2877 2935 0
74 -2935 0
2877 -2935 0
-2777 -2935 -2936 0
2777 2935 -2936 0
2777 -2935 2936 0
-2777 2935 2936 0
-2936 -2934 -2937 0
2936 2934 -2937 0
2936 -2934 2937 0
-2936 2934 2937 0
-2936 -2934 2938 0
2936 -2938 0
2934 -2938 0
-2777 -2935 2939 0
2777 -2939 0
2935 -2939 0
2938 2939 -2940 0
-2938 2940 0
-2939 2940 0
-82 -2877 2941 0
82 -2941 0
2877 -2941 0
-2783 -2941 -2942 0
2783 2941 -2942 0
2783 -2941 2942 0
-2783 2941 2942 0
-2942 -2940 -2943 0
2942 2940 -2943 0
2942 -2940 2943 0
-2942 2940 2943 0
-2942 -2940 2944 0
2942 -2944 0
2940 -2944 0
-2783 -2941 2945 0
2783 -2945 0
2941 -2945 0
2944 2945 -2946 0
-2944 2946 0
-2945 2946 0
-90 -2877 2947 0
90 -2947 0
2877 -2947 0
-2789 -2947 -2948 0
2789 2947 -2948 0
2789 -2947 2948 0
-2789 2947 2948 0
-2948 -2946 -2949 0
2948 2946 -2949 0
2948 -2946 2949 0
-2948 2946 2949 0
-2948 -2946 2950 0
2948 -2950 0
2946 -2950 0
-2789 -2947 2951 0
2789 -2951 0
2947 -2951 0
2950 2951 -2952 0
-2950 2952 0
-2951 2952 0
-98 -2877 2953 0
98 -2953 0
2877 -2953 0
-2795 -2953 -2954 0
2795 2953 -2954 0
2795 -2953 2954 0
-2795 2953 2954 0
-2954 -2952 -2955 0
2954 2952 -2955 0
2954 -2952 2955 0
-2954 2952 2955 0
-2954 -2952 2956 0
2954 -2956 0
2952 -2956 0
-2795 -2953 2957 0
2795 -2957 0
2953 -2957 0
2956 2957 -2958 0
-2956 2958 0
-2957 2958 0
-106 -2877 2959 0
106 -2959 0
2877 -2959 0
-2801 -2959 -2960 0
2801 2959 -2960 0
2801 -2959 2960 0
-2801 2959 2960 0
-2960 -2958 -2961 0
2960 2958 -2961 0
2960 -2958 2961 0
-2960 2958 2961 0
-2960 -2958 2962 0
2960 -2962 0
2958 -2962 0
-2801 -2959 2963 0
2801 -2963 0
2959 -2963 0
2962 2963 -2964 0
-2962 2964 0
-2963 2964 0
-114 -2877 2965 0
114 -2965 0
2877 -2965 0
-2807 -2965 -2966 0
2807 2965 -2966 0
2807 -2965 2966 0
-2807 2965 2966 0
-2966 -2964 -2967 0
2966 2964 -2967 0
2966 -2964 2967 0
-2966 2964 2967 0
-2966 -2964 2968 0
2966 -2968 0
2964 -2968 0
-2807 -2965 2969 0
2807 -2969 0
2965 -2969 0
2968 2969 -2970 0
-2968 2970 0
-2969 2970 0
-122 -2877 2971 0
122 -2971 0
2877 -2971 0
-2813 -2971 -2972 0
2813 2971 -2972 0
2813 -2971 2972 0
-2813 2971 2972 0
-2972 -2970 -2973 0
2972 2970 -2973 0
2972 -2970 2973 0
-2972 2970 2973 0
-2972 -2970 2974 0
2972 -2974 0
2970 -2974 0
-2813 -2971 2975 0
2813 -2975 0
2971 -2975 0
2974 2975 -2976 0
-2974 2976 0
-2975 2976 0
-130 -2877 2977 0
130 -2977 0
2877 -2977 0
-2819 -2977 -2978 0
2819 2977 -2978 0
2819 -2977 2978 0
-2819 2977 2978 0
-2978 -2976 -2979 0
2978 2976 -2979 0
2978 -2976 2979 0
-2978 2976 2979 0
-2978 -2976 2980 0
2978 -2980 0
2976 -2980 0
-2819 -2977 2981 0
2819 -2981 0
2977 -2981 0
2980 2981 -2982 0
-2980 2982 0
-2981 2982 0
-138 -2877 2983 0
138 -2983 0
2877 -2983 0
-2825 -2983 -2984 0
2825 2983 -2984 0
2825 -2983 2984 0
-2825 2983 2984 0
-2984 -2982 -2985 0
2984 2982 -2985 0
2984 -2982 2985 0
-2984 2982 2985 0
-2984 -2982 2986 0
2984 -2986 0
2982 -2986 0
-2825 -2983 2987 0
2825 -2987 0
2983 -2987 0
2986 2987 -2988 0
-2986 2988 0
-2987 2988 0
-146 -2877 2989 0
146 -2989 0
2877 -2989 0
-2831 -2989 -2990 0
2831 2989 -2990 0
2831 -2989 2990 0
-2831 2989 2990 0
-2990 -2988 -2991 0
2990 2988 -2991 0
2990 -2988 2991 0
-2990 2988 2991 0
-2990 -2988 2992 0
2990 -2992 0
2988 -2992 0
-2831 -2989 2993 0
2831 -2993 0
2989 -2993 0
2992 2993 -2994 0
-2992 2994 0
-2993 2994 0
-154 -2877 2995 0
154 -2995 0
2877 -2995 0
-2837 -2995 -2996 0
2837 2995 -2996 0
2837 -2995 2996 0
-2837 2995 2996 0
-2996 -2994 -2997 0
2996 2994 -2997 0
2996 -2994 2997 0
-2996 2994 2997 0
-2996 -2994 2998 0
2996 -2998 0
2994 -2998 0
-2837 -2995 2999 0
2837 -2999 0
2995 -2999 0
2998 2999 -3000 0
-2998 3000 0
-2999 3000 0
-162 -2877 3001 0
162 -3001 0
2877 -3001 0
-2843 -3001 -3002 0
2843 3001 -3002 0
2843 -3001 3002 0
-2843 3001 3002 0
-3002 -3000 -3003 0
3002 3000 -3003 0
3002 -3000 3003 0
-3002 3000 3003 0
-3002 -3000 3004 0
3002 -3004 0
3000 -3004 0
-2843 -3001 3005 0
2843 -3005 0
3001 -3005 0
3004 3005 -3006 0
-3004 3006 0
-3005 3006 0
-170 -2877 3007 0
170 -3007 0
2877 -3007 0
-2849 -3007 -3008 0
2849 3007 -3008 0
2849 -3007 3008 0
-2849 3007 3008 0
-3008 -3006 -3009 0
3008 3006 -3009 0
3008 -3006 3009 0
-3008 3006 3009 0
-3008 -3006 3010 0
3008 -3010 0
3006 -3010 0
-2849 -3007 3011 0
2849 -3011 0
3007 -3011 0
3010 3011 -3012 0
-3010 3012 0
-3011 3012 0
-178 -2877 3013 0
178 -3013 0
2877 -3013 0
-2855 -3013 -3014 0
2855 3013 -3014 0
2855 -3013 3014 0
-2855 3013 3014 0
-3014 -3012 -3015 0
3014 3012 -3015 0
3014 -3012 3015 0
-3014 3012 3015 0
-3014 -3012 3016 0
3014 -3016 0
3012 -3016 0
-2855 -3013 3017 0
2855 -3017 0
3013 -3017 0
3016 3017 -3018 0
-3016 3018 0
-3017 3018 0
-186 -2877 3019 0
186 -3019 0
2877 -3019 0
-2861 -3019 -3020 0
2861 3019 -3020 0
2861 -3019 3020 0
-2861 3019 3020 0
-3020 -3018 -3021 0
3020 3018 -3021 0
3020 -3018 3021 0
-3020 3018 3021 0
-3020 -3018 3022 0
3020 -3022 0
3018 -3022 0
-2861 -3019 3023 0
2861 -3023 0
3019 -3023 0
3022 3023 -3024 0
-3022 3024 0
-3023 3024 0
-194 -2877 3025 0
194 -3025 0
2877 -3025 0
-2867 -3025 -3026 0
2867 3025 -3026 0
2867 -3025 3026 0
-2867 3025 3026 0
-3026 -3024 -3027 0
3026 3024 -3027 0
3026 -3024 3027 0
-3026 3024 3027 0
-3026 -3024 3028 0
3026 -3028 0
3024 -3028 0
-2867 -3025 3029 0
2867 -3029 0
3025 -3029 0
3028 3029 -3030 0
-3028 3030 0
-3029 3030 0
-202 -2877 3031 0
202 -3031 0
2877 -3031 0
-2873 -3031 -3032 0
2873 3031 -3032 0
2873 -3031 3032 0
-2873 3031 3032 0
-3032 -3030 -3033 0
3032 3030 -3033 0
3032 -3030 3033 0
-3032 3030 3033 0
-3032 -3030 3034 0
3032 -3034 0
3030 -3034 0
-2873 -3031 3035 0
2873 -3035 0
3031 -3035 0
3034 3035 -3036 0
-3034 3036 0
-3035 3036 0
-210 -2877 3037 0
210 -3037 0
2877 -3037 0
-2876 -3037 -3038 0
2876 3037 -3038 0
2876 -3037 3038 0
-2876 3037 3038 0
-3038 -3036 -3039 0
3038 3036 -3039 0
3038 -3036 3039 0
-3038 3036 3039 0
-3038 -3036 3040 0
3038 -3040 0
3036 -3040 0
-2876 -3037 3041 0
2876 -3041 0
3037 -3041 0
3040 3041 -3042 0
-3040 3042 0
-3041 3042 0
-1 -3043 3044 0
1 -3044 0
3043 -3044 0
-2883 -3044 -3045 0
2883 3044 -3045 0
2883 -3044 3045 0
-2883 3044 3045 0
-2883 -3044 3046 0
2883 -3046 0
3044 -3046 0
-4 -3043 3047 0
4 -3047 0
3043 -3047 0
-2889 -3047 -3048 0
2889 3047 -3048 0
2889 -3047 3048 0
-2889 3047 3048 0
-3048 -3046 -3049 0
3048 3046 -3049 0
3048 -3046 3049 0
-3048 3046 3049 0
-3048 -3046 3050 0
3048 -3050 0
3046 -3050 0
-2889 -3047 3051 0
2889 -3051 0
3047 -3051 0
3050 3051 -3052 0
-3050 3052 0
-3051 3052 0
-10 -3043 3053 0
10 -3053 0
3043 -3053 0
-2895 -3053 -3054 0
2895 3053 -3054 0
2895 -3053 3054 0
-2895 3053 3054 0
-3054 -3052 -3055 0
3054 3052 -3055 0
3054 -3052 3055 0
-3054 3052 3055 0
-3054 -3052 3056 0
3054 -3056 0
3052 -3056 0
-2895 -3053 3057 0
2895 -3057 0
3053 -3057 0
3056 3057 -3058 0
-3056 3058 0
-3057 3058 0
-18 -3043 3059 0
18 -3059 0
3043 -3059 0
-2901 -3059 -3060 0
2901 3059 -3060 0
2901 -3059 3060 0
-2901 3059 3060 0
-3060 -3058 -3061 0
3060 3058 -3061 0
3060 -3058 3061 0
-3060 3058 3061 0
-3060 -3058 3062 0
3060 -3062 0
3058 -3062 0
-2901 -3059 3063 0
2901 -3063 0
3059 -3063 0
3062 3063 -3064 0
-3062 3064 0
-3063 3064 0
-26 -3043 3065 0
26 -3065 0
3043 -3065 0
-2907 -3065 -3066 0
2907 3065 -3066 0
2907 -3065 3066 0
-2907 3065 3066 0
-3066 -3064 -3067 0
3066 3064 -3067 0
3066 -3064 3067 0
-3066 3064 3067 0
-3066 -3064 3068 0
3066 -3068 0
3064 -3068 0
-2907 -3065 3069 0
2907 -3069 0
3065 -3069 0
3068 3069 -3070 0
-3068 3070 0
-3069 3070 0
-34 -3043 3071 0
34 -3071 0
3043 -3071 0
-2913 -3071 -3072 0
2913 3071 -3072 0
2913 -3071 3072 0
-2913 3071 3072 0
-3072 -3070 -3073 0
3072 3070 -3073 0
3072 -3070 3073 0
-3072 3070 3073 0
-3072 -3070 3074 0
3072 -3074 0
3070 -3074 0
-2913 -3071 3075 0
2913 -3075 0
3071 -3075 0
3074 3075 -3076 0
-3074 3076 0
-3075 3076 0
-42 -3043 3077 0
42 -3077 0
3043 -3077 0
-2919 -3077 -3078 0
2919 3077 -3078 0
2919 -3077 3078 0
-2919 3077 3078 0
-3078 -3076 -3079 0
3078 3076 -3079 0
3078 -3076 3079 0
-3078 3076 3079 0
-3078 -3076 3080 0
3078 -3080 0
3076 -3080 0
-2919 -3077 3081 0
2919 -3081 0
3077 -3081 0
3080 3081 -3082 0
-3080 3082 0
-3081 3082 0
-50 -3043 3083 0
50 -3083 0
3043 -3083 0
-2925 -3083 -3084 0
2925 3083 -3084 0
2925 -3083 3084 0
-2925 3083 3084 0
-3084 -3082 -3085 0
3084 3082 -3085 0
3084 -3082 3085 0
-3084 3082 3085 0
-3084 -3082 3086 0
3084 -3086 0
3082 -3086 0
-2925 -3083 3087 0
2925 -3087 0
3083 -3087 0
3086 3087 -3088 0
-3086 3088 0
-3087 3088 0
-58 -3043 3089 0
58 -3089 0
3043 -3089 0
-2931 -3089 -3090 0
2931 3089 -3090 0
2931 -3089 3090 0
-2931 3089 3090 0
-3090 -3088 -3091 0
3090 3088 -3091 0
3090 -3088 3091 0
-3090 3088 3091 0
-3090 -3088 3092 0
3090 -3092 0
3088 -3092 0
-2931 -3089 3093 0
2931 -3093 0
3089 -3093 0
3092 3093 -3094 0
-3092 3094 0
-3093 3094 0
-66 -3043 3095 0
66 -3095 0
3043 -3095 0
-2937 -3095 -3096 0
2937 3095 -3096 0
2937 -3095 3096 0
-2937 3095 3096 0
-3096 -3094 -3097 0
3096 3094 -3097 0
3096 -3094 3097 0
-3096 3094 3097 0
-3096 -3094 3098 0
3096 -3098 0
3094 -3098 0
-2937 -3095 3099 0
2937 -3099 0
3095 -3099 0
3098 3099 -3100 0
-3098 3100 0
-3099 3100 0
-74 -3043 3101 0
74 -3101 0
3043 -3101 0
-2943 -3101 -3102 0
2943 3101 -3102 0
2943 -3101 3102 0
-2943 3101 3102 0
-3102 -3100 -3103 0
3102 3100 -3103 0
3102 -3100 3103 0
-3102 3100 3103 0
-3102 -3100 3104 0
3102 -3104 0
3100 -3104 0
-2943 -3101 3105 0
2943 -3105 0
3101 -3105 0
3104 3105 -3106 0
-3104 3106 0
-3105 3106 0
-82 -3043 3107 0
82 -3107 0
3043 -3107 0
-2949 -3107 -3108 0
2949 3107 -3108 0
2949 -3107 3108 0
-2949 3107 3108 0
-3108 -3106 -3109 0
3108 3106 -3109 0
3108 -3106 3109 0
-3108 3106 3109 0
-3108 -3106 3110 0
3108 -3110 0
3106 -3110 0
-2949 -3107 3111 0
2949 -3111 0
3107 -3111 0
3110 3111 -3112 0
-3110 3112 0
-3111 3112 0
-90 -3043 3113 0
90 -3113 0
3043 -3113 0
-2955 -3113 -3114 0
2955 3113 -3114 0
2955 -3113 3114 0
-2955 3113 3114 0
-3114 -3112 -3115 0
3114 3112 -3115 0
3114 -3112 3115 0
-3114 3112 3115 0
-3114 -3112 3116 0
3114 -3116 0
3112 -3116 0
-2955 -3113 3117 0
2955 -3117 0
3113 -3117 0
3116 3117 -3118 0
-3116 3118 0
-3117 3118 0
-98 -3043 3119 0
98 -3119 0
3043 -3119 0
-2961 -3119 -3120 0
2961 3119 -3120 0
2961 -3119 3120 0
-2961 3119 3120 0
-3120 -3118 -3121 0
3120 3118 -3121 0
3120 -3118 3121 0
-3120 3118 3121 0
-3120 -3118 3122 0
3120 -3122 0
3118 -3122 0
-2961 -3119 3123 0
2961 -3123 0
3119 -3123 0
3122 3123 -3124 0
-3122 3124 0
-3123 3124 0
-106 -3043 3125 0
106 -3125 0
3043 -3125 0
-2967 -3125 -3126 0
2967 3125 -3126 0
2967 -3125 3126 0
-2967 3125 3126 0
-3126 -3124 -3127 0
3126 3124 -3127 0
3126 -3124 3127 0
-3126 3124 3127 0
-3126 -3124 3128 0
3126 -3128 0
3124 -3128 0
-2967 -3125 3129 0
2967 -3129 0
3125 -3129 0
3128 3129 -3130 0
-3128 3130 0
-3129 3130 0
-114 -3043 3131 0
114 -3131 0
3043 -3131 0
-2973 -3131 -3132 0
2973 3131 -3132 0
2973 -3131 3132 0
-2973 3131 3132 0
-3132 -3130 -3133 0
3132 3130 -3133 0
3132 -3130 3133 0
-3132 3130 3133 0
-3132 -3130 3134 0
3132 -3134 0
3130 -3134 0
-2973 -3131 3135 0
2973 -3135 0
3131 -3135 0
3134 3135 -3136 0
-3134 3136 0
-3135 3136 0
-122 -3043 3137 0
122 -3137 0
3043 -3137 0
-2979 -3137 -3138 0
2979 3137 -3138 0
2979 -3137 3138 0
-2979 3137 3138 0
-3138 -3136 -3139 0
3138 3136 -3139 0
3138 -3136 3139 0
-3138 3136 3139 0
-3138 -3136 3140 0
3138 -3140 0
3136 -3140 0
-2979 -3137 3141 0
2979 -3141 0
3137 -3141 0
3140 3141 -3142 0
-3140 3142 0
-3141 3142 0
-130 -3043 3143 0
130 -3143 0
3043 -3143 0
-2985 -3143 -3144 0
2985 3143 -3144 0
2985 -3143 3144 0
-2985 3143 3144 0
-3144 -3142 -3145 0
3144 3142 -3145 0
3144 -3142 3145 0
-3144 3142 3145 0
-3144 -3142 3146 0
3144 -3146 0
3142 -3146 0
-2985 -3143 3147 0
2985 -3147 0
3143 -3147 0
3146 3147 -3148 0
-3146 3148 0
-3147 3148 0
-138 -3043 3149 0
138 -3149 0
3043 -3149 0
-2991 -3149 -3150 0
2991 3149 -3150 0
2991 -3149 3150 0
-2991 3149 3150 0
-3150 -3148 -3151 0
3150 3148 -3151 0
3150 -3148 3151 0
-3150 3148 3151 0
-3150 -3148 3152 0
3150 -3152 0
3148 -3152 0
-2991 -3149 3153 0
2991 -3153 0
3149 -3153 0
3152 3153 -3154 0
-3152 3154 0
-3153 3154 0
-146 -3043 3155 0
146 -3155 0
3043 -3155 0
-2997 -3155 -3156 0
2997 3155 -3156 0
2997 -3155 3156 0
-2997 3155 3156 0
-3156 -3154 -3157 0
3156 3154 -3157 0
3156 -3154 3157 0
-3156 3154 3157 0
-3156 -3154 3158 0
3156 -3158 0
3154 -3158 0
-2997 -3155 3159 0
2997 -3159 0
3155 -3159 0
3158 3159 -3160 0
-3158 3160 0
-3159 3160 0
-154 -3043 3161 0
154 -3161 0
3043 -3161 0
-3003 -3161 -3162 0
3003 3161 -3162 0
3003 -3161 3162 0
-3003 3161 3162 0
-3162 -3160 -3163 0
3162 3160 -3163 0
3162 -3160 3163 0
-3162 3160 3163 0
-3162 -3160 3164 0
3162 -3164 0
3160 -3164 0
-3003 -3161 3165 0
3003 -3165 0
3161 -3165 0
3164 3165 -3166 0
-3164 3166 0
-3165 3166 0
-162 -3043 3167 0
162 -3167 0
3043 -3167 0
-3009 -3167 -3168 0
3009 3167 -3168 0
3009 -3167 3168 0
-3009 3167 3168 0
-3168 -3166 -3169 0
3168 3166 -3169 0
3168 -3166 3169 0
-3168 3166 3169 0
-3168 -3166 3170 0
3168 -3170 0
3166 -3170 0
-3009 -3167 3171 0
3009 -3171 0
3167 -3171 0
3170 3171 -3172 0
-3170 3172 0
-3171 3172 0
-170 -3043 3173 0
170 -3173 0
3043 -3173 0
-3015 -3173 -3174 0
3015 3173 -3174 0
3015 -3173 3174 0
-3015 3173 3174 0
-3174 -3172 -3175 0
3174 3172 -3175 0
3174 -3172 3175 0
-3174 3172 3175 0
-3174 -3172 3176 0
3174 -3176 0
3172 -3176 0
-3015 -3173 3177 0
3015 -3177 0
3173 -3177 0
3176 3177 -3178 0
-3176 3178 0
-3177 3178 0
-178 -3043 3179 0
178 -3179 0
3043 -3179 0
-3021 -3179 -3180 0
3021 3179 -3180 0
3021 -3179 3180 0
-3021 3179 3180 0
-3180 -3178 -3181 0
3180 3178 -3181 0
3180 -3178 3181 0
-3180 3178 3181 0
-3180 -3178 3182 0
3180 -3182 0
3178 -3182 0
-3021 -3179 3183 0
3021 -3183 0
3179 -3183 0
3182 3183 -3184 0
-3182 3184 0
-3183 3184 0
-186 -3043 3185 0
186 -3185 0
3043 -3185 0
-3027 -3185 -3186 0
3027 3185 -3186 0
3027 -3185 3186 0
-3027 3185 3186 0
-3186 -3184 -3187 0
3186 3184 -3187 0
3186 -3184 3187 0
-3186 3184 3187 0
-3186 -3184 3188 0
3186 -3188 0
3184 -3188 0
-3027 -3185 3189 0
3027 -3189 0
3185 -3189 0
3188 3189 -3190 0
-3188 3190 0
-3189 3190 0
-194 -3043 3191 0
194 -3191 0
3043 -3191 0
-3033 -3191 -3192 0
3033 3191 -3192 0
3033 -3191 3192 0
-3033 3191 3192 0
-3192 -3190 -3193 0
3192 3190 -3193 0
3192 -3190 3193 0
-3192 3190 3193 0
-3192 -3190 3194 0
3192 -3194 0
3190 -3194 0
-3033 -3191 3195 0
3033 -3195 0
3191 -3195 0
3194 3195 -3196 0
-3194 3196 0
-3195 3196 0
-202 -3043 3197 0
202 -3197 0
3043 -3197 0
-3039 -3197 -3198 0
3039 3197 -3198 0
3039 -3197 3198 0
-3039 3197 3198 0
-3198 -3196 -3199 0
3198 3196 -3199 0
3198 -3196 3199 0
-3198 3196 3199 0
-3198 -3196 3200 0
3198 -3200 0
3196 -3200 0
-3039 -3197 3201 0
3039 -3201 0
3197 -3201 0
3200 3201 -3202 0
-3200 3202 0
-3201 3202 0
-210 -3043 3203 0
210 -3203 0
3043 -3203 0
-3042 -3203 -3204 0
3042 3203 -3204 0
3042 -3203 3204 0
-3042 3203 3204 0
-3204 -3202 -3205 0
3204 3202 -3205 0
3204 -3202 3205 0
-3204 3202 3205 0
-3204 -3202 3206 0
3204 -3206 0
3202 -3206 0
-3042 -3203 3207 0
3042 -3207 0
3203 -3207 0
3206 3207 -3208 0
-3206 3208 0
-3207 3208 0
-1 -3209 3210 0
1 -3210 0
3209 -3210 0
-3049 -3210 -3211 0
3049 3210 -3211 0
3049 -3210 3211 0
-3049 3210 3211 0
-3049 -3210 3212 0
3049 -3212 0
3210 -3212 0
-4 -3209 3213 0
4 -3213 0
3209 -3213 0
-3055 -3213 -3214 0
3055 3213 -3214 0
3055 -3213 3214 0
-3055 3213 3214 0
-3214 -3212 -3215 0
3214 3212 -3215 0
3214 -3212 3215 0
-3214 3212 3215 0
-3214 -3212 3216 0
3214 -3216 0
3212 -3216 0
-3055 -3213 3217 0
3055 -3217 0
3213 -3217 0
3216 3217 -3218 0
-3216 3218 0
-3217 3218 0
-10 -3209 3219 0
10 -3219 0
3209 -3219 0
-3061 -3219 -3220 0
3061 3219 -3220 0
3061 -3219 3220 0
-3061 3219 3220 0
-3220 -3218 -3221 0
3220 3218 -3221 0
3220 -3218 3221 0
-3220 3218 3221 0
-3220 -3218 3222 0
3220 -3222 0
3218 -3222 0
-3061 -3219 3223 0
3061 -3223 0
3219 -3223 0
3222 3223 -3224 0
-3222 3224 0
-3223 3224 0
-18 -3209 3225 0
18 -3225 0
3209 -3225 0
-3067 -3225 -3226 0
3067 3225 -3226 0
3067 -3225 3226 0
-3067 3225 3226 0
-3226 -3224 -3227 0
3226 3224 -3227 0
3226 -3224 3227 0
-3226 3224 3227 0
-3226 -3224 3228 0
3226 -3228 0
3224 -3228 0
-3067 -3225 3229 0
3067 -3229 0
3225 -3229 0
3228 3229 -3230 0
-3228 3230 0
-3229 3230 0
-26 -3209 3231 0
26 -3231 0
3209 -3231 0
-3073 -3231 -3232 0
3073 3231 -3232 0
3073 -3231 3232 0
-3073 3231 3232 0
-3232 -3230 -3233 0
3232 3230 -3233 0
3232 -3230 3233 0
-3232 3230 3233 0
-3232 -3230 3234 0
3232 -3234 0
3230 -3234 0
-3073 -3231 3235 0
3073 -3235 0
3231 -3235 0
3234 3235 -3236 0
-3234 3236 0
-3235 3236 0
-34 -3209 3237 0
34 -3237 0
3209 -3237 0
-3079 -3237 -3238 0
3079 3237 -3238 0
3079 -3237 3238 0
-3079 3237 3238 0
-3238 -3236 -3239 0
3238 3236 -3239 0
3238 -3236 3239 0
-3238 3236 3239 0
-3238 -3236 3240 0
3238 -3240 0
3236 -3240 0
-3079 -3237 3241 0
3079 -3241 0
3237 -3241 0
3240 3241 -3242 0
-3240 3242 0
-3241 3242 0
-42 -3209 3243 0
42 -3243 0
3209 -3243 0
-3085 -3243 -3244 0
3085 3243 -3244 0
3085 -3243 3244 0
-3085 3243 3244 0
-3244 -3242 -3245 0
3244 3242 -3245 0
3244 -3242 3245 0
-3244 3242 3245 0
-3244 -3242 3246 0
3244 -3246 0
3242 -3246 0
-3085 -3243 3247 0
3085 -3247 0
3243 -3247 0
3246 3247 -3248 0
-3246 3248 0
-3247 3248 0
-50 -3209 3249 0
50 -3249 0
3209 -3249 0
-3091 -3249 -3250 0
3091 3249 -3250 0
3091 -3249 3250 0
-3091 3249 3250 0
-3250 -3248 -3251 0
3250 3248 -3251 0
3250 -3248 3251 0
-3250 3248 3251 0
-3250 -3248 3252 0
3250 -3252 0
3248 -3252 0
-3091 -3249 3253 0
3091 -3253 0
3249 -3253 0
3252 3253 -3254 0
-3252 3254 0
-3253 3254 0
-58 -3209 3255 0
58 -3255 0
3209 -3255 0
-3097 -3255 -3256 0
3097 3255 -3256 0
3097 -3255 3256 0
-3097 3255 3256 0
-3256 -3254 -3257 0
3256 3254 -3257 0
3256 -3254 3257 0
-3256 3254 3257 0
-3256 -3254 3258 0
3256 -3258 0
3254 -3258 0
-3097 -3255 3259 0
3097 -3259 0
3255 -3259 0
3258 3259 -3260 0
-3258 3260 0
-3259 3260 0
-66 -3209 3261 0
66 -3261 0
3209 -3261 0
-3103 -3261 -3262 0
3103 3261 -3262 0
3103 -3261 3262 0
-3103 3261 3262 0
-3262 -3260 -3263 0
3262 3260 -3263 0
3262 -3260 3263 0
-3262 3260 3263 0
-3262 -3260 3264 0
3262 -3264 0
3260 -3264 0
-3103 -3261 3265 0
3103 -3265 0
3261 -3265 0
3264 3265 -3266 0
-3264 3266 0
-3265 3266 0
-74 -3209 3267 0
74 -3267 0
3209 -3267 0
-3109 -3267 -3268 0
3109 3267 -3268 0
3109 -3267 3268 0
-3109 3267 3268 0
-3268 -3266 -3269 0
3268 3266 -3269 0
3268 -3266 3269 0
-3268 3266 3269 0
-3268 -3266 3270 0
3268 -3270 0
3266 -3270 0
-3109 -3267 3271 0
3109 -3271 0
3267 -3271 0
3270 3271 -3272 0
-3270 3272 0
-3271 3272 0
-82 -3209 3273 0
82 -3273 0
3209 -3273 0
-3115 -3273 -3274 0
3115 3273 -3274 0
3115 -3273 3274 0
-3115 3273 3274 0
-3274 -3272 -3275 0
3274 3272 -3275 0
3274 -3272 3275 0
-3274 3272 3275 0
-3274 -3272 3276 0
3274 -3276 0
3272 -3276 0
-3115 -3273 3277 0
3115 -3277 0
3273 -3277 0
3276 3277 -3278 0
-3276 3278 0
-3277 3278 0
-90 -3209 3279 0
90 -3279 0
3209 -3279 0
-3121 -3279 -3280 0
3121 3279 -3280 0
3121 -3279 3280 0
-3121 3279 3280 0
-3280 -3278 -3281 0
3280 3278 -3281 0
3280 -3278 3281 0
-3280 3278 3281 0
-3280 -3278 3282 0
3280 -3282 0
3278 -3282 0
-3121 -3279 3283 0
3121 -3283 0
3279 -3283 0
3282 3283 -3284 0
-3282 3284 0
-3283 3284 0
-98 -3209 3285 0
98 -3285 0
3209 -3285 0
-3127 -3285 -3286 0
3127 3285 -3286 0
3127 -3285 3286 0
-3127 3285 3286 0
-3286 -3284 -3287 0
3286 3284 -3287 0
3286 -3284 3287 0
-3286 3284 3287 0
-3286 -3284 3288 0
3286 -3288 0
3284 -3288 0
-3127 -3285 3289 0
3127 -3289 0
3285 -3289 0
3288 3289 -3290 0
-3288 3290 0
-3289 3290 0
-106 -3209 3291 0
106 -3291 0
3209 -3291 0
-3133 -3291 -3292 0
3133 3291 -3292 0
3133 -3291 3292 0
-3133 3291 3292 0
-3292 -3290 -3293 0
3292 3290 -3293 0
3292 -3290 3293 0
-3292 3290 3293 0
-3292 -3290 3294 0
3292 -3294 0
3290 -3294 0
-3133 -3291 3295 0
3133 -3295 0
3291 -3295 0
3294 3295 -3296 0
-3294 3296 0
-3295 3296 0
-114 -3209 3297 0
114 -3297 0
3209 -3297 0
-3139 -3297 -3298 0
3139 3297 -3298 0
3139 -3297 3298 0
-3139 3297 3298 0
-3298 -3296 -3299 0
3298 3296 -3299 0
3298 -3296 3299 0
-3298 3296 3299 0
-3298 -3296 3300 0
3298 -3300 0
3296 -3300 0
-3139 -3297 3301 0
3139 -3301 0
3297 -3301 0
3300 3301 -3302 0
-3300 3302 0
-3301 3302 0
-122 -3209 3303 0
122 -3303 0
3209 -3303 0
-3145 -3303 -3304 0
3145 3303 -3304 0
3145 -3303 3304 0
-3145 3303 3304 0
-3304 -3302 -3305 0
3304 3302 -3305 0
3304 -3302 3305 0
-3304 3302 3305 0
-3304 -3302 3306 0
3304 -3306 0
3302 -3306 0
-3145 -3303 3307 0
3145 -3307 0
3303 -3307 0
3306 3307 -3308 0
-3306 3308 0
-3307 3308 0
-130 -3209 3309 0
130 -3309 0
3209 -3309 0
-3151 -3309 -3310 0
3151 3309 -3310 0
3151 -3309 3310 0
-3151 3309 3310 0
-3310 -3308 -3311 0
3310 3308 -3311 0
3310 -3308 3311 0
-3310 3308 3311 0
-3310 -3308 3312 0
3310 -3312 0
3308 -3312 0
-3151 -3309 3313 0
3151 -3313 0
3309 -3313 0
3312 3313 -3314 0
-3312 3314 0
-3313 3314 0
-138 -3209 3315 0
138 -3315 0
3209 -3315 0
-3157 -3315 -3316 0
3157 3315 -3316 0
3157 -3315 3316 0
-3157 3315 3316 0
-3316 -3314 -3317 0
3316 3314 -3317 0
3316 -3314 3317 0
-3316 3314 3317 0
-3316 -3314 3318 0
3316 -3318 0
3314 -3318 0
-3157 -3315 3319 0
3157 -3319 0
3315 -3319 0
3318 3319 -3320 0
-3318 3320 0
-3319 3320 0
-146 -3209 3321 0
146 -3321 0
3209 -3321 0
-3163 -3321 -3322 0
3163 3321 -3322 0
3163 -3321 3322 0
-3163 3321 3322 0
-3322 -3320 -3323 0
3322 3320 -3323 0
3322 -3320 3323 0
-3322 3320 3323 0
-3322 -3320 3324 0
3322 -3324 0
3320 -3324 0
-3163 -3321 3325 0
3163 -3325 0
3321 -3325 0
3324 3325 -3326 0
-3324 3326 0
-3325 3326 0
-154 -3209 3327 0
154 -3327 0
3209 -3327 0
-3169 -3327 -3328 0
3169 3327 -3328 0
3169 -3327 3328 0
-3169 3327 3328 0
-3328 -3326 -3329 0
3328 3326 -3329 0
3328 -3326 3329 0
-3328 3326 3329 0
-3328 -3326 3330 0
3328 -3330 0
3326 -3330 0
-3169 -3327 3331 0
3169 -3331 0
3327 -3331 0
3330 3331 -3332 0
-3330 3332 0
-3331 3332 0
-162 -3209 3333 0
162 -3333 0
3209 -3333 0
-3175 -3333 -3334 0
3175 3333 -3334 0
3175 -3333 3334 0
-3175 3333 3334 0
-3334 -3332 -3335 0
3334 3332 -3335 0
3334 -3332 3335 0
-3334 3332 3335 0
-3334 -3332 3336 0
3334 -3336 0
3332 -3336 0
-3175 -3333 3337 0
3175 -3337 0
3333 -3337 0
3336 3337 -3338 0
-3336 3338 0
-3337 3338 0
-170 -3209 3339 0
170 -3339 0
3209 -3339 0
-3181 -3339 -3340 0
3181 3339 -3340 0
3181 -3339 3340 0
-3181 3339 3340 0
-3340 -3338 -3341 0
3340 3338 -3341 0
3340 -3338 3341 0
-3340 3338 3341 0
-3340 -3338 3342 0
3340 -3342 0
3338 -3342 0
-3181 -3339 3343 0
3181 -3343 0
3339 -3343 0
3342 3343 -3344 0
-3342 3344 0
-3343 3344 0
-178 -3209 3345 0
178 -3345 0
3209 -3345 0
-3187 -3345 -3346 0
3187 3345 -3346 0
3187 -3345 3346 0
-3187 3345 3346 0
-3346 -3344 -3347 0
3346 3344 -3347 0
3346 -3344 3347 0
-3346 3344 3347 0
-3346 -3344 3348 0
3346 -3348 0
3344 -3348 0
-3187 -3345 3349 0
3187 -3349 0
3345 -3349 0
3348 3349 -3350 0
-3348 3350 0
-3349 3350 0
-186 -3209 3351 0
186 -3351 0
3209 -3351 0
-3193 -3351 -3352 0
3193 3351 -3352 0
3193 -3351 3352 0
-3193 3351 3352 0
-3352 -3350 -3353 0
3352 3350 -3353 0
3352 -3350 3353 0
-3352 3350 3353 0
-3352 -3350 3354 0
3352 -3354 0
3350 -3354 0
-3193 -3351 3355 0
3193 -3355 0
3351 -3355 0
3354 3355 -3356 0
-3354 3356 0
-3355 3356 0
-194 -3209 3357 0
194 -3357 0
3209 -3357 0
-3199 -3357 -3358 0
3199 3357 -3358 0
3199 -3357 3358 0
-3199 3357 3358 0
-3358 -3356 -3359 0
3358 3356 -3359 0
3358 -3356 3359 0
-3358 3356 3359 0
-3358 -3356 3360 0
3358 -3360 0
3356 -3360 0
-3199 -3357 3361 0
3199 -3361 0
3357 -3361 0
3360 3361 -3362 0
-3360 3362 0
-3361 3362 0
-202 -3209 3363 0
202 -3363 0
3209 -3363 0
-3205 -3363 -3364 0
3205 3363 -3364 0
3205 -3363 3364 0
-3205 3363 3364 0
-3364 -3362 -3365 0
3364 3362 -3365 0
3364 -3362 3365 0
-3364 3362 3365 0
-3364 -3362 3366 0
3364 -3366 0
3362 -3366 0
-3205 -3363 3367 0
3205 -3367 0
3363 -3367 0
3366 3367 -3368 0
-3366 3368 0
-3367 3368 0
-210 -3209 3369 0
210 -3369 0
3209 -3369 0
-3208 -3369 -3370 0
3208 3369 -3370 0
3208 -3369 3370 0
-3208 3369 3370 0
-3370 -3368 -3371 0
3370 3368 -3371 0
3370 -3368 3371 0
-3370 3368 3371 0
-3370 -3368 3372 0
3370 -3372 0
3368 -3372 0
-3208 -3369 3373 0
3208 -3373 0
3369 -3373 0
3372 3373 -3374 0
-3372 3374 0
-3373 3374 0
-1 -3375 3376 0
1 -3376 0
3375 -3376 0
-3215 -3376 -3377 0
3215 3376 -3377 0
3215 -3376 3377 0
-3215 3376 3377 0
-3215 -3376 3378 0
3215 -3378 0
3376 -3378 0
-4 -3375 3379 0
4 -3379 0
3375 -3379 0
-3221 -3379 -3380 0
3221 3379 -3380 0
3221 -3379 3380 0
-3221 3379 3380 0
-3380 -3378 -3381 0
3380 3378 -3381 0
3380 -3378 3381 0
-3380 3378 3381 0
-3380 -3378 3382 0
3380 -3382 0
3378 -3382 0
-3221 -3379 3383 0
3221 -3383 0
3379 -3383 0
3382 3383 -3384 0
-3382 3384 0
-3383 3384 0
-10 -3375 3385 0
10 -3385 0
3375 -3385 0
-3227 -3385 -3386 0
3227 3385 -3386 0
3227 -3385 3386 0
-3227 3385 3386 0
-3386 -3384 -3387 0
3386 3384 -3387 0
3386 -3384 3387 0
-3386 3384 3387 0
-3386 -3384 3388 0
3386 -3388 0
3384 -3388 0
-3227 -3385 3389 0
3227 -3389 0
3385 -3389 0
3388 3389 -3390 0
-3388 3390 0
-3389 3390 0
-18 -3375 3391 0
18 -3391 0
3375 -3391 0
-3233 -3391 -3392 0
3233 3391 -3392 0
3233 -3391 3392 0
-3233 3391 3392 0
-3392 -3390 -3393 0
3392 3390 -3393 0
3392 -3390 3393 0
-3392 3390 3393 0
-3392 -3390 3394 0
3392 -3394 0
3390 -3394 0
-3233 -3391 3395 0
3233 -3395 0
3391 -3395 0
3394 3395 -3396 0
-3394 3396 0
-3395 3396 0
-26 -3375 3397 0
26 -3397 0
3375 -3397 0
-3239 -3397 -3398 0
3239 3397 -3398 0
3239 -3397 3398 0
-3239 3397 3398 0
-3398 -3396 -3399 0
3398 3396 -3399 0
3398 -3396 3399 0
-3398 3396 3399 0
-3398 -3396 3400 0
3398 -3400 0
3396 -3400 0
-3239 -3397 3401 0
3239 -3401 0
3397 -3401 0
3400 3401 -3402 0
-3400 3402 0
-3401 3402 0
-34 -3375 3403 0
34 -3403 0
3375 -3403 0
-3245 -3403 -3404 0
3245 3403 -3404 0
3245 -3403 3404 0
-3245 3403 3404 0
-3404 -3402 -3405 0
3404 3402 -3405 0
3404 -3402 3405 0
-3404 3402 3405 0
-3404 -3402 3406 0
3404 -3406 0
3402 -3406 0
-3245 -3403 3407 0
3245 -3407 0
3403 -3407 0
3406 3407 -3408 0
-3406 3408 0
-3407 3408 0
-42 -3375 3409 0
42 -3409 0
3375 -3409 0
-3251 -3409 -3410 0
3251 3409 -3410 0
3251 -3409 3410 0
-3251 3409 3410 0
-3410 -3408 -3411 0
3410 3408 -3411 0
3410 -3408 3411 0
-3410 3408 3411 0
-3410 -3408 3412 0
3410 -3412 0
3408 -3412 0
-3251 -3409 3413 0
3251 -3413 0
3409 -3413 0
3412 3413 -3414 0
-3412 3414 0
-3413 3414 0
-50 -3375 3415 0
50 -3415 0
3375 -3415 0
-3257 -3415 -3416 0
3257 3415 -3416 0
3257 -3415 3416 0
-3257 3415 3416 0
-3416 -3414 -3417 0
3416 3414 -3417 0
3416 -3414 3417 0
-3416 3414 3417 0
-3416 -3414 3418 0
3416 -3418 0
3414 -3418 0
-3257 -3415 3419 0
3257 -3419 0
3415 -3419 0
3418 3419 -3420 0
-3418 3420 0
-3419 3420 0
-58 -3375 3421 0
58 -3421 0
3375 -3421 0
-3263 -3421 -3422 0
3263 3421 -3422 0
3263 -3421 3422 0
-3263 3421 3422 0
-3422 -3420 -3423 0
3422 3420 -3423 0
3422 -3420 3423 0
-3422 3420 3423 0
-3422 -3420 3424 0
3422 -3424 0
3420 -3424 0
-3263 -3421 3425 0
3263 -3425 0
3421 -3425 0
3424 3425 -3426 0
-3424 3426 0
-3425 3426 0
-66 -3375 3427 0
66 -3427 0
3375 -3427 0
-3269 -3427 -3428 0
3269 3427 -3428 0
3269 -3427 3428 0
-3269 3427 3428 0
-3428 -3426 -3429 0
3428 3426 -3429 0
3428 -3426 3429 0
-3428 3426 3429 0
-3428 -3426 3430 0
3428 -3430 0
3426 -3430 0
-3269 -3427 3431 0
3269 -3431 0
3427 -3431 0
3430 3431 -3432 0
-3430 3432 0
-3431 3432 0
-74 -3375 3433 0
74 -3433 0
3375 -3433 0
-3275 -3433 -3434 0
3275 3433 -3434 0
3275 -3433 3434 0
-3275 3433 3434 0
-3434 -3432 -3435 0
3434 3432 -3435 0
3434 -3432 3435 0
-3434 3432 3435 0
-3434 -3432 3436 0
3434 -3436 0
3432 -3436 0
-3275 -3433 3437 0
3275 -3437 0
3433 -3437 0
3436 3437 -3438 0
-3436 3438 0
-3437 3438 0
-82 -3375 3439 0
82 -3439 0
3375 -3439 0
-3281 -3439 -3440 0
3281 3439 -3440 0
3281 -3439 3440 0
-3281 3439 3440 0
-3440 -3438 -3441 0
3440 3438 -3441 0
3440 -3438 3441 0
-3440 3438 3441 0
-3440 -3438 3442 0
3440 -3442 0
3438 -3442 0
-3281 -3439 3443 0
3281 -3443 0
3439 -3443 0
3442 3443 -3444 0
-3442 3444 0
-3443 3444 0
-90 -3375 3445 0
90 -3445 0
3375 -3445 0
-3287 -3445 -3446 0
3287 3445 -3446 0
3287 -3445 3446 0
-3287 3445 3446 0
-3446 -3444 -3447 0
3446 3444 -3447 0
3446 -3444 3447 0
-3446 3444 3447 0
-3446 -3444 3448 0
3446 -3448 0
3444 -3448 0
-3287 -3445 3449 0
3287 -3449 0
3445 -3449 0
3448 3449 -3450 0
-3448 3450 0
-3449 3450 0
-98 -3375 3451 0
98 -3451 0
3375 -3451 0
-3293 -3451 -3452 0
3293 3451 -3452 0
3293 -3451 3452 0
-3293 3451 3452 0
-3452 -3450 -3453 0
3452 3450 -3453 0
3452 -3450 3453 0
-3452 3450 3453 0
-3452 -3450 3454 0
3452 -3454 0
3450 -3454 0
-3293 -3451 3455 0
3293 -3455 0
3451 -3455 0
3454 3455 -3456 0
-3454 3456 0
-3455 3456 0
-106 -3375 3457 0
106 -3457 0
3375 -3457 0
-3299 -3457 -3458 0
3299 3457 -3458 0
3299 -3457 3458 0
-3299 3457 3458 0
-3458 -3456 -3459 0
3458 3456 -3459 0
3458 -3456 3459 0
-3458 3456 3459 0
-3458 -3456 3460 0
3458 -3460 0
3456 -3460 0
-3299 -3457 3461 0
3299 -3461 0
3457 -3461 0
3460 3461 -3462 0
-3460 3462 0
-3461 3462 0
-114 -3375 3463 0
114 -3463 0
3375 -3463 0
-3305 -3463 -3464 0
3305 3463 -3464 0
3305 -3463 3464 0
-3305 3463 3464 0
-3464 -3462 -3465 0
3464 3462 -3465 0
3464 -3462 3465 0
-3464 3462 3465 0
-3464 -3462 3466 0
3464 -3466 0
3462 -3466 0
-3305 -3463 3467 0
3305 -3467 0
3463 -3467 0
3466 3467 -3468 0
-3466 3468 0
-3467 3468 0
-122 -3375 3469 0
122 -3469 0
3375 -3469 0
-3311 -3469 -3470 0
3311 3469 -3470 0
3311 -3469 3470 0
-3311 3469 3470 0
-3470 -3468 -3471 0
3470 3468 -3471 0
3470 -3468 3471 0
-3470 3468 3471 0
-3470 -3468 3472 0
3470 -3472 0
3468 -3472 0
-3311 -3469 3473 0
3311 -3473 0
3469 -3473 0
3472 3473 -3474 0
-3472 3474 0
-3473 3474 0
-130 -3375 3475 0
130 -3475 0
3375 -3475 0
-3317 -3475 -3476 0
3317 3475 -3476 0
3317 -3475 3476 0
-3317 3475 3476 0
-3476 -3474 -3477 0
3476 3474 -3477 0
3476 -3474 3477 0
-3476 3474 3477 0
-3476 -3474 3478 0
3476 -3478 0
3474 -3478 0
-3317 -3475 3479 0
3317 -3479 0
3475 -3479 0
3478 3479 -3480 0
-3478 3480 0
-3479 3480 0
-138 -3375 3481 0
138 -3481 0
3375 -3481 0
-3323 -3481 -3482 0
3323 3481 -3482 0
3323 -3481 3482 0
-3323 3481 3482 0
-3482 -3480 -3483 0
3482 3480 -3483 0
3482 -3480 3483 0
-3482 3480 3483 0
-3482 -3480 3484 0
3482 -3484 0
3480 -3484 0
-3323 -3481 3485 0
3323 -3485 0
3481 -3485 0
3484 3485 -3486 0
-3484 3486 0
-3485 3486 0
-146 -3375 3487 0
146 -3487 0
3375 -3487 0
-3329 -3487 -3488 0
3329 3487 -3488 0
3329 -3487 3488 0
-3329 3487 3488 0
-3488 -3486 -3489 0
3488 3486 -3489 0
3488 -3486 3489 0
-3488 3486 3489 0
-3488 -3486 3490 0
3488 -3490 0
3486 -3490 0
-3329 -3487 3491 0
3329 -3491 0
3487 -3491 0
3490 3491 -3492 0
-3490 3492 0
-3491 3492 0
-154 -3375 3493 0
154 -3493 0
3375 -3493 0
-3335 -3493 -3494 0
3335 3493 -3494 0
3335 -3493 3494 0
-3335 3493 3494 0
-3494 -3492 -3495 0
3494 3492 -3495 0
3494 -3492 3495 0
-3494 3492 3495 0
-3494 -3492 3496 0
3494 -3496 0
3492 -3496 0
-3335 -3493 3497 0
3335 -3497 0
3493 -3497 0
3496 3497 -3498 0
-3496 3498 0
-3497 3498 0
-162 -3375 3499 0
162 -3499 0
3375 -3499 0
-3341 -3499 -3500 0
3341 3499 -3500 0
3341 -3499 3500 0
-3341 3499 3500 0
-3500 -3498 -3501 0
3500 3498 -3501 0
3500 -3498 3501 0
-3500 3498 3501 0
-3500 -3498 3502 0
3500 -3502 0
3498 -3502 0
-3341 -3499 3503 0
3341 -3503 0
3499 -3503 0
3502 3503 -3504 0
-3502 3504 0
-3503 3504 0
-170 -3375 3505 0
170 -3505 0
3375 -3505 0
-3347 -3505 -3506 0
3347 3505 -3506 0
3347 -3505 3506 0
-3347 3505 3506 0
-3506 -3504 -3507 0
3506 3504 -3507 0
3506 -3504 3507 0
-3506 3504 3507 0
-3506 -3504 3508 0
3506 -3508 0
3504 -3508 0
-3347 -3505 3509 0
3347 -3509 0
3505 -3509 0
3508 3509 -3510 0
-3508 3510 0
-3509 3510 0
-178 -3375 3511 0
178 -3511 0
3375 -3511 0
-3353 -3511 -3512 0
3353 3511 -3512 0
3353 -3511 3512 0
-3353 3511 3512 0
-3512 -3510 -3513 0
3512 3510 -3513 0
3512 -3510 3513 0
-3512 3510 3513 0
-3512 -3510 3514 0
3512 -3514 0
3510 -3514 0
-3353 -3511 3515 0
3353 -3515 0
3511 -3515 0
3514 3515 -3516 0
-3514 3516 0
-3515 3516 0
-186 -3375 3517 0
186 -3517 0
3375 -3517 0
-3359 -3517 -3518 0
3359 3517 -3518 0
3359 -3517 3518 0
-3359 3517 3518 0
-3518 -3516 -3519 0
3518 3516 -3519 0
3518 -3516 3519 0
-3518 3516 3519 0
-3518 -3516 3520 0
3518 -3520 0
3516 -3520 0
-3359 -3517 3521 0
3359 -3521 0
3517 -3521 0
3520 3521 -3522 0
-3520 3522 0
-3521 3522 0
-194 -3375 3523 0
194 -3523 0
3375 -3523 0
-3365 -3523 -3524 0
3365 3523 -3524 0
3365 -3523 3524 0
-3365 3523 3524 0
-3524 -3522 -3525 0
3524 3522 -3525 0
3524 -3522 3525 0
-3524 3522 3525 0
-3524 -3522 3526 0
3524 -3526 0
3522 -3526 0
-3365 -3523 3527 0
3365 -3527 0
3523 -3527 0
3526 3527 -3528 0
-3526 3528 0
-3527 3528 0
-202 -3375 3529 0
202 -3529 0
3375 -3529 0
-3371 -3529 -3530 0
3371 3529 -3530 0
3371 -3529 3530 0
-3371 3529 3530 0
-3530 -3528 -3531 0
3530 3528 -3531 0
3530 -3528 3531 0
-3530 3528 3531 0
-3530 -3528 3532 0
3530 -3532 0
3528 -3532 0
-3371 -3529 3533 0
3371 -3533 0
3529 -3533 0
3532 3533 -3534 0
-3532 3534 0
-3533 3534 0
-210 -3375 3535 0
210 -3535 0
3375 -3535 0
-3374 -3535 -3536 0
3374 3535 -3536 0
3374 -3535 3536 0
-3374 3535 3536 0
-3536 -3534 -3537 0
3536 3534 -3537 0
3536 -3534 3537 0
-3536 3534 3537 0
-3536 -3534 3538 0
3536 -3538 0
3534 -3538 0
-3374 -3535 3539 0
3374 -3539 0
3535 -3539 0
3538 3539 -3540 0
-3538 3540 0
-3539 3540 0
-1 -3541 3542 0
1 -3542 0
3541 -3542 0
-3381 -3542 -3543 0
3381 3542 -3543 0
3381 -3542 3543 0
-3381 3542 3543 0
-3381 -3542 3544 0
3381 -3544 0
3542 -3544 0
-4 -3541 3545 0
4 -3545 0
3541 -3545 0
-3387 -3545 -3546 0
3387 3545 -3546 0
3387 -3545 3546 0
-3387 3545 3546 0
-3546 -3544 -3547 0
3546 3544 -3547 0
3546 -3544 3547 0
-3546 3544 3547 0
-3546 -3544 3548 0
3546 -3548 0
3544 -3548 0
-3387 -3545 3549 0
3387 -3549 0
3545 -3549 0
3548 3549 -3550 0
-3548 3550 0
-3549 3550 0
-10 -3541 3551 0
10 -3551 0
3541 -3551 0
-3393 -3551 -3552 0
3393 3551 -3552 0
3393 -3551 3552 0
-3393 3551 3552 0
-3552 -3550 -3553 0
3552 3550 -3553 0
3552 -3550 3553 0
-3552 3550 3553 0
-3552 -3550 3554 0
3552 -3554 0
3550 -3554 0
-3393 -3551 3555 0
3393 -3555 0
3551 -3555 0
3554 3555 -3556 0
-3554 3556 0
-3555 3556 0
-18 -3541 3557 0
18 -3557 0
3541 -3557 0
-3399 -3557 -3558 0
3399 3557 -3558 0
3399 -3557 3558 0
-3399 3557 3558 0
-3558 -3556 -3559 0
3558 3556 -3559 0
3558 -3556 3559 0
-3558 3556 3559 0
-3558 -3556 3560 0
3558 -3560 0
3556 -3560 0
-3399 -3557 3561 0
3399 -3561 0
3557 -3561 0
3560 3561 -3562 0
-3560 3562 0
-3561 3562 0
-26 -3541 3563 0
26 -3563 0
3541 -3563 0
-3405 -3563 -3564 0
3405 3563 -3564 0
3405 -3563 3564 0
-3405 3563 3564 0
-3564 -3562 -3565 0
3564 3562 -3565 0
3564 -3562 3565 0
-3564 3562 3565 0
-3564 -3562 3566 0
3564 -3566 0
3562 -3566 0
-3405 -3563 3567 0
3405 -3567 0
3563 -3567 0
3566 3567 -3568 0
-3566 3568 0
-3567 3568 0
-34 -3541 3569 0
34 -3569 0
3541 -3569 0
-3411 -3569 -3570 0
3411 3569 -3570 0
3411 -3569 3570 0
-3411 3569 3570 0
-3570 -3568 -3571 0
3570 3568 -3571 0
3570 -3568 3571 0
-3570 3568 3571 0
-3570 -3568 3572 0
3570 -3572 0
3568 -3572 0
-3411 -3569 3573 0
3411 -3573 0
3569 -3573 0
3572 3573 -3574 0
-3572 3574 0
-3573 3574 0
-42 -3541 3575 0
42 -3575 0
3541 -3575 0
-3417 -3575 -3576 0
3417 3575 -3576 0
3417 -3575 3576 0
-3417 3575 3576 0
-3576 -3574 -3577 0
3576 3574 -3577 0
3576 -3574 3577 0
-3576 3574 3577 0
-3576 -3574 3578 0
3576 -3578 0
3574 -3578 0
-3417 -3575 3579 0
3417 -3579 0
3575 -3579 0
3578 3579 -3580 0
-3578 3580 0
-3579 3580 0
-50 -3541 3581 0
50 -3581 0
3541 -3581 0
-3423 -3581 -3582 0
3423 3581 -3582 0
3423 -3581 3582 0
-3423 3581 3582 0
-3582 -3580 -3583 0
3582 3580 -3583 0
3582 -3580 3583 0
-3582 3580 3583 0
-3582 -3580 3584 0
3582 -3584 0
3580 -3584 0
-3423 -3581 3585 0
3423 -3585 0
3581 -3585 0
3584 3585 -3586 0
-3584 3586 0
-3585 3586 0
-58 -3541 3587 0
58 -3587 0
3541 -3587 0
-3429 -3587 -3588 0
3429 3587 -3588 0
3429 -3587 3588 0
-3429 3587 3588 0
-3588 -3586 -3589 0
3588 3586 -3589 0
3588 -3586 3589 0
-3588 3586 3589 0
-3588 -3586 3590 0
3588 -3590 0
3586 -3590 0
-3429 -3587 3591 0
3429 -3591 0
3587 -3591 0
3590 3591 -3592 0
-3590 3592 0
-3591 3592 0
-66 -3541 3593 0
66 -3593 0
3541 -3593 0
-3435 -3593 -3594 0
3435 3593 -3594 0
3435 -3593 3594 0
-3435 3593 3594 0
-3594 -3592 -3595 0
3594 3592 -3595 0
3594 -3592 3595 0
-3594 3592 3595 0
-3594 -3592 3596 0
3594 -3596 0
3592 -3596 0
-3435 -3593 3597 0
3435 -3597 0
3593 -3597 0
3596 3597 -3598 0
-3596 3598 0
-3597 3598 0
-74 -3541 3599 0
74 -3599 0
3541 -3599 0
-3441 -3599 -3600 0
3441 3599 -3600 0
3441 -3599 3600 0
-3441 3599 3600 0
-3600 -3598 -3601 0
3600 3598 -3601 0
3600 -3598 3601 0
-3600 3598 3601 0
-3600 -3598 3602 0
3600 -3602 0
3598 -3602 0
-3441 -3599 3603 0
3441 -3603 0
3599 -3603 0
3602 3603 -3604 0
-3602 3604 0
-3603 3604 0
-82 -3541 3605 0
82 -3605 0
3541 -3605 0
-3447 -3605 -3606 0
3447 3605 -3606 0
3447 -3605 3606 0
-3447 3605 3606 0
-3606 -3604 -3607 0
3606 3604 -3607 0
3606 -3604 3607 0
-3606 3604 3607 0
-3606 -3604 3608 0
3606 -3608 0
3604 -3608 0
-3447 -3605 3609 0
3447 -3609 0
3605 -3609 0
3608 3609 -3610 0
-3608 3610 0
-3609 3610 0
-90 -3541 3611 0
90 -3611 0
3541 -3611 0
-3453 -3611 -3612 0
3453 3611 -3612 0
3453 -3611 3612 0
-3453 3611 3612 0
-3612 -3610 -3613 0
3612 3610 -3613 0
3612 -3610 3613 0
-3612 3610 3613 0
-3612 -3610 3614 0
3612 -3614 0
3610 -3614 0
-3453 -3611 3615 0
3453 -3615 0
3611 -3615 0
3614 3615 -3616 0
-3614 3616 0
-3615 3616 0
-98 -3541 3617 0
98 -3617 0
3541 -3617 0
-3459 -3617 -3618 0
3459 3617 -3618 0
3459 -3617 3618 0
-3459 3617 3618 0
-3618 -3616 -3619 0
3618 3616 -3619 0
3618 -3616 3619 0
-3618 3616 3619 0
-3618 -3616 3620 0
3618 -3620 0
3616 -3620 0
-3459 -3617 3621 0
3459 -3621 0
3617 -3621 0
3620 3621 -3622 0
-3620 3622 0
-3621 3622 0
-106 -3541 3623 0
106 -3623 0
3541 -3623 0
-3465 -3623 -3624 0
3465 3623 -3624 0
3465 -3623 3624 0
-3465 3623 3624 0
-3624 -3622 -3625 0
3624 3622 -3625 0
3624 -3622 3625 0
-3624 3622 3625 0
-3624 -3622 3626 0
3624 -3626 0
3622 -3626 0
-3465 -3623 3627 0
3465 -3627 0
3623 -3627 0
3626 3627 -3628 0
-3626 3628 0
-3627 3628 0
-114 -3541 3629 0
114 -3629 0
3541 -3629 0
-3471 -3629 -3630 0
3471 3629 -3630 0
3471 -3629 3630 0
-3471 3629 3630 0
-3630 -3628 -3631 0
3630 3628 -3631 0
3630 -3628 3631 0
-3630 3628 3631 0
-3630 -3628 3632 0
3630 -3632 0
3628 -3632 0
-3471 -3629 3633 0
3471 -3633 0
3629 -3633 0
3632 3633 -3634 0
-3632 3634 0
-3633 3634 0
-122 -3541 3635 0
122 -3635 0
3541 -3635 0
-3477 -3635 -3636 0
3477 3635 -3636 0
3477 -3635 3636 0
-3477 3635 3636 0
-3636 -3634 -3637 0
3636 3634 -3637 0
3636 -3634 3637 0
-3636 3634 3637 0
-3636 -3634 3638 0
3636 -3638 0
3634 -3638 0
-3477 -3635 3639 0
3477 -3639 0
3635 -3639 0
3638 3639 -3640 0
-3638 3640 0
-3639 3640 0
-130 -3541 3641 0
130 -3641 0
3541 -3641 0
-3483 -3641 -3642 0
3483 3641 -3642 0
3483 -3641 3642 0
-3483 3641 3642 0
-3642 -3640 -3643 0
3642 3640 -3643 0
3642 -3640 3643 0
-3642 3640 3643 0
-3642 -3640 3644 0
3642 -3644 0
3640 -3644 0
-3483 -3641 3645 0
3483 -3645 0
3641 -3645 0
3644 3645 -3646 0
-3644 3646 0
-3645 3646 0
-138 -3541 3647 0
138 -3647 0
3541 -3647 0
-3489 -3647 -3648 0
3489 3647 -3648 0
3489 -3647 3648 0
-3489 3647 3648 0
-3648 -3646 -3649 0
3648 3646 -3649 0
3648 -3646 3649 0
-3648 3646 3649 0
-3648 -3646 3650 0
3648 -3650 0
3646 -3650 0
-3489 -3647 3651 0
3489 -3651 0
3647 -3651 0
3650 3651 -3652 0
-3650 3652 0
-3651 3652 0
-146 -3541 3653 0
146 -3653 0
3541 -3653 0
-3495 -3653 -3654 0
3495 3653 -3654 0
3495 -3653 3654 0
-3495 3653 3654 0
-3654 -3652 -3655 0
3654 3652 -3655 0
3654 -3652 3655 0
-3654 3652 3655 0
-3654 -3652 3656 0
3654 -3656 0
3652 -3656 0
-3495 -3653 3657 0
3495 -3657 0
3653 -3657 0
3656 3657 -3658 0
-3656 3658 0
-3657 3658 0
-154 -3541 3659 0
154 -3659 0
3541 -3659 0
-3501 -3659 -3660 0
3501 3659 -3660 0
3501 -3659 3660 0
-3501 3659 3660 0
-3660 -3658 -3661 0
3660 3658 -3661 0
3660 -3658 3661 0
-3660 3658 3661 0
-3660 -3658 3662 0
3660 -3662 0
3658 -3662 0
-3501 -3659 3663 0
3501 -3663 0
3659 -3663 0
3662 3663 -3664 0
-3662 3664 0
-3663 3664 0
-162 -3541 3665 0
162 -3665 0
3541 -3665 0
-3507 -3665 -3666 0
3507 3665 -3666 0
3507 -3665 3666 0
-3507 3665 3666 0
-3666 -3664 -3667 0
3666 3664 -3667 0
3666 -3664 3667 0
-3666 3664 3667 0
-3666 -3664 3668 0
3666 -3668 0
3664 -3668 0
-3507 -3665 3669 0
3507 -3669 0
3665 -3669 0
3668 3669 -3670 0
-3668 3670 0
-3669 3670 0
-170 -3541 3671 0
170 -3671 0
3541 -3671 0
-3513 -3671 -3672 0
3513 3671 -3672 0
3513 -3671 3672 0
-3513 3671 3672 0
-3672 -3670 -3673 0
3672 3670 -3673 0
3672 -3670 3673 0
-3672 3670 3673 0
-3672 -3670 3674 0
3672 -3674 0
3670 -3674 0
-3513 -3671 3675 0
3513 -3675 0
3671 -3675 0
3674 3675 -3676 0
-3674 3676 0
-3675 3676 0
-178 -3541 3677 0
178 -3677 0
3541 -3677 0
-3519 -3677 -3678 0
3519 3677 -3678 0
3519 -3677 3678 0
-3519 3677 3678 0
-3678 -3676 -3679 0
3678 3676 -3679 0
3678 -3676 3679 0
-3678 3676 3679 0
-3678 -3676 3680 0
3678 -3680 0
3676 -3680 0
-3519 -3677 3681 0
3519 -3681 0
3677 -3681 0
3680 3681 -3682 0
-3680 3682 0
-3681 3682 0
-186 -3541 3683 0
186 -3683 0
3541 -3683 0
-3525 -3683 -3684 0
3525 3683 -3684 0
3525 -3683 3684 0
-3525 3683 3684 0
-3684 -3682 -3685 0
3684 3682 -3685 0
3684 -3682 3685 0
-3684 3682 3685 0
-3684 -3682 3686 0
3684 -3686 0
3682 -3686 0
-3525 -3683 3687 0
3525 -3687 0
3683 -3687 0
3686 3687 -3688 0
-3686 3688 0
-3687 3688 0
-194 -3541 3689 0
194 -3689 0
3541 -3689 0
-3531 -3689 -3690 0
3531 3689 -3690 0
3531 -3689 3690 0
-3531 3689 3690 0
-3690 -3688 -3691 0
3690 3688 -3691 0
3690 -3688 3691 0
-3690 3688 3691 0
-3690 -3688 3692 0
3690 -3692 0
3688 -3692 0
-3531 -3689 3693 0
3531 -3693 0
3689 -3693 0
3692 3693 -3694 0
-3692 3694 0
-3693 3694 0
-202 -3541 3695 0
202 -3695 0
3541 -3695 0
-3537 -3695 -3696 0
3537 3695 -3696 0
3537 -3695 3696 0
-3537 3695 3696 0
-3696 -3694 -3697 0
3696 3694 -3697 0
3696 -3694 3697 0
-3696 3694 3697 0
-3696 -3694 3698 0
3696 -3698 0
3694 -3698 0
-3537 -3695 3699 0
3537 -3699 0
3695 -3699 0
3698 3699 -3700 0
-3698 3700 0
-3699 3700 0
-210 -3541 3701 0
210 -3701 0
3541 -3701 0
-3540 -3701 -3702 0
3540 3701 -3702 0
3540 -3701 3702 0
-3540 3701 3702 0
-3702 -3700 -3703 0
3702 3700 -3703 0
3702 -3700 3703 0
-3702 3700 3703 0
-3702 -3700 3704 0
3702 -3704 0
3700 -3704 0
-3540 -3701 3705 0
3540 -3705 0
3701 -3705 0
3704 3705 -3706 0
-3704 3706 0
-3705 3706 0
-1 -3707 3708 0
1 -3708 0
3707 -3708 0
-3547 -3708 -3709 0
3547 3708 -3709 0
3547 -3708 3709 0
-3547 3708 3709 0
-3547 -3708 3710 0
3547 -3710 0
3708 -3710 0
-4 -3707 3711 0
4 -3711 0
3707 -3711 0
-3553 -3711 -3712 0
3553 3711 -3712 0
3553 -3711 3712 0
-3553 3711 3712 0
-3712 -3710 -3713 0
3712 3710 -3713 0
3712 -3710 3713 0
-3712 3710 3713 0
-3712 -3710 3714 0
3712 -3714 0
3710 -3714 0
-3553 -3711 3715 0
3553 -3715 0
3711 -3715 0
3714 3715 -3716 0
-3714 3716 0
-3715 3716 0
-10 -3707 3717 0
10 -3717 0
3707 -3717 0
-3559 -3717 -3718 0
3559 3717 -3718 0
3559 -3717 3718 0
-3559 3717 3718 0
-3718 -3716 -3719 0
3718 3716 -3719 0
3718 -3716 3719 0
-3718 3716 3719 0
-3718 -3716 3720 0
3718 -3720 0
3716 -3720 0
-3559 -3717 3721 0
3559 -3721 0
3717 -3721 0
3720 3721 -3722 0
-3720 3722 0
-3721 3722 0
-18 -3707 3723 0
18 -3723 0
3707 -3723 0
-3565 -3723 -3724 0
3565 3723 -3724 0
3565 -3723 3724 0
-3565 3723 3724 0
-3724 -3722 -3725 0
3724 3722 -3725 0
3724 -3722 3725 0
-3724 3722 3725 0
-3724 -3722 3726 0
3724 -3726 0
3722 -3726 0
-3565 -3723 3727 0
3565 -3727 0
3723 -3727 0
3726 3727 -3728 0
-3726 3728 0
-3727 3728 0
-26 -3707 3729 0
26 -3729 0
3707 -3729 0
-3571 -3729 -3730 0
3571 3729 -3730 0
3571 -3729 3730 0
-3571 3729 3730 0
-3730 -3728 -3731 0
3730 3728 -3731 0
3730 -3728 3731 0
-3730 3728 3731 0
-3730 -3728 3732 0
3730 -3732 0
3728 -3732 0
-3571 -3729 3733 0
3571 -3733 0
3729 -3733 0
3732 3733 -3734 0
-3732 3734 0
-3733 3734 0
-34 -3707 3735 0
34 -3735 0
3707 -3735 0
-3577 -3735 -3736 0
3577 3735 -3736 0
3577 -3735 3736 0
-3577 3735 3736 0
-3736 -3734 -3737 0
3736 3734 -3737 0
3736 -3734 3737 0
-3736 3734 3737 0
-3736 -3734 3738 0
3736 -3738 0
3734 -3738 0
-3577 -3735 3739 0
3577 -3739 0
3735 -3739 0
3738 3739 -3740 0
-3738 3740 0
-3739 3740 0
-42 -3707 3741 0
42 -3741 0
3707 -3741 0
-3583 -3741 -3742 0
3583 3741 -3742 0
3583 -3741 3742 0
-3583 3741 3742 0
-3742 -3740 -3743 0
3742 3740 -3743 0
3742 -3740 3743 0
-3742 3740 3743 0
-3742 -3740 3744 0
3742 -3744 0
3740 -3744 0
-3583 -3741 3745 0
3583 -3745 0
3741 -3745 0
3744 3745 -3746 0
-3744 3746 0
-3745 3746 0
-50 -3707 3747 0
50 -3747 0
3707 -3747 0
-3589 -3747 -3748 0
3589 3747 -3748 0
3589 -3747 3748 0
-3589 3747 3748 0
-3748 -3746 -3749 0
3748 3746 -3749 0
3748 -3746 3749 0
-3748 3746 3749 0
-3748 -3746 3750 0
3748 -3750 0
3746 -3750 0
-3589 -3747 3751 0
3589 -3751 0
3747 -3751 0
3750 3751 -3752 0
-3750 3752 0
-3751 3752 0
-58 -3707 3753 0
58 -3753 0
3707 -3753 0
-3595 -3753 -3754 0
3595 3753 -3754 0
3595 -3753 3754 0
-3595 3753 3754 0
-3754 -3752 -3755 0
3754 3752 -3755 0
3754 -3752 3755 0
-3754 3752 3755 0
-3754 -3752 3756 0
3754 -3756 0
3752 -3756 0
-3595 -3753 3757 0
3595 -3757 0
3753 -3757 0
3756 3757 -3758 0
-3756 3758 0
-3757 3758 0
-66 -3707 3759 0
66 -3759 0
3707 -3759 0
-3601 -3759 -3760 0
3601 3759 -3760 0
3601 -3759 3760 0
-3601 3759 3760 0
-3760 -3758 -3761 0
3760 3758 -3761 0
3760 -3758 3761 0
-3760 3758 3761 0
-3760 -3758 3762 0
3760 -3762 0
3758 -3762 0
-3601 -3759 3763 0
3601 -3763 0
3759 -3763 0
3762 3763 -3764 0
-3762 3764 0
-3763 3764 0
-74 -3707 3765 0
74 -3765 0
3707 -3765 0
-3607 -3765 -3766 0
3607 3765 -3766 0
3607 -3765 3766 0
-3607 3765 3766 0
-3766 -3764 -3767 0
3766 3764 -3767 0
3766 -3764 3767 0
-3766 3764 3767 0
-3766 -3764 3768 0
3766 -3768 0
3764 -3768 0
-3607 -3765 3769 0
3607 -3769 0
3765 -3769 0
3768 3769 -3770 0
-3768 3770 0
-3769 3770 0
-82 -3707 3771 0
82 -3771 0
3707 -3771 0
-3613 -3771 -3772 0
3613 3771 -3772 0
3613 -3771 3772 0
-3613 3771 3772 0
-3772 -3770 -3773 0
3772 3770 -3773 0
3772 -3770 3773 0
-3772 3770 3773 0
-3772 -3770 3774 0
3772 -3774 0
3770 -3774 0
-3613 -3771 3775 0
3613 -3775 0
3771 -3775 0
3774 3775 -3776 0
-3774 3776 0
-3775 3776 0
-90 -3707 3777 0
90 -3777 0
3707 -3777 0
-3619 -3777 -3778 0
3619 3777 -3778 0
3619 -3777 3778 0
-3619 3777 3778 0
-3778 -3776 -3779 0
3778 3776 -3779 0
3778 -3776 3779 0
-3778 3776 3779 0
-3778 -3776 3780 0
3778 -3780 0
3776 -3780 0
-3619 -3777 3781 0
3619 -3781 0
3777 -3781 0
3780 3781 -3782 0
-3780 3782 0
-3781 3782 0
-98 -3707 3783 0
98 -3783 0
3707 -3783 0
-3625 -3783 -3784 0
3625 3783 -3784 0
3625 -3783 3784 0
-3625 3783 3784 0
-3784 -3782 -3785 0
3784 3782 -3785 0
3784 -3782 3785 0
-3784 3782 3785 0
-3784 -3782 3786 0
3784 -3786 0
3782 -3786 0
-3625 -3783 3787 0
3625 -3787 0
3783 -3787 0
3786 3787 -3788 0
-3786 3788 0
-3787 3788 0
-106 -3707 3789 0
106 -3789 0
3707 -3789 0
-3631 -3789 -3790 0
3631 3789 -3790 0
3631 -3789 3790 0
-3631 3789 3790 0
-3790 -3788 -3791 0
3790 3788 -3791 0
3790 -3788 3791 0
-3790 3788 3791 0
-3790 -3788 3792 0
3790 -3792 0
3788 -3792 0
-3631 -3789 3793 0
3631 -3793 0
3789 -3793 0
3792 3793 -3794 0
-3792 3794 0
-3793 3794 0
-114 -3707 3795 0
114 -3795 0
3707 -3795 0
-3637 -3795 -3796 0
3637 3795 -3796 0
3637 -3795 3796 0
-3637 3795 3796 0
-3796 -3794 -3797 0
3796 3794 -3797 0
3796 -3794 3797 0
-3796 3794 3797 0
-3796 -3794 3798 0
3796 -3798 0
3794 -3798 0
-3637 -3795 3799 0
3637 -3799 0
3795 -3799 0
3798 3799 -3800 0
-3798 3800 0
-3799 3800 0
-122 -3707 3801 0
122 -3801 0
3707 -3801 0
-3643 -3801 -3802 0
3643 3801 -3802 0
3643 -3801 3802 0
-3643 3801 3802 0
-3802 -3800 -3803 0
3802 3800 -3803 0
3802 -3800 3803 0
-3802 3800 3803 0
-3802 -3800 3804 0
3802 -3804 0
3800 -3804 0
-3643 -3801 3805 0
3643 -3805 0
3801 -3805 0
3804 3805 -3806 0
-3804 3806 0
-3805 3806 0
-130 -3707 3807 0
130 -3807 0
3707 -3807 0
-3649 -3807 -3808 0
3649 3807 -3808 0
3649 -3807 3808 0
-3649 3807 3808 0
-3808 -3806 -3809 0
3808 3806 -3809 0
3808 -3806 3809 0
-3808 3806 3809 0
-3808 -3806 3810 0
3808 -3810 0
3806 -3810 0
-3649 -3807 3811 0
3649 -3811 0
3807 -3811 0
3810 3811 -3812 0
-3810 3812 0
-3811 3812 0
-138 -3707 3813 0
138 -3813 0
3707 -3813 0
-3655 -3813 -3814 0
3655 3813 -3814 0
3655 -3813 3814 0
-3655 3813 3814 0
-3814 -3812 -3815 0
3814 3812 -3815 0
3814 -3812 3815 0
-3814 3812 3815 0
-3814 -3812 3816 0
3814 -3816 0
3812 -3816 0
-3655 -3813 3817 0
3655 -3817 0
3813 -3817 0
3816 3817 -3818 0
-3816 3818 0
-3817 3818 0
-146 -3707 3819 0
146 -3819 0
3707 -3819 0
-3661 -3819 -3820 0
3661 3819 -3820 0
3661 -3819 3820 0
-3661 3819 3820 0
-3820 -3818 -3821 0
3820 3818 -3821 0
3820 -3818 3821 0
-3820 3818 3821 0
-3820 -3818 3822 0
3820 -3822 0
3818 -3822 0
-3661 -3819 3823 0
3661 -3823 0
3819 -3823 0
3822 3823 -3824 0
-3822 3824 0
-3823 3824 0
-154 -3707 3825 0
154 -3825 0
3707 -3825 0
-3667 -3825 -3826 0
3667 3825 -3826 0
3667 -3825 3826 0
-3667 3825 3826 0
-3826 -3824 -3827 0
3826 3824 -3827 0
3826 -3824 3827 0
-3826 3824 3827 0
-3826 -3824 3828 0
3826 -3828 0
3824 -3828 0
-3667 -3825 3829 0
3667 -3829 0
3825 -3829 0
3828 3829 -3830 0
-3828 3830 0
-3829 3830 0
-162 -3707 3831 0
162 -3831 0
3707 -3831 0
-3673 -3831 -3832 0
3673 3831 -3832 0
3673 -3831 3832 0
-3673 3831 3832 0
-3832 -3830 -3833 0
3832 3830 -3833 0
3832 -3830 3833 0
-3832 3830 3833 0
-3832 -3830 3834 0
3832 -3834 0
3830 -3834 0
-3673 -3831 3835 0
3673 -3835 0
3831 -3835 0
3834 3835 -3836 0
-3834 3836 0
-3835 3836 0
-170 -3707 3837 0
170 -3837 0
3707 -3837 0
-3679 -3837 -3838 0
3679 3837 -3838 0
3679 -3837 3838 0
-3679 3837 3838 0
-3838 -3836 -3839 0
3838 3836 -3839 0
3838 -3836 3839 0
-3838 3836 3839 0
-3838 -3836 3840 0
3838 -3840 0
3836 -3840 0
-3679 -3837 3841 0
3679 -3841 0
3837 -3841 0
3840 3841 -3842 0
-3840 3842 0
-3841 3842 0
-178 -3707 3843 0
178 -3843 0
3707 -3843 0
-3685 -3843 -3844 0
3685 3843 -3844 0
3685 -3843 3844 0
-3685 3843 3844 0
-3844 -3842 -3845 0
3844 3842 -3845 0
3844 -3842 3845 0
-3844 3842 3845 0
-3844 -3842 3846 0
3844 -3846 0
3842 -3846 0
-3685 -3843 3847 0
3685 -3847 0
3843 -3847 0
3846 3847 -3848 0
-3846 3848 0
-3847 3848 0
-186 -3707 3849 0
186 -3849 0
3707 -3849 0
-3691 -3849 -3850 0
3691 3849 -3850 0
3691 -3849 3850 0
-3691 3849 3850 0
-3850 -3848 -3851 0
3850 3848 -3851 0
3850 -3848 3851 0
-3850 3848 3851 0
-3850 -3848 3852 0
3850 -3852 0
3848 -3852 0
-3691 -3849 3853 0
3691 -3853 0
3849 -3853 0
3852 3853 -3854 0
-3852 3854 0
-3853 3854 0
-194 -3707 3855 0
194 -3855 0
3707 -3855 0
-3697 -3855 -3856 0
3697 3855 -3856 0
3697 -3855 3856 0
-3697 3855 3856 0
-3856 -3854 -3857 0
3856 3854 -3857 0
3856 -3854 3857 0
-3856 3854 3857 0
-3856 -3854 3858 0
3856 -3858 0
3854 -3858 0
-3697 -3855 3859 0
3697 -3859 0
3855 -3859 0
3858 3859 -3860 0
-3858 3860 0
-3859 3860 0
-202 -3707 3861 0
202 -3861 0
3707 -3861 0
-3703 -3861 -3862 0
3703 3861 -3862 0
3703 -3861 3862 0
-3703 3861 3862 0
-3862 -3860 -3863 0
3862 3860 -3863 0
3862 -3860 3863 0
-3862 3860 3863 0
-3862 -3860 3864 0
3862 -3864 0
3860 -3864 0
-3703 -3861 3865 0
3703 -3865 0
3861 -3865 0
3864 3865 -3866 0
-3864 3866 0
-3865 3866 0
-210 -3707 3867 0
210 -3867 0
3707 -3867 0
-3706 -3867 -3868 0
3706 3867 -3868 0
3706 -3867 3868 0
-3706 3867 3868 0
-3868 -3866 -3869 0
3868 3866 -3869 0
3868 -3866 3869 0
-3868 3866 3869 0
-3868 -3866 3870 0
3868 -3870 0
3866 -3870 0
-3706 -3867 3871 0
3706 -3871 0
3867 -3871 0
3870 3871 -3872 0
-3870 3872 0
-3871 3872 0
-1 -3873 3874 0
1 -3874 0
3873 -3874 0
-3713 -3874 -3875 0
3713 3874 -3875 0
3713 -3874 3875 0
-3713 3874 3875 0
-3713 -3874 3876 0
3713 -3876 0
3874 -3876 0
-4 -3873 3877 0
4 -3877 0
3873 -3877 0
-3719 -3877 -3878 0
3719 3877 -3878 0
3719 -3877 3878 0
-3719 3877 3878 0
-3878 -3876 -3879 0
3878 3876 -3879 0
3878 -3876 3879 0
-3878 3876 3879 0
-3878 -3876 3880 0
3878 -3880 0
3876 -3880 0
-3719 -3877 3881 0
3719 -3881 0
3877 -3881 0
3880 3881 -3882 0
-3880 3882 0
-3881 3882 0
-10 -3873 3883 0
10 -3883 0
3873 -3883 0
-3725 -3883 -3884 0
3725 3883 -3884 0
3725 -3883 3884 0
-3725 3883 3884 0
-3884 -3882 -3885 0
3884 3882 -3885 0
3884 -3882 3885 0
-3884 3882 3885 0
-3884 -3882 3886 0
3884 -3886 0
3882 -3886 0
-3725 -3883 3887 0
3725 -3887 0
3883 -3887 0
3886 3887 -3888 0
-3886 3888 0
-3887 3888 0
-18 -3873 3889 0
18 -3889 0
3873 -3889 0
-3731 -3889 -3890 0
3731 3889 -3890 0
3731 -3889 3890 0
-3731 3889 3890 0
-3890 -3888 -3891 0
3890 3888 -3891 0
3890 -3888 3891 0
-3890 3888 3891 0
-3890 -3888 3892 0
3890 -3892 0
3888 -3892 0
-3731 -3889 3893 0
3731 -3893 0
3889 -3893 0
3892 3893 -3894 0
-3892 3894 0
-3893 3894 0
-26 -3873 3895 0
26 -3895 0
3873 -3895 0
-3737 -3895 -3896 0
3737 3895 -3896 0
3737 -3895 3896 0
-3737 3895 3896 0
-3896 -3894 -3897 0
3896 3894 -3897 0
3896 -3894 3897 0
-3896 3894 3897 0
-3896 -3894 3898 0
3896 -3898 0
3894 -3898 0
-3737 -3895 3899 0
3737 -3899 0
3895 -3899 0
3898 3899 -3900 0
-3898 3900 0
-3899 3900 0
-34 -3873 3901 0
34 -3901 0
3873 -3901 0
-3743 -3901 -3902 0
3743 3901 -3902 0
3743 -3901 3902 0
-3743 3901 3902 0
-3902 -3900 -3903 0
3902 3900 -3903 0
3902 -3900 3903 0
-3902 3900 3903 0
-3902 -3900 3904 0
3902 -3904 0
3900 -3904 0
-3743 -3901 3905 0
3743 -3905 0
3901 -3905 0
3904 3905 -3906 0
-3904 3906 0
-3905 3906 0
-42 -3873 3907 0
42 -3907 0
3873 -3907 0
-3749 -3907 -3908 0
3749 3907 -3908 0
3749 -3907 3908 0
-3749 3907 3908 0
-3908 -3906 -3909 0
3908 3906 -3909 0
3908 -3906 3909 0
-3908 3906 3909 0
-3908 -3906 3910 0
3908 -3910 0
3906 -3910 0
-3749 -3907 3911 0
3749 -3911 0
3907 -3911 0
3910 3911 -3912 0
-3910 3912 0
-3911 3912 0
-50 -3873 3913 0
50 -3913 0
3873 -3913 0
-3755 -3913 -3914 0
3755 3913 -3914 0
3755 -3913 3914 0
-3755 3913 3914 0
-3914 -3912 -3915 0
3914 3912 -3915 0
3914 -3912 3915 0
-3914 3912 3915 0
-3914 -3912 3916 0
3914 -3916 0
3912 -3916 0
-3755 -3913 3917 0
3755 -3917 0
3913 -3917 0
3916 3917 -3918 0
-3916 3918 0
-3917 3918 0
-58 -3873 3919 0
58 -3919 0
3873 -3919 0
-3761 -3919 -3920 0
3761 3919 -3920 0
3761 -3919 3920 0
-3761 3919 3920 0
-3920 -3918 -3921 0
3920 3918 -3921 0
3920 -3918 3921 0
-3920 3918 3921 0
-3920 -3918 3922 0
3920 -3922 0
3918 -3922 0
-3761 -3919 3923 0
3761 -3923 0
3919 -3923 0
3922 3923 -3924 0
-3922 3924 0
-3923 3924 0
-66 -3873 3925 0
66 -3925 0
3873 -3925 0
-3767 -3925 -3926 0
3767 3925 -3926 0
3767 -3925 3926 0
-3767 3925 3926 0
-3926 -3924 -3927 0
3926 3924 -3927 0
3926 -3924 3927 0
-3926 3924 3927 0
-3926 -3924 3928 0
3926 -3928 0
3924 -3928 0
-3767 -3925 3929 0
3767 -3929 0
3925 -3929 0
3928 3929 -3930 0
-3928 3930 0
-3929 3930 0
-74 -3873 3931 0
74 -3931 0
3873 -3931 0
-3773 -3931 -3932 0
3773 3931 -3932 0
3773 -3931 3932 0
-3773 3931 3932 0
-3932 -3930 -3933 0
3932 3930 -3933 0
3932 -3930 3933 0
-3932 3930 3933 0
-3932 -3930 3934 0
3932 -3934 0
3930 -3934 0
-3773 -3931 3935 0
3773 -3935 0
3931 -3935 0
3934 3935 -3936 0
-3934 3936 0
-3935 3936 0
-82 -3873 3937 0
82 -3937 0
3873 -3937 0
-3779 -3937 -3938 0
3779 3937 -3938 0
3779 -3937 3938 0
-3779 3937 3938 0
-3938 -3936 -3939 0
3938 3936 -3939 0
3938 -3936 3939 0
-3938 3936 3939 0
-3938 -3936 3940 0
3938 -3940 0
3936 -3940 0
-3779 -3937 3941 0
3779 -3941 0
3937 -3941 0
3940 3941 -3942 0
-3940 3942 0
-3941 3942 0
-90 -3873 3943 0
90 -3943 0
3873 -3943 0
-3785 -3943 -3944 0
3785 3943 -3944 0
3785 -3943 3944 0
-3785 3943 3944 0
-3944 -3942 -3945 0
3944 3942 -3945 0
3944 -3942 3945 0
-3944 3942 3945 0
-3944 -3942 3946 0
3944 -3946 0
3942 -3946 0
-3785 -3943 3947 0
3785 -3947 0
3943 -3947 0
3946 3947 -3948 0
-3946 3948 0
-3947 3948 0
-98 -3873 3949 0
98 -3949 0
3873 -3949 0
-3791 -3949 -3950 0
3791 3949 -3950 0
3791 -3949 3950 0
-3791 3949 3950 0
-3950 -3948 -3951 0
3950 3948 -3951 0
3950 -3948 3951 0
-3950 3948 3951 0
-3950 -3948 3952 0
3950 -3952 0
3948 -3952 0
-3791 -3949 3953 0
3791 -3953 0
3949 -3953 0
3952 3953 -3954 0
-3952 3954 0
-3953 3954 0
-106 -3873 3955 0
106 -3955 0
3873 -3955 0
-3797 -3955 -3956 0
3797 3955 -3956 0
3797 -3955 3956 0
-3797 3955 3956 0
-3956 -3954 -3957 0
3956 3954 -3957 0
3956 -3954 3957 0
-3956 3954 3957 0
-3956 -3954 3958 0
3956 -3958 0
3954 -3958 0
-3797 -3955 3959 0
3797 -3959 0
3955 -3959 0
3958 3959 -3960 0
-3958 3960 0
-3959 3960 0
-114 -3873 3961 0
114 -3961 0
3873 -3961 0
-3803 -3961 -3962 0
3803 3961 -3962 0
3803 -3961 3962 0
-3803 3961 3962 0
-3962 -3960 -3963 0
3962 3960 -3963 0
3962 -3960 3963 0
-3962 3960 3963 0
-3962 -3960 3964 0
3962 -3964 0
3960 -3964 0
-3803 -3961 3965 0
3803 -3965 0
3961 -3965 0
3964 3965 -3966 0
-3964 3966 0
-3965 3966 0
-122 -3873 3967 0
122 -3967 0
3873 -3967 0
-3809 -3967 -3968 0
3809 3967 -3968 0
3809 -3967 3968 0
-3809 3967 3968 0
-3968 -3966 -3969 0
3968 3966 -3969 0
3968 -3966 3969 0
-3968 3966 3969 0
-3968 -3966 3970 0
3968 -3970 0
3966 -3970 0
-3809 -3967 3971 0
3809 -3971 0
3967 -3971 0
3970 3971 -3972 0
-3970 3972 0
-3971 3972 0
-130 -3873 3973 0
130 -3973 0
3873 -3973 0
-3815 -3973 -3974 0
3815 3973 -3974 0
3815 -3973 3974 0
-3815 3973 3974 0
-3974 -3972 -3975 0
3974 3972 -3975 0
3974 -3972 3975 0
-3974 3972 3975 0
-3974 -3972 3976 0
3974 -3976 0
3972 -3976 0
-3815 -3973 3977 0
3815 -3977 0
3973 -3977 0
3976 3977 -3978 0
-3976 3978 0
-3977 3978 0
-138 -3873 3979 0
138 -3979 0
3873 -3979 0
-3821 -3979 -3980 0
3821 3979 -3980 0
3821 -3979 3980 0
-3821 3979 3980 0
-3980 -3978 -3981 0
3980 3978 -3981 0
3980 -3978 3981 0
-3980 3978 3981 0
-3980 -3978 3982 0
3980 -3982 0
3978 -3982 0
-3821 -3979 3983 0
3821 -3983 0
3979 -3983 0
3982 3983 -3984 0
-3982 3984 0
-3983 3984 0
-146 -3873 3985 0
146 -3985 0
3873 -3985 0
-3827 -3985 -3986 0
3827 3985 -3986 0
3827 -3985 3986 0
-3827 3985 3986 0
-3986 -3984 -3987 0
3986 3984 -3987 0
3986 -3984 3987 0
-3986 3984 3987 0
-3986 -3984 3988 0
3986 -3988 0
3984 -3988 0
-3827 -3985 3989 0
3827 -3989 0
3985 -3989 0
3988 3989 -3990 0
-3988 3990 0
-3989 3990 0
-154 -3873 3991 0
154 -3991 0
3873 -3991 0
-3833 -3991 -3992 0
3833 3991 -3992 0
3833 -3991 3992 0
-3833 3991 3992 0
-3992 -3990 -3993 0
3992 3990 -3993 0
3992 -3990 3993 0
-3992 3990 3993 0
-3992 -3990 3994 0
3992 -3994 0
3990 -3994 0
-3833 -3991 3995 0
3833 -3995 0
3991 -3995 0
3994 3995 -3996 0
-3994 3996 0
-3995 3996 0
-162 -3873 3997 0
162 -3997 0
3873 -3997 0
-3839 -3997 -3998 0
3839 3997 -3998 0
3839 -3997 3998 0
-3839 3997 3998 0
-3998 -3996 -3999 0
3998 3996 -3999 0
3998 -3996 3999 0
-3998 3996 3999 0
-3998 -3996 4000 0
3998 -4000 0
3996 -4000 0
-3839 -3997 4001 0
3839 -4001 0
3997 -4001 0
4000 4001 -4002 0
-4000 4002 0
-4001 4002 0
-170 -3873 4003 0
170 -4003 0
3873 -4003 0
-3845 -4003 -4004 0
3845 4003 -4004 0
3845 -4003 4004 0
-3845 4003 4004 0
-4004 -4002 -4005 0
4004 4002 -4005 0
4004 -4002 4005 0
-4004 4002 4005 0
-4004 -4002 4006 0
4004 -4006 0
4002 -4006 0
-3845 -4003 4007 0
3845 -4007 0
4003 -4007 0
4006 4007 -4008 0
-4006 4008 0
-4007 4008 0
-178 -3873 4009 0
178 -4009 0
3873 -4009 0
-3851 -4009 -4010 0
3851 4009 -4010 0
3851 -4009 4010 0
-3851 4009 4010 0
-4010 -4008 -4011 0
4010 4008 -4011 0
4010 -4008 4011 0
-4010 4008 4011 0
-4010 -4008 4012 0
4010 -4012 0
4008 -4012 0
-3851 -4009 4013 0
3851 -4013 0
4009 -4013 0
4012 4013 -4014 0
-4012 4014 0
-4013 4014 0
-186 -3873 4015 0
186 -4015 0
3873 -4015 0
-3857 -4015 -4016 0
3857 4015 -4016 0
3857 -4015 4016 0
-3857 4015 4016 0
-4016 -4014 -4017 0
4016 4014 -4017 0
4016 -4014 4017 0
-4016 4014 4017 0
-4016 -4014 4018 0
4016 -4018 0
4014 -4018 0
-3857 -4015 4019 0
3857 -4019 0
4015 -4019 0
4018 4019 -4020 0
-4018 4020 0
-4019 4020 0
-194 -3873 4021 0
194 -4021 0
3873 -4021 0
-3863 -4021 -4022 0
3863 4021 -4022 0
3863 -4021 4022 0
-3863 4021 4022 0
-4022 -4020 -4023 0
4022 4020 -4023 0
4022 -4020 4023 0
-4022 4020 4023 0
-4022 -4020 4024 0
4022 -4024 0
4020 -4024 0
-3863 -4021 4025 0
3863 -4025 0
4021 -4025 0
4024 4025 -4026 0
-4024 4026 0
-4025 4026 0
-202 -3873 4027 0
202 -4027 0
3873 -4027 0
-3869 -4027 -4028 0
3869 4027 -4028 0
3869 -4027 4028 0
-3869 4027 4028 0
-4028 -4026 -4029 0
4028 4026 -4029 0
4028 -4026 4029 0
-4028 4026 4029 0
-4028 -4026 4030 0
4028 -4030 0
4026 -4030 0
-3869 -4027 4031 0
3869 -4031 0
4027 -4031 0
4030 4031 -4032 0
-4030 4032 0
-4031 4032 0
-210 -3873 4033 0
210 -4033 0
3873 -4033 0
-3872 -4033 -4034 0
3872 4033 -4034 0
3872 -4033 4034 0
-3872 4033 4034 0
-4034 -4032 -4035 0
4034 4032 -4035 0
4034 -4032 4035 0
-4034 4032 4035 0
-4034 -4032 4036 0
4034 -4036 0
4032 -4036 0
-3872 -4033 4037 0
3872 -4037 0
4033 -4037 0
4036 4037 -4038 0
-4036 4038 0
-4037 4038 0
-1 -4039 4040 0
1 -4040 0
4039 -4040 0
-3879 -4040 -4041 0
3879 4040 -4041 0
3879 -4040 4041 0
-3879 4040 4041 0
-3879 -4040 4042 0
3879 -4042 0
4040 -4042 0
-4 -4039 4043 0
4 -4043 0
4039 -4043 0
-3885 -4043 -4044 0
3885 4043 -4044 0
3885 -4043 4044 0
-3885 4043 4044 0
-4044 -4042 -4045 0
4044 4042 -4045 0
4044 -4042 4045 0
-4044 4042 4045 0
-4044 -4042 4046 0
4044 -4046 0
4042 -4046 0
-3885 -4043 4047 0
3885 -4047 0
4043 -4047 0
4046 4047 -4048 0
-4046 4048 0
-4047 4048 0
-10 -4039 4049 0
10 -4049 0
4039 -4049 0
-3891 -4049 -4050 0
3891 4049 -4050 0
3891 -4049 4050 0
-3891 4049 4050 0
-4050 -4048 -4051 0
4050 4048 -4051 0
4050 -4048 4051 0
-4050 4048 4051 0
-4050 -4048 4052 0
4050 -4052 0
4048 -4052 0
-3891 -4049 4053 0
3891 -4053 0
4049 -4053 0
4052 4053 -4054 0
-4052 4054 0
-4053 4054 0
-18 -4039 4055 0
18 -4055 0
4039 -4055 0
-3897 -4055 -4056 0
3897 4055 -4056 0
3897 -4055 4056 0
-3897 4055 4056 0
-4056 -4054 -4057 0
4056 4054 -4057 0
4056 -4054 4057 0
-4056 4054 4057 0
-4056 -4054 4058 0
4056 -4058 0
4054 -4058 0
-3897 -4055 4059 0
3897 -4059 0
4055 -4059 0
4058 4059 -4060 0
-4058 4060 0
-4059 4060 0
-26 -4039 4061 0
26 -4061 0
4039 -4061 0
-3903 -4061 -4062 0
3903 4061 -4062 0
3903 -4061 4062 0
-3903 4061 4062 0
-4062 -4060 -4063 0
4062 4060 -4063 0
4062 -4060 4063 0
-4062 4060 4063 0
-4062 -4060 4064 0
4062 -4064 0
4060 -4064 0
-3903 -4061 4065 0
3903 -4065 0
4061 -4065 0
4064 4065 -4066 0
-4064 4066 0
-4065 4066 0
-34 -4039 4067 0
34 -4067 0
4039 -4067 0
-3909 -4067 -4068 0
3909 4067 -4068 0
3909 -4067 4068 0
-3909 4067 4068 0
-4068 -4066 -4069 0
4068 4066 -4069 0
4068 -4066 4069 0
-4068 4066 4069 0
-4068 -4066 4070 0
4068 -4070 0
4066 -4070 0
-3909 -4067 4071 0
3909 -4071 0
4067 -4071 0
4070 4071 -4072 0
-4070 4072 0
-4071 4072 0
-42 -4039 4073 0
42 -4073 0
4039 -4073 0
-3915 -4073 -4074 0
3915 4073 -4074 0
3915 -4073 4074 0
-3915 4073 4074 0
-4074 -4072 -4075 0
4074 4072 -4075 0
4074 -4072 4075 0
-4074 4072 4075 0
-4074 -4072 4076 0
4074 -4076 0
4072 -4076 0
-3915 -4073 4077 0
3915 -4077 0
4073 -4077 0
4076 4077 -4078 0
-4076 4078 0
-4077 4078 0
-50 -4039 4079 0
50 -4079 0
4039 -4079 0
-3921 -4079 -4080 0
3921 4079 -4080 0
3921 -4079 4080 0
-3921 4079 4080 0
-4080 -4078 -4081 0
4080 4078 -4081 0
4080 -4078 4081 0
-4080 4078 4081 0
-4080 -4078 4082 0
4080 -4082 0
4078 -4082 0
-3921 -4079 4083 0
3921 -4083 0
4079 -4083 0
4082 4083 -4084 0
-4082 4084 0
-4083 4084 0
-58 -4039 4085 0
58 -4085 0
4039 -4085 0
-3927 -4085 -4086 0
3927 4085 -4086 0
3927 -4085 4086 0
-3927 4085 4086 0
-4086 -4084 -4087 0
4086 4084 -4087 0
4086 -4084 4087 0
-4086 4084 4087 0
-4086 -4084 4088 0
4086 -4088 0
4084 -4088 0
-3927 -4085 4089 0
3927 -4089 0
4085 -4089 0
4088 4089 -4090 0
-4088 4090 0
-4089 4090 0
-66 -4039 4091 0
66 -4091 0
4039 -4091 0
-3933 -4091 -4092 0
3933 4091 -4092 0
3933 -4091 4092 0
-3933 4091 4092 0
-4092 -4090 -4093 0
4092 4090 -4093 0
4092 -4090 4093 0
-4092 4090 4093 0
-4092 -4090 4094 0
4092 -4094 0
4090 -4094 0
-3933 -4091 4095 0
3933 -4095 0
4091 -4095 0
4094 4095 -4096 0
-4094 4096 0
-4095 4096 0
-74 -4039 4097 0
74 -4097 0
4039 -4097 0
-3939 -4097 -4098 0
3939 4097 -4098 0
3939 -4097 4098 0
-3939 4097 4098 0
-4098 -4096 -4099 0
4098 4096 -4099 0
4098 -4096 4099 0
-4098 4096 4099 0
-4098 -4096 4100 0
4098 -4100 0
4096 -4100 0
-3939 -4097 4101 0
3939 -4101 0
4097 -4101 0
4100 4101 -4102 0
-4100 4102 0
-4101 4102 0
-82 -4039 4103 0
82 -4103 0
4039 -4103 0
-3945 -4103 -4104 0
3945 4103 -4104 0
3945 -4103 4104 0
-3945 4103 4104 0
-4104 -4102 -4105 0
4104 4102 -4105 0
4104 -4102 4105 0
-4104 4102 4105 0
-4104 -4102 4106 0
4104 -4106 0
4102 -4106 0
-3945 -4103 4107 0
3945 -4107 0
4103 -4107 0
4106 4107 -4108 0
-4106 4108 0
-4107 4108 0
-90 -4039 4109 0
90 -4109 0
4039 -4109 0
-3951 -4109 -4110 0
3951 4109 -4110 0
3951 -4109 4110 0
-3951 4109 4110 0
-4110 -4108 -4111 0
4110 4108 -4111 0
4110 -4108 4111 0
-4110 4108 4111 0
-4110 -4108 4112 0
4110 -4112 0
4108 -4112 0
-3951 -4109 4113 0
3951 -4113 0
4109 -4113 0
4112 4113 -4114 0
-4112 4114 0
-4113 4114 0
-98 -4039 4115 0
98 -4115 0
4039 -4115 0
-3957 -4115 -4116 0
3957 4115 -4116 0
3957 -4115 4116 0
-3957 4115 4116 0
-4116 -4114 -4117 0
4116 4114 -4117 0
4116 -4114 4117 0
-4116 4114 4117 0
-4116 -4114 4118 0
4116 -4118 0
4114 -4118 0
-3957 -4115 4119 0
3957 -4119 0
4115 -4119 0
4118 4119 -4120 0
-4118 4120 0
-4119 4120 0
-106 -4039 4121 0
106 -4121 0
4039 -4121 0
-3963 -4121 -4122 0
3963 4121 -4122 0
3963 -4121 4122 0
-3963 4121 4122 0
-4122 -4120 -4123 0
4122 4120 -4123 0
4122 -4120 4123 0
-4122 4120 4123 0
-4122 -4120 4124 0
4122 -4124 0
4120 -4124 0
-3963 -4121 4125 0
3963 -4125 0
4121 -4125 0
4124 4125 -4126 0
-4124 4126 0
-4125 4126 0
-114 -4039 4127 0
114 -4127 0
4039 -4127 0
-3969 -4127 -4128 0
3969 4127 -4128 0
3969 -4127 4128 0
-3969 4127 4128 0
-4128 -4126 -4129 0
4128 4126 -4129 0
4128 -4126 4129 0
-4128 4126 4129 0
-4128 -4126 4130 0
4128 -4130 0
4126 -4130 0
-3969 -4127 4131 0
3969 -4131 0
4127 -4131 0
4130 4131 -4132 0
-4130 4132 0
-4131 4132 0
-122 -4039 4133 0
122 -4133 0
4039 -4133 0
-3975 -4133 -4134 0
3975 4133 -4134 0
3975 -4133 4134 0
-3975 4133 4134 0
-4134 -4132 -4135 0
4134 4132 -4135 0
4134 -4132 4135 0
-4134 4132 4135 0
-4134 -4132 4136 0
4134 -4136 0
4132 -4136 0
-3975 -4133 4137 0
3975 -4137 0
4133 -4137 0
4136 4137 -4138 0
-4136 4138 0
-4137 4138 0
-130 -4039 4139 0
130 -4139 0
4039 -4139 0
-3981 -4139 -4140 0
3981 4139 -4140 0
3981 -4139 4140 0
-3981 4139 4140 0
-4140 -4138 -4141 0
4140 4138 -4141 0
4140 -4138 4141 0
-4140 4138 4141 0
-4140 -4138 4142 0
4140 -4142 0
4138 -4142 0
-3981 -4139 4143 0
3981 -4143 0
4139 -4143 0
4142 4143 -4144 0
-4142 4144 0
-4143 4144 0
-138 -4039 4145 0
138 -4145 0
4039 -4145 0
-3987 -4145 -4146 0
3987 4145 -4146 0
3987 -4145 4146 0
-3987 4145 4146 0
-4146 -4144 -4147 0
4146 4144 -4147 0
4146 -4144 4147 0
-4146 4144 4147 0
-4146 -4144 4148 0
4146 -4148 0
4144 -4148 0
-3987 -4145 4149 0
3987 -4149 0
4145 -4149 0
4148 4149 -4150 0
-4148 4150 0
-4149 4150 0
-146 -4039 4151 0
146 -4151 0
4039 -4151 0
-3993 -4151 -4152 0
3993 4151 -4152 0
3993 -4151 4152 0
-3993 4151 4152 0
-4152 -4150 -4153 0
4152 4150 -4153 0
4152 -4150 4153 0
-4152 4150 4153 0
-4152 -4150 4154 0
4152 -4154 0
4150 -4154 0
-3993 -4151 4155 0
3993 -4155 0
4151 -4155 0
4154 4155 -4156 0
-4154 4156 0
-4155 4156 0
-154 -4039 4157 0
154 -4157 0
4039 -4157 0
-3999 -4157 -4158 0
3999 4157 -4158 0
3999 -4157 4158 0
-3999 4157 4158 0
-4158 -4156 -4159 0
4158 4156 -4159 0
4158 -4156 4159 0
-4158 4156 4159 0
-4158 -4156 4160 0
4158 -4160 0
4156 -4160 0
-3999 -4157 4161 0
3999 -4161 0
4157 -4161 0
4160 4161 -4162 0
-4160 4162 0
-4161 4162 0
-162 -4039 4163 0
162 -4163 0
4039 -4163 0
-4005 -4163 -4164 0
4005 4163 -4164 0
4005 -4163 4164 0
-4005 4163 4164 0
-4164 -4162 -4165 0
4164 4162 -4165 0
4164 -4162 4165 0
-4164 4162 4165 0
-4164 -4162 4166 0
4164 -4166 0
4162 -4166 0
-4005 -4163 4167 0
4005 -4167 0
4163 -4167 0
4166 4167 -4168 0
-4166 4168 0
-4167 4168 0
-170 -4039 4169 0
170 -4169 0
4039 -4169 0
-4011 -4169 -4170 0
4011 4169 -4170 0
4011 -4169 4170 0
-4011 4169 4170 0
-4170 -4168 -4171 0
4170 4168 -4171 0
4170 -4168 4171 0
-4170 4168 4171 0
-4170 -4168 4172 0
4170 -4172 0
4168 -4172 0
-4011 -4169 4173 0
4011 -4173 0
4169 -4173 0
4172 4173 -4174 0
-4172 4174 0
-4173 4174 0
-178 -4039 4175 0
178 -4175 0
4039 -4175 0
-4017 -4175 -4176 0
4017 4175 -4176 0
4017 -4175 4176 0
-4017 4175 4176 0
-4176 -4174 -4177 0
4176 4174 -4177 0
4176 -4174 4177 0
-4176 4174 4177 0
-4176 -4174 4178 0
4176 -4178 0
4174 -4178 0
-4017 -4175 4179 0
4017 -4179 0
4175 -4179 0
4178 4179 -4180 0
-4178 4180 0
-4179 4180 0
-186 -4039 4181 0
186 -4181 0
4039 -4181 0
-4023 -4181 -4182 0
4023 4181 -4182 0
4023 -4181 4182 0
-4023 4181 4182 0
-4182 -4180 -4183 0
4182 4180 -4183 0
4182 -4180 4183 0
-4182 4180 4183 0
-4182 -4180 4184 0
4182 -4184 0
4180 -4184 0
-4023 -4181 4185 0
4023 -4185 0
4181 -4185 0
4184 4185 -4186 0
-4184 4186 0
-4185 4186 0
-194 -4039 4187 0
194 -4187 0
4039 -4187 0
-4029 -4187 -4188 0
4029 4187 -4188 0
4029 -4187 4188 0
-4029 4187 4188 0
-4188 -4186 -4189 0
4188 4186 -4189 0
4188 -4186 4189 0
-4188 4186 4189 0
-4188 -4186 4190 0
4188 -4190 0
4186 -4190 0
-4029 -4187 4191 0
4029 -4191 0
4187 -4191 0
4190 4191 -4192 0
-4190 4192 0
-4191 4192 0
-202 -4039 4193 0
202 -4193 0
4039 -4193 0
-4035 -4193 -4194 0
4035 4193 -4194 0
4035 -4193 4194 0
-4035 4193 4194 0
-4194 -4192 -4195 0
4194 4192 -4195 0
4194 -4192 4195 0
-4194 4192 4195 0
-4194 -4192 4196 0
4194 -4196 0
4192 -4196 0
-4035 -4193 4197 0
4035 -4197 0
4193 -4197 0
4196 4197 -4198 0
-4196 4198 0
-4197 4198 0
-210 -4039 4199 0
210 -4199 0
4039 -4199 0
-4038 -4199 -4200 0
4038 4199 -4200 0
4038 -4199 4200 0
-4038 4199 4200 0
-4200 -4198 -4201 0
4200 4198 -4201 0
4200 -4198 4201 0
-4200 4198 4201 0
-4200 -4198 4202 0
4200 -4202 0
4198 -4202 0
-4038 -4199 4203 0
4038 -4203 0
4199 -4203 0
4202 4203 -4204 0
-4202 4204 0
-4203 4204 0
-1 -4205 4206 0
1 -4206 0
4205 -4206 0
-4045 -4206 -4207 0
4045 4206 -4207 0
4045 -4206 4207 0
-4045 4206 4207 0
-4045 -4206 4208 0
4045 -4208 0
4206 -4208 0
-4 -4205 4209 0
4 -4209 0
4205 -4209 0
-4051 -4209 -4210 0
4051 4209 -4210 0
4051 -4209 4210 0
-4051 4209 4210 0
-4210 -4208 -4211 0
4210 4208 -4211 0
4210 -4208 4211 0
-4210 4208 4211 0
-4210 -4208 4212 0
4210 -4212 0
4208 -4212 0
-4051 -4209 4213 0
4051 -4213 0
4209 -4213 0
4212 4213 -4214 0
-4212 4214 0
-4213 4214 0
-10 -4205 4215 0
10 -4215 0
4205 -4215 0
-4057 -4215 -4216 0
4057 4215 -4216 0
4057 -4215 4216 0
-4057 4215 4216 0
-4216 -4214 -4217 0
4216 4214 -4217 0
4216 -4214 4217 0
-4216 4214 4217 0
-4216 -4214 4218 0
4216 -4218 0
4214 -4218 0
-4057 -4215 4219 0
4057 -4219 0
4215 -4219 0
4218 4219 -4220 0
-4218 4220 0
-4219 4220 0
-18 -4205 4221 0
18 -4221 0
4205 -4221 0
-4063 -4221 -4222 0
4063 4221 -4222 0
4063 -4221 4222 0
-4063 4221 4222 0
-4222 -4220 -4223 0
4222 4220 -4223 0
4222 -4220 4223 0
-4222 4220 4223 0
-4222 -4220 4224 0
4222 -4224 0
4220 -4224 0
-4063 -4221 4225 0
4063 -4225 0
4221 -4225 0
4224 4225 -4226 0
-4224 4226 0
-4225 4226 0
-26 -4205 4227 0
26 -4227 0
4205 -4227 0
-4069 -4227 -4228 0
4069 4227 -4228 0
4069 -4227 4228 0
-4069 4227 4228 0
-4228 -4226 -4229 0
4228 4226 -4229 0
4228 -4226 4229 0
-4228 4226 4229 0
-4228 -4226 4230 0
4228 -4230 0
4226 -4230 0
-4069 -4227 4231 0
4069 -4231 0
4227 -4231 0
4230 4231 -4232 0
-4230 4232 0
-4231 4232 0
-34 -4205 4233 0
34 -4233 0
4205 -4233 0
-4075 -4233 -4234 0
4075 4233 -4234 0
4075 -4233 4234 0
-4075 4233 4234 0
-4234 -4232 -4235 0
4234 4232 -4235 0
4234 -4232 4235 0
-4234 4232 4235 0
-4234 -4232 4236 0
4234 -4236 0
4232 -4236 0
-4075 -4233 4237 0
4075 -4237 0
4233 -4237 0
4236 4237 -4238 0
-4236 4238 0
-4237 4238 0
-42 -4205 4239 0
42 -4239 0
4205 -4239 0
-4081 -4239 -4240 0
4081 4239 -4240 0
4081 -4239 4240 0
-4081 4239 4240 0
-4240 -4238 -4241 0
4240 4238 -4241 0
4240 -4238 4241 0
-4240 4238 4241 0
-4240 -4238 4242 0
4240 -4242 0
4238 -4242 0
-4081 -4239 4243 0
4081 -4243 0
4239 -4243 0
4242 4243 -4244 0
-4242 4244 0
-4243 4244 0
-50 -4205 4245 0
50 -4245 0
4205 -4245 0
-4087 -4245 -4246 0
4087 4245 -4246 0
4087 -4245 4246 0
-4087 4245 4246 0
-4246 -4244 -4247 0
4246 4244 -4247 0
4246 -4244 4247 0
-4246 4244 4247 0
-4246 -4244 4248 0
4246 -4248 0
4244 -4248 0
-4087 -4245 4249 0
4087 -4249 0
4245 -4249 0
4248 4249 -4250 0
-4248 4250 0
-4249 4250 0
-58 -4205 4251 0
58 -4251 0
4205 -4251 0
-4093 -4251 -4252 0
4093 4251 -4252 0
4093 -4251 4252 0
-4093 4251 4252 0
-4252 -4250 -4253 0
4252 4250 -4253 0
4252 -4250 4253 0
-4252 4250 4253 0
-4252 -4250 4254 0
4252 -4254 0
4250 -4254 0
-4093 -4251 4255 0
4093 -4255 0
4251 -4255 0
4254 4255 -4256 0
-4254 4256 0
-4255 4256 0
-66 -4205 4257 0
66 -4257 0
4205 -4257 0
-4099 -4257 -4258 0
4099 4257 -4258 0
4099 -4257 4258 0
-4099 4257 4258 0
-4258 -4256 -4259 0
4258 4256 -4259 0
4258 -4256 4259 0
-4258 4256 4259 0
-4258 -4256 4260 0
4258 -4260 0
4256 -4260 0
-4099 -4257 4261 0
4099 -4261 0
4257 -4261 0
4260 4261 -4262 0
-4260 4262 0
-4261 4262 0
-74 -4205 4263 0
74 -4263 0
4205 -4263 0
-4105 -4263 -4264 0
4105 4263 -4264 0
4105 -4263 4264 0
-4105 4263 4264 0
-4264 -4262 -4265 0
4264 4262 -4265 0
4264 -4262 4265 0
-4264 4262 4265 0
-4264 -4262 4266 0
4264 -4266 0
4262 -4266 0
-4105 -4263 4267 0
4105 -4267 0
4263 -4267 0
4266 4267 -4268 0
-4266 4268 0
-4267 4268 0
-82 -4205 4269 0
82 -4269 0
4205 -4269 0
-4111 -4269 -4270 0
4111 4269 -4270 0
4111 -4269 4270 0
-4111 4269 4270 0
-4270 -4268 -4271 0
4270 4268 -4271 0
4270 -4268 4271 0
-4270 4268 4271 0
-4270 -4268 4272 0
4270 -4272 0
4268 -4272 0
-4111 -4269 4273 0
4111 -4273 0
4269 -4273 0
4272 4273 -4274 0
-4272 4274 0
-4273 4274 0
-90 -4205 4275 0
90 -4275 0
4205 -4275 0
-4117 -4275 -4276 0
4117 4275 -4276 0
4117 -4275 4276 0
-4117 4275 4276 0
-4276 -4274 -4277 0
4276 4274 -4277 0
4276 -4274 4277 0
-4276 4274 4277 0
-4276 -4274 4278 0
4276 -4278 0
4274 -4278 0
-4117 -4275 4279 0
4117 -4279 0
4275 -4279 0
4278 4279 -4280 0
-4278 4280 0
-4279 4280 0
-98 -4205 4281 0
98 -4281 0
4205 -4281 0
-4123 -4281 -4282 0
4123 4281 -4282 0
4123 -4281 4282 0
-4123 4281 4282 0
-4282 -4280 -4283 0
4282 4280 -4283 0
4282 -4280 4283 0
-4282 4280 4283 0
-4282 -4280 4284 0
4282 -4284 0
4280 -4284 0
-4123 -4281 4285 0
4123 -4285 0
4281 -4285 0
4284 4285 -4286 0
-4284 4286 0
-4285 4286 0
-106 -4205 4287 0
106 -4287 0
4205 -4287 0
-4129 -4287 -4288 0
4129 4287 -4288 0
4129 -4287 4288 0
-4129 4287 4288 0
-4288 -4286 -4289 0
4288 4286 -4289 0
4288 -4286 4289 0
-4288 4286 4289 0
-4288 -4286 4290 0
4288 -4290 0
4286 -4290 0
-4129 -4287 4291 0
4129 -4291 0
4287 -4291 0
4290 4291 -4292 0
-4290 4292 0
-4291 4292 0
-114 -4205 4293 0
114 -4293 0
4205 -4293 0
-4135 -4293 -4294 0
4135 4293 -4294 0
4135 -4293 4294 0
-4135 4293 4294 0
-4294 -4292 -4295 0
4294 4292 -4295 0
4294 -4292 4295 0
-4294 4292 4295 0
-4294 -4292 4296 0
4294 -4296 0
4292 -4296 0
-4135 -4293 4297 0
4135 -4297 0
4293 -4297 0
4296 4297 -4298 0
-4296 4298 0
-4297 4298 0
-122 -4205 4299 0
122 -4299 0
4205 -4299 0
-4141 -4299 -4300 0
4141 4299 -4300 0
4141 -4299 4300 0
-4141 4299 4300 0
-4300 -4298 -4301 0
4300 4298 -4301 0
4300 -4298 4301 0
-4300 4298 4301 0
-4300 -4298 4302 0
4300 -4302 0
4298 -4302 0
-4141 -4299 4303 0
4141 -4303 0
4299 -4303 0
4302 4303 -4304 0
-4302 4304 0
-4303 4304 0
-130 -4205 4305 0
130 -4305 0
4205 -4305 0
-4147 -4305 -4306 0
4147 4305 -4306 0
4147 -4305 4306 0
-4147 4305 4306 0
-4306 -4304 -4307 0
4306 4304 -4307 0
4306 -4304 4307 0
-4306 4304 4307 0
-4306 -4304 4308 0
4306 -4308 0
4304 -4308 0
-4147 -4305 4309 0
4147 -4309 0
4305 -4309 0
4308 4309 -4310 0
-4308 4310 0
-4309 4310 0
-138 -4205 4311 0
138 -4311 0
4205 -4311 0
-4153 -4311 -4312 0
4153 4311 -4312 0
4153 -4311 4312 0
-4153 4311 4312 0
-4312 -4310 -4313 0
4312 4310 -4313 0
4312 -4310 4313 0
-4312 4310 4313 0
-4312 -4310 4314 0
4312 -4314 0
4310 -4314 0
-4153 -4311 4315 0
4153 -4315 0
4311 -4315 0
4314 4315 -4316 0
-4314 4316 0
-4315 4316 0
-146 -4205 4317 0
146 -4317 0
4205 -4317 0
-4159 -4317 -4318 0
4159 4317 -4318 0
4159 -4317 4318 0
-4159 4317 4318 0
-4318 -4316 -4319 0
4318 4316 -4319 0
4318 -4316 4319 0
-4318 4316 4319 0
-4318 -4316 4320 0
4318 -4320 0
4316 -4320 0
-4159 -4317 4321 0
4159 -4321 0
4317 -4321 0
4320 4321 -4322 0
-4320 4322 0
-4321 4322 0
-154 -4205 4323 0
154 -4323 0
4205 -4323 0
-4165 -4323 -4324 0
4165 4323 -4324 0
4165 -4323 4324 0
-4165 4323 4324 0
-4324 -4322 -4325 0
4324 4322 -4325 0
4324 -4322 4325 0
-4324 4322 4325 0
-4324 -4322 4326 0
4324 -4326 0
4322 -4326 0
-4165 -4323 4327 0
4165 -4327 0
4323 -4327 0
4326 4327 -4328 0
-4326 4328 0
-4327 4328 0
-162 -4205 4329 0
162 -4329 0
4205 -4329 0
-4171 -4329 -4330 0
4171 4329 -4330 0
4171 -4329 4330 0
-4171 4329 4330 0
-4330 -4328 -4331 0
4330 4328 -4331 0
4330 -4328 4331 0
-4330 4328 4331 0
-4330 -4328 4332 0
4330 -4332 0
4328 -4332 0
-4171 -4329 4333 0
4171 -4333 0
4329 -4333 0
4332 4333 -4334 0
-4332 4334 0
-4333 4334 0
-170 -4205 4335 0
170 -4335 0
4205 -4335 0
-4177 -4335 -4336 0
4177 4335 -4336 0
4177 -4335 4336 0
-4177 4335 4336 0
-4336 -4334 -4337 0
4336 4334 -4337 0
4336 -4334 4337 0
-4336 4334 4337 0
-4336 -4334 4338 0
4336 -4338 0
4334 -4338 0
-4177 -4335 4339 0
4177 -4339 0
4335 -4339 0
4338 4339 -4340 0
-4338 4340 0
-4339 4340 0
-178 -4205 4341 0
178 -4341 0
4205 -4341 0
-4183 -4341 -4342 0
4183 4341 -4342 0
4183 -4341 4342 0
-4183 4341 4342 0
-4342 -4340 -4343 0
4342 4340 -4343 0
4342 -4340 4343 0
-4342 4340 4343 0
-4342 -4340 4344 0
4342 -4344 0
4340 -4344 0
-4183 -4341 4345 0
4183 -4345 0
4341 -4345 0
4344 4345 -4346 0
-4344 4346 0
-4345 4346 0
-186 -4205 4347 0
186 -4347 0
4205 -4347 0
-4189 -4347 -4348 0
4189 4347 -4348 0
4189 -4347 4348 0
-4189 4347 4348 0
-4348 -4346 -4349 0
4348 4346 -4349 0
4348 -4346 4349 0
-4348 4346 4349 0
-4348 -4346 4350 0
4348 -4350 0
4346 -4350 0
-4189 -4347 4351 0
4189 -4351 0
4347 -4351 0
4350 4351 -4352 0
-4350 4352 0
-4351 4352 0
-194 -4205 4353 0
194 -4353 0
4205 -4353 0
-4195 -4353 -4354 0
4195 4353 -4354 0
4195 -4353 4354 0
-4195 4353 4354 0
-4354 -4352 -4355 0
4354 4352 -4355 0
4354 -4352 4355 0
-4354 4352 4355 0
-4354 -4352 4356 0
4354 -4356 0
4352 -4356 0
-4195 -4353 4357 0
4195 -4357 0
4353 -4357 0
4356 4357 -4358 0
-4356 4358 0
-4357 4358 0
-202 -4205 4359 0
202 -4359 0
4205 -4359 0
-4201 -4359 -4360 0
4201 4359 -4360 0
4201 -4359 4360 0
-4201 4359 4360 0
-4360 -4358 -4361 0
4360 4358 -4361 0
4360 -4358 4361 0
-4360 4358 4361 0
-4360 -4358 4362 0
4360 -4362 0
4358 -4362 0
-4201 -4359 4363 0
4201 -4363 0
4359 -4363 0
4362 4363 -4364 0
-4362 4364 0
-4363 4364 0
-210 -4205 4365 0
210 -4365 0
4205 -4365 0
-4204 -4365 -4366 0
4204 4365 -4366 0
4204 -4365 4366 0
-4204 4365 4366 0
-4366 -4364 -4367 0
4366 4364 -4367 0
4366 -4364 4367 0
-4366 4364 4367 0
-4366 -4364 4368 0
4366 -4368 0
4364 -4368 0
-4204 -4365 4369 0
4204 -4369 0
4365 -4369 0
4368 4369 -4370 0
-4368 4370 0
-4369 4370 0
-1 -4371 4372 0
1 -4372 0
4371 -4372 0
-4211 -4372 -4373 0
4211 4372 -4373 0
4211 -4372 4373 0
-4211 4372 4373 0
-4211 -4372 4374 0
4211 -4374 0
4372 -4374 0
-4 -4371 4375 0
4 -4375 0
4371 -4375 0
-4217 -4375 -4376 0
4217 4375 -4376 0
4217 -4375 4376 0
-4217 4375 4376 0
-4376 -4374 -4377 0
4376 4374 -4377 0
4376 -4374 4377 0
-4376 4374 4377 0
-4376 -4374 4378 0
4376 -4378 0
4374 -4378 0
-4217 -4375 4379 0
4217 -4379 0
4375 -4379 0
4378 4379 -4380 0
-4378 4380 0
-4379 4380 0
-10 -4371 4381 0
10 -4381 0
4371 -4381 0
-4223 -4381 -4382 0
4223 4381 -4382 0
4223 -4381 4382 0
-4223 4381 4382 0
-4382 -4380 -4383 0
4382 4380 -4383 0
4382 -4380 4383 0
-4382 4380 4383 0
-4382 -4380 4384 0
4382 -4384 0
4380 -4384 0
-4223 -4381 4385 0
4223 -4385 0
4381 -4385 0
4384 4385 -4386 0
-4384 4386 0
-4385 4386 0
-18 -4371 4387 0
18 -4387 0
4371 -4387 0
-4229 -4387 -4388 0
4229 4387 -4388 0
4229 -4387 4388 0
-4229 4387 4388 0
-4388 -4386 -4389 0
4388 4386 -4389 0
4388 -4386 4389 0
-4388 4386 4389 0
-4388 -4386 4390 0
4388 -4390 0
4386 -4390 0
-4229 -4387 4391 0
4229 -4391 0
4387 -4391 0
4390 4391 -4392 0
-4390 4392 0
-4391 4392 0
-26 -4371 4393 0
26 -4393 0
4371 -4393 0
-4235 -4393 -4394 0
4235 4393 -4394 0
4235 -4393 4394 0
-4235 4393 4394 0
-4394 -4392 -4395 0
4394 4392 -4395 0
4394 -4392 4395 0
-4394 4392 4395 0
-4394 -4392 4396 0
4394 -4396 0
4392 -4396 0
-4235 -4393 4397 0
4235 -4397 0
4393 -4397 0
4396 4397 -4398 0
-4396 4398 0
-4397 4398 0
-34 -4371 4399 0
34 -4399 0
4371 -4399 0
-4241 -4399 -4400 0
4241 4399 -4400 0
4241 -4399 4400 0
-4241 4399 4400 0
-4400 -4398 -4401 0
4400 4398 -4401 0
4400 -4398 4401 0
-4400 4398 4401 0
-4400 -4398 4402 0
4400 -4402 0
4398 -4402 0
-4241 -4399 4403 0
4241 -4403 0
4399 -4403 0
4402 4403 -4404 0
-4402 4404 0
-4403 4404 0
-42 -4371 4405 0
42 -4405 0
4371 -4405 0
-4247 -4405 -4406 0
4247 4405 -4406 0
4247 -4405 4406 0
-4247 4405 4406 0
-4406 -4404 -4407 0
4406 4404 -4407 0
4406 -4404 4407 0
-4406 4404 4407 0
-4406 -4404 4408 0
4406 -4408 0
4404 -4408 0
-4247 -4405 4409 0
4247 -4409 0
4405 -4409 0
4408 4409 -4410 0
-4408 4410 0
-4409 4410 0
-50 -4371 4411 0
50 -4411 0
4371 -4411 0
-4253 -4411 -4412 0
4253 4411 -4412 0
4253 -4411 4412 0
-4253 4411 4412 0
-4412 -4410 -4413 0
4412 4410 -4413 0
4412 -4410 4413 0
-4412 4410 4413 0
-4412 -4410 4414 0
4412 -4414 0
4410 -4414 0
-4253 -4411 4415 0
4253 -4415 0
4411 -4415 0
4414 4415 -4416 0
-4414 4416 0
-4415 4416 0
-58 -4371 4417 0
58 -4417 0
4371 -4417 0
-4259 -4417 -4418 0
4259 4417 -4418 0
4259 -4417 4418 0
-4259 4417 4418 0
-4418 -4416 -4419 0
4418 4416 -4419 0
4418 -4416 4419 0
-4418 4416 4419 0
-4418 -4416 4420 0
4418 -4420 0
4416 -4420 0
-4259 -4417 4421 0
4259 -4421 0
4417 -4421 0
4420 4421 -4422 0
-4420 4422 0
-4421 4422 0
-66 -4371 4423 0
66 -4423 0
4371 -4423 0
-4265 -4423 -4424 0
4265 4423 -4424 0
4265 -4423 4424 0
-4265 4423 4424 0
-4424 -4422 -4425 0
4424 4422 -4425 0
4424 -4422 4425 0
-4424 4422 4425 0
-4424 -4422 4426 0
4424 -4426 0
4422 -4426 0
-4265 -4423 4427 0
4265 -4427 0
4423 -4427 0
4426 4427 -4428 0
-4426 4428 0
-4427 4428 0
-74 -4371 4429 0
74 -4429 0
4371 -4429 0
-4271 -4429 -4430 0
4271 4429 -4430 0
4271 -4429 4430 0
-4271 4429 4430 0
-4430 -4428 -4431 0
4430 4428 -4431 0
4430 -4428 4431 0
-4430 4428 4431 0
-4430 -4428 4432 0
4430 -4432 0
4428 -4432 0
-4271 -4429 4433 0
4271 -4433 0
4429 -4433 0
4432 4433 -4434 0
-4432 4434 0
-4433 4434 0
-82 -4371 4435 0
82 -4435 0
4371 -4435 0
-4277 -4435 -4436 0
4277 4435 -4436 0
4277 -4435 4436 0
-4277 4435 4436 0
-4436 -4434 -4437 0
4436 4434 -4437 0
4436 -4434 4437 0
-4436 4434 4437 0
-4436 -4434 4438 0
4436 -4438 0
4434 -4438 0
-4277 -4435 4439 0
4277 -4439 0
4435 -4439 0
4438 4439 -4440 0
-4438 4440 0
-4439 4440 0
-90 -4371 4441 0
90 -4441 0
4371 -4441 0
-4283 -4441 -4442 0
4283 4441 -4442 0
4283 -4441 4442 0
-4283 4441 4442 0
-4442 -4440 -4443 0
4442 4440 -4443 0
4442 -4440 4443 0
-4442 4440 4443 0
-4442 -4440 4444 0
4442 -4444 0
4440 -4444 0
-4283 -4441 4445 0
4283 -4445 0
4441 -4445 0
4444 4445 -4446 0
-4444 4446 0
-4445 4446 0
-98 -4371 4447 0
98 -4447 0
4371 -4447 0
-4289 -4447 -4448 0
4289 4447 -4448 0
4289 -4447 4448 0
-4289 4447 4448 0
-4448 -4446 -4449 0
4448 4446 -4449 0
4448 -4446 4449 0
-4448 4446 4449 0
-4448 -4446 4450 0
4448 -4450 0
4446 -4450 0
-4289 -4447 4451 0
4289 -4451 0
4447 -4451 0
4450 4451 -4452 0
-4450 4452 0
-4451 4452 0
-106 -4371 4453 0
106 -4453 0
4371 -4453 0
-4295 -4453 -4454 0
4295 4453 -4454 0
4295 -4453 4454 0
-4295 4453 4454 0
-4454 -4452 -4455 0
4454 4452 -4455 0
4454 -4452 4455 0
-4454 4452 4455 0
-4454 -4452 4456 0
4454 -4456 0
4452 -4456 0
-4295 -4453 4457 0
4295 -4457 0
4453 -4457 0
4456 4457 -4458 0
-4456 4458 0
-4457 4458 0
-114 -4371 4459 0
114 -4459 0
4371 -4459 0
-4301 -4459 -4460 0
4301 4459 -4460 0
4301 -4459 4460 0
-4301 4459 4460 0
-4460 -4458 -4461 0
4460 4458 -4461 0
4460 -4458 4461 0
-4460 4458 4461 0
-4460 -4458 4462 0
4460 -4462 0
4458 -4462 0
-4301 -4459 4463 0
4301 -4463 0
4459 -4463 0
4462 4463 -4464 0
-4462 4464 0
-4463 4464 0
-122 -4371 4465 0
122 -4465 0
4371 -4465 0
-4307 -4465 -4466 0
4307 4465 -4466 0
4307 -4465 4466 0
-4307 4465 4466 0
-4466 -4464 -4467 0
4466 4464 -4467 0
4466 -4464 4467 0
-4466 4464 4467 0
-4466 -4464 4468 0
4466 -4468 0
4464 -4468 0
-4307 -4465 4469 0
4307 -4469 0
4465 -4469 0
4468 4469 -4470 0
-4468 4470 0
-4469 4470 0
-130 -4371 4471 0
130 -4471 0
4371 -4471 0
-4313 -4471 -4472 0
4313 4471 -4472 0
4313 -4471 4472 0
-4313 4471 4472 0
-4472 -4470 -4473 0
4472 4470 -4473 0
4472 -4470 4473 0
-4472 4470 4473 0
-4472 -4470 4474 0
4472 -4474 0
4470 -4474 0
-4313 -4471 4475 0
4313 -4475 0
4471 -4475 0
4474 4475 -4476 0
-4474 4476 0
-4475 4476 0
-138 -4371 4477 0
138 -4477 0
4371 -4477 0
-4319 -4477 -4478 0
4319 4477 -4478 0
4319 -4477 4478 0
-4319 4477 4478 0
-4478 -4476 -4479 0
4478 4476 -4479 0
4478 -4476 4479 0
-4478 4476 4479 0
-4478 -4476 4480 0
4478 -4480 0
4476 -4480 0
-4319 -4477 4481 0
4319 -4481 0
4477 -4481 0
4480 4481 -4482 0
-4480 4482 0
-4481 4482 0
-146 -4371 4483 0
146 -4483 0
4371 -4483 0
-4325 -4483 -4484 0
4325 4483 -4484 0
4325 -4483 4484 0
-4325 4483 4484 0
-4484 -4482 -4485 0
4484 4482 -4485 0
4484 -4482 4485 0
-4484 4482 4485 0
-4484 -4482 4486 0
4484 -4486 0
4482 -4486 0
-4325 -4483 4487 0
4325 -4487 0
4483 -4487 0
4486 4487 -4488 0
-4486 4488 0
-4487 4488 0
-154 -4371 4489 0
154 -4489 0
4371 -4489 0
-4331 -4489 -4490 0
4331 4489 -4490 0
4331 -4489 4490 0
-4331 4489 4490 0
-4490 -4488 -4491 0
4490 4488 -4491 0
4490 -4488 4491 0
-4490 4488 4491 0
-4490 -4488 4492 0
4490 -4492 0
4488 -4492 0
-4331 -4489 4493 0
4331 -4493 0
4489 -4493 0
4492 4493 -4494 0
-4492 4494 0
-4493 4494 0
-162 -4371 4495 0
162 -4495 0
4371 -4495 0
-4337 -4495 -4496 0
4337 4495 -4496 0
4337 -4495 4496 0
-4337 4495 4496 0
-4496 -4494 -4497 0
4496 4494 -4497 0
4496 -4494 4497 0
-4496 4494 4497 0
-4496 -4494 4498 0
4496 -4498 0
4494 -4498 0
-4337 -4495 4499 0
4337 -4499 0
4495 -4499 0
4498 4499 -4500 0
-4498 4500 0
-4499 4500 0
-170 -4371 4501 0
170 -4501 0
4371 -4501 0
-4343 -4501 -4502 0
4343 4501 -4502 0
4343 -4501 4502 0
-4343 4501 4502 0
-4502 -4500 -4503 0
4502 4500 -4503 0
4502 -4500 4503 0
-4502 4500 4503 0
-4502 -4500 4504 0
4502 -4504 0
4500 -4504 0
-4343 -4501 4505 0
4343 -4505 0
4501 -4505 0
4504 4505 -4506 0
-4504 4506 0
-4505 4506 0
-178 -4371 4507 0
178 -4507 0
4371 -4507 0
-4349 -4507 -4508 0
4349 4507 -4508 0
4349 -4507 4508 0
-4349 4507 4508 0
-4508 -4506 -4509 0
4508 4506 -4509 0
4508 -4506 4509 0
-4508 4506 4509 0
-4508 -4506 4510 0
4508 -4510 0
4506 -4510 0
-4349 -4507 4511 0
4349 -4511 0
4507 -4511 0
4510 4511 -4512 0
-4510 4512 0
-4511 4512 0
-186 -4371 4513 0
186 -4513 0
4371 -4513 0
-4355 -4513 -4514 0
4355 4513 -4514 0
4355 -4513 4514 0
-4355 4513 4514 0
-4514 -4512 -4515 0
4514 4512 -4515 0
4514 -4512 4515 0
-4514 4512 4515 0
-4514 -4512 4516 0
4514 -4516 0
4512 -4516 0
-4355 -4513 4517 0
4355 -4517 0
4513 -4517 0
4516 4517 -4518 0
-4516 4518 0
-4517 4518 0
-194 -4371 4519 0
194 -4519 0
4371 -4519 0
-4361 -4519 -4520 0
4361 4519 -4520 0
4361 -4519 4520 0
-4361 4519 4520 0
-4520 -4518 -4521 0
4520 4518 -4521 0
4520 -4518 4521 0
-4520 4518 4521 0
-4520 -4518 4522 0
4520 -4522 0
4518 -4522 0
-4361 -4519 4523 0
4361 -4523 0
4519 -4523 0
4522 4523 -4524 0
-4522 4524 0
-4523 4524 0
-202 -4371 4525 0
202 -4525 0
4371 -4525 0
-4367 -4525 -4526 0
4367 4525 -4526 0
4367 -4525 4526 0
-4367 4525 4526 0
-4526 -4524 -4527 0
4526 4524 -4527 0
4526 -4524 4527 0
-4526 4524 4527 0
-4526 -4524 4528 0
4526 -4528 0
4524 -4528 0
-4367 -4525 4529 0
4367 -4529 0
4525 -4529 0
4528 4529 -4530 0
-4528 4530 0
-4529 4530 0
-210 -4371 4531 0
210 -4531 0
4371 -4531 0
-4370 -4531 -4532 0
4370 4531 -4532 0
4370 -4531 4532 0
-4370 4531 4532 0
-4532 -4530 -4533 0
4532 4530 -4533 0
4532 -4530 4533 0
-4532 4530 4533 0
-4532 -4530 4534 0
4532 -4534 0
4530 -4534 0
-4370 -4531 4535 0
4370 -4535 0
4531 -4535 0
4534 4535 -4536 0
-4534 4536 0
-4535 4536 0
3 0
8 0
-223 0
389 0
-555 0
-721 0
887 0
1053 0
1219 0
-1385 0
-1551 0
-1717 0
-1883 0
-2049 0
-2215 0
2381 0
2547 0
-2713 0
2879 0
-3045 0
-3211 0
-3377 0
-3543 0
-3709 0
-3875 0
-4041 0
4207 0
-4373 0
-4377 0
-4383 0
-4389 0
-4395 0
-4401 0
-4407 0
-4413 0
-4419 0
-4425 0
-4431 0
-4437 0
-4443 0
-4449 0
-4455 0
-4461 0
-4467 0
-4473 0
-4479 0
-4485 0
-4491 0
-4497 0
-4503 0
-4509 0
-4515 0
-4521 0
-4527 0
-4533 0
-4536 0
