p cnf 8436 27930
-1 -2 3 0
1 -3 0
2 -3 0
-4 -2 5 0
4 -5 0
2 -5 0
-1 -6 7 0
1 -7 0
6 -7 0
-5 -7 -8 0
5 7 -8 0
5 -7 8 0
-5 7 8 0
-5 -7 9 0
5 -9 0
7 -9 0
-10 -2 11 0
10 -11 0
2 -11 0
-4 -6 12 0
4 -12 0
6 -12 0
-11 -12 -13 0
11 12 -13 0
11 -12 13 0
-11 12 13 0
-13 -9 -14 0
13 9 -14 0
13 -9 14 0
-13 9 14 0
-13 -9 15 0
13 -15 0
9 -15 0
-11 -12 16 0
11 -16 0
12 -16 0
15 16 -17 0
-15 17 0
-16 17 0
-18 -2 19 0
18 -19 0
2 -19 0
-10 -6 20 0
10 -20 0
6 -20 0
-19 -20 -21 0
19 20 -21 0
19 -20 21 0
-19 20 21 0
-21 -17 -22 0
21 17 -22 0
21 -17 22 0
-21 17 22 0
-21 -17 23 0
21 -23 0
17 -23 0
-19 -20 24 0
19 -24 0
20 -24 0
23 24 -25 0
-23 25 0
-24 25 0
-26 -2 27 0
26 -27 0
2 -27 0
-18 -6 28 0
18 -28 0
6 -28 0
-27 -28 -29 0
27 28 -29 0
27 -28 29 0
-27 28 29 0
-29 -25 -30 0
29 25 -30 0
29 -25 30 0
-29 25 30 0
-29 -25 31 0
29 -31 0
25 -31 0
-27 -28 32 0
27 -32 0
28 -32 0
31 32 -33 0
-31 33 0
-32 33 0
-34 -2 35 0
34 -35 0
2 -35 0
-26 -6 36 0
26 -36 0
6 -36 0
-35 -36 -37 0
35 36 -37 0
35 -36 37 0
-35 36 37 0
-37 -33 -38 0
37 33 -38 0
37 -33 38 0
-37 33 38 0
-37 -33 39 0
37 -39 0
33 -39 0
-35 -36 40 0
35 -40 0
36 -40 0
39 40 -41 0
-39 41 0
-40 41 0
-42 -2 43 0
42 -43 0
2 -43 0
-34 -6 44 0
34 -44 0
6 -44 0
-43 -44 -45 0
43 44 -45 0
43 -44 45 0
-43 44 45 0
-45 -41 -46 0
45 41 -46 0
45 -41 46 0
-45 41 46 0
-45 -41 47 0
45 -47 0
41 -47 0
-43 -44 48 0
43 -48 0
44 -48 0
47 48 -49 0
-47 49 0
-48 49 0
-50 -2 51 0
50 -51 0
2 -51 0
-42 -6 52 0
42 -52 0
6 -52 0
-51 -52 -53 0
51 52 -53 0
51 -52 53 0
-51 52 53 0
-53 -49 -54 0
53 49 -54 0
53 -49 54 0
-53 49 54 0
-53 -49 55 0
53 -55 0
49 -55 0
-51 -52 56 0
51 -56 0
52 -56 0
55 56 -57 0
-55 57 0
-56 57 0
-58 -2 59 0
58 -59 0
2 -59 0
-50 -6 60 0
50 -60 0
6 -60 0
-59 -60 -61 0
59 60 -61 0
59 -60 61 0
-59 60 61 0
-61 -57 -62 0
61 57 -62 0
61 -57 62 0
-61 57 62 0
-61 -57 63 0
61 -63 0
57 -63 0
-59 -60 64 0
59 -64 0
60 -64 0
63 64 -65 0
-63 65 0
-64 65 0
-66 -2 67 0
66 -67 0
2 -67 0
-58 -6 68 0
58 -68 0
6 -68 0
-67 -68 -69 0
67 68 -69 0
67 -68 69 0
-67 68 69 0
-69 -65 -70 0
69 65 -70 0
69 -65 70 0
-69 65 70 0
-69 -65 71 0
69 -71 0
65 -71 0
-67 -68 72 0
67 -72 0
68 -72 0
71 72 -73 0
-71 73 0
-72 73 0
-74 -2 75 0
74 -75 0
2 -75 0
-66 -6 76 0
66 -76 0
6 -76 0
-75 -76 -77 0
75 76 -77 0
75 -76 77 0
-75 76 77 0
-77 -73 -78 0
77 73 -78 0
77 -73 78 0
-77 73 78 0
-77 -73 79 0
77 -79 0
73 -79 0
-75 -76 80 0
75 -80 0
76 -80 0
79 80 -81 0
-79 81 0
-80 81 0
-82 -2 83 0
82 -83 0
2 -83 0
-74 -6 84 0
74 -84 0
6 -84 0
-83 -84 -85 0
83 84 -85 0
83 -84 85 0
-83 84 85 0
-85 -81 -86 0
85 81 -86 0
85 -81 86 0
-85 81 86 0
-85 -81 87 0
85 -87 0
81 -87 0
-83 -84 88 0
83 -88 0
84 -88 0
87 88 -89 0
-87 89 0
-88 89 0
-90 -2 91 0
90 -91 0
2 -91 0
-82 -6 92 0
82 -92 0
6 -92 0
-91 -92 -93 0
91 92 -93 0
91 -92 93 0
-91 92 93 0
-93 -89 -94 0
93 89 -94 0
93 -89 94 0
-93 89 94 0
-93 -89 95 0
93 -95 0
89 -95 0
-91 -92 96 0
91 -96 0
92 -96 0
95 96 -97 0
-95 97 0
-96 97 0
-98 -2 99 0
98 -99 0
2 -99 0
-90 -6 100 0
90 -100 0
6 -100 0
-99 -100 -101 0
99 100 -101 0
99 -100 101 0
-99 100 101 0
-101 -97 -102 0
101 97 -102 0
101 -97 102 0
-101 97 102 0
-101 -97 103 0
101 -103 0
97 -103 0
-99 -100 104 0
99 -104 0
100 -104 0
103 104 -105 0
-103 105 0
-104 105 0
-106 -2 107 0
106 -107 0
2 -107 0
-98 -6 108 0
98 -108 0
6 -108 0
-107 -108 -109 0
107 108 -109 0
107 -108 109 0
-107 108 109 0
-109 -105 -110 0
109 105 -110 0
109 -105 110 0
-109 105 110 0
-109 -105 111 0
109 -111 0
105 -111 0
-107 -108 112 0
107 -112 0
108 -112 0
111 112 -113 0
-111 113 0
-112 113 0
-114 -2 115 0
114 -115 0
2 -115 0
-106 -6 116 0
106 -116 0
6 -116 0
-115 -116 -117 0
115 116 -117 0
115 -116 117 0
-115 116 117 0
-117 -113 -118 0
117 113 -118 0
117 -113 118 0
-117 113 118 0
-117 -113 119 0
117 -119 0
113 -119 0
-115 -116 120 0
115 -120 0
116 -120 0
119 120 -121 0
-119 121 0
-120 121 0
-122 -2 123 0
122 -123 0
2 -123 0
-114 -6 124 0
114 -124 0
6 -124 0
-123 -124 -125 0
123 124 -125 0
123 -124 125 0
-123 124 125 0
-125 -121 -126 0
125 121 -126 0
125 -121 126 0
-125 121 126 0
-125 -121 127 0
125 -127 0
121 -127 0
-123 -124 128 0
123 -128 0
124 -128 0
127 128 -129 0
-127 129 0
-128 129 0
-130 -2 131 0
130 -131 0
2 -131 0
-122 -6 132 0
122 -132 0
6 -132 0
-131 -132 -133 0
131 132 -133 0
131 -132 133 0
-131 132 133 0
-133 -129 -134 0
133 129 -134 0
133 -129 134 0
-133 129 134 0
-133 -129 135 0
133 -135 0
129 -135 0
-131 -132 136 0
131 -136 0
132 -136 0
135 136 -137 0
-135 137 0
-136 137 0
-138 -2 139 0
138 -139 0
2 -139 0
-130 -6 140 0
130 -140 0
6 -140 0
-139 -140 -141 0
139 140 -141 0
139 -140 141 0
-139 140 141 0
-141 -137 -142 0
141 137 -142 0
141 -137 142 0
-141 137 142 0
-141 -137 143 0
141 -143 0
137 -143 0
-139 -140 144 0
139 -144 0
140 -144 0
143 144 -145 0
-143 145 0
-144 145 0
-146 -2 147 0
146 -147 0
2 -147 0
-138 -6 148 0
138 -148 0
6 -148 0
-147 -148 -149 0
147 148 -149 0
147 -148 149 0
-147 148 149 0
-149 -145 -150 0
149 145 -150 0
149 -145 150 0
-149 145 150 0
-149 -145 151 0
149 -151 0
145 -151 0
-147 -148 152 0
147 -152 0
148 -152 0
151 152 -153 0
-151 153 0
-152 153 0
-154 -2 155 0
154 -155 0
2 -155 0
-146 -6 156 0
146 -156 0
6 -156 0
-155 -156 -157 0
155 156 -157 0
155 -156 157 0
-155 156 157 0
-157 -153 -158 0
157 153 -158 0
157 -153 158 0
-157 153 158 0
-157 -153 159 0
157 -159 0
153 -159 0
-155 -156 160 0
155 -160 0
156 -160 0
159 160 -161 0
-159 161 0
-160 161 0
-162 -2 163 0
162 -163 0
2 -163 0
-154 -6 164 0
154 -164 0
6 -164 0
-163 -164 -165 0
163 164 -165 0
163 -164 165 0
-163 164 165 0
-165 -161 -166 0
165 161 -166 0
165 -161 166 0
-165 161 166 0
-165 -161 167 0
165 -167 0
161 -167 0
-163 -164 168 0
163 -168 0
164 -168 0
167 168 -169 0
-167 169 0
-168 169 0
-170 -2 171 0
170 -171 0
2 -171 0
-162 -6 172 0
162 -172 0
6 -172 0
-171 -172 -173 0
171 172 -173 0
171 -172 173 0
-171 172 173 0
-173 -169 -174 0
173 169 -174 0
173 -169 174 0
-173 169 174 0
-173 -169 175 0
173 -175 0
169 -175 0
-171 -172 176 0
171 -176 0
172 -176 0
175 176 -177 0
-175 177 0
-176 177 0
-178 -2 179 0
178 -179 0
2 -179 0
-170 -6 180 0
170 -180 0
6 -180 0
-179 -180 -181 0
179 180 -181 0
179 -180 181 0
-179 180 181 0
-181 -177 -182 0
181 177 -182 0
181 -177 182 0
-181 177 182 0
-181 -177 183 0
181 -183 0
177 -183 0
-179 -180 184 0
179 -184 0
180 -184 0
183 184 -185 0
-183 185 0
-184 185 0
-186 -2 187 0
186 -187 0
2 -187 0
-178 -6 188 0
178 -188 0
6 -188 0
-187 -188 -189 0
187 188 -189 0
187 -188 189 0
-187 188 189 0
-189 -185 -190 0
189 185 -190 0
189 -185 190 0
-189 185 190 0
-189 -185 191 0
189 -191 0
185 -191 0
-187 -188 192 0
187 -192 0
188 -192 0
191 192 -193 0
-191 193 0
-192 193 0
-194 -2 195 0
194 -195 0
2 -195 0
-186 -6 196 0
186 -196 0
6 -196 0
-195 -196 -197 0
195 196 -197 0
195 -196 197 0
-195 196 197 0
-197 -193 -198 0
197 193 -198 0
197 -193 198 0
-197 193 198 0
-197 -193 199 0
197 -199 0
193 -199 0
-195 -196 200 0
195 -200 0
196 -200 0
199 200 -201 0
-199 201 0
-200 201 0
-202 -2 203 0
202 -203 0
2 -203 0
-194 -6 204 0
194 -204 0
6 -204 0
-203 -204 -205 0
203 204 -205 0
203 -204 205 0
-203 204 205 0
-205 -201 -206 0
205 201 -206 0
205 -201 206 0
-205 201 206 0
-205 -201 207 0
205 -207 0
201 -207 0
-203 -204 208 0
203 -208 0
204 -208 0
207 208 -209 0
-207 209 0
-208 209 0
-210 -2 211 0
210 -211 0
2 -211 0
-202 -6 212 0
202 -212 0
6 -212 0
-211 -212 -213 0
211 212 -213 0
211 -212 213 0
-211 212 213 0
-213 -209 -214 0
213 209 -214 0
213 -209 214 0
-213 209 214 0
-213 -209 215 0
213 -215 0
209 -215 0
-211 -212 216 0
211 -216 0
212 -216 0
215 216 -217 0
-215 217 0
-216 217 0
-218 -2 219 0
218 -219 0
2 -219 0
-210 -6 220 0
210 -220 0
6 -220 0
-219 -220 -221 0
219 220 -221 0
219 -220 221 0
-219 220 221 0
-221 -217 -222 0
221 217 -222 0
221 -217 222 0
-221 217 222 0
-221 -217 223 0
221 -223 0
217 -223 0
-219 -220 224 0
219 -224 0
220 -224 0
223 224 -225 0
-223 225 0
-224 225 0
-226 -2 227 0
226 -227 0
2 -227 0
-218 -6 228 0
218 -228 0
6 -228 0
-227 -228 -229 0
227 228 -229 0
227 -228 229 0
-227 228 229 0
-229 -225 -230 0
229 225 -230 0
229 -225 230 0
-229 225 230 0
-229 -225 231 0
229 -231 0
225 -231 0
-227 -228 232 0
227 -232 0
228 -232 0
231 232 -233 0
-231 233 0
-232 233 0
-234 -2 235 0
234 -235 0
2 -235 0
-226 -6 236 0
226 -236 0
6 -236 0
-235 -236 -237 0
235 236 -237 0
235 -236 237 0
-235 236 237 0
-237 -233 -238 0
237 233 -238 0
237 -233 238 0
-237 233 238 0
-237 -233 239 0
237 -239 0
233 -239 0
-235 -236 240 0
235 -240 0
236 -240 0
239 240 -241 0
-239 241 0
-240 241 0
-242 -2 243 0
242 -243 0
2 -243 0
-234 -6 244 0
234 -244 0
6 -244 0
-243 -244 -245 0
243 244 -245 0
243 -244 245 0
-243 244 245 0
-245 -241 -246 0
245 241 -246 0
245 -241 246 0
-245 241 246 0
-245 -241 247 0
245 -247 0
241 -247 0
-243 -244 248 0
243 -248 0
244 -248 0
247 248 -249 0
-247 249 0
-248 249 0
-250 -2 251 0
250 -251 0
2 -251 0
-242 -6 252 0
242 -252 0
6 -252 0
-251 -252 -253 0
251 252 -253 0
251 -252 253 0
-251 252 253 0
-253 -249 -254 0
253 249 -254 0
253 -249 254 0
-253 249 254 0
-253 -249 255 0
253 -255 0
249 -255 0
-251 -252 256 0
251 -256 0
252 -256 0
255 256 -257 0
-255 257 0
-256 257 0
-258 -2 259 0
258 -259 0
2 -259 0
-250 -6 260 0
250 -260 0
6 -260 0
-259 -260 -261 0
259 260 -261 0
259 -260 261 0
-259 260 261 0
-261 -257 -262 0
261 257 -262 0
261 -257 262 0
-261 257 262 0
-261 -257 263 0
261 -263 0
257 -263 0
-259 -260 264 0
259 -264 0
260 -264 0
263 264 -265 0
-263 265 0
-264 265 0
-266 -2 267 0
266 -267 0
2 -267 0
-258 -6 268 0
258 -268 0
6 -268 0
-267 -268 -269 0
267 268 -269 0
267 -268 269 0
-267 268 269 0
-269 -265 -270 0
269 265 -270 0
269 -265 270 0
-269 265 270 0
-269 -265 271 0
269 -271 0
265 -271 0
-267 -268 272 0
267 -272 0
268 -272 0
271 272 -273 0
-271 273 0
-272 273 0
-274 -2 275 0
274 -275 0
2 -275 0
-266 -6 276 0
266 -276 0
6 -276 0
-275 -276 -277 0
275 276 -277 0
275 -276 277 0
-275 276 277 0
-277 -273 -278 0
277 273 -278 0
277 -273 278 0
-277 273 278 0
-277 -273 279 0
277 -279 0
273 -279 0
-275 -276 280 0
275 -280 0
276 -280 0
279 280 -281 0
-279 281 0
-280 281 0
-282 -2 283 0
282 -283 0
2 -283 0
-274 -6 284 0
274 -284 0
6 -284 0
-283 -284 -285 0
283 284 -285 0
283 -284 285 0
-283 284 285 0
-285 -281 -286 0
285 281 -286 0
285 -281 286 0
-285 281 286 0
-285 -281 287 0
285 -287 0
281 -287 0
-283 -284 288 0
283 -288 0
284 -288 0
287 288 -289 0
-287 289 0
-288 289 0
-290 -2 291 0
290 -291 0
2 -291 0
-282 -6 292 0
282 -292 0
6 -292 0
-291 -292 -293 0
291 292 -293 0
291 -292 293 0
-291 292 293 0
-293 -289 -294 0
293 289 -294 0
293 -289 294 0
-293 289 294 0
-293 -289 295 0
293 -295 0
289 -295 0
-291 -292 296 0
291 -296 0
292 -296 0
295 296 -297 0
-295 297 0
-296 297 0
-290 -6 298 0
290 -298 0
6 -298 0
-297 -298 -299 0
297 298 -299 0
297 -298 299 0
-297 298 299 0
-297 -298 300 0
297 -300 0
298 -300 0
-1 -301 302 0
1 -302 0
301 -302 0
-14 -302 -303 0
14 302 -303 0
14 -302 303 0
-14 302 303 0
-14 -302 304 0
14 -304 0
302 -304 0
-4 -301 305 0
4 -305 0
301 -305 0
-22 -305 -306 0
22 305 -306 0
22 -305 306 0
-22 305 306 0
-306 -304 -307 0
306 304 -307 0
306 -304 307 0
-306 304 307 0
-306 -304 308 0
306 -308 0
304 -308 0
-22 -305 309 0
22 -309 0
305 -309 0
308 309 -310 0
-308 310 0
-309 310 0
-10 -301 311 0
10 -311 0
301 -311 0
-30 -311 -312 0
30 311 -312 0
30 -311 312 0
-30 311 312 0
-312 -310 -313 0
312 310 -313 0
312 -310 313 0
-312 310 313 0
-312 -310 314 0
312 -314 0
310 -314 0
-30 -311 315 0
30 -315 0
311 -315 0
314 315 -316 0
-314 316 0
-315 316 0
-18 -301 317 0
18 -317 0
301 -317 0
-38 -317 -318 0
38 317 -318 0
38 -317 318 0
-38 317 318 0
-318 -316 -319 0
318 316 -319 0
318 -316 319 0
-318 316 319 0
-318 -316 320 0
318 -320 0
316 -320 0
-38 -317 321 0
38 -321 0
317 -321 0
320 321 -322 0
-320 322 0
-321 322 0
-26 -301 323 0
26 -323 0
301 -323 0
-46 -323 -324 0
46 323 -324 0
46 -323 324 0
-46 323 324 0
-324 -322 -325 0
324 322 -325 0
324 -322 325 0
-324 322 325 0
-324 -322 326 0
324 -326 0
322 -326 0
-46 -323 327 0
46 -327 0
323 -327 0
326 327 -328 0
-326 328 0
-327 328 0
-34 -301 329 0
34 -329 0
301 -329 0
-54 -329 -330 0
54 329 -330 0
54 -329 330 0
-54 329 330 0
-330 -328 -331 0
330 328 -331 0
330 -328 331 0
-330 328 331 0
-330 -328 332 0
330 -332 0
328 -332 0
-54 -329 333 0
54 -333 0
329 -333 0
332 333 -334 0
-332 334 0
-333 334 0
-42 -301 335 0
42 -335 0
301 -335 0
-62 -335 -336 0
62 335 -336 0
62 -335 336 0
-62 335 336 0
-336 -334 -337 0
336 334 -337 0
336 -334 337 0
-336 334 337 0
-336 -334 338 0
336 -338 0
334 -338 0
-62 -335 339 0
62 -339 0
335 -339 0
338 339 -340 0
-338 340 0
-339 340 0
-50 -301 341 0
50 -341 0
301 -341 0
-70 -341 -342 0
70 341 -342 0
70 -341 342 0
-70 341 342 0
-342 -340 -343 0
342 340 -343 0
342 -340 343 0
-342 340 343 0
-342 -340 344 0
342 -344 0
340 -344 0
-70 -341 345 0
70 -345 0
341 -345 0
344 345 -346 0
-344 346 0
-345 346 0
-58 -301 347 0
58 -347 0
301 -347 0
-78 -347 -348 0
78 347 -348 0
78 -347 348 0
-78 347 348 0
-348 -346 -349 0
348 346 -349 0
348 -346 349 0
-348 346 349 0
-348 -346 350 0
348 -350 0
346 -350 0
-78 -347 351 0
78 -351 0
347 -351 0
350 351 -352 0
-350 352 0
-351 352 0
-66 -301 353 0
66 -353 0
301 -353 0
-86 -353 -354 0
86 353 -354 0
86 -353 354 0
-86 353 354 0
-354 -352 -355 0
354 352 -355 0
354 -352 355 0
-354 352 355 0
-354 -352 356 0
354 -356 0
352 -356 0
-86 -353 357 0
86 -357 0
353 -357 0
356 357 -358 0
-356 358 0
-357 358 0
-74 -301 359 0
74 -359 0
301 -359 0
-94 -359 -360 0
94 359 -360 0
94 -359 360 0
-94 359 360 0
-360 -358 -361 0
360 358 -361 0
360 -358 361 0
-360 358 361 0
-360 -358 362 0
360 -362 0
358 -362 0
-94 -359 363 0
94 -363 0
359 -363 0
362 363 -364 0
-362 364 0
-363 364 0
-82 -301 365 0
82 -365 0
301 -365 0
-102 -365 -366 0
102 365 -366 0
102 -365 366 0
-102 365 366 0
-366 -364 -367 0
366 364 -367 0
366 -364 367 0
-366 364 367 0
-366 -364 368 0
366 -368 0
364 -368 0
-102 -365 369 0
102 -369 0
365 -369 0
368 369 -370 0
-368 370 0
-369 370 0
-90 -301 371 0
90 -371 0
301 -371 0
-110 -371 -372 0
110 371 -372 0
110 -371 372 0
-110 371 372 0
-372 -370 -373 0
372 370 -373 0
372 -370 373 0
-372 370 373 0
-372 -370 374 0
372 -374 0
370 -374 0
-110 -371 375 0
110 -375 0
371 -375 0
374 375 -376 0
-374 376 0
-375 376 0
-98 -301 377 0
98 -377 0
301 -377 0
-118 -377 -378 0
118 377 -378 0
118 -377 378 0
-118 377 378 0
-378 -376 -379 0
378 376 -379 0
378 -376 379 0
-378 376 379 0
-378 -376 380 0
378 -380 0
376 -380 0
-118 -377 381 0
118 -381 0
377 -381 0
380 381 -382 0
-380 382 0
-381 382 0
-106 -301 383 0
106 -383 0
301 -383 0
-126 -383 -384 0
126 383 -384 0
126 -383 384 0
-126 383 384 0
-384 -382 -385 0
384 382 -385 0
384 -382 385 0
-384 382 385 0
-384 -382 386 0
384 -386 0
382 -386 0
-126 -383 387 0
126 -387 0
383 -387 0
386 387 -388 0
-386 388 0
-387 388 0
-114 -301 389 0
114 -389 0
301 -389 0
-134 -389 -390 0
134 389 -390 0
134 -389 390 0
-134 389 390 0
-390 -388 -391 0
390 388 -391 0
390 -388 391 0
-390 388 391 0
-390 -388 392 0
390 -392 0
388 -392 0
-134 -389 393 0
134 -393 0
389 -393 0
392 393 -394 0
-392 394 0
-393 394 0
-122 -301 395 0
122 -395 0
301 -395 0
-142 -395 -396 0
142 395 -396 0
142 -395 396 0
-142 395 396 0
-396 -394 -397 0
396 394 -397 0
396 -394 397 0
-396 394 397 0
-396 -394 398 0
396 -398 0
394 -398 0
-142 -395 399 0
142 -399 0
395 -399 0
398 399 -400 0
-398 400 0
-399 400 0
-130 -301 401 0
130 -401 0
301 -401 0
-150 -401 -402 0
150 401 -402 0
150 -401 402 0
-150 401 402 0
-402 -400 -403 0
402 400 -403 0
402 -400 403 0
-402 400 403 0
-402 -400 404 0
402 -404 0
400 -404 0
-150 -401 405 0
150 -405 0
401 -405 0
404 405 -406 0
-404 406 0
-405 406 0
-138 -301 407 0
138 -407 0
301 -407 0
-158 -407 -408 0
158 407 -408 0
158 -407 408 0
-158 407 408 0
-408 -406 -409 0
408 406 -409 0
408 -406 409 0
-408 406 409 0
-408 -406 410 0
408 -410 0
406 -410 0
-158 -407 411 0
158 -411 0
407 -411 0
410 411 -412 0
-410 412 0
-411 412 0
-146 -301 413 0
146 -413 0
301 -413 0
-166 -413 -414 0
166 413 -414 0
166 -413 414 0
-166 413 414 0
-414 -412 -415 0
414 412 -415 0
414 -412 415 0
-414 412 415 0
-414 -412 416 0
414 -416 0
412 -416 0
-166 -413 417 0
166 -417 0
413 -417 0
416 417 -418 0
-416 418 0
-417 418 0
-154 -301 419 0
154 -419 0
301 -419 0
-174 -419 -420 0
174 419 -420 0
174 -419 420 0
-174 419 420 0
-420 -418 -421 0
420 418 -421 0
420 -418 421 0
-420 418 421 0
-420 -418 422 0
420 -422 0
418 -422 0
-174 -419 423 0
174 -423 0
419 -423 0
422 423 -424 0
-422 424 0
-423 424 0
-162 -301 425 0
162 -425 0
301 -425 0
-182 -425 -426 0
182 425 -426 0
182 -425 426 0
-182 425 426 0
-426 -424 -427 0
426 424 -427 0
426 -424 427 0
-426 424 427 0
-426 -424 428 0
426 -428 0
424 -428 0
-182 -425 429 0
182 -429 0
425 -429 0
428 429 -430 0
-428 430 0
-429 430 0
-170 -301 431 0
170 -431 0
301 -431 0
-190 -431 -432 0
190 431 -432 0
190 -431 432 0
-190 431 432 0
-432 -430 -433 0
432 430 -433 0
432 -430 433 0
-432 430 433 0
-432 -430 434 0
432 -434 0
430 -434 0
-190 -431 435 0
190 -435 0
431 -435 0
434 435 -436 0
-434 436 0
-435 436 0
-178 -301 437 0
178 -437 0
301 -437 0
-198 -437 -438 0
198 437 -438 0
198 -437 438 0
-198 437 438 0
-438 -436 -439 0
438 436 -439 0
438 -436 439 0
-438 436 439 0
-438 -436 440 0
438 -440 0
436 -440 0
-198 -437 441 0
198 -441 0
437 -441 0
440 441 -442 0
-440 442 0
-441 442 0
-186 -301 443 0
186 -443 0
301 -443 0
-206 -443 -444 0
206 443 -444 0
206 -443 444 0
-206 443 444 0
-444 -442 -445 0
444 442 -445 0
444 -442 445 0
-444 442 445 0
-444 -442 446 0
444 -446 0
442 -446 0
-206 -443 447 0
206 -447 0
443 -447 0
446 447 -448 0
-446 448 0
-447 448 0
-194 -301 449 0
194 -449 0
301 -449 0
-214 -449 -450 0
214 449 -450 0
214 -449 450 0
-214 449 450 0
-450 -448 -451 0
450 448 -451 0
450 -448 451 0
-450 448 451 0
-450 -448 452 0
450 -452 0
448 -452 0
-214 -449 453 0
214 -453 0
449 -453 0
452 453 -454 0
-452 454 0
-453 454 0
-202 -301 455 0
202 -455 0
301 -455 0
-222 -455 -456 0
222 455 -456 0
222 -455 456 0
-222 455 456 0
-456 -454 -457 0
456 454 -457 0
456 -454 457 0
-456 454 457 0
-456 -454 458 0
456 -458 0
454 -458 0
-222 -455 459 0
222 -459 0
455 -459 0
458 459 -460 0
-458 460 0
-459 460 0
-210 -301 461 0
210 -461 0
301 -461 0
-230 -461 -462 0
230 461 -462 0
230 -461 462 0
-230 461 462 0
-462 -460 -463 0
462 460 -463 0
462 -460 463 0
-462 460 463 0
-462 -460 464 0
462 -464 0
460 -464 0
-230 -461 465 0
230 -465 0
461 -465 0
464 465 -466 0
-464 466 0
-465 466 0
-218 -301 467 0
218 -467 0
301 -467 0
-238 -467 -468 0
238 467 -468 0
238 -467 468 0
-238 467 468 0
-468 -466 -469 0
468 466 -469 0
468 -466 469 0
-468 466 469 0
-468 -466 470 0
468 -470 0
466 -470 0
-238 -467 471 0
238 -471 0
467 -471 0
470 471 -472 0
-470 472 0
-471 472 0
-226 -301 473 0
226 -473 0
301 -473 0
-246 -473 -474 0
246 473 -474 0
246 -473 474 0
-246 473 474 0
-474 -472 -475 0
474 472 -475 0
474 -472 475 0
-474 472 475 0
-474 -472 476 0
474 -476 0
472 -476 0
-246 -473 477 0
246 -477 0
473 -477 0
476 477 -478 0
-476 478 0
-477 478 0
-234 -301 479 0
234 -479 0
301 -479 0
-254 -479 -480 0
254 479 -480 0
254 -479 480 0
-254 479 480 0
-480 -478 -481 0
480 478 -481 0
480 -478 481 0
-480 478 481 0
-480 -478 482 0
480 -482 0
478 -482 0
-254 -479 483 0
254 -483 0
479 -483 0
482 483 -484 0
-482 484 0
-483 484 0
-242 -301 485 0
242 -485 0
301 -485 0
-262 -485 -486 0
262 485 -486 0
262 -485 486 0
-262 485 486 0
-486 -484 -487 0
486 484 -487 0
486 -484 487 0
-486 484 487 0
-486 -484 488 0
486 -488 0
484 -488 0
-262 -485 489 0
262 -489 0
485 -489 0
488 489 -490 0
-488 490 0
-489 490 0
-250 -301 491 0
250 -491 0
301 -491 0
-270 -491 -492 0
270 491 -492 0
270 -491 492 0
-270 491 492 0
-492 -490 -493 0
492 490 -493 0
492 -490 493 0
-492 490 493 0
-492 -490 494 0
492 -494 0
490 -494 0
-270 -491 495 0
270 -495 0
491 -495 0
494 495 -496 0
-494 496 0
-495 496 0
-258 -301 497 0
258 -497 0
301 -497 0
-278 -497 -498 0
278 497 -498 0
278 -497 498 0
-278 497 498 0
-498 -496 -499 0
498 496 -499 0
498 -496 499 0
-498 496 499 0
-498 -496 500 0
498 -500 0
496 -500 0
-278 -497 501 0
278 -501 0
497 -501 0
500 501 -502 0
-500 502 0
-501 502 0
-266 -301 503 0
266 -503 0
301 -503 0
-286 -503 -504 0
286 503 -504 0
286 -503 504 0
-286 503 504 0
-504 -502 -505 0
504 502 -505 0
504 -502 505 0
-504 502 505 0
-504 -502 506 0
504 -506 0
502 -506 0
-286 -503 507 0
286 -507 0
503 -507 0
506 507 -508 0
-506 508 0
-507 508 0
-274 -301 509 0
274 -509 0
301 -509 0
-294 -509 -510 0
294 509 -510 0
294 -509 510 0
-294 509 510 0
-510 -508 -511 0
510 508 -511 0
510 -508 511 0
-510 508 511 0
-510 -508 512 0
510 -512 0
508 -512 0
-294 -509 513 0
294 -513 0
509 -513 0
512 513 -514 0
-512 514 0
-513 514 0
-282 -301 515 0
282 -515 0
301 -515 0
-299 -515 -516 0
299 515 -516 0
299 -515 516 0
-299 515 516 0
-516 -514 -517 0
516 514 -517 0
516 -514 517 0
-516 514 517 0
-516 -514 518 0
516 -518 0
514 -518 0
-299 -515 519 0
299 -519 0
515 -519 0
518 519 -520 0
-518 520 0
-519 520 0
-290 -301 521 0
290 -521 0
301 -521 0
-300 -521 -522 0
300 521 -522 0
300 -521 522 0
-300 521 522 0
-522 -520 -523 0
522 520 -523 0
522 -520 523 0
-522 520 523 0
-522 -520 524 0
522 -524 0
520 -524 0
-300 -521 525 0
300 -525 0
521 -525 0
524 525 -526 0
-524 526 0
-525 526 0
-1 -527 528 0
1 -528 0
527 -528 0
-307 -528 -529 0
307 528 -529 0
307 -528 529 0
-307 528 529 0
-307 -528 530 0
307 -530 0
528 -530 0
-4 -527 531 0
4 -531 0
527 -531 0
-313 -531 -532 0
313 531 -532 0
313 -531 532 0
-313 531 532 0
-532 -530 -533 0
532 530 -533 0
532 -530 533 0
-532 530 533 0
-532 -530 534 0
532 -534 0
530 -534 0
-313 -531 535 0
313 -535 0
531 -535 0
534 535 -536 0
-534 536 0
-535 536 0
-10 -527 537 0
10 -537 0
527 -537 0
-319 -537 -538 0
319 537 -538 0
319 -537 538 0
-319 537 538 0
-538 -536 -539 0
538 536 -539 0
538 -536 539 0
-538 536 539 0
-538 -536 540 0
538 -540 0
536 -540 0
-319 -537 541 0
319 -541 0
537 -541 0
540 541 -542 0
-540 542 0
-541 542 0
-18 -527 543 0
18 -543 0
527 -543 0
-325 -543 -544 0
325 543 -544 0
325 -543 544 0
-325 543 544 0
-544 -542 -545 0
544 542 -545 0
544 -542 545 0
-544 542 545 0
-544 -542 546 0
544 -546 0
542 -546 0
-325 -543 547 0
325 -547 0
543 -547 0
546 547 -548 0
-546 548 0
-547 548 0
-26 -527 549 0
26 -549 0
527 -549 0
-331 -549 -550 0
331 549 -550 0
331 -549 550 0
-331 549 550 0
-550 -548 -551 0
550 548 -551 0
550 -548 551 0
-550 548 551 0
-550 -548 552 0
550 -552 0
548 -552 0
-331 -549 553 0
331 -553 0
549 -553 0
552 553 -554 0
-552 554 0
-553 554 0
-34 -527 555 0
34 -555 0
527 -555 0
-337 -555 -556 0
337 555 -556 0
337 -555 556 0
-337 555 556 0
-556 -554 -557 0
556 554 -557 0
556 -554 557 0
-556 554 557 0
-556 -554 558 0
556 -558 0
554 -558 0
-337 -555 559 0
337 -559 0
555 -559 0
558 559 -560 0
-558 560 0
-559 560 0
-42 -527 561 0
42 -561 0
527 -561 0
-343 -561 -562 0
343 561 -562 0
343 -561 562 0
-343 561 562 0
-562 -560 -563 0
562 560 -563 0
562 -560 563 0
-562 560 563 0
-562 -560 564 0
562 -564 0
560 -564 0
-343 -561 565 0
343 -565 0
561 -565 0
564 565 -566 0
-564 566 0
-565 566 0
-50 -527 567 0
50 -567 0
527 -567 0
-349 -567 -568 0
349 567 -568 0
349 -567 568 0
-349 567 568 0
-568 -566 -569 0
568 566 -569 0
568 -566 569 0
-568 566 569 0
-568 -566 570 0
568 -570 0
566 -570 0
-349 -567 571 0
349 -571 0
567 -571 0
570 571 -572 0
-570 572 0
-571 572 0
-58 -527 573 0
58 -573 0
527 -573 0
-355 -573 -574 0
355 573 -574 0
355 -573 574 0
-355 573 574 0
-574 -572 -575 0
574 572 -575 0
574 -572 575 0
-574 572 575 0
-574 -572 576 0
574 -576 0
572 -576 0
-355 -573 577 0
355 -577 0
573 -577 0
576 577 -578 0
-576 578 0
-577 578 0
-66 -527 579 0
66 -579 0
527 -579 0
-361 -579 -580 0
361 579 -580 0
361 -579 580 0
-361 579 580 0
-580 -578 -581 0
580 578 -581 0
580 -578 581 0
-580 578 581 0
-580 -578 582 0
580 -582 0
578 -582 0
-361 -579 583 0
361 -583 0
579 -583 0
582 583 -584 0
-582 584 0
-583 584 0
-74 -527 585 0
74 -585 0
527 -585 0
-367 -585 -586 0
367 585 -586 0
367 -585 586 0
-367 585 586 0
-586 -584 -587 0
586 584 -587 0
586 -584 587 0
-586 584 587 0
-586 -584 588 0
586 -588 0
584 -588 0
-367 -585 589 0
367 -589 0
585 -589 0
588 589 -590 0
-588 590 0
-589 590 0
-82 -527 591 0
82 -591 0
527 -591 0
-373 -591 -592 0
373 591 -592 0
373 -591 592 0
-373 591 592 0
-592 -590 -593 0
592 590 -593 0
592 -590 593 0
-592 590 593 0
-592 -590 594 0
592 -594 0
590 -594 0
-373 -591 595 0
373 -595 0
591 -595 0
594 595 -596 0
-594 596 0
-595 596 0
-90 -527 597 0
90 -597 0
527 -597 0
-379 -597 -598 0
379 597 -598 0
379 -597 598 0
-379 597 598 0
-598 -596 -599 0
598 596 -599 0
598 -596 599 0
-598 596 599 0
-598 -596 600 0
598 -600 0
596 -600 0
-379 -597 601 0
379 -601 0
597 -601 0
600 601 -602 0
-600 602 0
-601 602 0
-98 -527 603 0
98 -603 0
527 -603 0
-385 -603 -604 0
385 603 -604 0
385 -603 604 0
-385 603 604 0
-604 -602 -605 0
604 602 -605 0
604 -602 605 0
-604 602 605 0
-604 -602 606 0
604 -606 0
602 -606 0
-385 -603 607 0
385 -607 0
603 -607 0
606 607 -608 0
-606 608 0
-607 608 0
-106 -527 609 0
106 -609 0
527 -609 0
-391 -609 -610 0
391 609 -610 0
391 -609 610 0
-391 609 610 0
-610 -608 -611 0
610 608 -611 0
610 -608 611 0
-610 608 611 0
-610 -608 612 0
610 -612 0
608 -612 0
-391 -609 613 0
391 -613 0
609 -613 0
612 613 -614 0
-612 614 0
-613 614 0
-114 -527 615 0
114 -615 0
527 -615 0
-397 -615 -616 0
397 615 -616 0
397 -615 616 0
-397 615 616 0
-616 -614 -617 0
616 614 -617 0
616 -614 617 0
-616 614 617 0
-616 -614 618 0
616 -618 0
614 -618 0
-397 -615 619 0
397 -619 0
615 -619 0
618 619 -620 0
-618 620 0
-619 620 0
-122 -527 621 0
122 -621 0
527 -621 0
-403 -621 -622 0
403 621 -622 0
403 -621 622 0
-403 621 622 0
-622 -620 -623 0
622 620 -623 0
622 -620 623 0
-622 620 623 0
-622 -620 624 0
622 -624 0
620 -624 0
-403 -621 625 0
403 -625 0
621 -625 0
624 625 -626 0
-624 626 0
-625 626 0
-130 -527 627 0
130 -627 0
527 -627 0
-409 -627 -628 0
409 627 -628 0
409 -627 628 0
-409 627 628 0
-628 -626 -629 0
628 626 -629 0
628 -626 629 0
-628 626 629 0
-628 -626 630 0
628 -630 0
626 -630 0
-409 -627 631 0
409 -631 0
627 -631 0
630 631 -632 0
-630 632 0
-631 632 0
-138 -527 633 0
138 -633 0
527 -633 0
-415 -633 -634 0
415 633 -634 0
415 -633 634 0
-415 633 634 0
-634 -632 -635 0
634 632 -635 0
634 -632 635 0
-634 632 635 0
-634 -632 636 0
634 -636 0
632 -636 0
-415 -633 637 0
415 -637 0
633 -637 0
636 637 -638 0
-636 638 0
-637 638 0
-146 -527 639 0
146 -639 0
527 -639 0
-421 -639 -640 0
421 639 -640 0
421 -639 640 0
-421 639 640 0
-640 -638 -641 0
640 638 -641 0
640 -638 641 0
-640 638 641 0
-640 -638 642 0
640 -642 0
638 -642 0
-421 -639 643 0
421 -643 0
639 -643 0
642 643 -644 0
-642 644 0
-643 644 0
-154 -527 645 0
154 -645 0
527 -645 0
-427 -645 -646 0
427 645 -646 0
427 -645 646 0
-427 645 646 0
-646 -644 -647 0
646 644 -647 0
646 -644 647 0
-646 644 647 0
-646 -644 648 0
646 -648 0
644 -648 0
-427 -645 649 0
427 -649 0
645 -649 0
648 649 -650 0
-648 650 0
-649 650 0
-162 -527 651 0
162 -651 0
527 -651 0
-433 -651 -652 0
433 651 -652 0
433 -651 652 0
-433 651 652 0
-652 -650 -653 0
652 650 -653 0
652 -650 653 0
-652 650 653 0
-652 -650 654 0
652 -654 0
650 -654 0
-433 -651 655 0
433 -655 0
651 -655 0
654 655 -656 0
-654 656 0
-655 656 0
-170 -527 657 0
170 -657 0
527 -657 0
-439 -657 -658 0
439 657 -658 0
439 -657 658 0
-439 657 658 0
-658 -656 -659 0
658 656 -659 0
658 -656 659 0
-658 656 659 0
-658 -656 660 0
658 -660 0
656 -660 0
-439 -657 661 0
439 -661 0
657 -661 0
660 661 -662 0
-660 662 0
-661 662 0
-178 -527 663 0
178 -663 0
527 -663 0
-445 -663 -664 0
445 663 -664 0
445 -663 664 0
-445 663 664 0
-664 -662 -665 0
664 662 -665 0
664 -662 665 0
-664 662 665 0
-664 -662 666 0
664 -666 0
662 -666 0
-445 -663 667 0
445 -667 0
663 -667 0
666 667 -668 0
-666 668 0
-667 668 0
-186 -527 669 0
186 -669 0
527 -669 0
-451 -669 -670 0
451 669 -670 0
451 -669 670 0
-451 669 670 0
-670 -668 -671 0
670 668 -671 0
670 -668 671 0
-670 668 671 0
-670 -668 672 0
670 -672 0
668 -672 0
-451 -669 673 0
451 -673 0
669 -673 0
672 673 -674 0
-672 674 0
-673 674 0
-194 -527 675 0
194 -675 0
527 -675 0
-457 -675 -676 0
457 675 -676 0
457 -675 676 0
-457 675 676 0
-676 -674 -677 0
676 674 -677 0
676 -674 677 0
-676 674 677 0
-676 -674 678 0
676 -678 0
674 -678 0
-457 -675 679 0
457 -679 0
675 -679 0
678 679 -680 0
-678 680 0
-679 680 0
-202 -527 681 0
202 -681 0
527 -681 0
-463 -681 -682 0
463 681 -682 0
463 -681 682 0
-463 681 682 0
-682 -680 -683 0
682 680 -683 0
682 -680 683 0
-682 680 683 0
-682 -680 684 0
682 -684 0
680 -684 0
-463 -681 685 0
463 -685 0
681 -685 0
684 685 -686 0
-684 686 0
-685 686 0
-210 -527 687 0
210 -687 0
527 -687 0
-469 -687 -688 0
469 687 -688 0
469 -687 688 0
-469 687 688 0
-688 -686 -689 0
688 686 -689 0
688 -686 689 0
-688 686 689 0
-688 -686 690 0
688 -690 0
686 -690 0
-469 -687 691 0
469 -691 0
687 -691 0
690 691 -692 0
-690 692 0
-691 692 0
-218 -527 693 0
218 -693 0
527 -693 0
-475 -693 -694 0
475 693 -694 0
475 -693 694 0
-475 693 694 0
-694 -692 -695 0
694 692 -695 0
694 -692 695 0
-694 692 695 0
-694 -692 696 0
694 -696 0
692 -696 0
-475 -693 697 0
475 -697 0
693 -697 0
696 697 -698 0
-696 698 0
-697 698 0
-226 -527 699 0
226 -699 0
527 -699 0
-481 -699 -700 0
481 699 -700 0
481 -699 700 0
-481 699 700 0
-700 -698 -701 0
700 698 -701 0
700 -698 701 0
-700 698 701 0
-700 -698 702 0
700 -702 0
698 -702 0
-481 -699 703 0
481 -703 0
699 -703 0
702 703 -704 0
-702 704 0
-703 704 0
-234 -527 705 0
234 -705 0
527 -705 0
-487 -705 -706 0
487 705 -706 0
487 -705 706 0
-487 705 706 0
-706 -704 -707 0
706 704 -707 0
706 -704 707 0
-706 704 707 0
-706 -704 708 0
706 -708 0
704 -708 0
-487 -705 709 0
487 -709 0
705 -709 0
708 709 -710 0
-708 710 0
-709 710 0
-242 -527 711 0
242 -711 0
527 -711 0
-493 -711 -712 0
493 711 -712 0
493 -711 712 0
-493 711 712 0
-712 -710 -713 0
712 710 -713 0
712 -710 713 0
-712 710 713 0
-712 -710 714 0
712 -714 0
710 -714 0
-493 -711 715 0
493 -715 0
711 -715 0
714 715 -716 0
-714 716 0
-715 716 0
-250 -527 717 0
250 -717 0
527 -717 0
-499 -717 -718 0
499 717 -718 0
499 -717 718 0
-499 717 718 0
-718 -716 -719 0
718 716 -719 0
718 -716 719 0
-718 716 719 0
-718 -716 720 0
718 -720 0
716 -720 0
-499 -717 721 0
499 -721 0
717 -721 0
720 721 -722 0
-720 722 0
-721 722 0
-258 -527 723 0
258 -723 0
527 -723 0
-505 -723 -724 0
505 723 -724 0
505 -723 724 0
-505 723 724 0
-724 -722 -725 0
724 722 -725 0
724 -722 725 0
-724 722 725 0
-724 -722 726 0
724 -726 0
722 -726 0
-505 -723 727 0
505 -727 0
723 -727 0
726 727 -728 0
-726 728 0
-727 728 0
-266 -527 729 0
266 -729 0
527 -729 0
-511 -729 -730 0
511 729 -730 0
511 -729 730 0
-511 729 730 0
-730 -728 -731 0
730 728 -731 0
730 -728 731 0
-730 728 731 0
-730 -728 732 0
730 -732 0
728 -732 0
-511 -729 733 0
511 -733 0
729 -733 0
732 733 -734 0
-732 734 0
-733 734 0
-274 -527 735 0
274 -735 0
527 -735 0
-517 -735 -736 0
517 735 -736 0
517 -735 736 0
-517 735 736 0
-736 -734 -737 0
736 734 -737 0
736 -734 737 0
-736 734 737 0
-736 -734 738 0
736 -738 0
734 -738 0
-517 -735 739 0
517 -739 0
735 -739 0
738 739 -740 0
-738 740 0
-739 740 0
-282 -527 741 0
282 -741 0
527 -741 0
-523 -741 -742 0
523 741 -742 0
523 -741 742 0
-523 741 742 0
-742 -740 -743 0
742 740 -743 0
742 -740 743 0
-742 740 743 0
-742 -740 744 0
742 -744 0
740 -744 0
-523 -741 745 0
523 -745 0
741 -745 0
744 745 -746 0
-744 746 0
-745 746 0
-290 -527 747 0
290 -747 0
527 -747 0
-526 -747 -748 0
526 747 -748 0
526 -747 748 0
-526 747 748 0
-748 -746 -749 0
748 746 -749 0
748 -746 749 0
-748 746 749 0
-748 -746 750 0
748 -750 0
746 -750 0
-526 -747 751 0
526 -751 0
747 -751 0
750 751 -752 0
-750 752 0
-751 752 0
-1 -753 754 0
1 -754 0
753 -754 0
-533 -754 -755 0
533 754 -755 0
533 -754 755 0
-533 754 755 0
-533 -754 756 0
533 -756 0
754 -756 0
-4 -753 757 0
4 -757 0
753 -757 0
-539 -757 -758 0
539 757 -758 0
539 -757 758 0
-539 757 758 0
-758 -756 -759 0
758 756 -759 0
758 -756 759 0
-758 756 759 0
-758 -756 760 0
758 -760 0
756 -760 0
-539 -757 761 0
539 -761 0
757 -761 0
760 761 -762 0
-760 762 0
-761 762 0
-10 -753 763 0
10 -763 0
753 -763 0
-545 -763 -764 0
545 763 -764 0
545 -763 764 0
-545 763 764 0
-764 -762 -765 0
764 762 -765 0
764 -762 765 0
-764 762 765 0
-764 -762 766 0
764 -766 0
762 -766 0
-545 -763 767 0
545 -767 0
763 -767 0
766 767 -768 0
-766 768 0
-767 768 0
-18 -753 769 0
18 -769 0
753 -769 0
-551 -769 -770 0
551 769 -770 0
551 -769 770 0
-551 769 770 0
-770 -768 -771 0
770 768 -771 0
770 -768 771 0
-770 768 771 0
-770 -768 772 0
770 -772 0
768 -772 0
-551 -769 773 0
551 -773 0
769 -773 0
772 773 -774 0
-772 774 0
-773 774 0
-26 -753 775 0
26 -775 0
753 -775 0
-557 -775 -776 0
557 775 -776 0
557 -775 776 0
-557 775 776 0
-776 -774 -777 0
776 774 -777 0
776 -774 777 0
-776 774 777 0
-776 -774 778 0
776 -778 0
774 -778 0
-557 -775 779 0
557 -779 0
775 -779 0
778 779 -780 0
-778 780 0
-779 780 0
-34 -753 781 0
34 -781 0
753 -781 0
-563 -781 -782 0
563 781 -782 0
563 -781 782 0
-563 781 782 0
-782 -780 -783 0
782 780 -783 0
782 -780 783 0
-782 780 783 0
-782 -780 784 0
782 -784 0
780 -784 0
-563 -781 785 0
563 -785 0
781 -785 0
784 785 -786 0
-784 786 0
-785 786 0
-42 -753 787 0
42 -787 0
753 -787 0
-569 -787 -788 0
569 787 -788 0
569 -787 788 0
-569 787 788 0
-788 -786 -789 0
788 786 -789 0
788 -786 789 0
-788 786 789 0
-788 -786 790 0
788 -790 0
786 -790 0
-569 -787 791 0
569 -791 0
787 -791 0
790 791 -792 0
-790 792 0
-791 792 0
-50 -753 793 0
50 -793 0
753 -793 0
-575 -793 -794 0
575 793 -794 0
575 -793 794 0
-575 793 794 0
-794 -792 -795 0
794 792 -795 0
794 -792 795 0
-794 792 795 0
-794 -792 796 0
794 -796 0
792 -796 0
-575 -793 797 0
575 -797 0
793 -797 0
796 797 -798 0
-796 798 0
-797 798 0
-58 -753 799 0
58 -799 0
753 -799 0
-581 -799 -800 0
581 799 -800 0
581 -799 800 0
-581 799 800 0
-800 -798 -801 0
800 798 -801 0
800 -798 801 0
-800 798 801 0
-800 -798 802 0
800 -802 0
798 -802 0
-581 -799 803 0
581 -803 0
799 -803 0
802 803 -804 0
-802 804 0
-803 804 0
-66 -753 805 0
66 -805 0
753 -805 0
-587 -805 -806 0
587 805 -806 0
587 -805 806 0
-587 805 806 0
-806 -804 -807 0
806 804 -807 0
806 -804 807 0
-806 804 807 0
-806 -804 808 0
806 -808 0
804 -808 0
-587 -805 809 0
587 -809 0
805 -809 0
808 809 -810 0
-808 810 0
-809 810 0
-74 -753 811 0
74 -811 0
753 -811 0
-593 -811 -812 0
593 811 -812 0
593 -811 812 0
-593 811 812 0
-812 -810 -813 0
812 810 -813 0
812 -810 813 0
-812 810 813 0
-812 -810 814 0
812 -814 0
810 -814 0
-593 -811 815 0
593 -815 0
811 -815 0
814 815 -816 0
-814 816 0
-815 816 0
-82 -753 817 0
82 -817 0
753 -817 0
-599 -817 -818 0
599 817 -818 0
599 -817 818 0
-599 817 818 0
-818 -816 -819 0
818 816 -819 0
818 -816 819 0
-818 816 819 0
-818 -816 820 0
818 -820 0
816 -820 0
-599 -817 821 0
599 -821 0
817 -821 0
820 821 -822 0
-820 822 0
-821 822 0
-90 -753 823 0
90 -823 0
753 -823 0
-605 -823 -824 0
605 823 -824 0
605 -823 824 0
-605 823 824 0
-824 -822 -825 0
824 822 -825 0
824 -822 825 0
-824 822 825 0
-824 -822 826 0
824 -826 0
822 -826 0
-605 -823 827 0
605 -827 0
823 -827 0
826 827 -828 0
-826 828 0
-827 828 0
-98 -753 829 0
98 -829 0
753 -829 0
-611 -829 -830 0
611 829 -830 0
611 -829 830 0
-611 829 830 0
-830 -828 -831 0
830 828 -831 0
830 -828 831 0
-830 828 831 0
-830 -828 832 0
830 -832 0
828 -832 0
-611 -829 833 0
611 -833 0
829 -833 0
832 833 -834 0
-832 834 0
-833 834 0
-106 -753 835 0
106 -835 0
753 -835 0
-617 -835 -836 0
617 835 -836 0
617 -835 836 0
-617 835 836 0
-836 -834 -837 0
836 834 -837 0
836 -834 837 0
-836 834 837 0
-836 -834 838 0
836 -838 0
834 -838 0
-617 -835 839 0
617 -839 0
835 -839 0
838 839 -840 0
-838 840 0
-839 840 0
-114 -753 841 0
114 -841 0
753 -841 0
-623 -841 -842 0
623 841 -842 0
623 -841 842 0
-623 841 842 0
-842 -840 -843 0
842 840 -843 0
842 -840 843 0
-842 840 843 0
-842 -840 844 0
842 -844 0
840 -844 0
-623 -841 845 0
623 -845 0
841 -845 0
844 845 -846 0
-844 846 0
-845 846 0
-122 -753 847 0
122 -847 0
753 -847 0
-629 -847 -848 0
629 847 -848 0
629 -847 848 0
-629 847 848 0
-848 -846 -849 0
848 846 -849 0
848 -846 849 0
-848 846 849 0
-848 -846 850 0
848 -850 0
846 -850 0
-629 -847 851 0
629 -851 0
847 -851 0
850 851 -852 0
-850 852 0
-851 852 0
-130 -753 853 0
130 -853 0
753 -853 0
-635 -853 -854 0
635 853 -854 0
635 -853 854 0
-635 853 854 0
-854 -852 -855 0
854 852 -855 0
854 -852 855 0
-854 852 855 0
-854 -852 856 0
854 -856 0
852 -856 0
-635 -853 857 0
635 -857 0
853 -857 0
856 857 -858 0
-856 858 0
-857 858 0
-138 -753 859 0
138 -859 0
753 -859 0
-641 -859 -860 0
641 859 -860 0
641 -859 860 0
-641 859 860 0
-860 -858 -861 0
860 858 -861 0
860 -858 861 0
-860 858 861 0
-860 -858 862 0
860 -862 0
858 -862 0
-641 -859 863 0
641 -863 0
859 -863 0
862 863 -864 0
-862 864 0
-863 864 0
-146 -753 865 0
146 -865 0
753 -865 0
-647 -865 -866 0
647 865 -866 0
647 -865 866 0
-647 865 866 0
-866 -864 -867 0
866 864 -867 0
866 -864 867 0
-866 864 867 0
-866 -864 868 0
866 -868 0
864 -868 0
-647 -865 869 0
647 -869 0
865 -869 0
868 869 -870 0
-868 870 0
-869 870 0
-154 -753 871 0
154 -871 0
753 -871 0
-653 -871 -872 0
653 871 -872 0
653 -871 872 0
-653 871 872 0
-872 -870 -873 0
872 870 -873 0
872 -870 873 0
-872 870 873 0
-872 -870 874 0
872 -874 0
870 -874 0
-653 -871 875 0
653 -875 0
871 -875 0
874 875 -876 0
-874 876 0
-875 876 0
-162 -753 877 0
162 -877 0
753 -877 0
-659 -877 -878 0
659 877 -878 0
659 -877 878 0
-659 877 878 0
-878 -876 -879 0
878 876 -879 0
878 -876 879 0
-878 876 879 0
-878 -876 880 0
878 -880 0
876 -880 0
-659 -877 881 0
659 -881 0
877 -881 0
880 881 -882 0
-880 882 0
-881 882 0
-170 -753 883 0
170 -883 0
753 -883 0
-665 -883 -884 0
665 883 -884 0
665 -883 884 0
-665 883 884 0
-884 -882 -885 0
884 882 -885 0
884 -882 885 0
-884 882 885 0
-884 -882 886 0
884 -886 0
882 -886 0
-665 -883 887 0
665 -887 0
883 -887 0
886 887 -888 0
-886 888 0
-887 888 0
-178 -753 889 0
178 -889 0
753 -889 0
-671 -889 -890 0
671 889 -890 0
671 -889 890 0
-671 889 890 0
-890 -888 -891 0
890 888 -891 0
890 -888 891 0
-890 888 891 0
-890 -888 892 0
890 -892 0
888 -892 0
-671 -889 893 0
671 -893 0
889 -893 0
892 893 -894 0
-892 894 0
-893 894 0
-186 -753 895 0
186 -895 0
753 -895 0
-677 -895 -896 0
677 895 -896 0
677 -895 896 0
-677 895 896 0
-896 -894 -897 0
896 894 -897 0
896 -894 897 0
-896 894 897 0
-896 -894 898 0
896 -898 0
894 -898 0
-677 -895 899 0
677 -899 0
895 -899 0
898 899 -900 0
-898 900 0
-899 900 0
-194 -753 901 0
194 -901 0
753 -901 0
-683 -901 -902 0
683 901 -902 0
683 -901 902 0
-683 901 902 0
-902 -900 -903 0
902 900 -903 0
902 -900 903 0
-902 900 903 0
-902 -900 904 0
902 -904 0
900 -904 0
-683 -901 905 0
683 -905 0
901 -905 0
904 905 -906 0
-904 906 0
-905 906 0
-202 -753 907 0
202 -907 0
753 -907 0
-689 -907 -908 0
689 907 -908 0
689 -907 908 0
-689 907 908 0
-908 -906 -909 0
908 906 -909 0
908 -906 909 0
-908 906 909 0
-908 -906 910 0
908 -910 0
906 -910 0
-689 -907 911 0
689 -911 0
907 -911 0
910 911 -912 0
-910 912 0
-911 912 0
-210 -753 913 0
210 -913 0
753 -913 0
-695 -913 -914 0
695 913 -914 0
695 -913 914 0
-695 913 914 0
-914 -912 -915 0
914 912 -915 0
914 -912 915 0
-914 912 915 0
-914 -912 916 0
914 -916 0
912 -916 0
-695 -913 917 0
695 -917 0
913 -917 0
916 917 -918 0
-916 918 0
-917 918 0
-218 -753 919 0
218 -919 0
753 -919 0
-701 -919 -920 0
701 919 -920 0
701 -919 920 0
-701 919 920 0
-920 -918 -921 0
920 918 -921 0
920 -918 921 0
-920 918 921 0
-920 -918 922 0
920 -922 0
918 -922 0
-701 -919 923 0
701 -923 0
919 -923 0
922 923 -924 0
-922 924 0
-923 924 0
-226 -753 925 0
226 -925 0
753 -925 0
-707 -925 -926 0
707 925 -926 0
707 -925 926 0
-707 925 926 0
-926 -924 -927 0
926 924 -927 0
926 -924 927 0
-926 924 927 0
-926 -924 928 0
926 -928 0
924 -928 0
-707 -925 929 0
707 -929 0
925 -929 0
928 929 -930 0
-928 930 0
-929 930 0
-234 -753 931 0
234 -931 0
753 -931 0
-713 -931 -932 0
713 931 -932 0
713 -931 932 0
-713 931 932 0
-932 -930 -933 0
932 930 -933 0
932 -930 933 0
-932 930 933 0
-932 -930 934 0
932 -934 0
930 -934 0
-713 -931 935 0
713 -935 0
931 -935 0
934 935 -936 0
-934 936 0
-935 936 0
-242 -753 937 0
242 -937 0
753 -937 0
-719 -937 -938 0
719 937 -938 0
719 -937 938 0
-719 937 938 0
-938 -936 -939 0
938 936 -939 0
938 -936 939 0
-938 936 939 0
-938 -936 940 0
938 -940 0
936 -940 0
-719 -937 941 0
719 -941 0
937 -941 0
940 941 -942 0
-940 942 0
-941 942 0
-250 -753 943 0
250 -943 0
753 -943 0
-725 -943 -944 0
725 943 -944 0
725 -943 944 0
-725 943 944 0
-944 -942 -945 0
944 942 -945 0
944 -942 945 0
-944 942 945 0
-944 -942 946 0
944 -946 0
942 -946 0
-725 -943 947 0
725 -947 0
943 -947 0
946 947 -948 0
-946 948 0
-947 948 0
-258 -753 949 0
258 -949 0
753 -949 0
-731 -949 -950 0
731 949 -950 0
731 -949 950 0
-731 949 950 0
-950 -948 -951 0
950 948 -951 0
950 -948 951 0
-950 948 951 0
-950 -948 952 0
950 -952 0
948 -952 0
-731 -949 953 0
731 -953 0
949 -953 0
952 953 -954 0
-952 954 0
-953 954 0
-266 -753 955 0
266 -955 0
753 -955 0
-737 -955 -956 0
737 955 -956 0
737 -955 956 0
-737 955 956 0
-956 -954 -957 0
956 954 -957 0
956 -954 957 0
-956 954 957 0
-956 -954 958 0
956 -958 0
954 -958 0
-737 -955 959 0
737 -959 0
955 -959 0
958 959 -960 0
-958 960 0
-959 960 0
-274 -753 961 0
274 -961 0
753 -961 0
-743 -961 -962 0
743 961 -962 0
743 -961 962 0
-743 961 962 0
-962 -960 -963 0
962 960 -963 0
962 -960 963 0
-962 960 963 0
-962 -960 964 0
962 -964 0
960 -964 0
-743 -961 965 0
743 -965 0
961 -965 0
964 965 -966 0
-964 966 0
-965 966 0
-282 -753 967 0
282 -967 0
753 -967 0
-749 -967 -968 0
749 967 -968 0
749 -967 968 0
-749 967 968 0
-968 -966 -969 0
968 966 -969 0
968 -966 969 0
-968 966 969 0
-968 -966 970 0
968 -970 0
966 -970 0
-749 -967 971 0
749 -971 0
967 -971 0
970 971 -972 0
-970 972 0
-971 972 0
-290 -753 973 0
290 -973 0
753 -973 0
-752 -973 -974 0
752 973 -974 0
752 -973 974 0
-752 973 974 0
-974 -972 -975 0
974 972 -975 0
974 -972 975 0
-974 972 975 0
-974 -972 976 0
974 -976 0
972 -976 0
-752 -973 977 0
752 -977 0
973 -977 0
976 977 -978 0
-976 978 0
-977 978 0
-1 -979 980 0
1 -980 0
979 -980 0
-759 -980 -981 0
759 980 -981 0
759 -980 981 0
-759 980 981 0
-759 -980 982 0
759 -982 0
980 -982 0
-4 -979 983 0
4 -983 0
979 -983 0
-765 -983 -984 0
765 983 -984 0
765 -983 984 0
-765 983 984 0
-984 -982 -985 0
984 982 -985 0
984 -982 985 0
-984 982 985 0
-984 -982 986 0
984 -986 0
982 -986 0
-765 -983 987 0
765 -987 0
983 -987 0
986 987 -988 0
-986 988 0
-987 988 0
-10 -979 989 0
10 -989 0
979 -989 0
-771 -989 -990 0
771 989 -990 0
771 -989 990 0
-771 989 990 0
-990 -988 -991 0
990 988 -991 0
990 -988 991 0
-990 988 991 0
-990 -988 992 0
990 -992 0
988 -992 0
-771 -989 993 0
771 -993 0
989 -993 0
992 993 -994 0
-992 994 0
-993 994 0
-18 -979 995 0
18 -995 0
979 -995 0
-777 -995 -996 0
777 995 -996 0
777 -995 996 0
-777 995 996 0
-996 -994 -997 0
996 994 -997 0
996 -994 997 0
-996 994 997 0
-996 -994 998 0
996 -998 0
994 -998 0
-777 -995 999 0
777 -999 0
995 -999 0
998 999 -1000 0
-998 1000 0
-999 1000 0
-26 -979 1001 0
26 -1001 0
979 -1001 0
-783 -1001 -1002 0
783 1001 -1002 0
783 -1001 1002 0
-783 1001 1002 0
-1002 -1000 -1003 0
1002 1000 -1003 0
1002 -1000 1003 0
-1002 1000 1003 0
-1002 -1000 1004 0
1002 -1004 0
1000 -1004 0
-783 -1001 1005 0
783 -1005 0
1001 -1005 0
1004 1005 -1006 0
-1004 1006 0
-1005 1006 0
-34 -979 1007 0
34 -1007 0
979 -1007 0
-789 -1007 -1008 0
789 1007 -1008 0
789 -1007 1008 0
-789 1007 1008 0
-1008 -1006 -1009 0
1008 1006 -1009 0
1008 -1006 1009 0
-1008 1006 1009 0
-1008 -1006 1010 0
1008 -1010 0
1006 -1010 0
-789 -1007 1011 0
789 -1011 0
1007 -1011 0
1010 1011 -1012 0
-1010 1012 0
-1011 1012 0
-42 -979 1013 0
42 -1013 0
979 -1013 0
-795 -1013 -1014 0
795 1013 -1014 0
795 -1013 1014 0
-795 1013 1014 0
-1014 -1012 -1015 0
1014 1012 -1015 0
1014 -1012 1015 0
-1014 1012 1015 0
-1014 -1012 1016 0
1014 -1016 0
1012 -1016 0
-795 -1013 1017 0
795 -1017 0
1013 -1017 0
1016 1017 -1018 0
-1016 1018 0
-1017 1018 0
-50 -979 1019 0
50 -1019 0
979 -1019 0
-801 -1019 -1020 0
801 1019 -1020 0
801 -1019 1020 0
-801 1019 1020 0
-1020 -1018 -1021 0
1020 1018 -1021 0
1020 -1018 1021 0
-1020 1018 1021 0
-1020 -1018 1022 0
1020 -1022 0
1018 -1022 0
-801 -1019 1023 0
801 -1023 0
1019 -1023 0
1022 1023 -1024 0
-1022 1024 0
-1023 1024 0
-58 -979 1025 0
58 -1025 0
979 -1025 0
-807 -1025 -1026 0
807 1025 -1026 0
807 -1025 1026 0
-807 1025 1026 0
-1026 -1024 -1027 0
1026 1024 -1027 0
1026 -1024 1027 0
-1026 1024 1027 0
-1026 -1024 1028 0
1026 -1028 0
1024 -1028 0
-807 -1025 1029 0
807 -1029 0
1025 -1029 0
1028 1029 -1030 0
-1028 1030 0
-1029 1030 0
-66 -979 1031 0
66 -1031 0
979 -1031 0
-813 -1031 -1032 0
813 1031 -1032 0
813 -1031 1032 0
-813 1031 1032 0
-1032 -1030 -1033 0
1032 1030 -1033 0
1032 -1030 1033 0
-1032 1030 1033 0
-1032 -1030 1034 0
1032 -1034 0
1030 -1034 0
-813 -1031 1035 0
813 -1035 0
1031 -1035 0
1034 1035 -1036 0
-1034 1036 0
-1035 1036 0
-74 -979 1037 0
74 -1037 0
979 -1037 0
-819 -1037 -1038 0
819 1037 -1038 0
819 -1037 1038 0
-819 1037 1038 0
-1038 -1036 -1039 0
1038 1036 -1039 0
1038 -1036 1039 0
-1038 1036 1039 0
-1038 -1036 1040 0
1038 -1040 0
1036 -1040 0
-819 -1037 1041 0
819 -1041 0
1037 -1041 0
1040 1041 -1042 0
-1040 1042 0
-1041 1042 0
-82 -979 1043 0
82 -1043 0
979 -1043 0
-825 -1043 -1044 0
825 1043 -1044 0
825 -1043 1044 0
-825 1043 1044 0
-1044 -1042 -1045 0
1044 1042 -1045 0
1044 -1042 1045 0
-1044 1042 1045 0
-1044 -1042 1046 0
1044 -1046 0
1042 -1046 0
-825 -1043 1047 0
825 -1047 0
1043 -1047 0
1046 1047 -1048 0
-1046 1048 0
-1047 1048 0
-90 -979 1049 0
90 -1049 0
979 -1049 0
-831 -1049 -1050 0
831 1049 -1050 0
831 -1049 1050 0
-831 1049 1050 0
-1050 -1048 -1051 0
1050 1048 -1051 0
1050 -1048 1051 0
-1050 1048 1051 0
-1050 -1048 1052 0
1050 -1052 0
1048 -1052 0
-831 -1049 1053 0
831 -1053 0
1049 -1053 0
1052 1053 -1054 0
-1052 1054 0
-1053 1054 0
-98 -979 1055 0
98 -1055 0
979 -1055 0
-837 -1055 -1056 0
837 1055 -1056 0
837 -1055 1056 0
-837 1055 1056 0
-1056 -1054 -1057 0
1056 1054 -1057 0
1056 -1054 1057 0
-1056 1054 1057 0
-1056 -1054 1058 0
1056 -1058 0
1054 -1058 0
-837 -1055 1059 0
837 -1059 0
1055 -1059 0
1058 1059 -1060 0
-1058 1060 0
-1059 1060 0
-106 -979 1061 0
106 -1061 0
979 -1061 0
-843 -1061 -1062 0
843 1061 -1062 0
843 -1061 1062 0
-843 1061 1062 0
-1062 -1060 -1063 0
1062 1060 -1063 0
1062 -1060 1063 0
-1062 1060 1063 0
-1062 -1060 1064 0
1062 -1064 0
1060 -1064 0
-843 -1061 1065 0
843 -1065 0
1061 -1065 0
1064 1065 -1066 0
-1064 1066 0
-1065 1066 0
-114 -979 1067 0
114 -1067 0
979 -1067 0
-849 -1067 -1068 0
849 1067 -1068 0
849 -1067 1068 0
-849 1067 1068 0
-1068 -1066 -1069 0
1068 1066 -1069 0
1068 -1066 1069 0
-1068 1066 1069 0
-1068 -1066 1070 0
1068 -1070 0
1066 -1070 0
-849 -1067 1071 0
849 -1071 0
1067 -1071 0
1070 1071 -1072 0
-1070 1072 0
-1071 1072 0
-122 -979 1073 0
122 -1073 0
979 -1073 0
-855 -1073 -1074 0
855 1073 -1074 0
855 -1073 1074 0
-855 1073 1074 0
-1074 -1072 -1075 0
1074 1072 -1075 0
1074 -1072 1075 0
-1074 1072 1075 0
-1074 -1072 1076 0
1074 -1076 0
1072 -1076 0
-855 -1073 1077 0
855 -1077 0
1073 -1077 0
1076 1077 -1078 0
-1076 1078 0
-1077 1078 0
-130 -979 1079 0
130 -1079 0
979 -1079 0
-861 -1079 -1080 0
861 1079 -1080 0
861 -1079 1080 0
-861 1079 1080 0
-1080 -1078 -1081 0
1080 1078 -1081 0
1080 -1078 1081 0
-1080 1078 1081 0
-1080 -1078 1082 0
1080 -1082 0
1078 -1082 0
-861 -1079 1083 0
861 -1083 0
1079 -1083 0
1082 1083 -1084 0
-1082 1084 0
-1083 1084 0
-138 -979 1085 0
138 -1085 0
979 -1085 0
-867 -1085 -1086 0
867 1085 -1086 0
867 -1085 1086 0
-867 1085 1086 0
-1086 -1084 -1087 0
1086 1084 -1087 0
1086 -1084 1087 0
-1086 1084 1087 0
-1086 -1084 1088 0
1086 -1088 0
1084 -1088 0
-867 -1085 1089 0
867 -1089 0
1085 -1089 0
1088 1089 -1090 0
-1088 1090 0
-1089 1090 0
-146 -979 1091 0
146 -1091 0
979 -1091 0
-873 -1091 -1092 0
873 1091 -1092 0
873 -1091 1092 0
-873 1091 1092 0
-1092 -1090 -1093 0
1092 1090 -1093 0
1092 -1090 1093 0
-1092 1090 1093 0
-1092 -1090 1094 0
1092 -1094 0
1090 -1094 0
-873 -1091 1095 0
873 -1095 0
1091 -1095 0
1094 1095 -1096 0
-1094 1096 0
-1095 1096 0
-154 -979 1097 0
154 -1097 0
979 -1097 0
-879 -1097 -1098 0
879 1097 -1098 0
879 -1097 1098 0
-879 1097 1098 0
-1098 -1096 -1099 0
1098 1096 -1099 0
1098 -1096 1099 0
-1098 1096 1099 0
-1098 -1096 1100 0
1098 -1100 0
1096 -1100 0
-879 -1097 1101 0
879 -1101 0
1097 -1101 0
1100 1101 -1102 0
-1100 1102 0
-1101 1102 0
-162 -979 1103 0
162 -1103 0
979 -1103 0
-885 -1103 -1104 0
885 1103 -1104 0
885 -1103 1104 0
-885 1103 1104 0
-1104 -1102 -1105 0
1104 1102 -1105 0
1104 -1102 1105 0
-1104 1102 1105 0
-1104 -1102 1106 0
1104 -1106 0
1102 -1106 0
-885 -1103 1107 0
885 -1107 0
1103 -1107 0
1106 1107 -1108 0
-1106 1108 0
-1107 1108 0
-170 -979 1109 0
170 -1109 0
979 -1109 0
-891 -1109 -1110 0
891 1109 -1110 0
891 -1109 1110 0
-891 1109 1110 0
-1110 -1108 -1111 0
1110 1108 -1111 0
1110 -1108 1111 0
-1110 1108 1111 0
-1110 -1108 1112 0
1110 -1112 0
1108 -1112 0
-891 -1109 1113 0
891 -1113 0
1109 -1113 0
1112 1113 -1114 0
-1112 1114 0
-1113 1114 0
-178 -979 1115 0
178 -1115 0
979 -1115 0
-897 -1115 -1116 0
897 1115 -1116 0
897 -1115 1116 0
-897 1115 1116 0
-1116 -1114 -1117 0
1116 1114 -1117 0
1116 -1114 1117 0
-1116 1114 1117 0
-1116 -1114 1118 0
1116 -1118 0
1114 -1118 0
-897 -1115 1119 0
897 -1119 0
1115 -1119 0
1118 1119 -1120 0
-1118 1120 0
-1119 1120 0
-186 -979 1121 0
186 -1121 0
979 -1121 0
-903 -1121 -1122 0
903 1121 -1122 0
903 -1121 1122 0
-903 1121 1122 0
-1122 -1120 -1123 0
1122 1120 -1123 0
1122 -1120 1123 0
-1122 1120 1123 0
-1122 -1120 1124 0
1122 -1124 0
1120 -1124 0
-903 -1121 1125 0
903 -1125 0
1121 -1125 0
1124 1125 -1126 0
-1124 1126 0
-1125 1126 0
-194 -979 1127 0
194 -1127 0
979 -1127 0
-909 -1127 -1128 0
909 1127 -1128 0
909 -1127 1128 0
-909 1127 1128 0
-1128 -1126 -1129 0
1128 1126 -1129 0
1128 -1126 1129 0
-1128 1126 1129 0
-1128 -1126 1130 0
1128 -1130 0
1126 -1130 0
-909 -1127 1131 0
909 -1131 0
1127 -1131 0
1130 1131 -1132 0
-1130 1132 0
-1131 1132 0
-202 -979 1133 0
202 -1133 0
979 -1133 0
-915 -1133 -1134 0
915 1133 -1134 0
915 -1133 1134 0
-915 1133 1134 0
-1134 -1132 -1135 0
1134 1132 -1135 0
1134 -1132 1135 0
-1134 1132 1135 0
-1134 -1132 1136 0
1134 -1136 0
1132 -1136 0
-915 -1133 1137 0
915 -1137 0
1133 -1137 0
1136 1137 -1138 0
-1136 1138 0
-1137 1138 0
-210 -979 1139 0
210 -1139 0
979 -1139 0
-921 -1139 -1140 0
921 1139 -1140 0
921 -1139 1140 0
-921 1139 1140 0
-1140 -1138 -1141 0
1140 1138 -1141 0
1140 -1138 1141 0
-1140 1138 1141 0
-1140 -1138 1142 0
1140 -1142 0
1138 -1142 0
-921 -1139 1143 0
921 -1143 0
1139 -1143 0
1142 1143 -1144 0
-1142 1144 0
-1143 1144 0
-218 -979 1145 0
218 -1145 0
979 -1145 0
-927 -1145 -1146 0
927 1145 -1146 0
927 -1145 1146 0
-927 1145 1146 0
-1146 -1144 -1147 0
1146 1144 -1147 0
1146 -1144 1147 0
-1146 1144 1147 0
-1146 -1144 1148 0
1146 -1148 0
1144 -1148 0
-927 -1145 1149 0
927 -1149 0
1145 -1149 0
1148 1149 -1150 0
-1148 1150 0
-1149 1150 0
-226 -979 1151 0
226 -1151 0
979 -1151 0
-933 -1151 -1152 0
933 1151 -1152 0
933 -1151 1152 0
-933 1151 1152 0
-1152 -1150 -1153 0
1152 1150 -1153 0
1152 -1150 1153 0
-1152 1150 1153 0
-1152 -1150 1154 0
1152 -1154 0
1150 -1154 0
-933 -1151 1155 0
933 -1155 0
1151 -1155 0
1154 1155 -1156 0
-1154 1156 0
-1155 1156 0
-234 -979 1157 0
234 -1157 0
979 -1157 0
-939 -1157 -1158 0
939 1157 -1158 0
939 -1157 1158 0
-939 1157 1158 0
-1158 -1156 -1159 0
1158 1156 -1159 0
1158 -1156 1159 0
-1158 1156 1159 0
-1158 -1156 1160 0
1158 -1160 0
1156 -1160 0
-939 -1157 1161 0
939 -1161 0
1157 -1161 0
1160 1161 -1162 0
-1160 1162 0
-1161 1162 0
-242 -979 1163 0
242 -1163 0
979 -1163 0
-945 -1163 -1164 0
945 1163 -1164 0
945 -1163 1164 0
-945 1163 1164 0
-1164 -1162 -1165 0
1164 1162 -1165 0
1164 -1162 1165 0
-1164 1162 1165 0
-1164 -1162 1166 0
1164 -1166 0
1162 -1166 0
-945 -1163 1167 0
945 -1167 0
1163 -1167 0
1166 1167 -1168 0
-1166 1168 0
-1167 1168 0
-250 -979 1169 0
250 -1169 0
979 -1169 0
-951 -1169 -1170 0
951 1169 -1170 0
951 -1169 1170 0
-951 1169 1170 0
-1170 -1168 -1171 0
1170 1168 -1171 0
1170 -1168 1171 0
-1170 1168 1171 0
-1170 -1168 1172 0
1170 -1172 0
1168 -1172 0
-951 -1169 1173 0
951 -1173 0
1169 -1173 0
1172 1173 -1174 0
-1172 1174 0
-1173 1174 0
-258 -979 1175 0
258 -1175 0
979 -1175 0
-957 -1175 -1176 0
957 1175 -1176 0
957 -1175 1176 0
-957 1175 1176 0
-1176 -1174 -1177 0
1176 1174 -1177 0
1176 -1174 1177 0
-1176 1174 1177 0
-1176 -1174 1178 0
1176 -1178 0
1174 -1178 0
-957 -1175 1179 0
957 -1179 0
1175 -1179 0
1178 1179 -1180 0
-1178 1180 0
-1179 1180 0
-266 -979 1181 0
266 -1181 0
979 -1181 0
-963 -1181 -1182 0
963 1181 -1182 0
963 -1181 1182 0
-963 1181 1182 0
-1182 -1180 -1183 0
1182 1180 -1183 0
1182 -1180 1183 0
-1182 1180 1183 0
-1182 -1180 1184 0
1182 -1184 0
1180 -1184 0
-963 -1181 1185 0
963 -1185 0
1181 -1185 0
1184 1185 -1186 0
-1184 1186 0
-1185 1186 0
-274 -979 1187 0
274 -1187 0
979 -1187 0
-969 -1187 -1188 0
969 1187 -1188 0
969 -1187 1188 0
-969 1187 1188 0
-1188 -1186 -1189 0
1188 1186 -1189 0
1188 -1186 1189 0
-1188 1186 1189 0
-1188 -1186 1190 0
1188 -1190 0
1186 -1190 0
-969 -1187 1191 0
969 -1191 0
1187 -1191 0
1190 1191 -1192 0
-1190 1192 0
-1191 1192 0
-282 -979 1193 0
282 -1193 0
979 -1193 0
-975 -1193 -1194 0
975 1193 -1194 0
975 -1193 1194 0
-975 1193 1194 0
-1194 -1192 -1195 0
1194 1192 -1195 0
1194 -1192 1195 0
-1194 1192 1195 0
-1194 -1192 1196 0
1194 -1196 0
1192 -1196 0
-975 -1193 1197 0
975 -1197 0
1193 -1197 0
1196 1197 -1198 0
-1196 1198 0
-1197 1198 0
-290 -979 1199 0
290 -1199 0
979 -1199 0
-978 -1199 -1200 0
978 1199 -1200 0
978 -1199 1200 0
-978 1199 1200 0
-1200 -1198 -1201 0
1200 1198 -1201 0
1200 -1198 1201 0
-1200 1198 1201 0
-1200 -1198 1202 0
1200 -1202 0
1198 -1202 0
-978 -1199 1203 0
978 -1203 0
1199 -1203 0
1202 1203 -1204 0
-1202 1204 0
-1203 1204 0
-1 -1205 1206 0
1 -1206 0
1205 -1206 0
-985 -1206 -1207 0
985 1206 -1207 0
985 -1206 1207 0
-985 1206 1207 0
-985 -1206 1208 0
985 -1208 0
1206 -1208 0
-4 -1205 1209 0
4 -1209 0
1205 -1209 0
-991 -1209 -1210 0
991 1209 -1210 0
991 -1209 1210 0
-991 1209 1210 0
-1210 -1208 -1211 0
1210 1208 -1211 0
1210 -1208 1211 0
-1210 1208 1211 0
-1210 -1208 1212 0
1210 -1212 0
1208 -1212 0
-991 -1209 1213 0
991 -1213 0
1209 -1213 0
1212 1213 -1214 0
-1212 1214 0
-1213 1214 0
-10 -1205 1215 0
10 -1215 0
1205 -1215 0
-997 -1215 -1216 0
997 1215 -1216 0
997 -1215 1216 0
-997 1215 1216 0
-1216 -1214 -1217 0
1216 1214 -1217 0
1216 -1214 1217 0
-1216 1214 1217 0
-1216 -1214 1218 0
1216 -1218 0
1214 -1218 0
-997 -1215 1219 0
997 -1219 0
1215 -1219 0
1218 1219 -1220 0
-1218 1220 0
-1219 1220 0
-18 -1205 1221 0
18 -1221 0
1205 -1221 0
-1003 -1221 -1222 0
1003 1221 -1222 0
1003 -1221 1222 0
-1003 1221 1222 0
-1222 -1220 -1223 0
1222 1220 -1223 0
1222 -1220 1223 0
-1222 1220 1223 0
-1222 -1220 1224 0
1222 -1224 0
1220 -1224 0
-1003 -1221 1225 0
1003 -1225 0
1221 -1225 0
1224 1225 -1226 0
-1224 1226 0
-1225 1226 0
-26 -1205 1227 0
26 -1227 0
1205 -1227 0
-1009 -1227 -1228 0
1009 1227 -1228 0
1009 -1227 1228 0
-1009 1227 1228 0
-1228 -1226 -1229 0
1228 1226 -1229 0
1228 -1226 1229 0
-1228 1226 1229 0
-1228 -1226 1230 0
1228 -1230 0
1226 -1230 0
-1009 -1227 1231 0
1009 -1231 0
1227 -1231 0
1230 1231 -1232 0
-1230 1232 0
-1231 1232 0
-34 -1205 1233 0
34 -1233 0
1205 -1233 0
-1015 -1233 -1234 0
1015 1233 -1234 0
1015 -1233 1234 0
-1015 1233 1234 0
-1234 -1232 -1235 0
1234 1232 -1235 0
1234 -1232 1235 0
-1234 1232 1235 0
-1234 -1232 1236 0
1234 -1236 0
1232 -1236 0
-1015 -1233 1237 0
1015 -1237 0
1233 -1237 0
1236 1237 -1238 0
-1236 1238 0
-1237 1238 0
-42 -1205 1239 0
42 -1239 0
1205 -1239 0
-1021 -1239 -1240 0
1021 1239 -1240 0
1021 -1239 1240 0
-1021 1239 1240 0
-1240 -1238 -1241 0
1240 1238 -1241 0
1240 -1238 1241 0
-1240 1238 1241 0
-1240 -1238 1242 0
1240 -1242 0
1238 -1242 0
-1021 -1239 1243 0
1021 -1243 0
1239 -1243 0
1242 1243 -1244 0
-1242 1244 0
-1243 1244 0
-50 -1205 1245 0
50 -1245 0
1205 -1245 0
-1027 -1245 -1246 0
1027 1245 -1246 0
1027 -1245 1246 0
-1027 1245 1246 0
-1246 -1244 -1247 0
1246 1244 -1247 0
1246 -1244 1247 0
-1246 1244 1247 0
-1246 -1244 1248 0
1246 -1248 0
1244 -1248 0
-1027 -1245 1249 0
1027 -1249 0
1245 -1249 0
1248 1249 -1250 0
-1248 1250 0
-1249 1250 0
-58 -1205 1251 0
58 -1251 0
1205 -1251 0
-1033 -1251 -1252 0
1033 1251 -1252 0
1033 -1251 1252 0
-1033 1251 1252 0
-1252 -1250 -1253 0
1252 1250 -1253 0
1252 -1250 1253 0
-1252 1250 1253 0
-1252 -1250 1254 0
1252 -1254 0
1250 -1254 0
-1033 -1251 1255 0
1033 -1255 0
1251 -1255 0
1254 1255 -1256 0
-1254 1256 0
-1255 1256 0
-66 -1205 1257 0
66 -1257 0
1205 -1257 0
-1039 -1257 -1258 0
1039 1257 -1258 0
1039 -1257 1258 0
-1039 1257 1258 0
-1258 -1256 -1259 0
1258 1256 -1259 0
1258 -1256 1259 0
-1258 1256 1259 0
-1258 -1256 1260 0
1258 -1260 0
1256 -1260 0
-1039 -1257 1261 0
1039 -1261 0
1257 -1261 0
1260 1261 -1262 0
-1260 1262 0
-1261 1262 0
-74 -1205 1263 0
74 -1263 0
1205 -1263 0
-1045 -1263 -1264 0
1045 1263 -1264 0
1045 -1263 1264 0
-1045 1263 1264 0
-1264 -1262 -1265 0
1264 1262 -1265 0
1264 -1262 1265 0
-1264 1262 1265 0
-1264 -1262 1266 0
1264 -1266 0
1262 -1266 0
-1045 -1263 1267 0
1045 -1267 0
1263 -1267 0
1266 1267 -1268 0
-1266 1268 0
-1267 1268 0
-82 -1205 1269 0
82 -1269 0
1205 -1269 0
-1051 -1269 -1270 0
1051 1269 -1270 0
1051 -1269 1270 0
-1051 1269 1270 0
-1270 -1268 -1271 0
1270 1268 -1271 0
1270 -1268 1271 0
-1270 1268 1271 0
-1270 -1268 1272 0
1270 -1272 0
1268 -1272 0
-1051 -1269 1273 0
1051 -1273 0
1269 -1273 0
1272 1273 -1274 0
-1272 1274 0
-1273 1274 0
-90 -1205 1275 0
90 -1275 0
1205 -1275 0
-1057 -1275 -1276 0
1057 1275 -1276 0
1057 -1275 1276 0
-1057 1275 1276 0
-1276 -1274 -1277 0
1276 1274 -1277 0
1276 -1274 1277 0
-1276 1274 1277 0
-1276 -1274 1278 0
1276 -1278 0
1274 -1278 0
-1057 -1275 1279 0
1057 -1279 0
1275 -1279 0
1278 1279 -1280 0
-1278 1280 0
-1279 1280 0
-98 -1205 1281 0
98 -1281 0
1205 -1281 0
-1063 -1281 -1282 0
1063 1281 -1282 0
1063 -1281 1282 0
-1063 1281 1282 0
-1282 -1280 -1283 0
1282 1280 -1283 0
1282 -1280 1283 0
-1282 1280 1283 0
-1282 -1280 1284 0
1282 -1284 0
1280 -1284 0
-1063 -1281 1285 0
1063 -1285 0
1281 -1285 0
1284 1285 -1286 0
-1284 1286 0
-1285 1286 0
-106 -1205 1287 0
106 -1287 0
1205 -1287 0
-1069 -1287 -1288 0
1069 1287 -1288 0
1069 -1287 1288 0
-1069 1287 1288 0
-1288 -1286 -1289 0
1288 1286 -1289 0
1288 -1286 1289 0
-1288 1286 1289 0
-1288 -1286 1290 0
1288 -1290 0
1286 -1290 0
-1069 -1287 1291 0
1069 -1291 0
1287 -1291 0
1290 1291 -1292 0
-1290 1292 0
-1291 1292 0
-114 -1205 1293 0
114 -1293 0
1205 -1293 0
-1075 -1293 -1294 0
1075 1293 -1294 0
1075 -1293 1294 0
-1075 1293 1294 0
-1294 -1292 -1295 0
1294 1292 -1295 0
1294 -1292 1295 0
-1294 1292 1295 0
-1294 -1292 1296 0
1294 -1296 0
1292 -1296 0
-1075 -1293 1297 0
1075 -1297 0
1293 -1297 0
1296 1297 -1298 0
-1296 1298 0
-1297 1298 0
-122 -1205 1299 0
122 -1299 0
1205 -1299 0
-1081 -1299 -1300 0
1081 1299 -1300 0
1081 -1299 1300 0
-1081 1299 1300 0
-1300 -1298 -1301 0
1300 1298 -1301 0
1300 -1298 1301 0
-1300 1298 1301 0
-1300 -1298 1302 0
1300 -1302 0
1298 -1302 0
-1081 -1299 1303 0
1081 -1303 0
1299 -1303 0
1302 1303 -1304 0
-1302 1304 0
-1303 1304 0
-130 -1205 1305 0
130 -1305 0
1205 -1305 0
-1087 -1305 -1306 0
1087 1305 -1306 0
1087 -1305 1306 0
-1087 1305 1306 0
-1306 -1304 -1307 0
1306 1304 -1307 0
1306 -1304 1307 0
-1306 1304 1307 0
-1306 -1304 1308 0
1306 -1308 0
1304 -1308 0
-1087 -1305 1309 0
1087 -1309 0
1305 -1309 0
1308 1309 -1310 0
-1308 1310 0
-1309 1310 0
-138 -1205 1311 0
138 -1311 0
1205 -1311 0
-1093 -1311 -1312 0
1093 1311 -1312 0
1093 -1311 1312 0
-1093 1311 1312 0
-1312 -1310 -1313 0
1312 1310 -1313 0
1312 -1310 1313 0
-1312 1310 1313 0
-1312 -1310 1314 0
1312 -1314 0
1310 -1314 0
-1093 -1311 1315 0
1093 -1315 0
1311 -1315 0
1314 1315 -1316 0
-1314 1316 0
-1315 1316 0
-146 -1205 1317 0
146 -1317 0
1205 -1317 0
-1099 -1317 -1318 0
1099 1317 -1318 0
1099 -1317 1318 0
-1099 1317 1318 0
-1318 -1316 -1319 0
1318 1316 -1319 0
1318 -1316 1319 0
-1318 1316 1319 0
-1318 -1316 1320 0
1318 -1320 0
1316 -1320 0
-1099 -1317 1321 0
1099 -1321 0
1317 -1321 0
1320 1321 -1322 0
-1320 1322 0
-1321 1322 0
-154 -1205 1323 0
154 -1323 0
1205 -1323 0
-1105 -1323 -1324 0
1105 1323 -1324 0
1105 -1323 1324 0
-1105 1323 1324 0
-1324 -1322 -1325 0
1324 1322 -1325 0
1324 -1322 1325 0
-1324 1322 1325 0
-1324 -1322 1326 0
1324 -1326 0
1322 -1326 0
-1105 -1323 1327 0
1105 -1327 0
1323 -1327 0
1326 1327 -1328 0
-1326 1328 0
-1327 1328 0
-162 -1205 1329 0
162 -1329 0
1205 -1329 0
-1111 -1329 -1330 0
1111 1329 -1330 0
1111 -1329 1330 0
-1111 1329 1330 0
-1330 -1328 -1331 0
1330 1328 -1331 0
1330 -1328 1331 0
-1330 1328 1331 0
-1330 -1328 1332 0
1330 -1332 0
1328 -1332 0
-1111 -1329 1333 0
1111 -1333 0
1329 -1333 0
1332 1333 -1334 0
-1332 1334 0
-1333 1334 0
-170 -1205 1335 0
170 -1335 0
1205 -1335 0
-1117 -1335 -1336 0
1117 1335 -1336 0
1117 -1335 1336 0
-1117 1335 1336 0
-1336 -1334 -1337 0
1336 1334 -1337 0
1336 -1334 1337 0
-1336 1334 1337 0
-1336 -1334 1338 0
1336 -1338 0
1334 -1338 0
-1117 -1335 1339 0
1117 -1339 0
1335 -1339 0
1338 1339 -1340 0
-1338 1340 0
-1339 1340 0
-178 -1205 1341 0
178 -1341 0
1205 -1341 0
-1123 -1341 -1342 0
1123 1341 -1342 0
1123 -1341 1342 0
-1123 1341 1342 0
-1342 -1340 -1343 0
1342 1340 -1343 0
1342 -1340 1343 0
-1342 1340 1343 0
-1342 -1340 1344 0
1342 -1344 0
1340 -1344 0
-1123 -1341 1345 0
1123 -1345 0
1341 -1345 0
1344 1345 -1346 0
-1344 1346 0
-1345 1346 0
-186 -1205 1347 0
186 -1347 0
1205 -1347 0
-1129 -1347 -1348 0
1129 1347 -1348 0
1129 -1347 1348 0
-1129 1347 1348 0
-1348 -1346 -1349 0
1348 1346 -1349 0
1348 -1346 1349 0
-1348 1346 1349 0
-1348 -1346 1350 0
1348 -1350 0
1346 -1350 0
-1129 -1347 1351 0
1129 -1351 0
1347 -1351 0
1350 1351 -1352 0
-1350 1352 0
-1351 1352 0
-194 -1205 1353 0
194 -1353 0
1205 -1353 0
-1135 -1353 -1354 0
1135 1353 -1354 0
1135 -1353 1354 0
-1135 1353 1354 0
-1354 -1352 -1355 0
1354 1352 -1355 0
1354 -1352 1355 0
-1354 1352 1355 0
-1354 -1352 1356 0
1354 -1356 0
1352 -1356 0
-1135 -1353 1357 0
1135 -1357 0
1353 -1357 0
1356 1357 -1358 0
-1356 1358 0
-1357 1358 0
-202 -1205 1359 0
202 -1359 0
1205 -1359 0
-1141 -1359 -1360 0
1141 1359 -1360 0
1141 -1359 1360 0
-1141 1359 1360 0
-1360 -1358 -1361 0
1360 1358 -1361 0
1360 -1358 1361 0
-1360 1358 1361 0
-1360 -1358 1362 0
1360 -1362 0
1358 -1362 0
-1141 -1359 1363 0
1141 -1363 0
1359 -1363 0
1362 1363 -1364 0
-1362 1364 0
-1363 1364 0
-210 -1205 1365 0
210 -1365 0
1205 -1365 0
-1147 -1365 -1366 0
1147 1365 -1366 0
1147 -1365 1366 0
-1147 1365 1366 0
-1366 -1364 -1367 0
1366 1364 -1367 0
1366 -1364 1367 0
-1366 1364 1367 0
-1366 -1364 1368 0
1366 -1368 0
1364 -1368 0
-1147 -1365 1369 0
1147 -1369 0
1365 -1369 0
1368 1369 -1370 0
-1368 1370 0
-1369 1370 0
-218 -1205 1371 0
218 -1371 0
1205 -1371 0
-1153 -1371 -1372 0
1153 1371 -1372 0
1153 -1371 1372 0
-1153 1371 1372 0
-1372 -1370 -1373 0
1372 1370 -1373 0
1372 -1370 1373 0
-1372 1370 1373 0
-1372 -1370 1374 0
1372 -1374 0
1370 -1374 0
-1153 -1371 1375 0
1153 -1375 0
1371 -1375 0
1374 1375 -1376 0
-1374 1376 0
-1375 1376 0
-226 -1205 1377 0
226 -1377 0
1205 -1377 0
-1159 -1377 -1378 0
1159 1377 -1378 0
1159 -1377 1378 0
-1159 1377 1378 0
-1378 -1376 -1379 0
1378 1376 -1379 0
1378 -1376 1379 0
-1378 1376 1379 0
-1378 -1376 1380 0
1378 -1380 0
1376 -1380 0
-1159 -1377 1381 0
1159 -1381 0
1377 -1381 0
1380 1381 -1382 0
-1380 1382 0
-1381 1382 0
-234 -1205 1383 0
234 -1383 0
1205 -1383 0
-1165 -1383 -1384 0
1165 1383 -1384 0
1165 -1383 1384 0
-1165 1383 1384 0
-1384 -1382 -1385 0
1384 1382 -1385 0
1384 -1382 1385 0
-1384 1382 1385 0
-1384 -1382 1386 0
1384 -1386 0
1382 -1386 0
-1165 -1383 1387 0
1165 -1387 0
1383 -1387 0
1386 1387 -1388 0
-1386 1388 0
-1387 1388 0
-242 -1205 1389 0
242 -1389 0
1205 -1389 0
-1171 -1389 -1390 0
1171 1389 -1390 0
1171 -1389 1390 0
-1171 1389 1390 0
-1390 -1388 -1391 0
1390 1388 -1391 0
1390 -1388 1391 0
-1390 1388 1391 0
-1390 -1388 1392 0
1390 -1392 0
1388 -1392 0
-1171 -1389 1393 0
1171 -1393 0
1389 -1393 0
1392 1393 -1394 0
-1392 1394 0
-1393 1394 0
-250 -1205 1395 0
250 -1395 0
1205 -1395 0
-1177 -1395 -1396 0
1177 1395 -1396 0
1177 -1395 1396 0
-1177 1395 1396 0
-1396 -1394 -1397 0
1396 1394 -1397 0
1396 -1394 1397 0
-1396 1394 1397 0
-1396 -1394 1398 0
1396 -1398 0
1394 -1398 0
-1177 -1395 1399 0
1177 -1399 0
1395 -1399 0
1398 1399 -1400 0
-1398 1400 0
-1399 1400 0
-258 -1205 1401 0
258 -1401 0
1205 -1401 0
-1183 -1401 -1402 0
1183 1401 -1402 0
1183 -1401 1402 0
-1183 1401 1402 0
-1402 -1400 -1403 0
1402 1400 -1403 0
1402 -1400 1403 0
-1402 1400 1403 0
-1402 -1400 1404 0
1402 -1404 0
1400 -1404 0
-1183 -1401 1405 0
1183 -1405 0
1401 -1405 0
1404 1405 -1406 0
-1404 1406 0
-1405 1406 0
-266 -1205 1407 0
266 -1407 0
1205 -1407 0
-1189 -1407 -1408 0
1189 1407 -1408 0
1189 -1407 1408 0
-1189 1407 1408 0
-1408 -1406 -1409 0
1408 1406 -1409 0
1408 -1406 1409 0
-1408 1406 1409 0
-1408 -1406 1410 0
1408 -1410 0
1406 -1410 0
-1189 -1407 1411 0
1189 -1411 0
1407 -1411 0
1410 1411 -1412 0
-1410 1412 0
-1411 1412 0
-274 -1205 1413 0
274 -1413 0
1205 -1413 0
-1195 -1413 -1414 0
1195 1413 -1414 0
1195 -1413 1414 0
-1195 1413 1414 0
-1414 -1412 -1415 0
1414 1412 -1415 0
1414 -1412 1415 0
-1414 1412 1415 0
-1414 -1412 1416 0
1414 -1416 0
1412 -1416 0
-1195 -1413 1417 0
1195 -1417 0
1413 -1417 0
1416 1417 -1418 0
-1416 1418 0
-1417 1418 0
-282 -1205 1419 0
282 -1419 0
1205 -1419 0
-1201 -1419 -1420 0
1201 1419 -1420 0
1201 -1419 1420 0
-1201 1419 1420 0
-1420 -1418 -1421 0
1420 1418 -1421 0
1420 -1418 1421 0
-1420 1418 1421 0
-1420 -1418 1422 0
1420 -1422 0
1418 -1422 0
-1201 -1419 1423 0
1201 -1423 0
1419 -1423 0
1422 1423 -1424 0
-1422 1424 0
-1423 1424 0
-290 -1205 1425 0
290 -1425 0
1205 -1425 0
-1204 -1425 -1426 0
1204 1425 -1426 0
1204 -1425 1426 0
-1204 1425 1426 0
-1426 -1424 -1427 0
1426 1424 -1427 0
1426 -1424 1427 0
-1426 1424 1427 0
-1426 -1424 1428 0
1426 -1428 0
1424 -1428 0
-1204 -1425 1429 0
1204 -1429 0
1425 -1429 0
1428 1429 -1430 0
-1428 1430 0
-1429 1430 0
-1 -1431 1432 0
1 -1432 0
1431 -1432 0
-1211 -1432 -1433 0
1211 1432 -1433 0
1211 -1432 1433 0
-1211 1432 1433 0
-1211 -1432 1434 0
1211 -1434 0
1432 -1434 0
-4 -1431 1435 0
4 -1435 0
1431 -1435 0
-1217 -1435 -1436 0
1217 1435 -1436 0
1217 -1435 1436 0
-1217 1435 1436 0
-1436 -1434 -1437 0
1436 1434 -1437 0
1436 -1434 1437 0
-1436 1434 1437 0
-1436 -1434 1438 0
1436 -1438 0
1434 -1438 0
-1217 -1435 1439 0
1217 -1439 0
1435 -1439 0
1438 1439 -1440 0
-1438 1440 0
-1439 1440 0
-10 -1431 1441 0
10 -1441 0
1431 -1441 0
-1223 -1441 -1442 0
1223 1441 -1442 0
1223 -1441 1442 0
-1223 1441 1442 0
-1442 -1440 -1443 0
1442 1440 -1443 0
1442 -1440 1443 0
-1442 1440 1443 0
-1442 -1440 1444 0
1442 -1444 0
1440 -1444 0
-1223 -1441 1445 0
1223 -1445 0
1441 -1445 0
1444 1445 -1446 0
-1444 1446 0
-1445 1446 0
-18 -1431 1447 0
18 -1447 0
1431 -1447 0
-1229 -1447 -1448 0
1229 1447 -1448 0
1229 -1447 1448 0
-1229 1447 1448 0
-1448 -1446 -1449 0
1448 1446 -1449 0
1448 -1446 1449 0
-1448 1446 1449 0
-1448 -1446 1450 0
1448 -1450 0
1446 -1450 0
-1229 -1447 1451 0
1229 -1451 0
1447 -1451 0
1450 1451 -1452 0
-1450 1452 0
-1451 1452 0
-26 -1431 1453 0
26 -1453 0
1431 -1453 0
-1235 -1453 -1454 0
1235 1453 -1454 0
1235 -1453 1454 0
-1235 1453 1454 0
-1454 -1452 -1455 0
1454 1452 -1455 0
1454 -1452 1455 0
-1454 1452 1455 0
-1454 -1452 1456 0
1454 -1456 0
1452 -1456 0
-1235 -1453 1457 0
1235 -1457 0
1453 -1457 0
1456 1457 -1458 0
-1456 1458 0
-1457 1458 0
-34 -1431 1459 0
34 -1459 0
1431 -1459 0
-1241 -1459 -1460 0
1241 1459 -1460 0
1241 -1459 1460 0
-1241 1459 1460 0
-1460 -1458 -1461 0
1460 1458 -1461 0
1460 -1458 1461 0
-1460 1458 1461 0
-1460 -1458 1462 0
1460 -1462 0
1458 -1462 0
-1241 -1459 1463 0
1241 -1463 0
1459 -1463 0
1462 1463 -1464 0
-1462 1464 0
-1463 1464 0
-42 -1431 1465 0
42 -1465 0
1431 -1465 0
-1247 -1465 -1466 0
1247 1465 -1466 0
1247 -1465 1466 0
-1247 1465 1466 0
-1466 -1464 -1467 0
1466 1464 -1467 0
1466 -1464 1467 0
-1466 1464 1467 0
-1466 -1464 1468 0
1466 -1468 0
1464 -1468 0
-1247 -1465 1469 0
1247 -1469 0
1465 -1469 0
1468 1469 -1470 0
-1468 1470 0
-1469 1470 0
-50 -1431 1471 0
50 -1471 0
1431 -1471 0
-1253 -1471 -1472 0
1253 1471 -1472 0
1253 -1471 1472 0
-1253 1471 1472 0
-1472 -1470 -1473 0
1472 1470 -1473 0
1472 -1470 1473 0
-1472 1470 1473 0
-1472 -1470 1474 0
1472 -1474 0
1470 -1474 0
-1253 -1471 1475 0
1253 -1475 0
1471 -1475 0
1474 1475 -1476 0
-1474 1476 0
-1475 1476 0
-58 -1431 1477 0
58 -1477 0
1431 -1477 0
-1259 -1477 -1478 0
1259 1477 -1478 0
1259 -1477 1478 0
-1259 1477 1478 0
-1478 -1476 -1479 0
1478 1476 -1479 0
1478 -1476 1479 0
-1478 1476 1479 0
-1478 -1476 1480 0
1478 -1480 0
1476 -1480 0
-1259 -1477 1481 0
1259 -1481 0
1477 -1481 0
1480 1481 -1482 0
-1480 1482 0
-1481 1482 0
-66 -1431 1483 0
66 -1483 0
1431 -1483 0
-1265 -1483 -1484 0
1265 1483 -1484 0
1265 -1483 1484 0
-1265 1483 1484 0
-1484 -1482 -1485 0
1484 1482 -1485 0
1484 -1482 1485 0
-1484 1482 1485 0
-1484 -1482 1486 0
1484 -1486 0
1482 -1486 0
-1265 -1483 1487 0
1265 -1487 0
1483 -1487 0
1486 1487 -1488 0
-1486 1488 0
-1487 1488 0
-74 -1431 1489 0
74 -1489 0
1431 -1489 0
-1271 -1489 -1490 0
1271 1489 -1490 0
1271 -1489 1490 0
-1271 1489 1490 0
-1490 -1488 -1491 0
1490 1488 -1491 0
1490 -1488 1491 0
-1490 1488 1491 0
-1490 -1488 1492 0
1490 -1492 0
1488 -1492 0
-1271 -1489 1493 0
1271 -1493 0
1489 -1493 0
1492 1493 -1494 0
-1492 1494 0
-1493 1494 0
-82 -1431 1495 0
82 -1495 0
1431 -1495 0
-1277 -1495 -1496 0
1277 1495 -1496 0
1277 -1495 1496 0
-1277 1495 1496 0
-1496 -1494 -1497 0
1496 1494 -1497 0
1496 -1494 1497 0
-1496 1494 1497 0
-1496 -1494 1498 0
1496 -1498 0
1494 -1498 0
-1277 -1495 1499 0
1277 -1499 0
1495 -1499 0
1498 1499 -1500 0
-1498 1500 0
-1499 1500 0
-90 -1431 1501 0
90 -1501 0
1431 -1501 0
-1283 -1501 -1502 0
1283 1501 -1502 0
1283 -1501 1502 0
-1283 1501 1502 0
-1502 -1500 -1503 0
1502 1500 -1503 0
1502 -1500 1503 0
-1502 1500 1503 0
-1502 -1500 1504 0
1502 -1504 0
1500 -1504 0
-1283 -1501 1505 0
1283 -1505 0
1501 -1505 0
1504 1505 -1506 0
-1504 1506 0
-1505 1506 0
-98 -1431 1507 0
98 -1507 0
1431 -1507 0
-1289 -1507 -1508 0
1289 1507 -1508 0
1289 -1507 1508 0
-1289 1507 1508 0
-1508 -1506 -1509 0
1508 1506 -1509 0
1508 -1506 1509 0
-1508 1506 1509 0
-1508 -1506 1510 0
1508 -1510 0
1506 -1510 0
-1289 -1507 1511 0
1289 -1511 0
1507 -1511 0
1510 1511 -1512 0
-1510 1512 0
-1511 1512 0
-106 -1431 1513 0
106 -1513 0
1431 -1513 0
-1295 -1513 -1514 0
1295 1513 -1514 0
1295 -1513 1514 0
-1295 1513 1514 0
-1514 -1512 -1515 0
1514 1512 -1515 0
1514 -1512 1515 0
-1514 1512 1515 0
-1514 -1512 1516 0
1514 -1516 0
1512 -1516 0
-1295 -1513 1517 0
1295 -1517 0
1513 -1517 0
1516 1517 -1518 0
-1516 1518 0
-1517 1518 0
-114 -1431 1519 0
114 -1519 0
1431 -1519 0
-1301 -1519 -1520 0
1301 1519 -1520 0
1301 -1519 1520 0
-1301 1519 1520 0
-1520 -1518 -1521 0
1520 1518 -1521 0
1520 -1518 1521 0
-1520 1518 1521 0
-1520 -1518 1522 0
1520 -1522 0
1518 -1522 0
-1301 -1519 1523 0
1301 -1523 0
1519 -1523 0
1522 1523 -1524 0
-1522 1524 0
-1523 1524 0
-122 -1431 1525 0
122 -1525 0
1431 -1525 0
-1307 -1525 -1526 0
1307 1525 -1526 0
1307 -1525 1526 0
-1307 1525 1526 0
-1526 -1524 -1527 0
1526 1524 -1527 0
1526 -1524 1527 0
-1526 1524 1527 0
-1526 -1524 1528 0
1526 -1528 0
1524 -1528 0
-1307 -1525 1529 0
1307 -1529 0
1525 -1529 0
1528 1529 -1530 0
-1528 1530 0
-1529 1530 0
-130 -1431 1531 0
130 -1531 0
1431 -1531 0
-1313 -1531 -1532 0
1313 1531 -1532 0
1313 -1531 1532 0
-1313 1531 1532 0
-1532 -1530 -1533 0
1532 1530 -1533 0
1532 -1530 1533 0
-1532 1530 1533 0
-1532 -1530 1534 0
1532 -1534 0
1530 -1534 0
-1313 -1531 1535 0
1313 -1535 0
1531 -1535 0
1534 1535 -1536 0
-1534 1536 0
-1535 1536 0
-138 -1431 1537 0
138 -1537 0
1431 -1537 0
-1319 -1537 -1538 0
1319 1537 -1538 0
1319 -1537 1538 0
-1319 1537 1538 0
-1538 -1536 -1539 0
1538 1536 -1539 0
1538 -1536 1539 0
-1538 1536 1539 0
-1538 -1536 1540 0
1538 -1540 0
1536 -1540 0
-1319 -1537 1541 0
1319 -1541 0
1537 -1541 0
1540 1541 -1542 0
-1540 1542 0
-1541 1542 0
-146 -1431 1543 0
146 -1543 0
1431 -1543 0
-1325 -1543 -1544 0
1325 1543 -1544 0
1325 -1543 1544 0
-1325 1543 1544 0
-1544 -1542 -1545 0
1544 1542 -1545 0
1544 -1542 1545 0
-1544 1542 1545 0
-1544 -1542 1546 0
1544 -1546 0
1542 -1546 0
-1325 -1543 1547 0
1325 -1547 0
1543 -1547 0
1546 1547 -1548 0
-1546 1548 0
-1547 1548 0
-154 -1431 1549 0
154 -1549 0
1431 -1549 0
-1331 -1549 -1550 0
1331 1549 -1550 0
1331 -1549 1550 0
-1331 1549 1550 0
-1550 -1548 -1551 0
1550 1548 -1551 0
1550 -1548 1551 0
-1550 1548 1551 0
-1550 -1548 1552 0
1550 -1552 0
1548 -1552 0
-1331 -1549 1553 0
1331 -1553 0
1549 -1553 0
1552 1553 -1554 0
-1552 1554 0
-1553 1554 0
-162 -1431 1555 0
162 -1555 0
1431 -1555 0
-1337 -1555 -1556 0
1337 1555 -1556 0
1337 -1555 1556 0
-1337 1555 1556 0
-1556 -1554 -1557 0
1556 1554 -1557 0
1556 -1554 1557 0
-1556 1554 1557 0
-1556 -1554 1558 0
1556 -1558 0
1554 -1558 0
-1337 -1555 1559 0
1337 -1559 0
1555 -1559 0
1558 1559 -1560 0
-1558 1560 0
-1559 1560 0
-170 -1431 1561 0
170 -1561 0
1431 -1561 0
-1343 -1561 -1562 0
1343 1561 -1562 0
1343 -1561 1562 0
-1343 1561 1562 0
-1562 -1560 -1563 0
1562 1560 -1563 0
1562 -1560 1563 0
-1562 1560 1563 0
-1562 -1560 1564 0
1562 -1564 0
1560 -1564 0
-1343 -1561 1565 0
1343 -1565 0
1561 -1565 0
1564 1565 -1566 0
-1564 1566 0
-1565 1566 0
-178 -1431 1567 0
178 -1567 0
1431 -1567 0
-1349 -1567 -1568 0
1349 1567 -1568 0
1349 -1567 1568 0
-1349 1567 1568 0
-1568 -1566 -1569 0
1568 1566 -1569 0
1568 -1566 1569 0
-1568 1566 1569 0
-1568 -1566 1570 0
1568 -1570 0
1566 -1570 0
-1349 -1567 1571 0
1349 -1571 0
1567 -1571 0
1570 1571 -1572 0
-1570 1572 0
-1571 1572 0
-186 -1431 1573 0
186 -1573 0
1431 -1573 0
-1355 -1573 -1574 0
1355 1573 -1574 0
1355 -1573 1574 0
-1355 1573 1574 0
-1574 -1572 -1575 0
1574 1572 -1575 0
1574 -1572 1575 0
-1574 1572 1575 0
-1574 -1572 1576 0
1574 -1576 0
1572 -1576 0
-1355 -1573 1577 0
1355 -1577 0
1573 -1577 0
1576 1577 -1578 0
-1576 1578 0
-1577 1578 0
-194 -1431 1579 0
194 -1579 0
1431 -1579 0
-1361 -1579 -1580 0
1361 1579 -1580 0
1361 -1579 1580 0
-1361 1579 1580 0
-1580 -1578 -1581 0
1580 1578 -1581 0
1580 -1578 1581 0
-1580 1578 1581 0
-1580 -1578 1582 0
1580 -1582 0
1578 -1582 0
-1361 -1579 1583 0
1361 -1583 0
1579 -1583 0
1582 1583 -1584 0
-1582 1584 0
-1583 1584 0
-202 -1431 1585 0
202 -1585 0
1431 -1585 0
-1367 -1585 -1586 0
1367 1585 -1586 0
1367 -1585 1586 0
-1367 1585 1586 0
-1586 -1584 -1587 0
1586 1584 -1587 0
1586 -1584 1587 0
-1586 1584 1587 0
-1586 -1584 1588 0
1586 -1588 0
1584 -1588 0
-1367 -1585 1589 0
1367 -1589 0
1585 -1589 0
1588 1589 -1590 0
-1588 1590 0
-1589 1590 0
-210 -1431 1591 0
210 -1591 0
1431 -1591 0
-1373 -1591 -1592 0
1373 1591 -1592 0
1373 -1591 1592 0
-1373 1591 1592 0
-1592 -1590 -1593 0
1592 1590 -1593 0
1592 -1590 1593 0
-1592 1590 1593 0
-1592 -1590 1594 0
1592 -1594 0
1590 -1594 0
-1373 -1591 1595 0
1373 -1595 0
1591 -1595 0
1594 1595 -1596 0
-1594 1596 0
-1595 1596 0
-218 -1431 1597 0
218 -1597 0
1431 -1597 0
-1379 -1597 -1598 0
1379 1597 -1598 0
1379 -1597 1598 0
-1379 1597 1598 0
-1598 -1596 -1599 0
1598 1596 -1599 0
1598 -1596 1599 0
-1598 1596 1599 0
-1598 -1596 1600 0
1598 -1600 0
1596 -1600 0
-1379 -1597 1601 0
1379 -1601 0
1597 -1601 0
1600 1601 -1602 0
-1600 1602 0
-1601 1602 0
-226 -1431 1603 0
226 -1603 0
1431 -1603 0
-1385 -1603 -1604 0
1385 1603 -1604 0
1385 -1603 1604 0
-1385 1603 1604 0
-1604 -1602 -1605 0
1604 1602 -1605 0
1604 -1602 1605 0
-1604 1602 1605 0
-1604 -1602 1606 0
1604 -1606 0
1602 -1606 0
-1385 -1603 1607 0
1385 -1607 0
1603 -1607 0
1606 1607 -1608 0
-1606 1608 0
-1607 1608 0
-234 -1431 1609 0
234 -1609 0
1431 -1609 0
-1391 -1609 -1610 0
1391 1609 -1610 0
1391 -1609 1610 0
-1391 1609 1610 0
-1610 -1608 -1611 0
1610 1608 -1611 0
1610 -1608 1611 0
-1610 1608 1611 0
-1610 -1608 1612 0
1610 -1612 0
1608 -1612 0
-1391 -1609 1613 0
1391 -1613 0
1609 -1613 0
1612 1613 -1614 0
-1612 1614 0
-1613 1614 0
-242 -1431 1615 0
242 -1615 0
1431 -1615 0
-1397 -1615 -1616 0
1397 1615 -1616 0
1397 -1615 1616 0
-1397 1615 1616 0
-1616 -1614 -1617 0
1616 1614 -1617 0
1616 -1614 1617 0
-1616 1614 1617 0
-1616 -1614 1618 0
1616 -1618 0
1614 -1618 0
-1397 -1615 1619 0
1397 -1619 0
1615 -1619 0
1618 1619 -1620 0
-1618 1620 0
-1619 1620 0
-250 -1431 1621 0
250 -1621 0
1431 -1621 0
-1403 -1621 -1622 0
1403 1621 -1622 0
1403 -1621 1622 0
-1403 1621 1622 0
-1622 -1620 -1623 0
1622 1620 -1623 0
1622 -1620 1623 0
-1622 1620 1623 0
-1622 -1620 1624 0
1622 -1624 0
1620 -1624 0
-1403 -1621 1625 0
1403 -1625 0
1621 -1625 0
1624 1625 -1626 0
-1624 1626 0
-1625 1626 0
-258 -1431 1627 0
258 -1627 0
1431 -1627 0
-1409 -1627 -1628 0
1409 1627 -1628 0
1409 -1627 1628 0
-1409 1627 1628 0
-1628 -1626 -1629 0
1628 1626 -1629 0
1628 -1626 1629 0
-1628 1626 1629 0
-1628 -1626 1630 0
1628 -1630 0
1626 -1630 0
-1409 -1627 1631 0
1409 -1631 0
1627 -1631 0
1630 1631 -1632 0
-1630 1632 0
-1631 1632 0
-266 -1431 1633 0
266 -1633 0
1431 -1633 0
-1415 -1633 -1634 0
1415 1633 -1634 0
1415 -1633 1634 0
-1415 1633 1634 0
-1634 -1632 -1635 0
1634 1632 -1635 0
1634 -1632 1635 0
-1634 1632 1635 0
-1634 -1632 1636 0
1634 -1636 0
1632 -1636 0
-1415 -1633 1637 0
1415 -1637 0
1633 -1637 0
1636 1637 -1638 0
-1636 1638 0
-1637 1638 0
-274 -1431 1639 0
274 -1639 0
1431 -1639 0
-1421 -1639 -1640 0
1421 1639 -1640 0
1421 -1639 1640 0
-1421 1639 1640 0
-1640 -1638 -1641 0
1640 1638 -1641 0
1640 -1638 1641 0
-1640 1638 1641 0
-1640 -1638 1642 0
1640 -1642 0
1638 -1642 0
-1421 -1639 1643 0
1421 -1643 0
1639 -1643 0
1642 1643 -1644 0
-1642 1644 0
-1643 1644 0
-282 -1431 1645 0
282 -1645 0
1431 -1645 0
-1427 -1645 -1646 0
1427 1645 -1646 0
1427 -1645 1646 0
-1427 1645 1646 0
-1646 -1644 -1647 0
1646 1644 -1647 0
1646 -1644 1647 0
-1646 1644 1647 0
-1646 -1644 1648 0
1646 -1648 0
1644 -1648 0
-1427 -1645 1649 0
1427 -1649 0
1645 -1649 0
1648 1649 -1650 0
-1648 1650 0
-1649 1650 0
-290 -1431 1651 0
290 -1651 0
1431 -1651 0
-1430 -1651 -1652 0
1430 1651 -1652 0
1430 -1651 1652 0
-1430 1651 1652 0
-1652 -1650 -1653 0
1652 1650 -1653 0
1652 -1650 1653 0
-1652 1650 1653 0
-1652 -1650 1654 0
1652 -1654 0
1650 -1654 0
-1430 -1651 1655 0
1430 -1655 0
1651 -1655 0
1654 1655 -1656 0
-1654 1656 0
-1655 1656 0
-1 -1657 1658 0
1 -1658 0
1657 -1658 0
-1437 -1658 -1659 0
1437 1658 -1659 0
1437 -1658 1659 0
-1437 1658 1659 0
-1437 -1658 1660 0
1437 -1660 0
1658 -1660 0
-4 -1657 1661 0
4 -1661 0
1657 -1661 0
-1443 -1661 -1662 0
1443 1661 -1662 0
1443 -1661 1662 0
-1443 1661 1662 0
-1662 -1660 -1663 0
1662 1660 -1663 0
1662 -1660 1663 0
-1662 1660 1663 0
-1662 -1660 1664 0
1662 -1664 0
1660 -1664 0
-1443 -1661 1665 0
1443 -1665 0
1661 -1665 0
1664 1665 -1666 0
-1664 1666 0
-1665 1666 0
-10 -1657 1667 0
10 -1667 0
1657 -1667 0
-1449 -1667 -1668 0
1449 1667 -1668 0
1449 -1667 1668 0
-1449 1667 1668 0
-1668 -1666 -1669 0
1668 1666 -1669 0
1668 -1666 1669 0
-1668 1666 1669 0
-1668 -1666 1670 0
1668 -1670 0
1666 -1670 0
-1449 -1667 1671 0
1449 -1671 0
1667 -1671 0
1670 1671 -1672 0
-1670 1672 0
-1671 1672 0
-18 -1657 1673 0
18 -1673 0
1657 -1673 0
-1455 -1673 -1674 0
1455 1673 -1674 0
1455 -1673 1674 0
-1455 1673 1674 0
-1674 -1672 -1675 0
1674 1672 -1675 0
1674 -1672 1675 0
-1674 1672 1675 0
-1674 -1672 1676 0
1674 -1676 0
1672 -1676 0
-1455 -1673 1677 0
1455 -1677 0
1673 -1677 0
1676 1677 -1678 0
-1676 1678 0
-1677 1678 0
-26 -1657 1679 0
26 -1679 0
1657 -1679 0
-1461 -1679 -1680 0
1461 1679 -1680 0
1461 -1679 1680 0
-1461 1679 1680 0
-1680 -1678 -1681 0
1680 1678 -1681 0
1680 -1678 1681 0
-1680 1678 1681 0
-1680 -1678 1682 0
1680 -1682 0
1678 -1682 0
-1461 -1679 1683 0
1461 -1683 0
1679 -1683 0
1682 1683 -1684 0
-1682 1684 0
-1683 1684 0
-34 -1657 1685 0
34 -1685 0
1657 -1685 0
-1467 -1685 -1686 0
1467 1685 -1686 0
1467 -1685 1686 0
-1467 1685 1686 0
-1686 -1684 -1687 0
1686 1684 -1687 0
1686 -1684 1687 0
-1686 1684 1687 0
-1686 -1684 1688 0
1686 -1688 0
1684 -1688 0
-1467 -1685 1689 0
1467 -1689 0
1685 -1689 0
1688 1689 -1690 0
-1688 1690 0
-1689 1690 0
-42 -1657 1691 0
42 -1691 0
1657 -1691 0
-1473 -1691 -1692 0
1473 1691 -1692 0
1473 -1691 1692 0
-1473 1691 1692 0
-1692 -1690 -1693 0
1692 1690 -1693 0
1692 -1690 1693 0
-1692 1690 1693 0
-1692 -1690 1694 0
1692 -1694 0
1690 -1694 0
-1473 -1691 1695 0
1473 -1695 0
1691 -1695 0
1694 1695 -1696 0
-1694 1696 0
-1695 1696 0
-50 -1657 1697 0
50 -1697 0
1657 -1697 0
-1479 -1697 -1698 0
1479 1697 -1698 0
1479 -1697 1698 0
-1479 1697 1698 0
-1698 -1696 -1699 0
1698 1696 -1699 0
1698 -1696 1699 0
-1698 1696 1699 0
-1698 -1696 1700 0
1698 -1700 0
1696 -1700 0
-1479 -1697 1701 0
1479 -1701 0
1697 -1701 0
1700 1701 -1702 0
-1700 1702 0
-1701 1702 0
-58 -1657 1703 0
58 -1703 0
1657 -1703 0
-1485 -1703 -1704 0
1485 1703 -1704 0
1485 -1703 1704 0
-1485 1703 1704 0
-1704 -1702 -1705 0
1704 1702 -1705 0
1704 -1702 1705 0
-1704 1702 1705 0
-1704 -1702 1706 0
1704 -1706 0
1702 -1706 0
-1485 -1703 1707 0
1485 -1707 0
1703 -1707 0
1706 1707 -1708 0
-1706 1708 0
-1707 1708 0
-66 -1657 1709 0
66 -1709 0
1657 -1709 0
-1491 -1709 -1710 0
1491 1709 -1710 0
1491 -1709 1710 0
-1491 1709 1710 0
-1710 -1708 -1711 0
1710 1708 -1711 0
1710 -1708 1711 0
-1710 1708 1711 0
-1710 -1708 1712 0
1710 -1712 0
1708 -1712 0
-1491 -1709 1713 0
1491 -1713 0
1709 -1713 0
1712 1713 -1714 0
-1712 1714 0
-1713 1714 0
-74 -1657 1715 0
74 -1715 0
1657 -1715 0
-1497 -1715 -1716 0
1497 1715 -1716 0
1497 -1715 1716 0
-1497 1715 1716 0
-1716 -1714 -1717 0
1716 1714 -1717 0
1716 -1714 1717 0
-1716 1714 1717 0
-1716 -1714 1718 0
1716 -1718 0
1714 -1718 0
-1497 -1715 1719 0
1497 -1719 0
1715 -1719 0
1718 1719 -1720 0
-1718 1720 0
-1719 1720 0
-82 -1657 1721 0
82 -1721 0
1657 -1721 0
-1503 -1721 -1722 0
1503 1721 -1722 0
1503 -1721 1722 0
-1503 1721 1722 0
-1722 -1720 -1723 0
1722 1720 -1723 0
1722 -1720 1723 0
-1722 1720 1723 0
-1722 -1720 1724 0
1722 -1724 0
1720 -1724 0
-1503 -1721 1725 0
1503 -1725 0
1721 -1725 0
1724 1725 -1726 0
-1724 1726 0
-1725 1726 0
-90 -1657 1727 0
90 -1727 0
1657 -1727 0
-1509 -1727 -1728 0
1509 1727 -1728 0
1509 -1727 1728 0
-1509 1727 1728 0
-1728 -1726 -1729 0
1728 1726 -1729 0
1728 -1726 1729 0
-1728 1726 1729 0
-1728 -1726 1730 0
1728 -1730 0
1726 -1730 0
-1509 -1727 1731 0
1509 -1731 0
1727 -1731 0
1730 1731 -1732 0
-1730 1732 0
-1731 1732 0
-98 -1657 1733 0
98 -1733 0
1657 -1733 0
-1515 -1733 -1734 0
1515 1733 -1734 0
1515 -1733 1734 0
-1515 1733 1734 0
-1734 -1732 -1735 0
1734 1732 -1735 0
1734 -1732 1735 0
-1734 1732 1735 0
-1734 -1732 1736 0
1734 -1736 0
1732 -1736 0
-1515 -1733 1737 0
1515 -1737 0
1733 -1737 0
1736 1737 -1738 0
-1736 1738 0
-1737 1738 0
-106 -1657 1739 0
106 -1739 0
1657 -1739 0
-1521 -1739 -1740 0
1521 1739 -1740 0
1521 -1739 1740 0
-1521 1739 1740 0
-1740 -1738 -1741 0
1740 1738 -1741 0
1740 -1738 1741 0
-1740 1738 1741 0
-1740 -1738 1742 0
1740 -1742 0
1738 -1742 0
-1521 -1739 1743 0
1521 -1743 0
1739 -1743 0
1742 1743 -1744 0
-1742 1744 0
-1743 1744 0
-114 -1657 1745 0
114 -1745 0
1657 -1745 0
-1527 -1745 -1746 0
1527 1745 -1746 0
1527 -1745 1746 0
-1527 1745 1746 0
-1746 -1744 -1747 0
1746 1744 -1747 0
1746 -1744 1747 0
-1746 1744 1747 0
-1746 -1744 1748 0
1746 -1748 0
1744 -1748 0
-1527 -1745 1749 0
1527 -1749 0
1745 -1749 0
1748 1749 -1750 0
-1748 1750 0
-1749 1750 0
-122 -1657 1751 0
122 -1751 0
1657 -1751 0
-1533 -1751 -1752 0
1533 1751 -1752 0
1533 -1751 1752 0
-1533 1751 1752 0
-1752 -1750 -1753 0
1752 1750 -1753 0
1752 -1750 1753 0
-1752 1750 1753 0
-1752 -1750 1754 0
1752 -1754 0
1750 -1754 0
-1533 -1751 1755 0
1533 -1755 0
1751 -1755 0
1754 1755 -1756 0
-1754 1756 0
-1755 1756 0
-130 -1657 1757 0
130 -1757 0
1657 -1757 0
-1539 -1757 -1758 0
1539 1757 -1758 0
1539 -1757 1758 0
-1539 1757 1758 0
-1758 -1756 -1759 0
1758 1756 -1759 0
1758 -1756 1759 0
-1758 1756 1759 0
-1758 -1756 1760 0
1758 -1760 0
1756 -1760 0
-1539 -1757 1761 0
1539 -1761 0
1757 -1761 0
1760 1761 -1762 0
-1760 1762 0
-1761 1762 0
-138 -1657 1763 0
138 -1763 0
1657 -1763 0
-1545 -1763 -1764 0
1545 1763 -1764 0
1545 -1763 1764 0
-1545 1763 1764 0
-1764 -1762 -1765 0
1764 1762 -1765 0
1764 -1762 1765 0
-1764 1762 1765 0
-1764 -1762 1766 0
1764 -1766 0
1762 -1766 0
-1545 -1763 1767 0
1545 -1767 0
1763 -1767 0
1766 1767 -1768 0
-1766 1768 0
-1767 1768 0
-146 -1657 1769 0
146 -1769 0
1657 -1769 0
-1551 -1769 -1770 0
1551 1769 -1770 0
1551 -1769 1770 0
-1551 1769 1770 0
-1770 -1768 -1771 0
1770 1768 -1771 0
1770 -1768 1771 0
-1770 1768 1771 0
-1770 -1768 1772 0
1770 -1772 0
1768 -1772 0
-1551 -1769 1773 0
1551 -1773 0
1769 -1773 0
1772 1773 -1774 0
-1772 1774 0
-1773 1774 0
-154 -1657 1775 0
154 -1775 0
1657 -1775 0
-1557 -1775 -1776 0
1557 1775 -1776 0
1557 -1775 1776 0
-1557 1775 1776 0
-1776 -1774 -1777 0
1776 1774 -1777 0
1776 -1774 1777 0
-1776 1774 1777 0
-1776 -1774 1778 0
1776 -1778 0
1774 -1778 0
-1557 -1775 1779 0
1557 -1779 0
1775 -1779 0
1778 1779 -1780 0
-1778 1780 0
-1779 1780 0
-162 -1657 1781 0
162 -1781 0
1657 -1781 0
-1563 -1781 -1782 0
1563 1781 -1782 0
1563 -1781 1782 0
-1563 1781 1782 0
-1782 -1780 -1783 0
1782 1780 -1783 0
1782 -1780 1783 0
-1782 1780 1783 0
-1782 -1780 1784 0
1782 -1784 0
1780 -1784 0
-1563 -1781 1785 0
1563 -1785 0
1781 -1785 0
1784 1785 -1786 0
-1784 1786 0
-1785 1786 0
-170 -1657 1787 0
170 -1787 0
1657 -1787 0
-1569 -1787 -1788 0
1569 1787 -1788 0
1569 -1787 1788 0
-1569 1787 1788 0
-1788 -1786 -1789 0
1788 1786 -1789 0
1788 -1786 1789 0
-1788 1786 1789 0
-1788 -1786 1790 0
1788 -1790 0
1786 -1790 0
-1569 -1787 1791 0
1569 -1791 0
1787 -1791 0
1790 1791 -1792 0
-1790 1792 0
-1791 1792 0
-178 -1657 1793 0
178 -1793 0
1657 -1793 0
-1575 -1793 -1794 0
1575 1793 -1794 0
1575 -1793 1794 0
-1575 1793 1794 0
-1794 -1792 -1795 0
1794 1792 -1795 0
1794 -1792 1795 0
-1794 1792 1795 0
-1794 -1792 1796 0
1794 -1796 0
1792 -1796 0
-1575 -1793 1797 0
1575 -1797 0
1793 -1797 0
1796 1797 -1798 0
-1796 1798 0
-1797 1798 0
-186 -1657 1799 0
186 -1799 0
1657 -1799 0
-1581 -1799 -1800 0
1581 1799 -1800 0
1581 -1799 1800 0
-1581 1799 1800 0
-1800 -1798 -1801 0
1800 1798 -1801 0
1800 -1798 1801 0
-1800 1798 1801 0
-1800 -1798 1802 0
1800 -1802 0
1798 -1802 0
-1581 -1799 1803 0
1581 -1803 0
1799 -1803 0
1802 1803 -1804 0
-1802 1804 0
-1803 1804 0
-194 -1657 1805 0
194 -1805 0
1657 -1805 0
-1587 -1805 -1806 0
1587 1805 -1806 0
1587 -1805 1806 0
-1587 1805 1806 0
-1806 -1804 -1807 0
1806 1804 -1807 0
1806 -1804 1807 0
-1806 1804 1807 0
-1806 -1804 1808 0
1806 -1808 0
1804 -1808 0
-1587 -1805 1809 0
1587 -1809 0
1805 -1809 0
1808 1809 -1810 0
-1808 1810 0
-1809 1810 0
-202 -1657 1811 0
202 -1811 0
1657 -1811 0
-1593 -1811 -1812 0
1593 1811 -1812 0
1593 -1811 1812 0
-1593 1811 1812 0
-1812 -1810 -1813 0
1812 1810 -1813 0
1812 -1810 1813 0
-1812 1810 1813 0
-1812 -1810 1814 0
1812 -1814 0
1810 -1814 0
-1593 -1811 1815 0
1593 -1815 0
1811 -1815 0
1814 1815 -1816 0
-1814 1816 0
-1815 1816 0
-210 -1657 1817 0
210 -1817 0
1657 -1817 0
-1599 -1817 -1818 0
1599 1817 -1818 0
1599 -1817 1818 0
-1599 1817 1818 0
-1818 -1816 -1819 0
1818 1816 -1819 0
1818 -1816 1819 0
-1818 1816 1819 0
-1818 -1816 1820 0
1818 -1820 0
1816 -1820 0
-1599 -1817 1821 0
1599 -1821 0
1817 -1821 0
1820 1821 -1822 0
-1820 1822 0
-1821 1822 0
-218 -1657 1823 0
218 -1823 0
1657 -1823 0
-1605 -1823 -1824 0
1605 1823 -1824 0
1605 -1823 1824 0
-1605 1823 1824 0
-1824 -1822 -1825 0
1824 1822 -1825 0
1824 -1822 1825 0
-1824 1822 1825 0
-1824 -1822 1826 0
1824 -1826 0
1822 -1826 0
-1605 -1823 1827 0
1605 -1827 0
1823 -1827 0
1826 1827 -1828 0
-1826 1828 0
-1827 1828 0
-226 -1657 1829 0
226 -1829 0
1657 -1829 0
-1611 -1829 -1830 0
1611 1829 -1830 0
1611 -1829 1830 0
-1611 1829 1830 0
-1830 -1828 -1831 0
1830 1828 -1831 0
1830 -1828 1831 0
-1830 1828 1831 0
-1830 -1828 1832 0
1830 -1832 0
1828 -1832 0
-1611 -1829 1833 0
1611 -1833 0
1829 -1833 0
1832 1833 -1834 0
-1832 1834 0
-1833 1834 0
-234 -1657 1835 0
234 -1835 0
1657 -1835 0
-1617 -1835 -1836 0
1617 1835 -1836 0
1617 -1835 1836 0
-1617 1835 1836 0
-1836 -1834 -1837 0
1836 1834 -1837 0
1836 -1834 1837 0
-1836 1834 1837 0
-1836 -1834 1838 0
1836 -1838 0
1834 -1838 0
-1617 -1835 1839 0
1617 -1839 0
1835 -1839 0
1838 1839 -1840 0
-1838 1840 0
-1839 1840 0
-242 -1657 1841 0
242 -1841 0
1657 -1841 0
-1623 -1841 -1842 0
1623 1841 -1842 0
1623 -1841 1842 0
-1623 1841 1842 0
-1842 -1840 -1843 0
1842 1840 -1843 0
1842 -1840 1843 0
-1842 1840 1843 0
-1842 -1840 1844 0
1842 -1844 0
1840 -1844 0
-1623 -1841 1845 0
1623 -1845 0
1841 -1845 0
1844 1845 -1846 0
-1844 1846 0
-1845 1846 0
-250 -1657 1847 0
250 -1847 0
1657 -1847 0
-1629 -1847 -1848 0
1629 1847 -1848 0
1629 -1847 1848 0
-1629 1847 1848 0
-1848 -1846 -1849 0
1848 1846 -1849 0
1848 -1846 1849 0
-1848 1846 1849 0
-1848 -1846 1850 0
1848 -1850 0
1846 -1850 0
-1629 -1847 1851 0
1629 -1851 0
1847 -1851 0
1850 1851 -1852 0
-1850 1852 0
-1851 1852 0
-258 -1657 1853 0
258 -1853 0
1657 -1853 0
-1635 -1853 -1854 0
1635 1853 -1854 0
1635 -1853 1854 0
-1635 1853 1854 0
-1854 -1852 -1855 0
1854 1852 -1855 0
1854 -1852 1855 0
-1854 1852 1855 0
-1854 -1852 1856 0
1854 -1856 0
1852 -1856 0
-1635 -1853 1857 0
1635 -1857 0
1853 -1857 0
1856 1857 -1858 0
-1856 1858 0
-1857 1858 0
-266 -1657 1859 0
266 -1859 0
1657 -1859 0
-1641 -1859 -1860 0
1641 1859 -1860 0
1641 -1859 1860 0
-1641 1859 1860 0
-1860 -1858 -1861 0
1860 1858 -1861 0
1860 -1858 1861 0
-1860 1858 1861 0
-1860 -1858 1862 0
1860 -1862 0
1858 -1862 0
-1641 -1859 1863 0
1641 -1863 0
1859 -1863 0
1862 1863 -1864 0
-1862 1864 0
-1863 1864 0
-274 -1657 1865 0
274 -1865 0
1657 -1865 0
-1647 -1865 -1866 0
1647 1865 -1866 0
1647 -1865 1866 0
-1647 1865 1866 0
-1866 -1864 -1867 0
1866 1864 -1867 0
1866 -1864 1867 0
-1866 1864 1867 0
-1866 -1864 1868 0
1866 -1868 0
1864 -1868 0
-1647 -1865 1869 0
1647 -1869 0
1865 -1869 0
1868 1869 -1870 0
-1868 1870 0
-1869 1870 0
-282 -1657 1871 0
282 -1871 0
1657 -1871 0
-1653 -1871 -1872 0
1653 1871 -1872 0
1653 -1871 1872 0
-1653 1871 1872 0
-1872 -1870 -1873 0
1872 1870 -1873 0
1872 -1870 1873 0
-1872 1870 1873 0
-1872 -1870 1874 0
1872 -1874 0
1870 -1874 0
-1653 -1871 1875 0
1653 -1875 0
1871 -1875 0
1874 1875 -1876 0
-1874 1876 0
-1875 1876 0
-290 -1657 1877 0
290 -1877 0
1657 -1877 0
-1656 -1877 -1878 0
1656 1877 -1878 0
1656 -1877 1878 0
-1656 1877 1878 0
-1878 -1876 -1879 0
1878 1876 -1879 0
1878 -1876 1879 0
-1878 1876 1879 0
-1878 -1876 1880 0
1878 -1880 0
1876 -1880 0
-1656 -1877 1881 0
1656 -1881 0
1877 -1881 0
1880 1881 -1882 0
-1880 1882 0
-1881 1882 0
-1 -1883 1884 0
1 -1884 0
1883 -1884 0
-1663 -1884 -1885 0
1663 1884 -1885 0
1663 -1884 1885 0
-1663 1884 1885 0
-1663 -1884 1886 0
1663 -1886 0
1884 -1886 0
-4 -1883 1887 0
4 -1887 0
1883 -1887 0
-1669 -1887 -1888 0
1669 1887 -1888 0
1669 -1887 1888 0
-1669 1887 1888 0
-1888 -1886 -1889 0
1888 1886 -1889 0
1888 -1886 1889 0
-1888 1886 1889 0
-1888 -1886 1890 0
1888 -1890 0
1886 -1890 0
-1669 -1887 1891 0
1669 -1891 0
1887 -1891 0
1890 1891 -1892 0
-1890 1892 0
-1891 1892 0
-10 -1883 1893 0
10 -1893 0
1883 -1893 0
-1675 -1893 -1894 0
1675 1893 -1894 0
1675 -1893 1894 0
-1675 1893 1894 0
-1894 -1892 -1895 0
1894 1892 -1895 0
1894 -1892 1895 0
-1894 1892 1895 0
-1894 -1892 1896 0
1894 -1896 0
1892 -1896 0
-1675 -1893 1897 0
1675 -1897 0
1893 -1897 0
1896 1897 -1898 0
-1896 1898 0
-1897 1898 0
-18 -1883 1899 0
18 -1899 0
1883 -1899 0
-1681 -1899 -1900 0
1681 1899 -1900 0
1681 -1899 1900 0
-1681 1899 1900 0
-1900 -1898 -1901 0
1900 1898 -1901 0
1900 -1898 1901 0
-1900 1898 1901 0
-1900 -1898 1902 0
1900 -1902 0
1898 -1902 0
-1681 -1899 1903 0
1681 -1903 0
1899 -1903 0
1902 1903 -1904 0
-1902 1904 0
-1903 1904 0
-26 -1883 1905 0
26 -1905 0
1883 -1905 0
-1687 -1905 -1906 0
1687 1905 -1906 0
1687 -1905 1906 0
-1687 1905 1906 0
-1906 -1904 -1907 0
1906 1904 -1907 0
1906 -1904 1907 0
-1906 1904 1907 0
-1906 -1904 1908 0
1906 -1908 0
1904 -1908 0
-1687 -1905 1909 0
1687 -1909 0
1905 -1909 0
1908 1909 -1910 0
-1908 1910 0
-1909 1910 0
-34 -1883 1911 0
34 -1911 0
1883 -1911 0
-1693 -1911 -1912 0
1693 1911 -1912 0
1693 -1911 1912 0
-1693 1911 1912 0
-1912 -1910 -1913 0
1912 1910 -1913 0
1912 -1910 1913 0
-1912 1910 1913 0
-1912 -1910 1914 0
1912 -1914 0
1910 -1914 0
-1693 -1911 1915 0
1693 -1915 0
1911 -1915 0
1914 1915 -1916 0
-1914 1916 0
-1915 1916 0
-42 -1883 1917 0
42 -1917 0
1883 -1917 0
-1699 -1917 -1918 0
1699 1917 -1918 0
1699 -1917 1918 0
-1699 1917 1918 0
-1918 -1916 -1919 0
1918 1916 -1919 0
1918 -1916 1919 0
-1918 1916 1919 0
-1918 -1916 1920 0
1918 -1920 0
1916 -1920 0
-1699 -1917 1921 0
1699 -1921 0
1917 -1921 0
1920 1921 -1922 0
-1920 1922 0
-1921 1922 0
-50 -1883 1923 0
50 -1923 0
1883 -1923 0
-1705 -1923 -1924 0
1705 1923 -1924 0
1705 -1923 1924 0
-1705 1923 1924 0
-1924 -1922 -1925 0
1924 1922 -1925 0
1924 -1922 1925 0
-1924 1922 1925 0
-1924 -1922 1926 0
1924 -1926 0
1922 -1926 0
-1705 -1923 1927 0
1705 -1927 0
1923 -1927 0
1926 1927 -1928 0
-1926 1928 0
-1927 1928 0
-58 -1883 1929 0
58 -1929 0
1883 -1929 0
-1711 -1929 -1930 0
1711 1929 -1930 0
1711 -1929 1930 0
-1711 1929 1930 0
-1930 -1928 -1931 0
1930 1928 -1931 0
1930 -1928 1931 0
-1930 1928 1931 0
-1930 -1928 1932 0
1930 -1932 0
1928 -1932 0
-1711 -1929 1933 0
1711 -1933 0
1929 -1933 0
1932 1933 -1934 0
-1932 1934 0
-1933 1934 0
-66 -1883 1935 0
66 -1935 0
1883 -1935 0
-1717 -1935 -1936 0
1717 1935 -1936 0
1717 -1935 1936 0
-1717 1935 1936 0
-1936 -1934 -1937 0
1936 1934 -1937 0
1936 -1934 1937 0
-1936 1934 1937 0
-1936 -1934 1938 0
1936 -1938 0
1934 -1938 0
-1717 -1935 1939 0
1717 -1939 0
1935 -1939 0
1938 1939 -1940 0
-1938 1940 0
-1939 1940 0
-74 -1883 1941 0
74 -1941 0
1883 -1941 0
-1723 -1941 -1942 0
1723 1941 -1942 0
1723 -1941 1942 0
-1723 1941 1942 0
-1942 -1940 -1943 0
1942 1940 -1943 0
1942 -1940 1943 0
-1942 1940 1943 0
-1942 -1940 1944 0
1942 -1944 0
1940 -1944 0
-1723 -1941 1945 0
1723 -1945 0
1941 -1945 0
1944 1945 -1946 0
-1944 1946 0
-1945 1946 0
-82 -1883 1947 0
82 -1947 0
1883 -1947 0
-1729 -1947 -1948 0
1729 1947 -1948 0
1729 -1947 1948 0
-1729 1947 1948 0
-1948 -1946 -1949 0
1948 1946 -1949 0
1948 -1946 1949 0
-1948 1946 1949 0
-1948 -1946 1950 0
1948 -1950 0
1946 -1950 0
-1729 -1947 1951 0
1729 -1951 0
1947 -1951 0
1950 1951 -1952 0
-1950 1952 0
-1951 1952 0
-90 -1883 1953 0
90 -1953 0
1883 -1953 0
-1735 -1953 -1954 0
1735 1953 -1954 0
1735 -1953 1954 0
-1735 1953 1954 0
-1954 -1952 -1955 0
1954 1952 -1955 0
1954 -1952 1955 0
-1954 1952 1955 0
-1954 -1952 1956 0
1954 -1956 0
1952 -1956 0
-1735 -1953 1957 0
1735 -1957 0
1953 -1957 0
1956 1957 -1958 0
-1956 1958 0
-1957 1958 0
-98 -1883 1959 0
98 -1959 0
1883 -1959 0
-1741 -1959 -1960 0
1741 1959 -1960 0
1741 -1959 1960 0
-1741 1959 1960 0
-1960 -1958 -1961 0
1960 1958 -1961 0
1960 -1958 1961 0
-1960 1958 1961 0
-1960 -1958 1962 0
1960 -1962 0
1958 -1962 0
-1741 -1959 1963 0
1741 -1963 0
1959 -1963 0
1962 1963 -1964 0
-1962 1964 0
-1963 1964 0
-106 -1883 1965 0
106 -1965 0
1883 -1965 0
-1747 -1965 -1966 0
1747 1965 -1966 0
1747 -1965 1966 0
-1747 1965 1966 0
-1966 -1964 -1967 0
1966 1964 -1967 0
1966 -1964 1967 0
-1966 1964 1967 0
-1966 -1964 1968 0
1966 -1968 0
1964 -1968 0
-1747 -1965 1969 0
1747 -1969 0
1965 -1969 0
1968 1969 -1970 0
-1968 1970 0
-1969 1970 0
-114 -1883 1971 0
114 -1971 0
1883 -1971 0
-1753 -1971 -1972 0
1753 1971 -1972 0
1753 -1971 1972 0
-1753 1971 1972 0
-1972 -1970 -1973 0
1972 1970 -1973 0
1972 -1970 1973 0
-1972 1970 1973 0
-1972 -1970 1974 0
1972 -1974 0
1970 -1974 0
-1753 -1971 1975 0
1753 -1975 0
1971 -1975 0
1974 1975 -1976 0
-1974 1976 0
-1975 1976 0
-122 -1883 1977 0
122 -1977 0
1883 -1977 0
-1759 -1977 -1978 0
1759 1977 -1978 0
1759 -1977 1978 0
-1759 1977 1978 0
-1978 -1976 -1979 0
1978 1976 -1979 0
1978 -1976 1979 0
-1978 1976 1979 0
-1978 -1976 1980 0
1978 -1980 0
1976 -1980 0
-1759 -1977 1981 0
1759 -1981 0
1977 -1981 0
1980 1981 -1982 0
-1980 1982 0
-1981 1982 0
-130 -1883 1983 0
130 -1983 0
1883 -1983 0
-1765 -1983 -1984 0
1765 1983 -1984 0
1765 -1983 1984 0
-1765 1983 1984 0
-1984 -1982 -1985 0
1984 1982 -1985 0
1984 -1982 1985 0
-1984 1982 1985 0
-1984 -1982 1986 0
1984 -1986 0
1982 -1986 0
-1765 -1983 1987 0
1765 -1987 0
1983 -1987 0
1986 1987 -1988 0
-1986 1988 0
-1987 1988 0
-138 -1883 1989 0
138 -1989 0
1883 -1989 0
-1771 -1989 -1990 0
1771 1989 -1990 0
1771 -1989 1990 0
-1771 1989 1990 0
-1990 -1988 -1991 0
1990 1988 -1991 0
1990 -1988 1991 0
-1990 1988 1991 0
-1990 -1988 1992 0
1990 -1992 0
1988 -1992 0
-1771 -1989 1993 0
1771 -1993 0
1989 -1993 0
1992 1993 -1994 0
-1992 1994 0
-1993 1994 0
-146 -1883 1995 0
146 -1995 0
1883 -1995 0
-1777 -1995 -1996 0
1777 1995 -1996 0
1777 -1995 1996 0
-1777 1995 1996 0
-1996 -1994 -1997 0
1996 1994 -1997 0
1996 -1994 1997 0
-1996 1994 1997 0
-1996 -1994 1998 0
1996 -1998 0
1994 -1998 0
-1777 -1995 1999 0
1777 -1999 0
1995 -1999 0
1998 1999 -2000 0
-1998 2000 0
-1999 2000 0
-154 -1883 2001 0
154 -2001 0
1883 -2001 0
-1783 -2001 -2002 0
1783 2001 -2002 0
1783 -2001 2002 0
-1783 2001 2002 0
-2002 -2000 -2003 0
2002 2000 -2003 0
2002 -2000 2003 0
-2002 2000 2003 0
-2002 -2000 2004 0
2002 -2004 0
2000 -2004 0
-1783 -2001 2005 0
1783 -2005 0
2001 -2005 0
2004 2005 -2006 0
-2004 2006 0
-2005 2006 0
-162 -1883 2007 0
162 -2007 0
1883 -2007 0
-1789 -2007 -2008 0
1789 2007 -2008 0
1789 -2007 2008 0
-1789 2007 2008 0
-2008 -2006 -2009 0
2008 2006 -2009 0
2008 -2006 2009 0
-2008 2006 2009 0
-2008 -2006 2010 0
2008 -2010 0
2006 -2010 0
-1789 -2007 2011 0
1789 -2011 0
2007 -2011 0
2010 2011 -2012 0
-2010 2012 0
-2011 2012 0
-170 -1883 2013 0
170 -2013 0
1883 -2013 0
-1795 -2013 -2014 0
1795 2013 -2014 0
1795 -2013 2014 0
-1795 2013 2014 0
-2014 -2012 -2015 0
2014 2012 -2015 0
2014 -2012 2015 0
-2014 2012 2015 0
-2014 -2012 2016 0
2014 -2016 0
2012 -2016 0
-1795 -2013 2017 0
1795 -2017 0
2013 -2017 0
2016 2017 -2018 0
-2016 2018 0
-2017 2018 0
-178 -1883 2019 0
178 -2019 0
1883 -2019 0
-1801 -2019 -2020 0
1801 2019 -2020 0
1801 -2019 2020 0
-1801 2019 2020 0
-2020 -2018 -2021 0
2020 2018 -2021 0
2020 -2018 2021 0
-2020 2018 2021 0
-2020 -2018 2022 0
2020 -2022 0
2018 -2022 0
-1801 -2019 2023 0
1801 -2023 0
2019 -2023 0
2022 2023 -2024 0
-2022 2024 0
-2023 2024 0
-186 -1883 2025 0
186 -2025 0
1883 -2025 0
-1807 -2025 -2026 0
1807 2025 -2026 0
1807 -2025 2026 0
-1807 2025 2026 0
-2026 -2024 -2027 0
2026 2024 -2027 0
2026 -2024 2027 0
-2026 2024 2027 0
-2026 -2024 2028 0
2026 -2028 0
2024 -2028 0
-1807 -2025 2029 0
1807 -2029 0
2025 -2029 0
2028 2029 -2030 0
-2028 2030 0
-2029 2030 0
-194 -1883 2031 0
194 -2031 0
1883 -2031 0
-1813 -2031 -2032 0
1813 2031 -2032 0
1813 -2031 2032 0
-1813 2031 2032 0
-2032 -2030 -2033 0
2032 2030 -2033 0
2032 -2030 2033 0
-2032 2030 2033 0
-2032 -2030 2034 0
2032 -2034 0
2030 -2034 0
-1813 -2031 2035 0
1813 -2035 0
2031 -2035 0
2034 2035 -2036 0
-2034 2036 0
-2035 2036 0
-202 -1883 2037 0
202 -2037 0
1883 -2037 0
-1819 -2037 -2038 0
1819 2037 -2038 0
1819 -2037 2038 0
-1819 2037 2038 0
-2038 -2036 -2039 0
2038 2036 -2039 0
2038 -2036 2039 0
-2038 2036 2039 0
-2038 -2036 2040 0
2038 -2040 0
2036 -2040 0
-1819 -2037 2041 0
1819 -2041 0
2037 -2041 0
2040 2041 -2042 0
-2040 2042 0
-2041 2042 0
-210 -1883 2043 0
210 -2043 0
1883 -2043 0
-1825 -2043 -2044 0
1825 2043 -2044 0
1825 -2043 2044 0
-1825 2043 2044 0
-2044 -2042 -2045 0
2044 2042 -2045 0
2044 -2042 2045 0
-2044 2042 2045 0
-2044 -2042 2046 0
2044 -2046 0
2042 -2046 0
-1825 -2043 2047 0
1825 -2047 0
2043 -2047 0
2046 2047 -2048 0
-2046 2048 0
-2047 2048 0
-218 -1883 2049 0
218 -2049 0
1883 -2049 0
-1831 -2049 -2050 0
1831 2049 -2050 0
1831 -2049 2050 0
-1831 2049 2050 0
-2050 -2048 -2051 0
2050 2048 -2051 0
2050 -2048 2051 0
-2050 2048 2051 0
-2050 -2048 2052 0
2050 -2052 0
2048 -2052 0
-1831 -2049 2053 0
1831 -2053 0
2049 -2053 0
2052 2053 -2054 0
-2052 2054 0
-2053 2054 0
-226 -1883 2055 0
226 -2055 0
1883 -2055 0
-1837 -2055 -2056 0
1837 2055 -2056 0
1837 -2055 2056 0
-1837 2055 2056 0
-2056 -2054 -2057 0
2056 2054 -2057 0
2056 -2054 2057 0
-2056 2054 2057 0
-2056 -2054 2058 0
2056 -2058 0
2054 -2058 0
-1837 -2055 2059 0
1837 -2059 0
2055 -2059 0
2058 2059 -2060 0
-2058 2060 0
-2059 2060 0
-234 -1883 2061 0
234 -2061 0
1883 -2061 0
-1843 -2061 -2062 0
1843 2061 -2062 0
1843 -2061 2062 0
-1843 2061 2062 0
-2062 -2060 -2063 0
2062 2060 -2063 0
2062 -2060 2063 0
-2062 2060 2063 0
-2062 -2060 2064 0
2062 -2064 0
2060 -2064 0
-1843 -2061 2065 0
1843 -2065 0
2061 -2065 0
2064 2065 -2066 0
-2064 2066 0
-2065 2066 0
-242 -1883 2067 0
242 -2067 0
1883 -2067 0
-1849 -2067 -2068 0
1849 2067 -2068 0
1849 -2067 2068 0
-1849 2067 2068 0
-2068 -2066 -2069 0
2068 2066 -2069 0
2068 -2066 2069 0
-2068 2066 2069 0
-2068 -2066 2070 0
2068 -2070 0
2066 -2070 0
-1849 -2067 2071 0
1849 -2071 0
2067 -2071 0
2070 2071 -2072 0
-2070 2072 0
-2071 2072 0
-250 -1883 2073 0
250 -2073 0
1883 -2073 0
-1855 -2073 -2074 0
1855 2073 -2074 0
1855 -2073 2074 0
-1855 2073 2074 0
-2074 -2072 -2075 0
2074 2072 -2075 0
2074 -2072 2075 0
-2074 2072 2075 0
-2074 -2072 2076 0
2074 -2076 0
2072 -2076 0
-1855 -2073 2077 0
1855 -2077 0
2073 -2077 0
2076 2077 -2078 0
-2076 2078 0
-2077 2078 0
-258 -1883 2079 0
258 -2079 0
1883 -2079 0
-1861 -2079 -2080 0
1861 2079 -2080 0
1861 -2079 2080 0
-1861 2079 2080 0
-2080 -2078 -2081 0
2080 2078 -2081 0
2080 -2078 2081 0
-2080 2078 2081 0
-2080 -2078 2082 0
2080 -2082 0
2078 -2082 0
-1861 -2079 2083 0
1861 -2083 0
2079 -2083 0
2082 2083 -2084 0
-2082 2084 0
-2083 2084 0
-266 -1883 2085 0
266 -2085 0
1883 -2085 0
-1867 -2085 -2086 0
1867 2085 -2086 0
1867 -2085 2086 0
-1867 2085 2086 0
-2086 -2084 -2087 0
2086 2084 -2087 0
2086 -2084 2087 0
-2086 2084 2087 0
-2086 -2084 2088 0
2086 -2088 0
2084 -2088 0
-1867 -2085 2089 0
1867 -2089 0
2085 -2089 0
2088 2089 -2090 0
-2088 2090 0
-2089 2090 0
-274 -1883 2091 0
274 -2091 0
1883 -2091 0
-1873 -2091 -2092 0
1873 2091 -2092 0
1873 -2091 2092 0
-1873 2091 2092 0
-2092 -2090 -2093 0
2092 2090 -2093 0
2092 -2090 2093 0
-2092 2090 2093 0
-2092 -2090 2094 0
2092 -2094 0
2090 -2094 0
-1873 -2091 2095 0
1873 -2095 0
2091 -2095 0
2094 2095 -2096 0
-2094 2096 0
-2095 2096 0
-282 -1883 2097 0
282 -2097 0
1883 -2097 0
-1879 -2097 -2098 0
1879 2097 -2098 0
1879 -2097 2098 0
-1879 2097 2098 0
-2098 -2096 -2099 0
2098 2096 -2099 0
2098 -2096 2099 0
-2098 2096 2099 0
-2098 -2096 2100 0
2098 -2100 0
2096 -2100 0
-1879 -2097 2101 0
1879 -2101 0
2097 -2101 0
2100 2101 -2102 0
-2100 2102 0
-2101 2102 0
-290 -1883 2103 0
290 -2103 0
1883 -2103 0
-1882 -2103 -2104 0
1882 2103 -2104 0
1882 -2103 2104 0
-1882 2103 2104 0
-2104 -2102 -2105 0
2104 2102 -2105 0
2104 -2102 2105 0
-2104 2102 2105 0
-2104 -2102 2106 0
2104 -2106 0
2102 -2106 0
-1882 -2103 2107 0
1882 -2107 0
2103 -2107 0
2106 2107 -2108 0
-2106 2108 0
-2107 2108 0
-1 -2109 2110 0
1 -2110 0
2109 -2110 0
-1889 -2110 -2111 0
1889 2110 -2111 0
1889 -2110 2111 0
-1889 2110 2111 0
-1889 -2110 2112 0
1889 -2112 0
2110 -2112 0
-4 -2109 2113 0
4 -2113 0
2109 -2113 0
-1895 -2113 -2114 0
1895 2113 -2114 0
1895 -2113 2114 0
-1895 2113 2114 0
-2114 -2112 -2115 0
2114 2112 -2115 0
2114 -2112 2115 0
-2114 2112 2115 0
-2114 -2112 2116 0
2114 -2116 0
2112 -2116 0
-1895 -2113 2117 0
1895 -2117 0
2113 -2117 0
2116 2117 -2118 0
-2116 2118 0
-2117 2118 0
-10 -2109 2119 0
10 -2119 0
2109 -2119 0
-1901 -2119 -2120 0
1901 2119 -2120 0
1901 -2119 2120 0
-1901 2119 2120 0
-2120 -2118 -2121 0
2120 2118 -2121 0
2120 -2118 2121 0
-2120 2118 2121 0
-2120 -2118 2122 0
2120 -2122 0
2118 -2122 0
-1901 -2119 2123 0
1901 -2123 0
2119 -2123 0
2122 2123 -2124 0
-2122 2124 0
-2123 2124 0
-18 -2109 2125 0
18 -2125 0
2109 -2125 0
-1907 -2125 -2126 0
1907 2125 -2126 0
1907 -2125 2126 0
-1907 2125 2126 0
-2126 -2124 -2127 0
2126 2124 -2127 0
2126 -2124 2127 0
-2126 2124 2127 0
-2126 -2124 2128 0
2126 -2128 0
2124 -2128 0
-1907 -2125 2129 0
1907 -2129 0
2125 -2129 0
2128 2129 -2130 0
-2128 2130 0
-2129 2130 0
-26 -2109 2131 0
26 -2131 0
2109 -2131 0
-1913 -2131 -2132 0
1913 2131 -2132 0
1913 -2131 2132 0
-1913 2131 2132 0
-2132 -2130 -2133 0
2132 2130 -2133 0
2132 -2130 2133 0
-2132 2130 2133 0
-2132 -2130 2134 0
2132 -2134 0
2130 -2134 0
-1913 -2131 2135 0
1913 -2135 0
2131 -2135 0
2134 2135 -2136 0
-2134 2136 0
-2135 2136 0
-34 -2109 2137 0
34 -2137 0
2109 -2137 0
-1919 -2137 -2138 0
1919 2137 -2138 0
1919 -2137 2138 0
-1919 2137 2138 0
-2138 -2136 -2139 0
2138 2136 -2139 0
2138 -2136 2139 0
-2138 2136 2139 0
-2138 -2136 2140 0
2138 -2140 0
2136 -2140 0
-1919 -2137 2141 0
1919 -2141 0
2137 -2141 0
2140 2141 -2142 0
-2140 2142 0
-2141 2142 0
-42 -2109 2143 0
42 -2143 0
2109 -2143 0
-1925 -2143 -2144 0
1925 2143 -2144 0
1925 -2143 2144 0
-1925 2143 2144 0
-2144 -2142 -2145 0
2144 2142 -2145 0
2144 -2142 2145 0
-2144 2142 2145 0
-2144 -2142 2146 0
2144 -2146 0
2142 -2146 0
-1925 -2143 2147 0
1925 -2147 0
2143 -2147 0
2146 2147 -2148 0
-2146 2148 0
-2147 2148 0
-50 -2109 2149 0
50 -2149 0
2109 -2149 0
-1931 -2149 -2150 0
1931 2149 -2150 0
1931 -2149 2150 0
-1931 2149 2150 0
-2150 -2148 -2151 0
2150 2148 -2151 0
2150 -2148 2151 0
-2150 2148 2151 0
-2150 -2148 2152 0
2150 -2152 0
2148 -2152 0
-1931 -2149 2153 0
1931 -2153 0
2149 -2153 0
2152 2153 -2154 0
-2152 2154 0
-2153 2154 0
-58 -2109 2155 0
58 -2155 0
2109 -2155 0
-1937 -2155 -2156 0
1937 2155 -2156 0
1937 -2155 2156 0
-1937 2155 2156 0
-2156 -2154 -2157 0
2156 2154 -2157 0
2156 -2154 2157 0
-2156 2154 2157 0
-2156 -2154 2158 0
2156 -2158 0
2154 -2158 0
-1937 -2155 2159 0
1937 -2159 0
2155 -2159 0
2158 2159 -2160 0
-2158 2160 0
-2159 2160 0
-66 -2109 2161 0
66 -2161 0
2109 -2161 0
-1943 -2161 -2162 0
1943 2161 -2162 0
1943 -2161 2162 0
-1943 2161 2162 0
-2162 -2160 -2163 0
2162 2160 -2163 0
2162 -2160 2163 0
-2162 2160 2163 0
-2162 -2160 2164 0
2162 -2164 0
2160 -2164 0
-1943 -2161 2165 0
1943 -2165 0
2161 -2165 0
2164 2165 -2166 0
-2164 2166 0
-2165 2166 0
-74 -2109 2167 0
74 -2167 0
2109 -2167 0
-1949 -2167 -2168 0
1949 2167 -2168 0
1949 -2167 2168 0
-1949 2167 2168 0
-2168 -2166 -2169 0
2168 2166 -2169 0
2168 -2166 2169 0
-2168 2166 2169 0
-2168 -2166 2170 0
2168 -2170 0
2166 -2170 0
-1949 -2167 2171 0
1949 -2171 0
2167 -2171 0
2170 2171 -2172 0
-2170 2172 0
-2171 2172 0
-82 -2109 2173 0
82 -2173 0
2109 -2173 0
-1955 -2173 -2174 0
1955 2173 -2174 0
1955 -2173 2174 0
-1955 2173 2174 0
-2174 -2172 -2175 0
2174 2172 -2175 0
2174 -2172 2175 0
-2174 2172 2175 0
-2174 -2172 2176 0
2174 -2176 0
2172 -2176 0
-1955 -2173 2177 0
1955 -2177 0
2173 -2177 0
2176 2177 -2178 0
-2176 2178 0
-2177 2178 0
-90 -2109 2179 0
90 -2179 0
2109 -2179 0
-1961 -2179 -2180 0
1961 2179 -2180 0
1961 -2179 2180 0
-1961 2179 2180 0
-2180 -2178 -2181 0
2180 2178 -2181 0
2180 -2178 2181 0
-2180 2178 2181 0
-2180 -2178 2182 0
2180 -2182 0
2178 -2182 0
-1961 -2179 2183 0
1961 -2183 0
2179 -2183 0
2182 2183 -2184 0
-2182 2184 0
-2183 2184 0
-98 -2109 2185 0
98 -2185 0
2109 -2185 0
-1967 -2185 -2186 0
1967 2185 -2186 0
1967 -2185 2186 0
-1967 2185 2186 0
-2186 -2184 -2187 0
2186 2184 -2187 0
2186 -2184 2187 0
-2186 2184 2187 0
-2186 -2184 2188 0
2186 -2188 0
2184 -2188 0
-1967 -2185 2189 0
1967 -2189 0
2185 -2189 0
2188 2189 -2190 0
-2188 2190 0
-2189 2190 0
-106 -2109 2191 0
106 -2191 0
2109 -2191 0
-1973 -2191 -2192 0
1973 2191 -2192 0
1973 -2191 2192 0
-1973 2191 2192 0
-2192 -2190 -2193 0
2192 2190 -2193 0
2192 -2190 2193 0
-2192 2190 2193 0
-2192 -2190 2194 0
2192 -2194 0
2190 -2194 0
-1973 -2191 2195 0
1973 -2195 0
2191 -2195 0
2194 2195 -2196 0
-2194 2196 0
-2195 2196 0
-114 -2109 2197 0
114 -2197 0
2109 -2197 0
-1979 -2197 -2198 0
1979 2197 -2198 0
1979 -2197 2198 0
-1979 2197 2198 0
-2198 -2196 -2199 0
2198 2196 -2199 0
2198 -2196 2199 0
-2198 2196 2199 0
-2198 -2196 2200 0
2198 -2200 0
2196 -2200 0
-1979 -2197 2201 0
1979 -2201 0
2197 -2201 0
2200 2201 -2202 0
-2200 2202 0
-2201 2202 0
-122 -2109 2203 0
122 -2203 0
2109 -2203 0
-1985 -2203 -2204 0
1985 2203 -2204 0
1985 -2203 2204 0
-1985 2203 2204 0
-2204 -2202 -2205 0
2204 2202 -2205 0
2204 -2202 2205 0
-2204 2202 2205 0
-2204 -2202 2206 0
2204 -2206 0
2202 -2206 0
-1985 -2203 2207 0
1985 -2207 0
2203 -2207 0
2206 2207 -2208 0
-2206 2208 0
-2207 2208 0
-130 -2109 2209 0
130 -2209 0
2109 -2209 0
-1991 -2209 -2210 0
1991 2209 -2210 0
1991 -2209 2210 0
-1991 2209 2210 0
-2210 -2208 -2211 0
2210 2208 -2211 0
2210 -2208 2211 0
-2210 2208 2211 0
-2210 -2208 2212 0
2210 -2212 0
2208 -2212 0
-1991 -2209 2213 0
1991 -2213 0
2209 -2213 0
2212 2213 -2214 0
-2212 2214 0
-2213 2214 0
-138 -2109 2215 0
138 -2215 0
2109 -2215 0
-1997 -2215 -2216 0
1997 2215 -2216 0
1997 -2215 2216 0
-1997 2215 2216 0
-2216 -2214 -2217 0
2216 2214 -2217 0
2216 -2214 2217 0
-2216 2214 2217 0
-2216 -2214 2218 0
2216 -2218 0
2214 -2218 0
-1997 -2215 2219 0
1997 -2219 0
2215 -2219 0
2218 2219 -2220 0
-2218 2220 0
-2219 2220 0
-146 -2109 2221 0
146 -2221 0
2109 -2221 0
-2003 -2221 -2222 0
2003 2221 -2222 0
2003 -2221 2222 0
-2003 2221 2222 0
-2222 -2220 -2223 0
2222 2220 -2223 0
2222 -2220 2223 0
-2222 2220 2223 0
-2222 -2220 2224 0
2222 -2224 0
2220 -2224 0
-2003 -2221 2225 0
2003 -2225 0
2221 -2225 0
2224 2225 -2226 0
-2224 2226 0
-2225 2226 0
-154 -2109 2227 0
154 -2227 0
2109 -2227 0
-2009 -2227 -2228 0
2009 2227 -2228 0
2009 -2227 2228 0
-2009 2227 2228 0
-2228 -2226 -2229 0
2228 2226 -2229 0
2228 -2226 2229 0
-2228 2226 2229 0
-2228 -2226 2230 0
2228 -2230 0
2226 -2230 0
-2009 -2227 2231 0
2009 -2231 0
2227 -2231 0
2230 2231 -2232 0
-2230 2232 0
-2231 2232 0
-162 -2109 2233 0
162 -2233 0
2109 -2233 0
-2015 -2233 -2234 0
2015 2233 -2234 0
2015 -2233 2234 0
-2015 2233 2234 0
-2234 -2232 -2235 0
2234 2232 -2235 0
2234 -2232 2235 0
-2234 2232 2235 0
-2234 -2232 2236 0
2234 -2236 0
2232 -2236 0
-2015 -2233 2237 0
2015 -2237 0
2233 -2237 0
2236 2237 -2238 0
-2236 2238 0
-2237 2238 0
-170 -2109 2239 0
170 -2239 0
2109 -2239 0
-2021 -2239 -2240 0
2021 2239 -2240 0
2021 -2239 2240 0
-2021 2239 2240 0
-2240 -2238 -2241 0
2240 2238 -2241 0
2240 -2238 2241 0
-2240 2238 2241 0
-2240 -2238 2242 0
2240 -2242 0
2238 -2242 0
-2021 -2239 2243 0
2021 -2243 0
2239 -2243 0
2242 2243 -2244 0
-2242 2244 0
-2243 2244 0
-178 -2109 2245 0
178 -2245 0
2109 -2245 0
-2027 -2245 -2246 0
2027 2245 -2246 0
2027 -2245 2246 0
-2027 2245 2246 0
-2246 -2244 -2247 0
2246 2244 -2247 0
2246 -2244 2247 0
-2246 2244 2247 0
-2246 -2244 2248 0
2246 -2248 0
2244 -2248 0
-2027 -2245 2249 0
2027 -2249 0
2245 -2249 0
2248 2249 -2250 0
-2248 2250 0
-2249 2250 0
-186 -2109 2251 0
186 -2251 0
2109 -2251 0
-2033 -2251 -2252 0
2033 2251 -2252 0
2033 -2251 2252 0
-2033 2251 2252 0
-2252 -2250 -2253 0
2252 2250 -2253 0
2252 -2250 2253 0
-2252 2250 2253 0
-2252 -2250 2254 0
2252 -2254 0
2250 -2254 0
-2033 -2251 2255 0
2033 -2255 0
2251 -2255 0
2254 2255 -2256 0
-2254 2256 0
-2255 2256 0
-194 -2109 2257 0
194 -2257 0
2109 -2257 0
-2039 -2257 -2258 0
2039 2257 -2258 0
2039 -2257 2258 0
-2039 2257 2258 0
-2258 -2256 -2259 0
2258 2256 -2259 0
2258 -2256 2259 0
-2258 2256 2259 0
-2258 -2256 2260 0
2258 -2260 0
2256 -2260 0
-2039 -2257 2261 0
2039 -2261 0
2257 -2261 0
2260 2261 -2262 0
-2260 2262 0
-2261 2262 0
-202 -2109 2263 0
202 -2263 0
2109 -2263 0
-2045 -2263 -2264 0
2045 2263 -2264 0
2045 -2263 2264 0
-2045 2263 2264 0
-2264 -2262 -2265 0
2264 2262 -2265 0
2264 -2262 2265 0
-2264 2262 2265 0
-2264 -2262 2266 0
2264 -2266 0
2262 -2266 0
-2045 -2263 2267 0
2045 -2267 0
2263 -2267 0
2266 2267 -2268 0
-2266 2268 0
-2267 2268 0
-210 -2109 2269 0
210 -2269 0
2109 -2269 0
-2051 -2269 -2270 0
2051 2269 -2270 0
2051 -2269 2270 0
-2051 2269 2270 0
-2270 -2268 -2271 0
2270 2268 -2271 0
2270 -2268 2271 0
-2270 2268 2271 0
-2270 -2268 2272 0
2270 -2272 0
2268 -2272 0
-2051 -2269 2273 0
2051 -2273 0
2269 -2273 0
2272 2273 -2274 0
-2272 2274 0
-2273 2274 0
-218 -2109 2275 0
218 -2275 0
2109 -2275 0
-2057 -2275 -2276 0
2057 2275 -2276 0
2057 -2275 2276 0
-2057 2275 2276 0
-2276 -2274 -2277 0
2276 2274 -2277 0
2276 -2274 2277 0
-2276 2274 2277 0
-2276 -2274 2278 0
2276 -2278 0
2274 -2278 0
-2057 -2275 2279 0
2057 -2279 0
2275 -2279 0
2278 2279 -2280 0
-2278 2280 0
-2279 2280 0
-226 -2109 2281 0
226 -2281 0
2109 -2281 0
-2063 -2281 -2282 0
2063 2281 -2282 0
2063 -2281 2282 0
-2063 2281 2282 0
-2282 -2280 -2283 0
2282 2280 -2283 0
2282 -2280 2283 0
-2282 2280 2283 0
-2282 -2280 2284 0
2282 -2284 0
2280 -2284 0
-2063 -2281 2285 0
2063 -2285 0
2281 -2285 0
2284 2285 -2286 0
-2284 2286 0
-2285 2286 0
-234 -2109 2287 0
234 -2287 0
2109 -2287 0
-2069 -2287 -2288 0
2069 2287 -2288 0
2069 -2287 2288 0
-2069 2287 2288 0
-2288 -2286 -2289 0
2288 2286 -2289 0
2288 -2286 2289 0
-2288 2286 2289 0
-2288 -2286 2290 0
2288 -2290 0
2286 -2290 0
-2069 -2287 2291 0
2069 -2291 0
2287 -2291 0
2290 2291 -2292 0
-2290 2292 0
-2291 2292 0
-242 -2109 2293 0
242 -2293 0
2109 -2293 0
-2075 -2293 -2294 0
2075 2293 -2294 0
2075 -2293 2294 0
-2075 2293 2294 0
-2294 -2292 -2295 0
2294 2292 -2295 0
2294 -2292 2295 0
-2294 2292 2295 0
-2294 -2292 2296 0
2294 -2296 0
2292 -2296 0
-2075 -2293 2297 0
2075 -2297 0
2293 -2297 0
2296 2297 -2298 0
-2296 2298 0
-2297 2298 0
-250 -2109 2299 0
250 -2299 0
2109 -2299 0
-2081 -2299 -2300 0
2081 2299 -2300 0
2081 -2299 2300 0
-2081 2299 2300 0
-2300 -2298 -2301 0
2300 2298 -2301 0
2300 -2298 2301 0
-2300 2298 2301 0
-2300 -2298 2302 0
2300 -2302 0
2298 -2302 0
-2081 -2299 2303 0
2081 -2303 0
2299 -2303 0
2302 2303 -2304 0
-2302 2304 0
-2303 2304 0
-258 -2109 2305 0
258 -2305 0
2109 -2305 0
-2087 -2305 -2306 0
2087 2305 -2306 0
2087 -2305 2306 0
-2087 2305 2306 0
-2306 -2304 -2307 0
2306 2304 -2307 0
2306 -2304 2307 0
-2306 2304 2307 0
-2306 -2304 2308 0
2306 -2308 0
2304 -2308 0
-2087 -2305 2309 0
2087 -2309 0
2305 -2309 0
2308 2309 -2310 0
-2308 2310 0
-2309 2310 0
-266 -2109 2311 0
266 -2311 0
2109 -2311 0
-2093 -2311 -2312 0
2093 2311 -2312 0
2093 -2311 2312 0
-2093 2311 2312 0
-2312 -2310 -2313 0
2312 2310 -2313 0
2312 -2310 2313 0
-2312 2310 2313 0
-2312 -2310 2314 0
2312 -2314 0
2310 -2314 0
-2093 -2311 2315 0
2093 -2315 0
2311 -2315 0
2314 2315 -2316 0
-2314 2316 0
-2315 2316 0
-274 -2109 2317 0
274 -2317 0
2109 -2317 0
-2099 -2317 -2318 0
2099 2317 -2318 0
2099 -2317 2318 0
-2099 2317 2318 0
-2318 -2316 -2319 0
2318 2316 -2319 0
2318 -2316 2319 0
-2318 2316 2319 0
-2318 -2316 2320 0
2318 -2320 0
2316 -2320 0
-2099 -2317 2321 0
2099 -2321 0
2317 -2321 0
2320 2321 -2322 0
-2320 2322 0
-2321 2322 0
-282 -2109 2323 0
282 -2323 0
2109 -2323 0
-2105 -2323 -2324 0
2105 2323 -2324 0
2105 -2323 2324 0
-2105 2323 2324 0
-2324 -2322 -2325 0
2324 2322 -2325 0
2324 -2322 2325 0
-2324 2322 2325 0
-2324 -2322 2326 0
2324 -2326 0
2322 -2326 0
-2105 -2323 2327 0
2105 -2327 0
2323 -2327 0
2326 2327 -2328 0
-2326 2328 0
-2327 2328 0
-290 -2109 2329 0
290 -2329 0
2109 -2329 0
-2108 -2329 -2330 0
2108 2329 -2330 0
2108 -2329 2330 0
-2108 2329 2330 0
-2330 -2328 -2331 0
2330 2328 -2331 0
2330 -2328 2331 0
-2330 2328 2331 0
-2330 -2328 2332 0
2330 -2332 0
2328 -2332 0
-2108 -2329 2333 0
2108 -2333 0
2329 -2333 0
2332 2333 -2334 0
-2332 2334 0
-2333 2334 0
-1 -2335 2336 0
1 -2336 0
2335 -2336 0
-2115 -2336 -2337 0
2115 2336 -2337 0
2115 -2336 2337 0
-2115 2336 2337 0
-2115 -2336 2338 0
2115 -2338 0
2336 -2338 0
-4 -2335 2339 0
4 -2339 0
2335 -2339 0
-2121 -2339 -2340 0
2121 2339 -2340 0
2121 -2339 2340 0
-2121 2339 2340 0
-2340 -2338 -2341 0
2340 2338 -2341 0
2340 -2338 2341 0
-2340 2338 2341 0
-2340 -2338 2342 0
2340 -2342 0
2338 -2342 0
-2121 -2339 2343 0
2121 -2343 0
2339 -2343 0
2342 2343 -2344 0
-2342 2344 0
-2343 2344 0
-10 -2335 2345 0
10 -2345 0
2335 -2345 0
-2127 -2345 -2346 0
2127 2345 -2346 0
2127 -2345 2346 0
-2127 2345 2346 0
-2346 -2344 -2347 0
2346 2344 -2347 0
2346 -2344 2347 0
-2346 2344 2347 0
-2346 -2344 2348 0
2346 -2348 0
2344 -2348 0
-2127 -2345 2349 0
2127 -2349 0
2345 -2349 0
2348 2349 -2350 0
-2348 2350 0
-2349 2350 0
-18 -2335 2351 0
18 -2351 0
2335 -2351 0
-2133 -2351 -2352 0
2133 2351 -2352 0
2133 -2351 2352 0
-2133 2351 2352 0
-2352 -2350 -2353 0
2352 2350 -2353 0
2352 -2350 2353 0
-2352 2350 2353 0
-2352 -2350 2354 0
2352 -2354 0
2350 -2354 0
-2133 -2351 2355 0
2133 -2355 0
2351 -2355 0
2354 2355 -2356 0
-2354 2356 0
-2355 2356 0
-26 -2335 2357 0
26 -2357 0
2335 -2357 0
-2139 -2357 -2358 0
2139 2357 -2358 0
2139 -2357 2358 0
-2139 2357 2358 0
-2358 -2356 -2359 0
2358 2356 -2359 0
2358 -2356 2359 0
-2358 2356 2359 0
-2358 -2356 2360 0
2358 -2360 0
2356 -2360 0
-2139 -2357 2361 0
2139 -2361 0
2357 -2361 0
2360 2361 -2362 0
-2360 2362 0
-2361 2362 0
-34 -2335 2363 0
34 -2363 0
2335 -2363 0
-2145 -2363 -2364 0
2145 2363 -2364 0
2145 -2363 2364 0
-2145 2363 2364 0
-2364 -2362 -2365 0
2364 2362 -2365 0
2364 -2362 2365 0
-2364 2362 2365 0
-2364 -2362 2366 0
2364 -2366 0
2362 -2366 0
-2145 -2363 2367 0
2145 -2367 0
2363 -2367 0
2366 2367 -2368 0
-2366 2368 0
-2367 2368 0
-42 -2335 2369 0
42 -2369 0
2335 -2369 0
-2151 -2369 -2370 0
2151 2369 -2370 0
2151 -2369 2370 0
-2151 2369 2370 0
-2370 -2368 -2371 0
2370 2368 -2371 0
2370 -2368 2371 0
-2370 2368 2371 0
-2370 -2368 2372 0
2370 -2372 0
2368 -2372 0
-2151 -2369 2373 0
2151 -2373 0
2369 -2373 0
2372 2373 -2374 0
-2372 2374 0
-2373 2374 0
-50 -2335 2375 0
50 -2375 0
2335 -2375 0
-2157 -2375 -2376 0
2157 2375 -2376 0
2157 -2375 2376 0
-2157 2375 2376 0
-2376 -2374 -2377 0
2376 2374 -2377 0
2376 -2374 2377 0
-2376 2374 2377 0
-2376 -2374 2378 0
2376 -2378 0
2374 -2378 0
-2157 -2375 2379 0
2157 -2379 0
2375 -2379 0
2378 2379 -2380 0
-2378 2380 0
-2379 2380 0
-58 -2335 2381 0
58 -2381 0
2335 -2381 0
-2163 -2381 -2382 0
2163 2381 -2382 0
2163 -2381 2382 0
-2163 2381 2382 0
-2382 -2380 -2383 0
2382 2380 -2383 0
2382 -2380 2383 0
-2382 2380 2383 0
-2382 -2380 2384 0
2382 -2384 0
2380 -2384 0
-2163 -2381 2385 0
2163 -2385 0
2381 -2385 0
2384 2385 -2386 0
-2384 2386 0
-2385 2386 0
-66 -2335 2387 0
66 -2387 0
2335 -2387 0
-2169 -2387 -2388 0
2169 2387 -2388 0
2169 -2387 2388 0
-2169 2387 2388 0
-2388 -2386 -2389 0
2388 2386 -2389 0
2388 -2386 2389 0
-2388 2386 2389 0
-2388 -2386 2390 0
2388 -2390 0
2386 -2390 0
-2169 -2387 2391 0
2169 -2391 0
2387 -2391 0
2390 2391 -2392 0
-2390 2392 0
-2391 2392 0
-74 -2335 2393 0
74 -2393 0
2335 -2393 0
-2175 -2393 -2394 0
2175 2393 -2394 0
2175 -2393 2394 0
-2175 2393 2394 0
-2394 -2392 -2395 0
2394 2392 -2395 0
2394 -2392 2395 0
-2394 2392 2395 0
-2394 -2392 2396 0
2394 -2396 0
2392 -2396 0
-2175 -2393 2397 0
2175 -2397 0
2393 -2397 0
2396 2397 -2398 0
-2396 2398 0
-2397 2398 0
-82 -2335 2399 0
82 -2399 0
2335 -2399 0
-2181 -2399 -2400 0
2181 2399 -2400 0
2181 -2399 2400 0
-2181 2399 2400 0
-2400 -2398 -2401 0
2400 2398 -2401 0
2400 -2398 2401 0
-2400 2398 2401 0
-2400 -2398 2402 0
2400 -2402 0
2398 -2402 0
-2181 -2399 2403 0
2181 -2403 0
2399 -2403 0
2402 2403 -2404 0
-2402 2404 0
-2403 2404 0
-90 -2335 2405 0
90 -2405 0
2335 -2405 0
-2187 -2405 -2406 0
2187 2405 -2406 0
2187 -2405 2406 0
-2187 2405 2406 0
-2406 -2404 -2407 0
2406 2404 -2407 0
2406 -2404 2407 0
-2406 2404 2407 0
-2406 -2404 2408 0
2406 -2408 0
2404 -2408 0
-2187 -2405 2409 0
2187 -2409 0
2405 -2409 0
2408 2409 -2410 0
-2408 2410 0
-2409 2410 0
-98 -2335 2411 0
98 -2411 0
2335 -2411 0
-2193 -2411 -2412 0
2193 2411 -2412 0
2193 -2411 2412 0
-2193 2411 2412 0
-2412 -2410 -2413 0
2412 2410 -2413 0
2412 -2410 2413 0
-2412 2410 2413 0
-2412 -2410 2414 0
2412 -2414 0
2410 -2414 0
-2193 -2411 2415 0
2193 -2415 0
2411 -2415 0
2414 2415 -2416 0
-2414 2416 0
-2415 2416 0
-106 -2335 2417 0
106 -2417 0
2335 -2417 0
-2199 -2417 -2418 0
2199 2417 -2418 0
2199 -2417 2418 0
-2199 2417 2418 0
-2418 -2416 -2419 0
2418 2416 -2419 0
2418 -2416 2419 0
-2418 2416 2419 0
-2418 -2416 2420 0
2418 -2420 0
2416 -2420 0
-2199 -2417 2421 0
2199 -2421 0
2417 -2421 0
2420 2421 -2422 0
-2420 2422 0
-2421 2422 0
-114 -2335 2423 0
114 -2423 0
2335 -2423 0
-2205 -2423 -2424 0
2205 2423 -2424 0
2205 -2423 2424 0
-2205 2423 2424 0
-2424 -2422 -2425 0
2424 2422 -2425 0
2424 -2422 2425 0
-2424 2422 2425 0
-2424 -2422 2426 0
2424 -2426 0
2422 -2426 0
-2205 -2423 2427 0
2205 -2427 0
2423 -2427 0
2426 2427 -2428 0
-2426 2428 0
-2427 2428 0
-122 -2335 2429 0
122 -2429 0
2335 -2429 0
-2211 -2429 -2430 0
2211 2429 -2430 0
2211 -2429 2430 0
-2211 2429 2430 0
-2430 -2428 -2431 0
2430 2428 -2431 0
2430 -2428 2431 0
-2430 2428 2431 0
-2430 -2428 2432 0
2430 -2432 0
2428 -2432 0
-2211 -2429 2433 0
2211 -2433 0
2429 -2433 0
2432 2433 -2434 0
-2432 2434 0
-2433 2434 0
-130 -2335 2435 0
130 -2435 0
2335 -2435 0
-2217 -2435 -2436 0
2217 2435 -2436 0
2217 -2435 2436 0
-2217 2435 2436 0
-2436 -2434 -2437 0
2436 2434 -2437 0
2436 -2434 2437 0
-2436 2434 2437 0
-2436 -2434 2438 0
2436 -2438 0
2434 -2438 0
-2217 -2435 2439 0
2217 -2439 0
2435 -2439 0
2438 2439 -2440 0
-2438 2440 0
-2439 2440 0
-138 -2335 2441 0
138 -2441 0
2335 -2441 0
-2223 -2441 -2442 0
2223 2441 -2442 0
2223 -2441 2442 0
-2223 2441 2442 0
-2442 -2440 -2443 0
2442 2440 -2443 0
2442 -2440 2443 0
-2442 2440 2443 0
-2442 -2440 2444 0
2442 -2444 0
2440 -2444 0
-2223 -2441 2445 0
2223 -2445 0
2441 -2445 0
2444 2445 -2446 0
-2444 2446 0
-2445 2446 0
-146 -2335 2447 0
146 -2447 0
2335 -2447 0
-2229 -2447 -2448 0
2229 2447 -2448 0
2229 -2447 2448 0
-2229 2447 2448 0
-2448 -2446 -2449 0
2448 2446 -2449 0
2448 -2446 2449 0
-2448 2446 2449 0
-2448 -2446 2450 0
2448 -2450 0
2446 -2450 0
-2229 -2447 2451 0
2229 -2451 0
2447 -2451 0
2450 2451 -2452 0
-2450 2452 0
-2451 2452 0
-154 -2335 2453 0
154 -2453 0
2335 -2453 0
-2235 -2453 -2454 0
2235 2453 -2454 0
2235 -2453 2454 0
-2235 2453 2454 0
-2454 -2452 -2455 0
2454 2452 -2455 0
2454 -2452 2455 0
-2454 2452 2455 0
-2454 -2452 2456 0
2454 -2456 0
2452 -2456 0
-2235 -2453 2457 0
2235 -2457 0
2453 -2457 0
2456 2457 -2458 0
-2456 2458 0
-2457 2458 0
-162 -2335 2459 0
162 -2459 0
2335 -2459 0
-2241 -2459 -2460 0
2241 2459 -2460 0
2241 -2459 2460 0
-2241 2459 2460 0
-2460 -2458 -2461 0
2460 2458 -2461 0
2460 -2458 2461 0
-2460 2458 2461 0
-2460 -2458 2462 0
2460 -2462 0
2458 -2462 0
-2241 -2459 2463 0
2241 -2463 0
2459 -2463 0
2462 2463 -2464 0
-2462 2464 0
-2463 2464 0
-170 -2335 2465 0
170 -2465 0
2335 -2465 0
-2247 -2465 -2466 0
2247 2465 -2466 0
2247 -2465 2466 0
-2247 2465 2466 0
-2466 -2464 -2467 0
2466 2464 -2467 0
2466 -2464 2467 0
-2466 2464 2467 0
-2466 -2464 2468 0
2466 -2468 0
2464 -2468 0
-2247 -2465 2469 0
2247 -2469 0
2465 -2469 0
2468 2469 -2470 0
-2468 2470 0
-2469 2470 0
-178 -2335 2471 0
178 -2471 0
2335 -2471 0
-2253 -2471 -2472 0
2253 2471 -2472 0
2253 -2471 2472 0
-2253 2471 2472 0
-2472 -2470 -2473 0
2472 2470 -2473 0
2472 -2470 2473 0
-2472 2470 2473 0
-2472 -2470 2474 0
2472 -2474 0
2470 -2474 0
-2253 -2471 2475 0
2253 -2475 0
2471 -2475 0
2474 2475 -2476 0
-2474 2476 0
-2475 2476 0
-186 -2335 2477 0
186 -2477 0
2335 -2477 0
-2259 -2477 -2478 0
2259 2477 -2478 0
2259 -2477 2478 0
-2259 2477 2478 0
-2478 -2476 -2479 0
2478 2476 -2479 0
2478 -2476 2479 0
-2478 2476 2479 0
-2478 -2476 2480 0
2478 -2480 0
2476 -2480 0
-2259 -2477 2481 0
2259 -2481 0
2477 -2481 0
2480 2481 -2482 0
-2480 2482 0
-2481 2482 0
-194 -2335 2483 0
194 -2483 0
2335 -2483 0
-2265 -2483 -2484 0
2265 2483 -2484 0
2265 -2483 2484 0
-2265 2483 2484 0
-2484 -2482 -2485 0
2484 2482 -2485 0
2484 -2482 2485 0
-2484 2482 2485 0
-2484 -2482 2486 0
2484 -2486 0
2482 -2486 0
-2265 -2483 2487 0
2265 -2487 0
2483 -2487 0
2486 2487 -2488 0
-2486 2488 0
-2487 2488 0
-202 -2335 2489 0
202 -2489 0
2335 -2489 0
-2271 -2489 -2490 0
2271 2489 -2490 0
2271 -2489 2490 0
-2271 2489 2490 0
-2490 -2488 -2491 0
2490 2488 -2491 0
2490 -2488 2491 0
-2490 2488 2491 0
-2490 -2488 2492 0
2490 -2492 0
2488 -2492 0
-2271 -2489 2493 0
2271 -2493 0
2489 -2493 0
2492 2493 -2494 0
-2492 2494 0
-2493 2494 0
-210 -2335 2495 0
210 -2495 0
2335 -2495 0
-2277 -2495 -2496 0
2277 2495 -2496 0
2277 -2495 2496 0
-2277 2495 2496 0
-2496 -2494 -2497 0
2496 2494 -2497 0
2496 -2494 2497 0
-2496 2494 2497 0
-2496 -2494 2498 0
2496 -2498 0
2494 -2498 0
-2277 -2495 2499 0
2277 -2499 0
2495 -2499 0
2498 2499 -2500 0
-2498 2500 0
-2499 2500 0
-218 -2335 2501 0
218 -2501 0
2335 -2501 0
-2283 -2501 -2502 0
2283 2501 -2502 0
2283 -2501 2502 0
-2283 2501 2502 0
-2502 -2500 -2503 0
2502 2500 -2503 0
2502 -2500 2503 0
-2502 2500 2503 0
-2502 -2500 2504 0
2502 -2504 0
2500 -2504 0
-2283 -2501 2505 0
2283 -2505 0
2501 -2505 0
2504 2505 -2506 0
-2504 2506 0
-2505 2506 0
-226 -2335 2507 0
226 -2507 0
2335 -2507 0
-2289 -2507 -2508 0
2289 2507 -2508 0
2289 -2507 2508 0
-2289 2507 2508 0
-2508 -2506 -2509 0
2508 2506 -2509 0
2508 -2506 2509 0
-2508 2506 2509 0
-2508 -2506 2510 0
2508 -2510 0
2506 -2510 0
-2289 -2507 2511 0
2289 -2511 0
2507 -2511 0
2510 2511 -2512 0
-2510 2512 0
-2511 2512 0
-234 -2335 2513 0
234 -2513 0
2335 -2513 0
-2295 -2513 -2514 0
2295 2513 -2514 0
2295 -2513 2514 0
-2295 2513 2514 0
-2514 -2512 -2515 0
2514 2512 -2515 0
2514 -2512 2515 0
-2514 2512 2515 0
-2514 -2512 2516 0
2514 -2516 0
2512 -2516 0
-2295 -2513 2517 0
2295 -2517 0
2513 -2517 0
2516 2517 -2518 0
-2516 2518 0
-2517 2518 0
-242 -2335 2519 0
242 -2519 0
2335 -2519 0
-2301 -2519 -2520 0
2301 2519 -2520 0
2301 -2519 2520 0
-2301 2519 2520 0
-2520 -2518 -2521 0
2520 2518 -2521 0
2520 -2518 2521 0
-2520 2518 2521 0
-2520 -2518 2522 0
2520 -2522 0
2518 -2522 0
-2301 -2519 2523 0
2301 -2523 0
2519 -2523 0
2522 2523 -2524 0
-2522 2524 0
-2523 2524 0
-250 -2335 2525 0
250 -2525 0
2335 -2525 0
-2307 -2525 -2526 0
2307 2525 -2526 0
2307 -2525 2526 0
-2307 2525 2526 0
-2526 -2524 -2527 0
2526 2524 -2527 0
2526 -2524 2527 0
-2526 2524 2527 0
-2526 -2524 2528 0
2526 -2528 0
2524 -2528 0
-2307 -2525 2529 0
2307 -2529 0
2525 -2529 0
2528 2529 -2530 0
-2528 2530 0
-2529 2530 0
-258 -2335 2531 0
258 -2531 0
2335 -2531 0
-2313 -2531 -2532 0
2313 2531 -2532 0
2313 -2531 2532 0
-2313 2531 2532 0
-2532 -2530 -2533 0
2532 2530 -2533 0
2532 -2530 2533 0
-2532 2530 2533 0
-2532 -2530 2534 0
2532 -2534 0
2530 -2534 0
-2313 -2531 2535 0
2313 -2535 0
2531 -2535 0
2534 2535 -2536 0
-2534 2536 0
-2535 2536 0
-266 -2335 2537 0
266 -2537 0
2335 -2537 0
-2319 -2537 -2538 0
2319 2537 -2538 0
2319 -2537 2538 0
-2319 2537 2538 0
-2538 -2536 -2539 0
2538 2536 -2539 0
2538 -2536 2539 0
-2538 2536 2539 0
-2538 -2536 2540 0
2538 -2540 0
2536 -2540 0
-2319 -2537 2541 0
2319 -2541 0
2537 -2541 0
2540 2541 -2542 0
-2540 2542 0
-2541 2542 0
-274 -2335 2543 0
274 -2543 0
2335 -2543 0
-2325 -2543 -2544 0
2325 2543 -2544 0
2325 -2543 2544 0
-2325 2543 2544 0
-2544 -2542 -2545 0
2544 2542 -2545 0
2544 -2542 2545 0
-2544 2542 2545 0
-2544 -2542 2546 0
2544 -2546 0
2542 -2546 0
-2325 -2543 2547 0
2325 -2547 0
2543 -2547 0
2546 2547 -2548 0
-2546 2548 0
-2547 2548 0
-282 -2335 2549 0
282 -2549 0
2335 -2549 0
-2331 -2549 -2550 0
2331 2549 -2550 0
2331 -2549 2550 0
-2331 2549 2550 0
-2550 -2548 -2551 0
2550 2548 -2551 0
2550 -2548 2551 0
-2550 2548 2551 0
-2550 -2548 2552 0
2550 -2552 0
2548 -2552 0
-2331 -2549 2553 0
2331 -2553 0
2549 -2553 0
2552 2553 -2554 0
-2552 2554 0
-2553 2554 0
-290 -2335 2555 0
290 -2555 0
2335 -2555 0
-2334 -2555 -2556 0
2334 2555 -2556 0
2334 -2555 2556 0
-2334 2555 2556 0
-2556 -2554 -2557 0
2556 2554 -2557 0
2556 -2554 2557 0
-2556 2554 2557 0
-2556 -2554 2558 0
2556 -2558 0
2554 -2558 0
-2334 -2555 2559 0
2334 -2559 0
2555 -2559 0
2558 2559 -2560 0
-2558 2560 0
-2559 2560 0
-1 -2561 2562 0
1 -2562 0
2561 -2562 0
-2341 -2562 -2563 0
2341 2562 -2563 0
2341 -2562 2563 0
-2341 2562 2563 0
-2341 -2562 2564 0
2341 -2564 0
2562 -2564 0
-4 -2561 2565 0
4 -2565 0
2561 -2565 0
-2347 -2565 -2566 0
2347 2565 -2566 0
2347 -2565 2566 0
-2347 2565 2566 0
-2566 -2564 -2567 0
2566 2564 -2567 0
2566 -2564 2567 0
-2566 2564 2567 0
-2566 -2564 2568 0
2566 -2568 0
2564 -2568 0
-2347 -2565 2569 0
2347 -2569 0
2565 -2569 0
2568 2569 -2570 0
-2568 2570 0
-2569 2570 0
-10 -2561 2571 0
10 -2571 0
2561 -2571 0
-2353 -2571 -2572 0
2353 2571 -2572 0
2353 -2571 2572 0
-2353 2571 2572 0
-2572 -2570 -2573 0
2572 2570 -2573 0
2572 -2570 2573 0
-2572 2570 2573 0
-2572 -2570 2574 0
2572 -2574 0
2570 -2574 0
-2353 -2571 2575 0
2353 -2575 0
2571 -2575 0
2574 2575 -2576 0
-2574 2576 0
-2575 2576 0
-18 -2561 2577 0
18 -2577 0
2561 -2577 0
-2359 -2577 -2578 0
2359 2577 -2578 0
2359 -2577 2578 0
-2359 2577 2578 0
-2578 -2576 -2579 0
2578 2576 -2579 0
2578 -2576 2579 0
-2578 2576 2579 0
-2578 -2576 2580 0
2578 -2580 0
2576 -2580 0
-2359 -2577 2581 0
2359 -2581 0
2577 -2581 0
2580 2581 -2582 0
-2580 2582 0
-2581 2582 0
-26 -2561 2583 0
26 -2583 0
2561 -2583 0
-2365 -2583 -2584 0
2365 2583 -2584 0
2365 -2583 2584 0
-2365 2583 2584 0
-2584 -2582 -2585 0
2584 2582 -2585 0
2584 -2582 2585 0
-2584 2582 2585 0
-2584 -2582 2586 0
2584 -2586 0
2582 -2586 0
-2365 -2583 2587 0
2365 -2587 0
2583 -2587 0
2586 2587 -2588 0
-2586 2588 0
-2587 2588 0
-34 -2561 2589 0
34 -2589 0
2561 -2589 0
-2371 -2589 -2590 0
2371 2589 -2590 0
2371 -2589 2590 0
-2371 2589 2590 0
-2590 -2588 -2591 0
2590 2588 -2591 0
2590 -2588 2591 0
-2590 2588 2591 0
-2590 -2588 2592 0
2590 -2592 0
2588 -2592 0
-2371 -2589 2593 0
2371 -2593 0
2589 -2593 0
2592 2593 -2594 0
-2592 2594 0
-2593 2594 0
-42 -2561 2595 0
42 -2595 0
2561 -2595 0
-2377 -2595 -2596 0
2377 2595 -2596 0
2377 -2595 2596 0
-2377 2595 2596 0
-2596 -2594 -2597 0
2596 2594 -2597 0
2596 -2594 2597 0
-2596 2594 2597 0
-2596 -2594 2598 0
2596 -2598 0
2594 -2598 0
-2377 -2595 2599 0
2377 -2599 0
2595 -2599 0
2598 2599 -2600 0
-2598 2600 0
-2599 2600 0
-50 -2561 2601 0
50 -2601 0
2561 -2601 0
-2383 -2601 -2602 0
2383 2601 -2602 0
2383 -2601 2602 0
-2383 2601 2602 0
-2602 -2600 -2603 0
2602 2600 -2603 0
2602 -2600 2603 0
-2602 2600 2603 0
-2602 -2600 2604 0
2602 -2604 0
2600 -2604 0
-2383 -2601 2605 0
2383 -2605 0
2601 -2605 0
2604 2605 -2606 0
-2604 2606 0
-2605 2606 0
-58 -2561 2607 0
58 -2607 0
2561 -2607 0
-2389 -2607 -2608 0
2389 2607 -2608 0
2389 -2607 2608 0
-2389 2607 2608 0
-2608 -2606 -2609 0
2608 2606 -2609 0
2608 -2606 2609 0
-2608 2606 2609 0
-2608 -2606 2610 0
2608 -2610 0
2606 -2610 0
-2389 -2607 2611 0
2389 -2611 0
2607 -2611 0
2610 2611 -2612 0
-2610 2612 0
-2611 2612 0
-66 -2561 2613 0
66 -2613 0
2561 -2613 0
-2395 -2613 -2614 0
2395 2613 -2614 0
2395 -2613 2614 0
-2395 2613 2614 0
-2614 -2612 -2615 0
2614 2612 -2615 0
2614 -2612 2615 0
-2614 2612 2615 0
-2614 -2612 2616 0
2614 -2616 0
2612 -2616 0
-2395 -2613 2617 0
2395 -2617 0
2613 -2617 0
2616 2617 -2618 0
-2616 2618 0
-2617 2618 0
-74 -2561 2619 0
74 -2619 0
2561 -2619 0
-2401 -2619 -2620 0
2401 2619 -2620 0
2401 -2619 2620 0
-2401 2619 2620 0
-2620 -2618 -2621 0
2620 2618 -2621 0
2620 -2618 2621 0
-2620 2618 2621 0
-2620 -2618 2622 0
2620 -2622 0
2618 -2622 0
-2401 -2619 2623 0
2401 -2623 0
2619 -2623 0
2622 2623 -2624 0
-2622 2624 0
-2623 2624 0
-82 -2561 2625 0
82 -2625 0
2561 -2625 0
-2407 -2625 -2626 0
2407 2625 -2626 0
2407 -2625 2626 0
-2407 2625 2626 0
-2626 -2624 -2627 0
2626 2624 -2627 0
2626 -2624 2627 0
-2626 2624 2627 0
-2626 -2624 2628 0
2626 -2628 0
2624 -2628 0
-2407 -2625 2629 0
2407 -2629 0
2625 -2629 0
2628 2629 -2630 0
-2628 2630 0
-2629 2630 0
-90 -2561 2631 0
90 -2631 0
2561 -2631 0
-2413 -2631 -2632 0
2413 2631 -2632 0
2413 -2631 2632 0
-2413 2631 2632 0
-2632 -2630 -2633 0
2632 2630 -2633 0
2632 -2630 2633 0
-2632 2630 2633 0
-2632 -2630 2634 0
2632 -2634 0
2630 -2634 0
-2413 -2631 2635 0
2413 -2635 0
2631 -2635 0
2634 2635 -2636 0
-2634 2636 0
-2635 2636 0
-98 -2561 2637 0
98 -2637 0
2561 -2637 0
-2419 -2637 -2638 0
2419 2637 -2638 0
2419 -2637 2638 0
-2419 2637 2638 0
-2638 -2636 -2639 0
2638 2636 -2639 0
2638 -2636 2639 0
-2638 2636 2639 0
-2638 -2636 2640 0
2638 -2640 0
2636 -2640 0
-2419 -2637 2641 0
2419 -2641 0
2637 -2641 0
2640 2641 -2642 0
-2640 2642 0
-2641 2642 0
-106 -2561 2643 0
106 -2643 0
2561 -2643 0
-2425 -2643 -2644 0
2425 2643 -2644 0
2425 -2643 2644 0
-2425 2643 2644 0
-2644 -2642 -2645 0
2644 2642 -2645 0
2644 -2642 2645 0
-2644 2642 2645 0
-2644 -2642 2646 0
2644 -2646 0
2642 -2646 0
-2425 -2643 2647 0
2425 -2647 0
2643 -2647 0
2646 2647 -2648 0
-2646 2648 0
-2647 2648 0
-114 -2561 2649 0
114 -2649 0
2561 -2649 0
-2431 -2649 -2650 0
2431 2649 -2650 0
2431 -2649 2650 0
-2431 2649 2650 0
-2650 -2648 -2651 0
2650 2648 -2651 0
2650 -2648 2651 0
-2650 2648 2651 0
-2650 -2648 2652 0
2650 -2652 0
2648 -2652 0
-2431 -2649 2653 0
2431 -2653 0
2649 -2653 0
2652 2653 -2654 0
-2652 2654 0
-2653 2654 0
-122 -2561 2655 0
122 -2655 0
2561 -2655 0
-2437 -2655 -2656 0
2437 2655 -2656 0
2437 -2655 2656 0
-2437 2655 2656 0
-2656 -2654 -2657 0
2656 2654 -2657 0
2656 -2654 2657 0
-2656 2654 2657 0
-2656 -2654 2658 0
2656 -2658 0
2654 -2658 0
-2437 -2655 2659 0
2437 -2659 0
2655 -2659 0
2658 2659 -2660 0
-2658 2660 0
-2659 2660 0
-130 -2561 2661 0
130 -2661 0
2561 -2661 0
-2443 -2661 -2662 0
2443 2661 -2662 0
2443 -2661 2662 0
-2443 2661 2662 0
-2662 -2660 -2663 0
2662 2660 -2663 0
2662 -2660 2663 0
-2662 2660 2663 0
-2662 -2660 2664 0
2662 -2664 0
2660 -2664 0
-2443 -2661 2665 0
2443 -2665 0
2661 -2665 0
2664 2665 -2666 0
-2664 2666 0
-2665 2666 0
-138 -2561 2667 0
138 -2667 0
2561 -2667 0
-2449 -2667 -2668 0
2449 2667 -2668 0
2449 -2667 2668 0
-2449 2667 2668 0
-2668 -2666 -2669 0
2668 2666 -2669 0
2668 -2666 2669 0
-2668 2666 2669 0
-2668 -2666 2670 0
2668 -2670 0
2666 -2670 0
-2449 -2667 2671 0
2449 -2671 0
2667 -2671 0
2670 2671 -2672 0
-2670 2672 0
-2671 2672 0
-146 -2561 2673 0
146 -2673 0
2561 -2673 0
-2455 -2673 -2674 0
2455 2673 -2674 0
2455 -2673 2674 0
-2455 2673 2674 0
-2674 -2672 -2675 0
2674 2672 -2675 0
2674 -2672 2675 0
-2674 2672 2675 0
-2674 -2672 2676 0
2674 -2676 0
2672 -2676 0
-2455 -2673 2677 0
2455 -2677 0
2673 -2677 0
2676 2677 -2678 0
-2676 2678 0
-2677 2678 0
-154 -2561 2679 0
154 -2679 0
2561 -2679 0
-2461 -2679 -2680 0
2461 2679 -2680 0
2461 -2679 2680 0
-2461 2679 2680 0
-2680 -2678 -2681 0
2680 2678 -2681 0
2680 -2678 2681 0
-2680 2678 2681 0
-2680 -2678 2682 0
2680 -2682 0
2678 -2682 0
-2461 -2679 2683 0
2461 -2683 0
2679 -2683 0
2682 2683 -2684 0
-2682 2684 0
-2683 2684 0
-162 -2561 2685 0
162 -2685 0
2561 -2685 0
-2467 -2685 -2686 0
2467 2685 -2686 0
2467 -2685 2686 0
-2467 2685 2686 0
-2686 -2684 -2687 0
2686 2684 -2687 0
2686 -2684 2687 0
-2686 2684 2687 0
-2686 -2684 2688 0
2686 -2688 0
2684 -2688 0
-2467 -2685 2689 0
2467 -2689 0
2685 -2689 0
2688 2689 -2690 0
-2688 2690 0
-2689 2690 0
-170 -2561 2691 0
170 -2691 0
2561 -2691 0
-2473 -2691 -2692 0
2473 2691 -2692 0
2473 -2691 2692 0
-2473 2691 2692 0
-2692 -2690 -2693 0
2692 2690 -2693 0
2692 -2690 2693 0
-2692 2690 2693 0
-2692 -2690 2694 0
2692 -2694 0
2690 -2694 0
-2473 -2691 2695 0
2473 -2695 0
2691 -2695 0
2694 2695 -2696 0
-2694 2696 0
-2695 2696 0
-178 -2561 2697 0
178 -2697 0
2561 -2697 0
-2479 -2697 -2698 0
2479 2697 -2698 0
2479 -2697 2698 0
-2479 2697 2698 0
-2698 -2696 -2699 0
2698 2696 -2699 0
2698 -2696 2699 0
-2698 2696 2699 0
-2698 -2696 2700 0
2698 -2700 0
2696 -2700 0
-2479 -2697 2701 0
2479 -2701 0
2697 -2701 0
2700 2701 -2702 0
-2700 2702 0
-2701 2702 0
-186 -2561 2703 0
186 -2703 0
2561 -2703 0
-2485 -2703 -2704 0
2485 2703 -2704 0
2485 -2703 2704 0
-2485 2703 2704 0
-2704 -2702 -2705 0
2704 2702 -2705 0
2704 -2702 2705 0
-2704 2702 2705 0
-2704 -2702 2706 0
2704 -2706 0
2702 -2706 0
-2485 -2703 2707 0
2485 -2707 0
2703 -2707 0
2706 2707 -2708 0
-2706 2708 0
-2707 2708 0
-194 -2561 2709 0
194 -2709 0
2561 -2709 0
-2491 -2709 -2710 0
2491 2709 -2710 0
2491 -2709 2710 0
-2491 2709 2710 0
-2710 -2708 -2711 0
2710 2708 -2711 0
2710 -2708 2711 0
-2710 2708 2711 0
-2710 -2708 2712 0
2710 -2712 0
2708 -2712 0
-2491 -2709 2713 0
2491 -2713 0
2709 -2713 0
2712 2713 -2714 0
-2712 2714 0
-2713 2714 0
-202 -2561 2715 0
202 -2715 0
2561 -2715 0
-2497 -2715 -2716 0
2497 2715 -2716 0
2497 -2715 2716 0
-2497 2715 2716 0
-2716 -2714 -2717 0
2716 2714 -2717 0
2716 -2714 2717 0
-2716 2714 2717 0
-2716 -2714 2718 0
2716 -2718 0
2714 -2718 0
-2497 -2715 2719 0
2497 -2719 0
2715 -2719 0
2718 2719 -2720 0
-2718 2720 0
-2719 2720 0
-210 -2561 2721 0
210 -2721 0
2561 -2721 0
-2503 -2721 -2722 0
2503 2721 -2722 0
2503 -2721 2722 0
-2503 2721 2722 0
-2722 -2720 -2723 0
2722 2720 -2723 0
2722 -2720 2723 0
-2722 2720 2723 0
-2722 -2720 2724 0
2722 -2724 0
2720 -2724 0
-2503 -2721 2725 0
2503 -2725 0
2721 -2725 0
2724 2725 -2726 0
-2724 2726 0
-2725 2726 0
-218 -2561 2727 0
218 -2727 0
2561 -2727 0
-2509 -2727 -2728 0
2509 2727 -2728 0
2509 -2727 2728 0
-2509 2727 2728 0
-2728 -2726 -2729 0
2728 2726 -2729 0
2728 -2726 2729 0
-2728 2726 2729 0
-2728 -2726 2730 0
2728 -2730 0
2726 -2730 0
-2509 -2727 2731 0
2509 -2731 0
2727 -2731 0
2730 2731 -2732 0
-2730 2732 0
-2731 2732 0
-226 -2561 2733 0
226 -2733 0
2561 -2733 0
-2515 -2733 -2734 0
2515 2733 -2734 0
2515 -2733 2734 0
-2515 2733 2734 0
-2734 -2732 -2735 0
2734 2732 -2735 0
2734 -2732 2735 0
-2734 2732 2735 0
-2734 -2732 2736 0
2734 -2736 0
2732 -2736 0
-2515 -2733 2737 0
2515 -2737 0
2733 -2737 0
2736 2737 -2738 0
-2736 2738 0
-2737 2738 0
-234 -2561 2739 0
234 -2739 0
2561 -2739 0
-2521 -2739 -2740 0
2521 2739 -2740 0
2521 -2739 2740 0
-2521 2739 2740 0
-2740 -2738 -2741 0
2740 2738 -2741 0
2740 -2738 2741 0
-2740 2738 2741 0
-2740 -2738 2742 0
2740 -2742 0
2738 -2742 0
-2521 -2739 2743 0
2521 -2743 0
2739 -2743 0
2742 2743 -2744 0
-2742 2744 0
-2743 2744 0
-242 -2561 2745 0
242 -2745 0
2561 -2745 0
-2527 -2745 -2746 0
2527 2745 -2746 0
2527 -2745 2746 0
-2527 2745 2746 0
-2746 -2744 -2747 0
2746 2744 -2747 0
2746 -2744 2747 0
-2746 2744 2747 0
-2746 -2744 2748 0
2746 -2748 0
2744 -2748 0
-2527 -2745 2749 0
2527 -2749 0
2745 -2749 0
2748 2749 -2750 0
-2748 2750 0
-2749 2750 0
-250 -2561 2751 0
250 -2751 0
2561 -2751 0
-2533 -2751 -2752 0
2533 2751 -2752 0
2533 -2751 2752 0
-2533 2751 2752 0
-2752 -2750 -2753 0
2752 2750 -2753 0
2752 -2750 2753 0
-2752 2750 2753 0
-2752 -2750 2754 0
2752 -2754 0
2750 -2754 0
-2533 -2751 2755 0
2533 -2755 0
2751 -2755 0
2754 2755 -2756 0
-2754 2756 0
-2755 2756 0
-258 -2561 2757 0
258 -2757 0
2561 -2757 0
-2539 -2757 -2758 0
2539 2757 -2758 0
2539 -2757 2758 0
-2539 2757 2758 0
-2758 -2756 -2759 0
2758 2756 -2759 0
2758 -2756 2759 0
-2758 2756 2759 0
-2758 -2756 2760 0
2758 -2760 0
2756 -2760 0
-2539 -2757 2761 0
2539 -2761 0
2757 -2761 0
2760 2761 -2762 0
-2760 2762 0
-2761 2762 0
-266 -2561 2763 0
266 -2763 0
2561 -2763 0
-2545 -2763 -2764 0
2545 2763 -2764 0
2545 -2763 2764 0
-2545 2763 2764 0
-2764 -2762 -2765 0
2764 2762 -2765 0
2764 -2762 2765 0
-2764 2762 2765 0
-2764 -2762 2766 0
2764 -2766 0
2762 -2766 0
-2545 -2763 2767 0
2545 -2767 0
2763 -2767 0
2766 2767 -2768 0
-2766 2768 0
-2767 2768 0
-274 -2561 2769 0
274 -2769 0
2561 -2769 0
-2551 -2769 -2770 0
2551 2769 -2770 0
2551 -2769 2770 0
-2551 2769 2770 0
-2770 -2768 -2771 0
2770 2768 -2771 0
2770 -2768 2771 0
-2770 2768 2771 0
-2770 -2768 2772 0
2770 -2772 0
2768 -2772 0
-2551 -2769 2773 0
2551 -2773 0
2769 -2773 0
2772 2773 -2774 0
-2772 2774 0
-2773 2774 0
-282 -2561 2775 0
282 -2775 0
2561 -2775 0
-2557 -2775 -2776 0
2557 2775 -2776 0
2557 -2775 2776 0
-2557 2775 2776 0
-2776 -2774 -2777 0
2776 2774 -2777 0
2776 -2774 2777 0
-2776 2774 2777 0
-2776 -2774 2778 0
2776 -2778 0
2774 -2778 0
-2557 -2775 2779 0
2557 -2779 0
2775 -2779 0
2778 2779 -2780 0
-2778 2780 0
-2779 2780 0
-290 -2561 2781 0
290 -2781 0
2561 -2781 0
-2560 -2781 -2782 0
2560 2781 -2782 0
2560 -2781 2782 0
-2560 2781 2782 0
-2782 -2780 -2783 0
2782 2780 -2783 0
2782 -2780 2783 0
-2782 2780 2783 0
-2782 -2780 2784 0
2782 -2784 0
2780 -2784 0
-2560 -2781 2785 0
2560 -2785 0
2781 -2785 0
2784 2785 -2786 0
-2784 2786 0
-2785 2786 0
-1 -2787 2788 0
1 -2788 0
2787 -2788 0
-2567 -2788 -2789 0
2567 2788 -2789 0
2567 -2788 2789 0
-2567 2788 2789 0
-2567 -2788 2790 0
2567 -2790 0
2788 -2790 0
-4 -2787 2791 0
4 -2791 0
2787 -2791 0
-2573 -2791 -2792 0
2573 2791 -2792 0
2573 -2791 2792 0
-2573 2791 2792 0
-2792 -2790 -2793 0
2792 2790 -2793 0
2792 -2790 2793 0
-2792 2790 2793 0
-2792 -2790 2794 0
2792 -2794 0
2790 -2794 0
-2573 -2791 2795 0
2573 -2795 0
2791 -2795 0
2794 2795 -2796 0
-2794 2796 0
-2795 2796 0
-10 -2787 2797 0
10 -2797 0
2787 -2797 0
-2579 -2797 -2798 0
2579 2797 -2798 0
2579 -2797 2798 0
-2579 2797 2798 0
-2798 -2796 -2799 0
2798 2796 -2799 0
2798 -2796 2799 0
-2798 2796 2799 0
-2798 -2796 2800 0
2798 -2800 0
2796 -2800 0
-2579 -2797 2801 0
2579 -2801 0
2797 -2801 0
2800 2801 -2802 0
-2800 2802 0
-2801 2802 0
-18 -2787 2803 0
18 -2803 0
2787 -2803 0
-2585 -2803 -2804 0
2585 2803 -2804 0
2585 -2803 2804 0
-2585 2803 2804 0
-2804 -2802 -2805 0
2804 2802 -2805 0
2804 -2802 2805 0
-2804 2802 2805 0
-2804 -2802 2806 0
2804 -2806 0
2802 -2806 0
-2585 -2803 2807 0
2585 -2807 0
2803 -2807 0
2806 2807 -2808 0
-2806 2808 0
-2807 2808 0
-26 -2787 2809 0
26 -2809 0
2787 -2809 0
-2591 -2809 -2810 0
2591 2809 -2810 0
2591 -2809 2810 0
-2591 2809 2810 0
-2810 -2808 -2811 0
2810 2808 -2811 0
2810 -2808 2811 0
-2810 2808 2811 0
-2810 -2808 2812 0
2810 -2812 0
2808 -2812 0
-2591 -2809 2813 0
2591 -2813 0
2809 -2813 0
2812 2813 -2814 0
-2812 2814 0
-2813 2814 0
-34 -2787 2815 0
34 -2815 0
2787 -2815 0
-2597 -2815 -2816 0
2597 2815 -2816 0
2597 -2815 2816 0
-2597 2815 2816 0
-2816 -2814 -2817 0
2816 2814 -2817 0
2816 -2814 2817 0
-2816 2814 2817 0
-2816 -2814 2818 0
2816 -2818 0
2814 -2818 0
-2597 -2815 2819 0
2597 -2819 0
2815 -2819 0
2818 2819 -2820 0
-2818 2820 0
-2819 2820 0
-42 -2787 2821 0
42 -2821 0
2787 -2821 0
-2603 -2821 -2822 0
2603 2821 -2822 0
2603 -2821 2822 0
-2603 2821 2822 0
-2822 -2820 -2823 0
2822 2820 -2823 0
2822 -2820 2823 0
-2822 2820 2823 0
-2822 -2820 2824 0
2822 -2824 0
2820 -2824 0
-2603 -2821 2825 0
2603 -2825 0
2821 -2825 0
2824 2825 -2826 0
-2824 2826 0
-2825 2826 0
-50 -2787 2827 0
50 -2827 0
2787 -2827 0
-2609 -2827 -2828 0
2609 2827 -2828 0
2609 -2827 2828 0
-2609 2827 2828 0
-2828 -2826 -2829 0
2828 2826 -2829 0
2828 -2826 2829 0
-2828 2826 2829 0
-2828 -2826 2830 0
2828 -2830 0
2826 -2830 0
-2609 -2827 2831 0
2609 -2831 0
2827 -2831 0
2830 2831 -2832 0
-2830 2832 0
-2831 2832 0
-58 -2787 2833 0
58 -2833 0
2787 -2833 0
-2615 -2833 -2834 0
2615 2833 -2834 0
2615 -2833 2834 0
-2615 2833 2834 0
-2834 -2832 -2835 0
2834 2832 -2835 0
2834 -2832 2835 0
-2834 2832 2835 0
-2834 -2832 2836 0
2834 -2836 0
2832 -2836 0
-2615 -2833 2837 0
2615 -2837 0
2833 -2837 0
2836 2837 -2838 0
-2836 2838 0
-2837 2838 0
-66 -2787 2839 0
66 -2839 0
2787 -2839 0
-2621 -2839 -2840 0
2621 2839 -2840 0
2621 -2839 2840 0
-2621 2839 2840 0
-2840 -2838 -2841 0
2840 2838 -2841 0
2840 -2838 2841 0
-2840 2838 2841 0
-2840 -2838 2842 0
2840 -2842 0
2838 -2842 0
-2621 -2839 2843 0
2621 -2843 0
2839 -2843 0
2842 2843 -2844 0
-2842 2844 0
-2843 2844 0
-74 -2787 2845 0
74 -2845 0
2787 -2845 0
-2627 -2845 -2846 0
2627 2845 -2846 0
2627 -2845 2846 0
-2627 2845 2846 0
-2846 -2844 -2847 0
2846 2844 -2847 0
2846 -2844 2847 0
-2846 2844 2847 0
-2846 -2844 2848 0
2846 -2848 0
2844 -2848 0
-2627 -2845 2849 0
2627 -2849 0
2845 -2849 0
2848 2849 -2850 0
-2848 2850 0
-2849 2850 0
-82 -2787 2851 0
82 -2851 0
2787 -2851 0
-2633 -2851 -2852 0
2633 2851 -2852 0
2633 -2851 2852 0
-2633 2851 2852 0
-2852 -2850 -2853 0
2852 2850 -2853 0
2852 -2850 2853 0
-2852 2850 2853 0
-2852 -2850 2854 0
2852 -2854 0
2850 -2854 0
-2633 -2851 2855 0
2633 -2855 0
2851 -2855 0
2854 2855 -2856 0
-2854 2856 0
-2855 2856 0
-90 -2787 2857 0
90 -2857 0
2787 -2857 0
-2639 -2857 -2858 0
2639 2857 -2858 0
2639 -2857 2858 0
-2639 2857 2858 0
-2858 -2856 -2859 0
2858 2856 -2859 0
2858 -2856 2859 0
-2858 2856 2859 0
-2858 -2856 2860 0
2858 -2860 0
2856 -2860 0
-2639 -2857 2861 0
2639 -2861 0
2857 -2861 0
2860 2861 -2862 0
-2860 2862 0
-2861 2862 0
-98 -2787 2863 0
98 -2863 0
2787 -2863 0
-2645 -2863 -2864 0
2645 2863 -2864 0
2645 -2863 2864 0
-2645 2863 2864 0
-2864 -2862 -2865 0
2864 2862 -2865 0
2864 -2862 2865 0
-2864 2862 2865 0
-2864 -2862 2866 0
2864 -2866 0
2862 -2866 0
-2645 -2863 2867 0
2645 -2867 0
2863 -2867 0
2866 2867 -2868 0
-2866 2868 0
-2867 2868 0
-106 -2787 2869 0
106 -2869 0
2787 -2869 0
-2651 -2869 -2870 0
2651 2869 -2870 0
2651 -2869 2870 0
-2651 2869 2870 0
-2870 -2868 -2871 0
2870 2868 -2871 0
2870 -2868 2871 0
-2870 2868 2871 0
-2870 -2868 2872 0
2870 -2872 0
2868 -2872 0
-2651 -2869 2873 0
2651 -2873 0
2869 -2873 0
2872 2873 -2874 0
-2872 2874 0
-2873 2874 0
-114 -2787 2875 0
114 -2875 0
2787 -2875 0
-2657 -2875 -2876 0
2657 2875 -2876 0
2657 -2875 2876 0
-2657 2875 2876 0
-2876 -2874 -2877 0
2876 2874 -2877 0
2876 -2874 2877 0
-2876 2874 2877 0
-2876 -2874 2878 0
2876 -2878 0
2874 -2878 0
-2657 -2875 2879 0
2657 -2879 0
2875 -2879 0
2878 2879 -2880 0
-2878 2880 0
-2879 2880 0
-122 -2787 2881 0
122 -2881 0
2787 -2881 0
-2663 -2881 -2882 0
2663 2881 -2882 0
2663 -2881 2882 0
-2663 2881 2882 0
-2882 -2880 -2883 0
2882 2880 -2883 0
2882 -2880 2883 0
-2882 2880 2883 0
-2882 -2880 2884 0
2882 -2884 0
2880 -2884 0
-2663 -2881 2885 0
2663 -2885 0
2881 -2885 0
2884 2885 -2886 0
-2884 2886 0
-2885 2886 0
-130 -2787 2887 0
130 -2887 0
2787 -2887 0
-2669 -2887 -2888 0
2669 2887 -2888 0
2669 -2887 2888 0
-2669 2887 2888 0
-2888 -2886 -2889 0
2888 2886 -2889 0
2888 -2886 2889 0
-2888 2886 2889 0
-2888 -2886 2890 0
2888 -2890 0
2886 -2890 0
-2669 -2887 2891 0
2669 -2891 0
2887 -2891 0
2890 2891 -2892 0
-2890 2892 0
-2891 2892 0
-138 -2787 2893 0
138 -2893 0
2787 -2893 0
-2675 -2893 -2894 0
2675 2893 -2894 0
2675 -2893 2894 0
-2675 2893 2894 0
-2894 -2892 -2895 0
2894 2892 -2895 0
2894 -2892 2895 0
-2894 2892 2895 0
-2894 -2892 2896 0
2894 -2896 0
2892 -2896 0
-2675 -2893 2897 0
2675 -2897 0
2893 -2897 0
2896 2897 -2898 0
-2896 2898 0
-2897 2898 0
-146 -2787 2899 0
146 -2899 0
2787 -2899 0
-2681 -2899 -2900 0
2681 2899 -2900 0
2681 -2899 2900 0
-2681 2899 2900 0
-2900 -2898 -2901 0
2900 2898 -2901 0
2900 -2898 2901 0
-2900 2898 2901 0
-2900 -2898 2902 0
2900 -2902 0
2898 -2902 0
-2681 -2899 2903 0
2681 -2903 0
2899 -2903 0
2902 2903 -2904 0
-2902 2904 0
-2903 2904 0
-154 -2787 2905 0
154 -2905 0
2787 -2905 0
-2687 -2905 -2906 0
2687 2905 -2906 0
2687 -2905 2906 0
-2687 2905 2906 0
-2906 -2904 -2907 0
2906 2904 -2907 0
2906 -2904 2907 0
-2906 2904 2907 0
-2906 -2904 2908 0
2906 -2908 0
2904 -2908 0
-2687 -2905 2909 0
2687 -2909 0
2905 -2909 0
2908 2909 -2910 0
-2908 2910 0
-2909 2910 0
-162 -2787 2911 0
162 -2911 0
2787 -2911 0
-2693 -2911 -2912 0
2693 2911 -2912 0
2693 -2911 2912 0
-2693 2911 2912 0
-2912 -2910 -2913 0
2912 2910 -2913 0
2912 -2910 2913 0
-2912 2910 2913 0
-2912 -2910 2914 0
2912 -2914 0
2910 -2914 0
-2693 -2911 2915 0
2693 -2915 0
2911 -2915 0
2914 2915 -2916 0
-2914 2916 0
-2915 2916 0
-170 -2787 2917 0
170 -2917 0
2787 -2917 0
-2699 -2917 -2918 0
2699 2917 -2918 0
2699 -2917 2918 0
-2699 2917 2918 0
-2918 -2916 -2919 0
2918 2916 -2919 0
2918 -2916 2919 0
-2918 2916 2919 0
-2918 -2916 2920 0
2918 -2920 0
2916 -2920 0
-2699 -2917 2921 0
2699 -2921 0
2917 -2921 0
2920 2921 -2922 0
-2920 2922 0
-2921 2922 0
-178 -2787 2923 0
178 -2923 0
2787 -2923 0
-2705 -2923 -2924 0
2705 2923 -2924 0
2705 -2923 2924 0
-2705 2923 2924 0
-2924 -2922 -2925 0
2924 2922 -2925 0
2924 -2922 2925 0
-2924 2922 2925 0
-2924 -2922 2926 0
2924 -2926 0
2922 -2926 0
-2705 -2923 2927 0
2705 -2927 0
2923 -2927 0
2926 2927 -2928 0
-2926 2928 0
-2927 2928 0
-186 -2787 2929 0
186 -2929 0
2787 -2929 0
-2711 -2929 -2930 0
2711 2929 -2930 0
2711 -2929 2930 0
-2711 2929 2930 0
-2930 -2928 -2931 0
2930 2928 -2931 0
2930 -2928 2931 0
-2930 2928 2931 0
-2930 -2928 2932 0
2930 -2932 0
2928 -2932 0
-2711 -2929 2933 0
2711 -2933 0
2929 -2933 0
2932 2933 -2934 0
-2932 2934 0
-2933 2934 0
-194 -2787 2935 0
194 -2935 0
2787 -2935 0
-2717 -2935 -2936 0
2717 2935 -2936 0
2717 -2935 2936 0
-2717 2935 2936 0
-2936 -2934 -2937 0
2936 2934 -2937 0
2936 -2934 2937 0
-2936 2934 2937 0
-2936 -2934 2938 0
2936 -2938 0
2934 -2938 0
-2717 -2935 2939 0
2717 -2939 0
2935 -2939 0
2938 2939 -2940 0
-2938 2940 0
-2939 2940 0
-202 -2787 2941 0
202 -2941 0
2787 -2941 0
-2723 -2941 -2942 0
2723 2941 -2942 0
2723 -2941 2942 0
-2723 2941 2942 0
-2942 -2940 -2943 0
2942 2940 -2943 0
2942 -2940 2943 0
-2942 2940 2943 0
-2942 -2940 2944 0
2942 -2944 0
2940 -2944 0
-2723 -2941 2945 0
2723 -2945 0
2941 -2945 0
2944 2945 -2946 0
-2944 2946 0
-2945 2946 0
-210 -2787 2947 0
210 -2947 0
2787 -2947 0
-2729 -2947 -2948 0
2729 2947 -2948 0
2729 -2947 2948 0
-2729 2947 2948 0
-2948 -2946 -2949 0
2948 2946 -2949 0
2948 -2946 2949 0
-2948 2946 2949 0
-2948 -2946 2950 0
2948 -2950 0
2946 -2950 0
-2729 -2947 2951 0
2729 -2951 0
2947 -2951 0
2950 2951 -2952 0
-2950 2952 0
-2951 2952 0
-218 -2787 2953 0
218 -2953 0
2787 -2953 0
-2735 -2953 -2954 0
2735 2953 -2954 0
2735 -2953 2954 0
-2735 2953 2954 0
-2954 -2952 -2955 0
2954 2952 -2955 0
2954 -2952 2955 0
-2954 2952 2955 0
-2954 -2952 2956 0
2954 -2956 0
2952 -2956 0
-2735 -2953 2957 0
2735 -2957 0
2953 -2957 0
2956 2957 -2958 0
-2956 2958 0
-2957 2958 0
-226 -2787 2959 0
226 -2959 0
2787 -2959 0
-2741 -2959 -2960 0
2741 2959 -2960 0
2741 -2959 2960 0
-2741 2959 2960 0
-2960 -2958 -2961 0
2960 2958 -2961 0
2960 -2958 2961 0
-2960 2958 2961 0
-2960 -2958 2962 0
2960 -2962 0
2958 -2962 0
-2741 -2959 2963 0
2741 -2963 0
2959 -2963 0
2962 2963 -2964 0
-2962 2964 0
-2963 2964 0
-234 -2787 2965 0
234 -2965 0
2787 -2965 0
-2747 -2965 -2966 0
2747 2965 -2966 0
2747 -2965 2966 0
-2747 2965 2966 0
-2966 -2964 -2967 0
2966 2964 -2967 0
2966 -2964 2967 0
-2966 2964 2967 0
-2966 -2964 2968 0
2966 -2968 0
2964 -2968 0
-2747 -2965 2969 0
2747 -2969 0
2965 -2969 0
2968 2969 -2970 0
-2968 2970 0
-2969 2970 0
-242 -2787 2971 0
242 -2971 0
2787 -2971 0
-2753 -2971 -2972 0
2753 2971 -2972 0
2753 -2971 2972 0
-2753 2971 2972 0
-2972 -2970 -2973 0
2972 2970 -2973 0
2972 -2970 2973 0
-2972 2970 2973 0
-2972 -2970 2974 0
2972 -2974 0
2970 -2974 0
-2753 -2971 2975 0
2753 -2975 0
2971 -2975 0
2974 2975 -2976 0
-2974 2976 0
-2975 2976 0
-250 -2787 2977 0
250 -2977 0
2787 -2977 0
-2759 -2977 -2978 0
2759 2977 -2978 0
2759 -2977 2978 0
-2759 2977 2978 0
-2978 -2976 -2979 0
2978 2976 -2979 0
2978 -2976 2979 0
-2978 2976 2979 0
-2978 -2976 2980 0
2978 -2980 0
2976 -2980 0
-2759 -2977 2981 0
2759 -2981 0
2977 -2981 0
2980 2981 -2982 0
-2980 2982 0
-2981 2982 0
-258 -2787 2983 0
258 -2983 0
2787 -2983 0
-2765 -2983 -2984 0
2765 2983 -2984 0
2765 -2983 2984 0
-2765 2983 2984 0
-2984 -2982 -2985 0
2984 2982 -2985 0
2984 -2982 2985 0
-2984 2982 2985 0
-2984 -2982 2986 0
2984 -2986 0
2982 -2986 0
-2765 -2983 2987 0
2765 -2987 0
2983 -2987 0
2986 2987 -2988 0
-2986 2988 0
-2987 2988 0
-266 -2787 2989 0
266 -2989 0
2787 -2989 0
-2771 -2989 -2990 0
2771 2989 -2990 0
2771 -2989 2990 0
-2771 2989 2990 0
-2990 -2988 -2991 0
2990 2988 -2991 0
2990 -2988 2991 0
-2990 2988 2991 0
-2990 -2988 2992 0
2990 -2992 0
2988 -2992 0
-2771 -2989 2993 0
2771 -2993 0
2989 -2993 0
2992 2993 -2994 0
-2992 2994 0
-2993 2994 0
-274 -2787 2995 0
274 -2995 0
2787 -2995 0
-2777 -2995 -2996 0
2777 2995 -2996 0
2777 -2995 2996 0
-2777 2995 2996 0
-2996 -2994 -2997 0
2996 2994 -2997 0
2996 -2994 2997 0
-2996 2994 2997 0
-2996 -2994 2998 0
2996 -2998 0
2994 -2998 0
-2777 -2995 2999 0
2777 -2999 0
2995 -2999 0
2998 2999 -3000 0
-2998 3000 0
-2999 3000 0
-282 -2787 3001 0
282 -3001 0
2787 -3001 0
-2783 -3001 -3002 0
2783 3001 -3002 0
2783 -3001 3002 0
-2783 3001 3002 0
-3002 -3000 -3003 0
3002 3000 -3003 0
3002 -3000 3003 0
-3002 3000 3003 0
-3002 -3000 3004 0
3002 -3004 0
3000 -3004 0
-2783 -3001 3005 0
2783 -3005 0
3001 -3005 0
3004 3005 -3006 0
-3004 3006 0
-3005 3006 0
-290 -2787 3007 0
290 -3007 0
2787 -3007 0
-2786 -3007 -3008 0
2786 3007 -3008 0
2786 -3007 3008 0
-2786 3007 3008 0
-3008 -3006 -3009 0
3008 3006 -3009 0
3008 -3006 3009 0
-3008 3006 3009 0
-3008 -3006 3010 0
3008 -3010 0
3006 -3010 0
-2786 -3007 3011 0
2786 -3011 0
3007 -3011 0
3010 3011 -3012 0
-3010 3012 0
-3011 3012 0
-1 -3013 3014 0
1 -3014 0
3013 -3014 0
-2793 -3014 -3015 0
2793 3014 -3015 0
2793 -3014 3015 0
-2793 3014 3015 0
-2793 -3014 3016 0
2793 -3016 0
3014 -3016 0
-4 -3013 3017 0
4 -3017 0
3013 -3017 0
-2799 -3017 -3018 0
2799 3017 -3018 0
2799 -3017 3018 0
-2799 3017 3018 0
-3018 -3016 -3019 0
3018 3016 -3019 0
3018 -3016 3019 0
-3018 3016 3019 0
-3018 -3016 3020 0
3018 -3020 0
3016 -3020 0
-2799 -3017 3021 0
2799 -3021 0
3017 -3021 0
3020 3021 -3022 0
-3020 3022 0
-3021 3022 0
-10 -3013 3023 0
10 -3023 0
3013 -3023 0
-2805 -3023 -3024 0
2805 3023 -3024 0
2805 -3023 3024 0
-2805 3023 3024 0
-3024 -3022 -3025 0
3024 3022 -3025 0
3024 -3022 3025 0
-3024 3022 3025 0
-3024 -3022 3026 0
3024 -3026 0
3022 -3026 0
-2805 -3023 3027 0
2805 -3027 0
3023 -3027 0
3026 3027 -3028 0
-3026 3028 0
-3027 3028 0
-18 -3013 3029 0
18 -3029 0
3013 -3029 0
-2811 -3029 -3030 0
2811 3029 -3030 0
2811 -3029 3030 0
-2811 3029 3030 0
-3030 -3028 -3031 0
3030 3028 -3031 0
3030 -3028 3031 0
-3030 3028 3031 0
-3030 -3028 3032 0
3030 -3032 0
3028 -3032 0
-2811 -3029 3033 0
2811 -3033 0
3029 -3033 0
3032 3033 -3034 0
-3032 3034 0
-3033 3034 0
-26 -3013 3035 0
26 -3035 0
3013 -3035 0
-2817 -3035 -3036 0
2817 3035 -3036 0
2817 -3035 3036 0
-2817 3035 3036 0
-3036 -3034 -3037 0
3036 3034 -3037 0
3036 -3034 3037 0
-3036 3034 3037 0
-3036 -3034 3038 0
3036 -3038 0
3034 -3038 0
-2817 -3035 3039 0
2817 -3039 0
3035 -3039 0
3038 3039 -3040 0
-3038 3040 0
-3039 3040 0
-34 -3013 3041 0
34 -3041 0
3013 -3041 0
-2823 -3041 -3042 0
2823 3041 -3042 0
2823 -3041 3042 0
-2823 3041 3042 0
-3042 -3040 -3043 0
3042 3040 -3043 0
3042 -3040 3043 0
-3042 3040 3043 0
-3042 -3040 3044 0
3042 -3044 0
3040 -3044 0
-2823 -3041 3045 0
2823 -3045 0
3041 -3045 0
3044 3045 -3046 0
-3044 3046 0
-3045 3046 0
-42 -3013 3047 0
42 -3047 0
3013 -3047 0
-2829 -3047 -3048 0
2829 3047 -3048 0
2829 -3047 3048 0
-2829 3047 3048 0
-3048 -3046 -3049 0
3048 3046 -3049 0
3048 -3046 3049 0
-3048 3046 3049 0
-3048 -3046 3050 0
3048 -3050 0
3046 -3050 0
-2829 -3047 3051 0
2829 -3051 0
3047 -3051 0
3050 3051 -3052 0
-3050 3052 0
-3051 3052 0
-50 -3013 3053 0
50 -3053 0
3013 -3053 0
-2835 -3053 -3054 0
2835 3053 -3054 0
2835 -3053 3054 0
-2835 3053 3054 0
-3054 -3052 -3055 0
3054 3052 -3055 0
3054 -3052 3055 0
-3054 3052 3055 0
-3054 -3052 3056 0
3054 -3056 0
3052 -3056 0
-2835 -3053 3057 0
2835 -3057 0
3053 -3057 0
3056 3057 -3058 0
-3056 3058 0
-3057 3058 0
-58 -3013 3059 0
58 -3059 0
3013 -3059 0
-2841 -3059 -3060 0
2841 3059 -3060 0
2841 -3059 3060 0
-2841 3059 3060 0
-3060 -3058 -3061 0
3060 3058 -3061 0
3060 -3058 3061 0
-3060 3058 3061 0
-3060 -3058 3062 0
3060 -3062 0
3058 -3062 0
-2841 -3059 3063 0
2841 -3063 0
3059 -3063 0
3062 3063 -3064 0
-3062 3064 0
-3063 3064 0
-66 -3013 3065 0
66 -3065 0
3013 -3065 0
-2847 -3065 -3066 0
2847 3065 -3066 0
2847 -3065 3066 0
-2847 3065 3066 0
-3066 -3064 -3067 0
3066 3064 -3067 0
3066 -3064 3067 0
-3066 3064 3067 0
-3066 -3064 3068 0
3066 -3068 0
3064 -3068 0
-2847 -3065 3069 0
2847 -3069 0
3065 -3069 0
3068 3069 -3070 0
-3068 3070 0
-3069 3070 0
-74 -3013 3071 0
74 -3071 0
3013 -3071 0
-2853 -3071 -3072 0
2853 3071 -3072 0
2853 -3071 3072 0
-2853 3071 3072 0
-3072 -3070 -3073 0
3072 3070 -3073 0
3072 -3070 3073 0
-3072 3070 3073 0
-3072 -3070 3074 0
3072 -3074 0
3070 -3074 0
-2853 -3071 3075 0
2853 -3075 0
3071 -3075 0
3074 3075 -3076 0
-3074 3076 0
-3075 3076 0
-82 -3013 3077 0
82 -3077 0
3013 -3077 0
-2859 -3077 -3078 0
2859 3077 -3078 0
2859 -3077 3078 0
-2859 3077 3078 0
-3078 -3076 -3079 0
3078 3076 -3079 0
3078 -3076 3079 0
-3078 3076 3079 0
-3078 -3076 3080 0
3078 -3080 0
3076 -3080 0
-2859 -3077 3081 0
2859 -3081 0
3077 -3081 0
3080 3081 -3082 0
-3080 3082 0
-3081 3082 0
-90 -3013 3083 0
90 -3083 0
3013 -3083 0
-2865 -3083 -3084 0
2865 3083 -3084 0
2865 -3083 3084 0
-2865 3083 3084 0
-3084 -3082 -3085 0
3084 3082 -3085 0
3084 -3082 3085 0
-3084 3082 3085 0
-3084 -3082 3086 0
3084 -3086 0
3082 -3086 0
-2865 -3083 3087 0
2865 -3087 0
3083 -3087 0
3086 3087 -3088 0
-3086 3088 0
-3087 3088 0
-98 -3013 3089 0
98 -3089 0
3013 -3089 0
-2871 -3089 -3090 0
2871 3089 -3090 0
2871 -3089 3090 0
-2871 3089 3090 0
-3090 -3088 -3091 0
3090 3088 -3091 0
3090 -3088 3091 0
-3090 3088 3091 0
-3090 -3088 3092 0
3090 -3092 0
3088 -3092 0
-2871 -3089 3093 0
2871 -3093 0
3089 -3093 0
3092 3093 -3094 0
-3092 3094 0
-3093 3094 0
-106 -3013 3095 0
106 -3095 0
3013 -3095 0
-2877 -3095 -3096 0
2877 3095 -3096 0
2877 -3095 3096 0
-2877 3095 3096 0
-3096 -3094 -3097 0
3096 3094 -3097 0
3096 -3094 3097 0
-3096 3094 3097 0
-3096 -3094 3098 0
3096 -3098 0
3094 -3098 0
-2877 -3095 3099 0
2877 -3099 0
3095 -3099 0
3098 3099 -3100 0
-3098 3100 0
-3099 3100 0
-114 -3013 3101 0
114 -3101 0
3013 -3101 0
-2883 -3101 -3102 0
2883 3101 -3102 0
2883 -3101 3102 0
-2883 3101 3102 0
-3102 -3100 -3103 0
3102 3100 -3103 0
3102 -3100 3103 0
-3102 3100 3103 0
-3102 -3100 3104 0
3102 -3104 0
3100 -3104 0
-2883 -3101 3105 0
2883 -3105 0
3101 -3105 0
3104 3105 -3106 0
-3104 3106 0
-3105 3106 0
-122 -3013 3107 0
122 -3107 0
3013 -3107 0
-2889 -3107 -3108 0
2889 3107 -3108 0
2889 -3107 3108 0
-2889 3107 3108 0
-3108 -3106 -3109 0
3108 3106 -3109 0
3108 -3106 3109 0
-3108 3106 3109 0
-3108 -3106 3110 0
3108 -3110 0
3106 -3110 0
-2889 -3107 3111 0
2889 -3111 0
3107 -3111 0
3110 3111 -3112 0
-3110 3112 0
-3111 3112 0
-130 -3013 3113 0
130 -3113 0
3013 -3113 0
-2895 -3113 -3114 0
2895 3113 -3114 0
2895 -3113 3114 0
-2895 3113 3114 0
-3114 -3112 -3115 0
3114 3112 -3115 0
3114 -3112 3115 0
-3114 3112 3115 0
-3114 -3112 3116 0
3114 -3116 0
3112 -3116 0
-2895 -3113 3117 0
2895 -3117 0
3113 -3117 0
3116 3117 -3118 0
-3116 3118 0
-3117 3118 0
-138 -3013 3119 0
138 -3119 0
3013 -3119 0
-2901 -3119 -3120 0
2901 3119 -3120 0
2901 -3119 3120 0
-2901 3119 3120 0
-3120 -3118 -3121 0
3120 3118 -3121 0
3120 -3118 3121 0
-3120 3118 3121 0
-3120 -3118 3122 0
3120 -3122 0
3118 -3122 0
-2901 -3119 3123 0
2901 -3123 0
3119 -3123 0
3122 3123 -3124 0
-3122 3124 0
-3123 3124 0
-146 -3013 3125 0
146 -3125 0
3013 -3125 0
-2907 -3125 -3126 0
2907 3125 -3126 0
2907 -3125 3126 0
-2907 3125 3126 0
-3126 -3124 -3127 0
3126 3124 -3127 0
3126 -3124 3127 0
-3126 3124 3127 0
-3126 -3124 3128 0
3126 -3128 0
3124 -3128 0
-2907 -3125 3129 0
2907 -3129 0
3125 -3129 0
3128 3129 -3130 0
-3128 3130 0
-3129 3130 0
-154 -3013 3131 0
154 -3131 0
3013 -3131 0
-2913 -3131 -3132 0
2913 3131 -3132 0
2913 -3131 3132 0
-2913 3131 3132 0
-3132 -3130 -3133 0
3132 3130 -3133 0
3132 -3130 3133 0
-3132 3130 3133 0
-3132 -3130 3134 0
3132 -3134 0
3130 -3134 0
-2913 -3131 3135 0
2913 -3135 0
3131 -3135 0
3134 3135 -3136 0
-3134 3136 0
-3135 3136 0
-162 -3013 3137 0
162 -3137 0
3013 -3137 0
-2919 -3137 -3138 0
2919 3137 -3138 0
2919 -3137 3138 0
-2919 3137 3138 0
-3138 -3136 -3139 0
3138 3136 -3139 0
3138 -3136 3139 0
-3138 3136 3139 0
-3138 -3136 3140 0
3138 -3140 0
3136 -3140 0
-2919 -3137 3141 0
2919 -3141 0
3137 -3141 0
3140 3141 -3142 0
-3140 3142 0
-3141 3142 0
-170 -3013 3143 0
170 -3143 0
3013 -3143 0
-2925 -3143 -3144 0
2925 3143 -3144 0
2925 -3143 3144 0
-2925 3143 3144 0
-3144 -3142 -3145 0
3144 3142 -3145 0
3144 -3142 3145 0
-3144 3142 3145 0
-3144 -3142 3146 0
3144 -3146 0
3142 -3146 0
-2925 -3143 3147 0
2925 -3147 0
3143 -3147 0
3146 3147 -3148 0
-3146 3148 0
-3147 3148 0
-178 -3013 3149 0
178 -3149 0
3013 -3149 0
-2931 -3149 -3150 0
2931 3149 -3150 0
2931 -3149 3150 0
-2931 3149 3150 0
-3150 -3148 -3151 0
3150 3148 -3151 0
3150 -3148 3151 0
-3150 3148 3151 0
-3150 -3148 3152 0
3150 -3152 0
3148 -3152 0
-2931 -3149 3153 0
2931 -3153 0
3149 -3153 0
3152 3153 -3154 0
-3152 3154 0
-3153 3154 0
-186 -3013 3155 0
186 -3155 0
3013 -3155 0
-2937 -3155 -3156 0
2937 3155 -3156 0
2937 -3155 3156 0
-2937 3155 3156 0
-3156 -3154 -3157 0
3156 3154 -3157 0
3156 -3154 3157 0
-3156 3154 3157 0
-3156 -3154 3158 0
3156 -3158 0
3154 -3158 0
-2937 -3155 3159 0
2937 -3159 0
3155 -3159 0
3158 3159 -3160 0
-3158 3160 0
-3159 3160 0
-194 -3013 3161 0
194 -3161 0
3013 -3161 0
-2943 -3161 -3162 0
2943 3161 -3162 0
2943 -3161 3162 0
-2943 3161 3162 0
-3162 -3160 -3163 0
3162 3160 -3163 0
3162 -3160 3163 0
-3162 3160 3163 0
-3162 -3160 3164 0
3162 -3164 0
3160 -3164 0
-2943 -3161 3165 0
2943 -3165 0
3161 -3165 0
3164 3165 -3166 0
-3164 3166 0
-3165 3166 0
-202 -3013 3167 0
202 -3167 0
3013 -3167 0
-2949 -3167 -3168 0
2949 3167 -3168 0
2949 -3167 3168 0
-2949 3167 3168 0
-3168 -3166 -3169 0
3168 3166 -3169 0
3168 -3166 3169 0
-3168 3166 3169 0
-3168 -3166 3170 0
3168 -3170 0
3166 -3170 0
-2949 -3167 3171 0
2949 -3171 0
3167 -3171 0
3170 3171 -3172 0
-3170 3172 0
-3171 3172 0
-210 -3013 3173 0
210 -3173 0
3013 -3173 0
-2955 -3173 -3174 0
2955 3173 -3174 0
2955 -3173 3174 0
-2955 3173 3174 0
-3174 -3172 -3175 0
3174 3172 -3175 0
3174 -3172 3175 0
-3174 3172 3175 0
-3174 -3172 3176 0
3174 -3176 0
3172 -3176 0
-2955 -3173 3177 0
2955 -3177 0
3173 -3177 0
3176 3177 -3178 0
-3176 3178 0
-3177 3178 0
-218 -3013 3179 0
218 -3179 0
3013 -3179 0
-2961 -3179 -3180 0
2961 3179 -3180 0
2961 -3179 3180 0
-2961 3179 3180 0
-3180 -3178 -3181 0
3180 3178 -3181 0
3180 -3178 3181 0
-3180 3178 3181 0
-3180 -3178 3182 0
3180 -3182 0
3178 -3182 0
-2961 -3179 3183 0
2961 -3183 0
3179 -3183 0
3182 3183 -3184 0
-3182 3184 0
-3183 3184 0
-226 -3013 3185 0
226 -3185 0
3013 -3185 0
-2967 -3185 -3186 0
2967 3185 -3186 0
2967 -3185 3186 0
-2967 3185 3186 0
-3186 -3184 -3187 0
3186 3184 -3187 0
3186 -3184 3187 0
-3186 3184 3187 0
-3186 -3184 3188 0
3186 -3188 0
3184 -3188 0
-2967 -3185 3189 0
2967 -3189 0
3185 -3189 0
3188 3189 -3190 0
-3188 3190 0
-3189 3190 0
-234 -3013 3191 0
234 -3191 0
3013 -3191 0
-2973 -3191 -3192 0
2973 3191 -3192 0
2973 -3191 3192 0
-2973 3191 3192 0
-3192 -3190 -3193 0
3192 3190 -3193 0
3192 -3190 3193 0
-3192 3190 3193 0
-3192 -3190 3194 0
3192 -3194 0
3190 -3194 0
-2973 -3191 3195 0
2973 -3195 0
3191 -3195 0
3194 3195 -3196 0
-3194 3196 0
-3195 3196 0
-242 -3013 3197 0
242 -3197 0
3013 -3197 0
-2979 -3197 -3198 0
2979 3197 -3198 0
2979 -3197 3198 0
-2979 3197 3198 0
-3198 -3196 -3199 0
3198 3196 -3199 0
3198 -3196 3199 0
-3198 3196 3199 0
-3198 -3196 3200 0
3198 -3200 0
3196 -3200 0
-2979 -3197 3201 0
2979 -3201 0
3197 -3201 0
3200 3201 -3202 0
-3200 3202 0
-3201 3202 0
-250 -3013 3203 0
250 -3203 0
3013 -3203 0
-2985 -3203 -3204 0
2985 3203 -3204 0
2985 -3203 3204 0
-2985 3203 3204 0
-3204 -3202 -3205 0
3204 3202 -3205 0
3204 -3202 3205 0
-3204 3202 3205 0
-3204 -3202 3206 0
3204 -3206 0
3202 -3206 0
-2985 -3203 3207 0
2985 -3207 0
3203 -3207 0
3206 3207 -3208 0
-3206 3208 0
-3207 3208 0
-258 -3013 3209 0
258 -3209 0
3013 -3209 0
-2991 -3209 -3210 0
2991 3209 -3210 0
2991 -3209 3210 0
-2991 3209 3210 0
-3210 -3208 -3211 0
3210 3208 -3211 0
3210 -3208 3211 0
-3210 3208 3211 0
-3210 -3208 3212 0
3210 -3212 0
3208 -3212 0
-2991 -3209 3213 0
2991 -3213 0
3209 -3213 0
3212 3213 -3214 0
-3212 3214 0
-3213 3214 0
-266 -3013 3215 0
266 -3215 0
3013 -3215 0
-2997 -3215 -3216 0
2997 3215 -3216 0
2997 -3215 3216 0
-2997 3215 3216 0
-3216 -3214 -3217 0
3216 3214 -3217 0
3216 -3214 3217 0
-3216 3214 3217 0
-3216 -3214 3218 0
3216 -3218 0
3214 -3218 0
-2997 -3215 3219 0
2997 -3219 0
3215 -3219 0
3218 3219 -3220 0
-3218 3220 0
-3219 3220 0
-274 -3013 3221 0
274 -3221 0
3013 -3221 0
-3003 -3221 -3222 0
3003 3221 -3222 0
3003 -3221 3222 0
-3003 3221 3222 0
-3222 -3220 -3223 0
3222 3220 -3223 0
3222 -3220 3223 0
-3222 3220 3223 0
-3222 -3220 3224 0
3222 -3224 0
3220 -3224 0
-3003 -3221 3225 0
3003 -3225 0
3221 -3225 0
3224 3225 -3226 0
-3224 3226 0
-3225 3226 0
-282 -3013 3227 0
282 -3227 0
3013 -3227 0
-3009 -3227 -3228 0
3009 3227 -3228 0
3009 -3227 3228 0
-3009 3227 3228 0
-3228 -3226 -3229 0
3228 3226 -3229 0
3228 -3226 3229 0
-3228 3226 3229 0
-3228 -3226 3230 0
3228 -3230 0
3226 -3230 0
-3009 -3227 3231 0
3009 -3231 0
3227 -3231 0
3230 3231 -3232 0
-3230 3232 0
-3231 3232 0
-290 -3013 3233 0
290 -3233 0
3013 -3233 0
-3012 -3233 -3234 0
3012 3233 -3234 0
3012 -3233 3234 0
-3012 3233 3234 0
-3234 -3232 -3235 0
3234 3232 -3235 0
3234 -3232 3235 0
-3234 3232 3235 0
-3234 -3232 3236 0
3234 -3236 0
3232 -3236 0
-3012 -3233 3237 0
3012 -3237 0
3233 -3237 0
3236 3237 -3238 0
-3236 3238 0
-3237 3238 0
-1 -3239 3240 0
1 -3240 0
3239 -3240 0
-3019 -3240 -3241 0
3019 3240 -3241 0
3019 -3240 3241 0
-3019 3240 3241 0
-3019 -3240 3242 0
3019 -3242 0
3240 -3242 0
-4 -3239 3243 0
4 -3243 0
3239 -3243 0
-3025 -3243 -3244 0
3025 3243 -3244 0
3025 -3243 3244 0
-3025 3243 3244 0
-3244 -3242 -3245 0
3244 3242 -3245 0
3244 -3242 3245 0
-3244 3242 3245 0
-3244 -3242 3246 0
3244 -3246 0
3242 -3246 0
-3025 -3243 3247 0
3025 -3247 0
3243 -3247 0
3246 3247 -3248 0
-3246 3248 0
-3247 3248 0
-10 -3239 3249 0
10 -3249 0
3239 -3249 0
-3031 -3249 -3250 0
3031 3249 -3250 0
3031 -3249 3250 0
-3031 3249 3250 0
-3250 -3248 -3251 0
3250 3248 -3251 0
3250 -3248 3251 0
-3250 3248 3251 0
-3250 -3248 3252 0
3250 -3252 0
3248 -3252 0
-3031 -3249 3253 0
3031 -3253 0
3249 -3253 0
3252 3253 -3254 0
-3252 3254 0
-3253 3254 0
-18 -3239 3255 0
18 -3255 0
3239 -3255 0
-3037 -3255 -3256 0
3037 3255 -3256 0
3037 -3255 3256 0
-3037 3255 3256 0
-3256 -3254 -3257 0
3256 3254 -3257 0
3256 -3254 3257 0
-3256 3254 3257 0
-3256 -3254 3258 0
3256 -3258 0
3254 -3258 0
-3037 -3255 3259 0
3037 -3259 0
3255 -3259 0
3258 3259 -3260 0
-3258 3260 0
-3259 3260 0
-26 -3239 3261 0
26 -3261 0
3239 -3261 0
-3043 -3261 -3262 0
3043 3261 -3262 0
3043 -3261 3262 0
-3043 3261 3262 0
-3262 -3260 -3263 0
3262 3260 -3263 0
3262 -3260 3263 0
-3262 3260 3263 0
-3262 -3260 3264 0
3262 -3264 0
3260 -3264 0
-3043 -3261 3265 0
3043 -3265 0
3261 -3265 0
3264 3265 -3266 0
-3264 3266 0
-3265 3266 0
-34 -3239 3267 0
34 -3267 0
3239 -3267 0
-3049 -3267 -3268 0
3049 3267 -3268 0
3049 -3267 3268 0
-3049 3267 3268 0
-3268 -3266 -3269 0
3268 3266 -3269 0
3268 -3266 3269 0
-3268 3266 3269 0
-3268 -3266 3270 0
3268 -3270 0
3266 -3270 0
-3049 -3267 3271 0
3049 -3271 0
3267 -3271 0
3270 3271 -3272 0
-3270 3272 0
-3271 3272 0
-42 -3239 3273 0
42 -3273 0
3239 -3273 0
-3055 -3273 -3274 0
3055 3273 -3274 0
3055 -3273 3274 0
-3055 3273 3274 0
-3274 -3272 -3275 0
3274 3272 -3275 0
3274 -3272 3275 0
-3274 3272 3275 0
-3274 -3272 3276 0
3274 -3276 0
3272 -3276 0
-3055 -3273 3277 0
3055 -3277 0
3273 -3277 0
3276 3277 -3278 0
-3276 3278 0
-3277 3278 0
-50 -3239 3279 0
50 -3279 0
3239 -3279 0
-3061 -3279 -3280 0
3061 3279 -3280 0
3061 -3279 3280 0
-3061 3279 3280 0
-3280 -3278 -3281 0
3280 3278 -3281 0
3280 -3278 3281 0
-3280 3278 3281 0
-3280 -3278 3282 0
3280 -3282 0
3278 -3282 0
-3061 -3279 3283 0
3061 -3283 0
3279 -3283 0
3282 3283 -3284 0
-3282 3284 0
-3283 3284 0
-58 -3239 3285 0
58 -3285 0
3239 -3285 0
-3067 -3285 -3286 0
3067 3285 -3286 0
3067 -3285 3286 0
-3067 3285 3286 0
-3286 -3284 -3287 0
3286 3284 -3287 0
3286 -3284 3287 0
-3286 3284 3287 0
-3286 -3284 3288 0
3286 -3288 0
3284 -3288 0
-3067 -3285 3289 0
3067 -3289 0
3285 -3289 0
3288 3289 -3290 0
-3288 3290 0
-3289 3290 0
-66 -3239 3291 0
66 -3291 0
3239 -3291 0
-3073 -3291 -3292 0
3073 3291 -3292 0
3073 -3291 3292 0
-3073 3291 3292 0
-3292 -3290 -3293 0
3292 3290 -3293 0
3292 -3290 3293 0
-3292 3290 3293 0
-3292 -3290 3294 0
3292 -3294 0
3290 -3294 0
-3073 -3291 3295 0
3073 -3295 0
3291 -3295 0
3294 3295 -3296 0
-3294 3296 0
-3295 3296 0
-74 -3239 3297 0
74 -3297 0
3239 -3297 0
-3079 -3297 -3298 0
3079 3297 -3298 0
3079 -3297 3298 0
-3079 3297 3298 0
-3298 -3296 -3299 0
3298 3296 -3299 0
3298 -3296 3299 0
-3298 3296 3299 0
-3298 -3296 3300 0
3298 -3300 0
3296 -3300 0
-3079 -3297 3301 0
3079 -3301 0
3297 -3301 0
3300 3301 -3302 0
-3300 3302 0
-3301 3302 0
-82 -3239 3303 0
82 -3303 0
3239 -3303 0
-3085 -3303 -3304 0
3085 3303 -3304 0
3085 -3303 3304 0
-3085 3303 3304 0
-3304 -3302 -3305 0
3304 3302 -3305 0
3304 -3302 3305 0
-3304 3302 3305 0
-3304 -3302 3306 0
3304 -3306 0
3302 -3306 0
-3085 -3303 3307 0
3085 -3307 0
3303 -3307 0
3306 3307 -3308 0
-3306 3308 0
-3307 3308 0
-90 -3239 3309 0
90 -3309 0
3239 -3309 0
-3091 -3309 -3310 0
3091 3309 -3310 0
3091 -3309 3310 0
-3091 3309 3310 0
-3310 -3308 -3311 0
3310 3308 -3311 0
3310 -3308 3311 0
-3310 3308 3311 0
-3310 -3308 3312 0
3310 -3312 0
3308 -3312 0
-3091 -3309 3313 0
3091 -3313 0
3309 -3313 0
3312 3313 -3314 0
-3312 3314 0
-3313 3314 0
-98 -3239 3315 0
98 -3315 0
3239 -3315 0
-3097 -3315 -3316 0
3097 3315 -3316 0
3097 -3315 3316 0
-3097 3315 3316 0
-3316 -3314 -3317 0
3316 3314 -3317 0
3316 -3314 3317 0
-3316 3314 3317 0
-3316 -3314 3318 0
3316 -3318 0
3314 -3318 0
-3097 -3315 3319 0
3097 -3319 0
3315 -3319 0
3318 3319 -3320 0
-3318 3320 0
-3319 3320 0
-106 -3239 3321 0
106 -3321 0
3239 -3321 0
-3103 -3321 -3322 0
3103 3321 -3322 0
3103 -3321 3322 0
-3103 3321 3322 0
-3322 -3320 -3323 0
3322 3320 -3323 0
3322 -3320 3323 0
-3322 3320 3323 0
-3322 -3320 3324 0
3322 -3324 0
3320 -3324 0
-3103 -3321 3325 0
3103 -3325 0
3321 -3325 0
3324 3325 -3326 0
-3324 3326 0
-3325 3326 0
-114 -3239 3327 0
114 -3327 0
3239 -3327 0
-3109 -3327 -3328 0
3109 3327 -3328 0
3109 -3327 3328 0
-3109 3327 3328 0
-3328 -3326 -3329 0
3328 3326 -3329 0
3328 -3326 3329 0
-3328 3326 3329 0
-3328 -3326 3330 0
3328 -3330 0
3326 -3330 0
-3109 -3327 3331 0
3109 -3331 0
3327 -3331 0
3330 3331 -3332 0
-3330 3332 0
-3331 3332 0
-122 -3239 3333 0
122 -3333 0
3239 -3333 0
-3115 -3333 -3334 0
3115 3333 -3334 0
3115 -3333 3334 0
-3115 3333 3334 0
-3334 -3332 -3335 0
3334 3332 -3335 0
3334 -3332 3335 0
-3334 3332 3335 0
-3334 -3332 3336 0
3334 -3336 0
3332 -3336 0
-3115 -3333 3337 0
3115 -3337 0
3333 -3337 0
3336 3337 -3338 0
-3336 3338 0
-3337 3338 0
-130 -3239 3339 0
130 -3339 0
3239 -3339 0
-3121 -3339 -3340 0
3121 3339 -3340 0
3121 -3339 3340 0
-3121 3339 3340 0
-3340 -3338 -3341 0
3340 3338 -3341 0
3340 -3338 3341 0
-3340 3338 3341 0
-3340 -3338 3342 0
3340 -3342 0
3338 -3342 0
-3121 -3339 3343 0
3121 -3343 0
3339 -3343 0
3342 3343 -3344 0
-3342 3344 0
-3343 3344 0
-138 -3239 3345 0
138 -3345 0
3239 -3345 0
-3127 -3345 -3346 0
3127 3345 -3346 0
3127 -3345 3346 0
-3127 3345 3346 0
-3346 -3344 -3347 0
3346 3344 -3347 0
3346 -3344 3347 0
-3346 3344 3347 0
-3346 -3344 3348 0
3346 -3348 0
3344 -3348 0
-3127 -3345 3349 0
3127 -3349 0
3345 -3349 0
3348 3349 -3350 0
-3348 3350 0
-3349 3350 0
-146 -3239 3351 0
146 -3351 0
3239 -3351 0
-3133 -3351 -3352 0
3133 3351 -3352 0
3133 -3351 3352 0
-3133 3351 3352 0
-3352 -3350 -3353 0
3352 3350 -3353 0
3352 -3350 3353 0
-3352 3350 3353 0
-3352 -3350 3354 0
3352 -3354 0
3350 -3354 0
-3133 -3351 3355 0
3133 -3355 0
3351 -3355 0
3354 3355 -3356 0
-3354 3356 0
-3355 3356 0
-154 -3239 3357 0
154 -3357 0
3239 -3357 0
-3139 -3357 -3358 0
3139 3357 -3358 0
3139 -3357 3358 0
-3139 3357 3358 0
-3358 -3356 -3359 0
3358 3356 -3359 0
3358 -3356 3359 0
-3358 3356 3359 0
-3358 -3356 3360 0
3358 -3360 0
3356 -3360 0
-3139 -3357 3361 0
3139 -3361 0
3357 -3361 0
3360 3361 -3362 0
-3360 3362 0
-3361 3362 0
-162 -3239 3363 0
162 -3363 0
3239 -3363 0
-3145 -3363 -3364 0
3145 3363 -3364 0
3145 -3363 3364 0
-3145 3363 3364 0
-3364 -3362 -3365 0
3364 3362 -3365 0
3364 -3362 3365 0
-3364 3362 3365 0
-3364 -3362 3366 0
3364 -3366 0
3362 -3366 0
-3145 -3363 3367 0
3145 -3367 0
3363 -3367 0
3366 3367 -3368 0
-3366 3368 0
-3367 3368 0
-170 -3239 3369 0
170 -3369 0
3239 -3369 0
-3151 -3369 -3370 0
3151 3369 -3370 0
3151 -3369 3370 0
-3151 3369 3370 0
-3370 -3368 -3371 0
3370 3368 -3371 0
3370 -3368 3371 0
-3370 3368 3371 0
-3370 -3368 3372 0
3370 -3372 0
3368 -3372 0
-3151 -3369 3373 0
3151 -3373 0
3369 -3373 0
3372 3373 -3374 0
-3372 3374 0
-3373 3374 0
-178 -3239 3375 0
178 -3375 0
3239 -3375 0
-3157 -3375 -3376 0
3157 3375 -3376 0
3157 -3375 3376 0
-3157 3375 3376 0
-3376 -3374 -3377 0
3376 3374 -3377 0
3376 -3374 3377 0
-3376 3374 3377 0
-3376 -3374 3378 0
3376 -3378 0
3374 -3378 0
-3157 -3375 3379 0
3157 -3379 0
3375 -3379 0
3378 3379 -3380 0
-3378 3380 0
-3379 3380 0
-186 -3239 3381 0
186 -3381 0
3239 -3381 0
-3163 -3381 -3382 0
3163 3381 -3382 0
3163 -3381 3382 0
-3163 3381 3382 0
-3382 -3380 -3383 0
3382 3380 -3383 0
3382 -3380 3383 0
-3382 3380 3383 0
-3382 -3380 3384 0
3382 -3384 0
3380 -3384 0
-3163 -3381 3385 0
3163 -3385 0
3381 -3385 0
3384 3385 -3386 0
-3384 3386 0
-3385 3386 0
-194 -3239 3387 0
194 -3387 0
3239 -3387 0
-3169 -3387 -3388 0
3169 3387 -3388 0
3169 -3387 3388 0
-3169 3387 3388 0
-3388 -3386 -3389 0
3388 3386 -3389 0
3388 -3386 3389 0
-3388 3386 3389 0
-3388 -3386 3390 0
3388 -3390 0
3386 -3390 0
-3169 -3387 3391 0
3169 -3391 0
3387 -3391 0
3390 3391 -3392 0
-3390 3392 0
-3391 3392 0
-202 -3239 3393 0
202 -3393 0
3239 -3393 0
-3175 -3393 -3394 0
3175 3393 -3394 0
3175 -3393 3394 0
-3175 3393 3394 0
-3394 -3392 -3395 0
3394 3392 -3395 0
3394 -3392 3395 0
-3394 3392 3395 0
-3394 -3392 3396 0
3394 -3396 0
3392 -3396 0
-3175 -3393 3397 0
3175 -3397 0
3393 -3397 0
3396 3397 -3398 0
-3396 3398 0
-3397 3398 0
-210 -3239 3399 0
210 -3399 0
3239 -3399 0
-3181 -3399 -3400 0
3181 3399 -3400 0
3181 -3399 3400 0
-3181 3399 3400 0
-3400 -3398 -3401 0
3400 3398 -3401 0
3400 -3398 3401 0
-3400 3398 3401 0
-3400 -3398 3402 0
3400 -3402 0
3398 -3402 0
-3181 -3399 3403 0
3181 -3403 0
3399 -3403 0
3402 3403 -3404 0
-3402 3404 0
-3403 3404 0
-218 -3239 3405 0
218 -3405 0
3239 -3405 0
-3187 -3405 -3406 0
3187 3405 -3406 0
3187 -3405 3406 0
-3187 3405 3406 0
-3406 -3404 -3407 0
3406 3404 -3407 0
3406 -3404 3407 0
-3406 3404 3407 0
-3406 -3404 3408 0
3406 -3408 0
3404 -3408 0
-3187 -3405 3409 0
3187 -3409 0
3405 -3409 0
3408 3409 -3410 0
-3408 3410 0
-3409 3410 0
-226 -3239 3411 0
226 -3411 0
3239 -3411 0
-3193 -3411 -3412 0
3193 3411 -3412 0
3193 -3411 3412 0
-3193 3411 3412 0
-3412 -3410 -3413 0
3412 3410 -3413 0
3412 -3410 3413 0
-3412 3410 3413 0
-3412 -3410 3414 0
3412 -3414 0
3410 -3414 0
-3193 -3411 3415 0
3193 -3415 0
3411 -3415 0
3414 3415 -3416 0
-3414 3416 0
-3415 3416 0
-234 -3239 3417 0
234 -3417 0
3239 -3417 0
-3199 -3417 -3418 0
3199 3417 -3418 0
3199 -3417 3418 0
-3199 3417 3418 0
-3418 -3416 -3419 0
3418 3416 -3419 0
3418 -3416 3419 0
-3418 3416 3419 0
-3418 -3416 3420 0
3418 -3420 0
3416 -3420 0
-3199 -3417 3421 0
3199 -3421 0
3417 -3421 0
3420 3421 -3422 0
-3420 3422 0
-3421 3422 0
-242 -3239 3423 0
242 -3423 0
3239 -3423 0
-3205 -3423 -3424 0
3205 3423 -3424 0
3205 -3423 3424 0
-3205 3423 3424 0
-3424 -3422 -3425 0
3424 3422 -3425 0
3424 -3422 3425 0
-3424 3422 3425 0
-3424 -3422 3426 0
3424 -3426 0
3422 -3426 0
-3205 -3423 3427 0
3205 -3427 0
3423 -3427 0
3426 3427 -3428 0
-3426 3428 0
-3427 3428 0
-250 -3239 3429 0
250 -3429 0
3239 -3429 0
-3211 -3429 -3430 0
3211 3429 -3430 0
3211 -3429 3430 0
-3211 3429 3430 0
-3430 -3428 -3431 0
3430 3428 -3431 0
3430 -3428 3431 0
-3430 3428 3431 0
-3430 -3428 3432 0
3430 -3432 0
3428 -3432 0
-3211 -3429 3433 0
3211 -3433 0
3429 -3433 0
3432 3433 -3434 0
-3432 3434 0
-3433 3434 0
-258 -3239 3435 0
258 -3435 0
3239 -3435 0
-3217 -3435 -3436 0
3217 3435 -3436 0
3217 -3435 3436 0
-3217 3435 3436 0
-3436 -3434 -3437 0
3436 3434 -3437 0
3436 -3434 3437 0
-3436 3434 3437 0
-3436 -3434 3438 0
3436 -3438 0
3434 -3438 0
-3217 -3435 3439 0
3217 -3439 0
3435 -3439 0
3438 3439 -3440 0
-3438 3440 0
-3439 3440 0
-266 -3239 3441 0
266 -3441 0
3239 -3441 0
-3223 -3441 -3442 0
3223 3441 -3442 0
3223 -3441 3442 0
-3223 3441 3442 0
-3442 -3440 -3443 0
3442 3440 -3443 0
3442 -3440 3443 0
-3442 3440 3443 0
-3442 -3440 3444 0
3442 -3444 0
3440 -3444 0
-3223 -3441 3445 0
3223 -3445 0
3441 -3445 0
3444 3445 -3446 0
-3444 3446 0
-3445 3446 0
-274 -3239 3447 0
274 -3447 0
3239 -3447 0
-3229 -3447 -3448 0
3229 3447 -3448 0
3229 -3447 3448 0
-3229 3447 3448 0
-3448 -3446 -3449 0
3448 3446 -3449 0
3448 -3446 3449 0
-3448 3446 3449 0
-3448 -3446 3450 0
3448 -3450 0
3446 -3450 0
-3229 -3447 3451 0
3229 -3451 0
3447 -3451 0
3450 3451 -3452 0
-3450 3452 0
-3451 3452 0
-282 -3239 3453 0
282 -3453 0
3239 -3453 0
-3235 -3453 -3454 0
3235 3453 -3454 0
3235 -3453 3454 0
-3235 3453 3454 0
-3454 -3452 -3455 0
3454 3452 -3455 0
3454 -3452 3455 0
-3454 3452 3455 0
-3454 -3452 3456 0
3454 -3456 0
3452 -3456 0
-3235 -3453 3457 0
3235 -3457 0
3453 -3457 0
3456 3457 -3458 0
-3456 3458 0
-3457 3458 0
-290 -3239 3459 0
290 -3459 0
3239 -3459 0
-3238 -3459 -3460 0
3238 3459 -3460 0
3238 -3459 3460 0
-3238 3459 3460 0
-3460 -3458 -3461 0
3460 3458 -3461 0
3460 -3458 3461 0
-3460 3458 3461 0
-3460 -3458 3462 0
3460 -3462 0
3458 -3462 0
-3238 -3459 3463 0
3238 -3463 0
3459 -3463 0
3462 3463 -3464 0
-3462 3464 0
-3463 3464 0
-1 -3465 3466 0
1 -3466 0
3465 -3466 0
-3245 -3466 -3467 0
3245 3466 -3467 0
3245 -3466 3467 0
-3245 3466 3467 0
-3245 -3466 3468 0
3245 -3468 0
3466 -3468 0
-4 -3465 3469 0
4 -3469 0
3465 -3469 0
-3251 -3469 -3470 0
3251 3469 -3470 0
3251 -3469 3470 0
-3251 3469 3470 0
-3470 -3468 -3471 0
3470 3468 -3471 0
3470 -3468 3471 0
-3470 3468 3471 0
-3470 -3468 3472 0
3470 -3472 0
3468 -3472 0
-3251 -3469 3473 0
3251 -3473 0
3469 -3473 0
3472 3473 -3474 0
-3472 3474 0
-3473 3474 0
-10 -3465 3475 0
10 -3475 0
3465 -3475 0
-3257 -3475 -3476 0
3257 3475 -3476 0
3257 -3475 3476 0
-3257 3475 3476 0
-3476 -3474 -3477 0
3476 3474 -3477 0
3476 -3474 3477 0
-3476 3474 3477 0
-3476 -3474 3478 0
3476 -3478 0
3474 -3478 0
-3257 -3475 3479 0
3257 -3479 0
3475 -3479 0
3478 3479 -3480 0
-3478 3480 0
-3479 3480 0
-18 -3465 3481 0
18 -3481 0
3465 -3481 0
-3263 -3481 -3482 0
3263 3481 -3482 0
3263 -3481 3482 0
-3263 3481 3482 0
-3482 -3480 -3483 0
3482 3480 -3483 0
3482 -3480 3483 0
-3482 3480 3483 0
-3482 -3480 3484 0
3482 -3484 0
3480 -3484 0
-3263 -3481 3485 0
3263 -3485 0
3481 -3485 0
3484 3485 -3486 0
-3484 3486 0
-3485 3486 0
-26 -3465 3487 0
26 -3487 0
3465 -3487 0
-3269 -3487 -3488 0
3269 3487 -3488 0
3269 -3487 3488 0
-3269 3487 3488 0
-3488 -3486 -3489 0
3488 3486 -3489 0
3488 -3486 3489 0
-3488 3486 3489 0
-3488 -3486 3490 0
3488 -3490 0
3486 -3490 0
-3269 -3487 3491 0
3269 -3491 0
3487 -3491 0
3490 3491 -3492 0
-3490 3492 0
-3491 3492 0
-34 -3465 3493 0
34 -3493 0
3465 -3493 0
-3275 -3493 -3494 0
3275 3493 -3494 0
3275 -3493 3494 0
-3275 3493 3494 0
-3494 -3492 -3495 0
3494 3492 -3495 0
3494 -3492 3495 0
-3494 3492 3495 0
-3494 -3492 3496 0
3494 -3496 0
3492 -3496 0
-3275 -3493 3497 0
3275 -3497 0
3493 -3497 0
3496 3497 -3498 0
-3496 3498 0
-3497 3498 0
-42 -3465 3499 0
42 -3499 0
3465 -3499 0
-3281 -3499 -3500 0
3281 3499 -3500 0
3281 -3499 3500 0
-3281 3499 3500 0
-3500 -3498 -3501 0
3500 3498 -3501 0
3500 -3498 3501 0
-3500 3498 3501 0
-3500 -3498 3502 0
3500 -3502 0
3498 -3502 0
-3281 -3499 3503 0
3281 -3503 0
3499 -3503 0
3502 3503 -3504 0
-3502 3504 0
-3503 3504 0
-50 -3465 3505 0
50 -3505 0
3465 -3505 0
-3287 -3505 -3506 0
3287 3505 -3506 0
3287 -3505 3506 0
-3287 3505 3506 0
-3506 -3504 -3507 0
3506 3504 -3507 0
3506 -3504 3507 0
-3506 3504 3507 0
-3506 -3504 3508 0
3506 -3508 0
3504 -3508 0
-3287 -3505 3509 0
3287 -3509 0
3505 -3509 0
3508 3509 -3510 0
-3508 3510 0
-3509 3510 0
-58 -3465 3511 0
58 -3511 0
3465 -3511 0
-3293 -3511 -3512 0
3293 3511 -3512 0
3293 -3511 3512 0
-3293 3511 3512 0
-3512 -3510 -3513 0
3512 3510 -3513 0
3512 -3510 3513 0
-3512 3510 3513 0
-3512 -3510 3514 0
3512 -3514 0
3510 -3514 0
-3293 -3511 3515 0
3293 -3515 0
3511 -3515 0
3514 3515 -3516 0
-3514 3516 0
-3515 3516 0
-66 -3465 3517 0
66 -3517 0
3465 -3517 0
-3299 -3517 -3518 0
3299 3517 -3518 0
3299 -3517 3518 0
-3299 3517 3518 0
-3518 -3516 -3519 0
3518 3516 -3519 0
3518 -3516 3519 0
-3518 3516 3519 0
-3518 -3516 3520 0
3518 -3520 0
3516 -3520 0
-3299 -3517 3521 0
3299 -3521 0
3517 -3521 0
3520 3521 -3522 0
-3520 3522 0
-3521 3522 0
-74 -3465 3523 0
74 -3523 0
3465 -3523 0
-3305 -3523 -3524 0
3305 3523 -3524 0
3305 -3523 3524 0
-3305 3523 3524 0
-3524 -3522 -3525 0
3524 3522 -3525 0
3524 -3522 3525 0
-3524 3522 3525 0
-3524 -3522 3526 0
3524 -3526 0
3522 -3526 0
-3305 -3523 3527 0
3305 -3527 0
3523 -3527 0
3526 3527 -3528 0
-3526 3528 0
-3527 3528 0
-82 -3465 3529 0
82 -3529 0
3465 -3529 0
-3311 -3529 -3530 0
3311 3529 -3530 0
3311 -3529 3530 0
-3311 3529 3530 0
-3530 -3528 -3531 0
3530 3528 -3531 0
3530 -3528 3531 0
-3530 3528 3531 0
-3530 -3528 3532 0
3530 -3532 0
3528 -3532 0
-3311 -3529 3533 0
3311 -3533 0
3529 -3533 0
3532 3533 -3534 0
-3532 3534 0
-3533 3534 0
-90 -3465 3535 0
90 -3535 0
3465 -3535 0
-3317 -3535 -3536 0
3317 3535 -3536 0
3317 -3535 3536 0
-3317 3535 3536 0
-3536 -3534 -3537 0
3536 3534 -3537 0
3536 -3534 3537 0
-3536 3534 3537 0
-3536 -3534 3538 0
3536 -3538 0
3534 -3538 0
-3317 -3535 3539 0
3317 -3539 0
3535 -3539 0
3538 3539 -3540 0
-3538 3540 0
-3539 3540 0
-98 -3465 3541 0
98 -3541 0
3465 -3541 0
-3323 -3541 -3542 0
3323 3541 -3542 0
3323 -3541 3542 0
-3323 3541 3542 0
-3542 -3540 -3543 0
3542 3540 -3543 0
3542 -3540 3543 0
-3542 3540 3543 0
-3542 -3540 3544 0
3542 -3544 0
3540 -3544 0
-3323 -3541 3545 0
3323 -3545 0
3541 -3545 0
3544 3545 -3546 0
-3544 3546 0
-3545 3546 0
-106 -3465 3547 0
106 -3547 0
3465 -3547 0
-3329 -3547 -3548 0
3329 3547 -3548 0
3329 -3547 3548 0
-3329 3547 3548 0
-3548 -3546 -3549 0
3548 3546 -3549 0
3548 -3546 3549 0
-3548 3546 3549 0
-3548 -3546 3550 0
3548 -3550 0
3546 -3550 0
-3329 -3547 3551 0
3329 -3551 0
3547 -3551 0
3550 3551 -3552 0
-3550 3552 0
-3551 3552 0
-114 -3465 3553 0
114 -3553 0
3465 -3553 0
-3335 -3553 -3554 0
3335 3553 -3554 0
3335 -3553 3554 0
-3335 3553 3554 0
-3554 -3552 -3555 0
3554 3552 -3555 0
3554 -3552 3555 0
-3554 3552 3555 0
-3554 -3552 3556 0
3554 -3556 0
3552 -3556 0
-3335 -3553 3557 0
3335 -3557 0
3553 -3557 0
3556 3557 -3558 0
-3556 3558 0
-3557 3558 0
-122 -3465 3559 0
122 -3559 0
3465 -3559 0
-3341 -3559 -3560 0
3341 3559 -3560 0
3341 -3559 3560 0
-3341 3559 3560 0
-3560 -3558 -3561 0
3560 3558 -3561 0
3560 -3558 3561 0
-3560 3558 3561 0
-3560 -3558 3562 0
3560 -3562 0
3558 -3562 0
-3341 -3559 3563 0
3341 -3563 0
3559 -3563 0
3562 3563 -3564 0
-3562 3564 0
-3563 3564 0
-130 -3465 3565 0
130 -3565 0
3465 -3565 0
-3347 -3565 -3566 0
3347 3565 -3566 0
3347 -3565 3566 0
-3347 3565 3566 0
-3566 -3564 -3567 0
3566 3564 -3567 0
3566 -3564 3567 0
-3566 3564 3567 0
-3566 -3564 3568 0
3566 -3568 0
3564 -3568 0
-3347 -3565 3569 0
3347 -3569 0
3565 -3569 0
3568 3569 -3570 0
-3568 3570 0
-3569 3570 0
-138 -3465 3571 0
138 -3571 0
3465 -3571 0
-3353 -3571 -3572 0
3353 3571 -3572 0
3353 -3571 3572 0
-3353 3571 3572 0
-3572 -3570 -3573 0
3572 3570 -3573 0
3572 -3570 3573 0
-3572 3570 3573 0
-3572 -3570 3574 0
3572 -3574 0
3570 -3574 0
-3353 -3571 3575 0
3353 -3575 0
3571 -3575 0
3574 3575 -3576 0
-3574 3576 0
-3575 3576 0
-146 -3465 3577 0
146 -3577 0
3465 -3577 0
-3359 -3577 -3578 0
3359 3577 -3578 0
3359 -3577 3578 0
-3359 3577 3578 0
-3578 -3576 -3579 0
3578 3576 -3579 0
3578 -3576 3579 0
-3578 3576 3579 0
-3578 -3576 3580 0
3578 -3580 0
3576 -3580 0
-3359 -3577 3581 0
3359 -3581 0
3577 -3581 0
3580 3581 -3582 0
-3580 3582 0
-3581 3582 0
-154 -3465 3583 0
154 -3583 0
3465 -3583 0
-3365 -3583 -3584 0
3365 3583 -3584 0
3365 -3583 3584 0
-3365 3583 3584 0
-3584 -3582 -3585 0
3584 3582 -3585 0
3584 -3582 3585 0
-3584 3582 3585 0
-3584 -3582 3586 0
3584 -3586 0
3582 -3586 0
-3365 -3583 3587 0
3365 -3587 0
3583 -3587 0
3586 3587 -3588 0
-3586 3588 0
-3587 3588 0
-162 -3465 3589 0
162 -3589 0
3465 -3589 0
-3371 -3589 -3590 0
3371 3589 -3590 0
3371 -3589 3590 0
-3371 3589 3590 0
-3590 -3588 -3591 0
3590 3588 -3591 0
3590 -3588 3591 0
-3590 3588 3591 0
-3590 -3588 3592 0
3590 -3592 0
3588 -3592 0
-3371 -3589 3593 0
3371 -3593 0
3589 -3593 0
3592 3593 -3594 0
-3592 3594 0
-3593 3594 0
-170 -3465 3595 0
170 -3595 0
3465 -3595 0
-3377 -3595 -3596 0
3377 3595 -3596 0
3377 -3595 3596 0
-3377 3595 3596 0
-3596 -3594 -3597 0
3596 3594 -3597 0
3596 -3594 3597 0
-3596 3594 3597 0
-3596 -3594 3598 0
3596 -3598 0
3594 -3598 0
-3377 -3595 3599 0
3377 -3599 0
3595 -3599 0
3598 3599 -3600 0
-3598 3600 0
-3599 3600 0
-178 -3465 3601 0
178 -3601 0
3465 -3601 0
-3383 -3601 -3602 0
3383 3601 -3602 0
3383 -3601 3602 0
-3383 3601 3602 0
-3602 -3600 -3603 0
3602 3600 -3603 0
3602 -3600 3603 0
-3602 3600 3603 0
-3602 -3600 3604 0
3602 -3604 0
3600 -3604 0
-3383 -3601 3605 0
3383 -3605 0
3601 -3605 0
3604 3605 -3606 0
-3604 3606 0
-3605 3606 0
-186 -3465 3607 0
186 -3607 0
3465 -3607 0
-3389 -3607 -3608 0
3389 3607 -3608 0
3389 -3607 3608 0
-3389 3607 3608 0
-3608 -3606 -3609 0
3608 3606 -3609 0
3608 -3606 3609 0
-3608 3606 3609 0
-3608 -3606 3610 0
3608 -3610 0
3606 -3610 0
-3389 -3607 3611 0
3389 -3611 0
3607 -3611 0
3610 3611 -3612 0
-3610 3612 0
-3611 3612 0
-194 -3465 3613 0
194 -3613 0
3465 -3613 0
-3395 -3613 -3614 0
3395 3613 -3614 0
3395 -3613 3614 0
-3395 3613 3614 0
-3614 -3612 -3615 0
3614 3612 -3615 0
3614 -3612 3615 0
-3614 3612 3615 0
-3614 -3612 3616 0
3614 -3616 0
3612 -3616 0
-3395 -3613 3617 0
3395 -3617 0
3613 -3617 0
3616 3617 -3618 0
-3616 3618 0
-3617 3618 0
-202 -3465 3619 0
202 -3619 0
3465 -3619 0
-3401 -3619 -3620 0
3401 3619 -3620 0
3401 -3619 3620 0
-3401 3619 3620 0
-3620 -3618 -3621 0
3620 3618 -3621 0
3620 -3618 3621 0
-3620 3618 3621 0
-3620 -3618 3622 0
3620 -3622 0
3618 -3622 0
-3401 -3619 3623 0
3401 -3623 0
3619 -3623 0
3622 3623 -3624 0
-3622 3624 0
-3623 3624 0
-210 -3465 3625 0
210 -3625 0
3465 -3625 0
-3407 -3625 -3626 0
3407 3625 -3626 0
3407 -3625 3626 0
-3407 3625 3626 0
-3626 -3624 -3627 0
3626 3624 -3627 0
3626 -3624 3627 0
-3626 3624 3627 0
-3626 -3624 3628 0
3626 -3628 0
3624 -3628 0
-3407 -3625 3629 0
3407 -3629 0
3625 -3629 0
3628 3629 -3630 0
-3628 3630 0
-3629 3630 0
-218 -3465 3631 0
218 -3631 0
3465 -3631 0
-3413 -3631 -3632 0
3413 3631 -3632 0
3413 -3631 3632 0
-3413 3631 3632 0
-3632 -3630 -3633 0
3632 3630 -3633 0
3632 -3630 3633 0
-3632 3630 3633 0
-3632 -3630 3634 0
3632 -3634 0
3630 -3634 0
-3413 -3631 3635 0
3413 -3635 0
3631 -3635 0
3634 3635 -3636 0
-3634 3636 0
-3635 3636 0
-226 -3465 3637 0
226 -3637 0
3465 -3637 0
-3419 -3637 -3638 0
3419 3637 -3638 0
3419 -3637 3638 0
-3419 3637 3638 0
-3638 -3636 -3639 0
3638 3636 -3639 0
3638 -3636 3639 0
-3638 3636 3639 0
-3638 -3636 3640 0
3638 -3640 0
3636 -3640 0
-3419 -3637 3641 0
3419 -3641 0
3637 -3641 0
3640 3641 -3642 0
-3640 3642 0
-3641 3642 0
-234 -3465 3643 0
234 -3643 0
3465 -3643 0
-3425 -3643 -3644 0
3425 3643 -3644 0
3425 -3643 3644 0
-3425 3643 3644 0
-3644 -3642 -3645 0
3644 3642 -3645 0
3644 -3642 3645 0
-3644 3642 3645 0
-3644 -3642 3646 0
3644 -3646 0
3642 -3646 0
-3425 -3643 3647 0
3425 -3647 0
3643 -3647 0
3646 3647 -3648 0
-3646 3648 0
-3647 3648 0
-242 -3465 3649 0
242 -3649 0
3465 -3649 0
-3431 -3649 -3650 0
3431 3649 -3650 0
3431 -3649 3650 0
-3431 3649 3650 0
-3650 -3648 -3651 0
3650 3648 -3651 0
3650 -3648 3651 0
-3650 3648 3651 0
-3650 -3648 3652 0
3650 -3652 0
3648 -3652 0
-3431 -3649 3653 0
3431 -3653 0
3649 -3653 0
3652 3653 -3654 0
-3652 3654 0
-3653 3654 0
-250 -3465 3655 0
250 -3655 0
3465 -3655 0
-3437 -3655 -3656 0
3437 3655 -3656 0
3437 -3655 3656 0
-3437 3655 3656 0
-3656 -3654 -3657 0
3656 3654 -3657 0
3656 -3654 3657 0
-3656 3654 3657 0
-3656 -3654 3658 0
3656 -3658 0
3654 -3658 0
-3437 -3655 3659 0
3437 -3659 0
3655 -3659 0
3658 3659 -3660 0
-3658 3660 0
-3659 3660 0
-258 -3465 3661 0
258 -3661 0
3465 -3661 0
-3443 -3661 -3662 0
3443 3661 -3662 0
3443 -3661 3662 0
-3443 3661 3662 0
-3662 -3660 -3663 0
3662 3660 -3663 0
3662 -3660 3663 0
-3662 3660 3663 0
-3662 -3660 3664 0
3662 -3664 0
3660 -3664 0
-3443 -3661 3665 0
3443 -3665 0
3661 -3665 0
3664 3665 -3666 0
-3664 3666 0
-3665 3666 0
-266 -3465 3667 0
266 -3667 0
3465 -3667 0
-3449 -3667 -3668 0
3449 3667 -3668 0
3449 -3667 3668 0
-3449 3667 3668 0
-3668 -3666 -3669 0
3668 3666 -3669 0
3668 -3666 3669 0
-3668 3666 3669 0
-3668 -3666 3670 0
3668 -3670 0
3666 -3670 0
-3449 -3667 3671 0
3449 -3671 0
3667 -3671 0
3670 3671 -3672 0
-3670 3672 0
-3671 3672 0
-274 -3465 3673 0
274 -3673 0
3465 -3673 0
-3455 -3673 -3674 0
3455 3673 -3674 0
3455 -3673 3674 0
-3455 3673 3674 0
-3674 -3672 -3675 0
3674 3672 -3675 0
3674 -3672 3675 0
-3674 3672 3675 0
-3674 -3672 3676 0
3674 -3676 0
3672 -3676 0
-3455 -3673 3677 0
3455 -3677 0
3673 -3677 0
3676 3677 -3678 0
-3676 3678 0
-3677 3678 0
-282 -3465 3679 0
282 -3679 0
3465 -3679 0
-3461 -3679 -3680 0
3461 3679 -3680 0
3461 -3679 3680 0
-3461 3679 3680 0
-3680 -3678 -3681 0
3680 3678 -3681 0
3680 -3678 3681 0
-3680 3678 3681 0
-3680 -3678 3682 0
3680 -3682 0
3678 -3682 0
-3461 -3679 3683 0
3461 -3683 0
3679 -3683 0
3682 3683 -3684 0
-3682 3684 0
-3683 3684 0
-290 -3465 3685 0
290 -3685 0
3465 -3685 0
-3464 -3685 -3686 0
3464 3685 -3686 0
3464 -3685 3686 0
-3464 3685 3686 0
-3686 -3684 -3687 0
3686 3684 -3687 0
3686 -3684 3687 0
-3686 3684 3687 0
-3686 -3684 3688 0
3686 -3688 0
3684 -3688 0
-3464 -3685 3689 0
3464 -3689 0
3685 -3689 0
3688 3689 -3690 0
-3688 3690 0
-3689 3690 0
-1 -3691 3692 0
1 -3692 0
3691 -3692 0
-3471 -3692 -3693 0
3471 3692 -3693 0
3471 -3692 3693 0
-3471 3692 3693 0
-3471 -3692 3694 0
3471 -3694 0
3692 -3694 0
-4 -3691 3695 0
4 -3695 0
3691 -3695 0
-3477 -3695 -3696 0
3477 3695 -3696 0
3477 -3695 3696 0
-3477 3695 3696 0
-3696 -3694 -3697 0
3696 3694 -3697 0
3696 -3694 3697 0
-3696 3694 3697 0
-3696 -3694 3698 0
3696 -3698 0
3694 -3698 0
-3477 -3695 3699 0
3477 -3699 0
3695 -3699 0
3698 3699 -3700 0
-3698 3700 0
-3699 3700 0
-10 -3691 3701 0
10 -3701 0
3691 -3701 0
-3483 -3701 -3702 0
3483 3701 -3702 0
3483 -3701 3702 0
-3483 3701 3702 0
-3702 -3700 -3703 0
3702 3700 -3703 0
3702 -3700 3703 0
-3702 3700 3703 0
-3702 -3700 3704 0
3702 -3704 0
3700 -3704 0
-3483 -3701 3705 0
3483 -3705 0
3701 -3705 0
3704 3705 -3706 0
-3704 3706 0
-3705 3706 0
-18 -3691 3707 0
18 -3707 0
3691 -3707 0
-3489 -3707 -3708 0
3489 3707 -3708 0
3489 -3707 3708 0
-3489 3707 3708 0
-3708 -3706 -3709 0
3708 3706 -3709 0
3708 -3706 3709 0
-3708 3706 3709 0
-3708 -3706 3710 0
3708 -3710 0
3706 -3710 0
-3489 -3707 3711 0
3489 -3711 0
3707 -3711 0
3710 3711 -3712 0
-3710 3712 0
-3711 3712 0
-26 -3691 3713 0
26 -3713 0
3691 -3713 0
-3495 -3713 -3714 0
3495 3713 -3714 0
3495 -3713 3714 0
-3495 3713 3714 0
-3714 -3712 -3715 0
3714 3712 -3715 0
3714 -3712 3715 0
-3714 3712 3715 0
-3714 -3712 3716 0
3714 -3716 0
3712 -3716 0
-3495 -3713 3717 0
3495 -3717 0
3713 -3717 0
3716 3717 -3718 0
-3716 3718 0
-3717 3718 0
-34 -3691 3719 0
34 -3719 0
3691 -3719 0
-3501 -3719 -3720 0
3501 3719 -3720 0
3501 -3719 3720 0
-3501 3719 3720 0
-3720 -3718 -3721 0
3720 3718 -3721 0
3720 -3718 3721 0
-3720 3718 3721 0
-3720 -3718 3722 0
3720 -3722 0
3718 -3722 0
-3501 -3719 3723 0
3501 -3723 0
3719 -3723 0
3722 3723 -3724 0
-3722 3724 0
-3723 3724 0
-42 -3691 3725 0
42 -3725 0
3691 -3725 0
-3507 -3725 -3726 0
3507 3725 -3726 0
3507 -3725 3726 0
-3507 3725 3726 0
-3726 -3724 -3727 0
3726 3724 -3727 0
3726 -3724 3727 0
-3726 3724 3727 0
-3726 -3724 3728 0
3726 -3728 0
3724 -3728 0
-3507 -3725 3729 0
3507 -3729 0
3725 -3729 0
3728 3729 -3730 0
-3728 3730 0
-3729 3730 0
-50 -3691 3731 0
50 -3731 0
3691 -3731 0
-3513 -3731 -3732 0
3513 3731 -3732 0
3513 -3731 3732 0
-3513 3731 3732 0
-3732 -3730 -3733 0
3732 3730 -3733 0
3732 -3730 3733 0
-3732 3730 3733 0
-3732 -3730 3734 0
3732 -3734 0
3730 -3734 0
-3513 -3731 3735 0
3513 -3735 0
3731 -3735 0
3734 3735 -3736 0
-3734 3736 0
-3735 3736 0
-58 -3691 3737 0
58 -3737 0
3691 -3737 0
-3519 -3737 -3738 0
3519 3737 -3738 0
3519 -3737 3738 0
-3519 3737 3738 0
-3738 -3736 -3739 0
3738 3736 -3739 0
3738 -3736 3739 0
-3738 3736 3739 0
-3738 -3736 3740 0
3738 -3740 0
3736 -3740 0
-3519 -3737 3741 0
3519 -3741 0
3737 -3741 0
3740 3741 -3742 0
-3740 3742 0
-3741 3742 0
-66 -3691 3743 0
66 -3743 0
3691 -3743 0
-3525 -3743 -3744 0
3525 3743 -3744 0
3525 -3743 3744 0
-3525 3743 3744 0
-3744 -3742 -3745 0
3744 3742 -3745 0
3744 -3742 3745 0
-3744 3742 3745 0
-3744 -3742 3746 0
3744 -3746 0
3742 -3746 0
-3525 -3743 3747 0
3525 -3747 0
3743 -3747 0
3746 3747 -3748 0
-3746 3748 0
-3747 3748 0
-74 -3691 3749 0
74 -3749 0
3691 -3749 0
-3531 -3749 -3750 0
3531 3749 -3750 0
3531 -3749 3750 0
-3531 3749 3750 0
-3750 -3748 -3751 0
3750 3748 -3751 0
3750 -3748 3751 0
-3750 3748 3751 0
-3750 -3748 3752 0
3750 -3752 0
3748 -3752 0
-3531 -3749 3753 0
3531 -3753 0
3749 -3753 0
3752 3753 -3754 0
-3752 3754 0
-3753 3754 0
-82 -3691 3755 0
82 -3755 0
3691 -3755 0
-3537 -3755 -3756 0
3537 3755 -3756 0
3537 -3755 3756 0
-3537 3755 3756 0
-3756 -3754 -3757 0
3756 3754 -3757 0
3756 -3754 3757 0
-3756 3754 3757 0
-3756 -3754 3758 0
3756 -3758 0
3754 -3758 0
-3537 -3755 3759 0
3537 -3759 0
3755 -3759 0
3758 3759 -3760 0
-3758 3760 0
-3759 3760 0
-90 -3691 3761 0
90 -3761 0
3691 -3761 0
-3543 -3761 -3762 0
3543 3761 -3762 0
3543 -3761 3762 0
-3543 3761 3762 0
-3762 -3760 -3763 0
3762 3760 -3763 0
3762 -3760 3763 0
-3762 3760 3763 0
-3762 -3760 3764 0
3762 -3764 0
3760 -3764 0
-3543 -3761 3765 0
3543 -3765 0
3761 -3765 0
3764 3765 -3766 0
-3764 3766 0
-3765 3766 0
-98 -3691 3767 0
98 -3767 0
3691 -3767 0
-3549 -3767 -3768 0
3549 3767 -3768 0
3549 -3767 3768 0
-3549 3767 3768 0
-3768 -3766 -3769 0
3768 3766 -3769 0
3768 -3766 3769 0
-3768 3766 3769 0
-3768 -3766 3770 0
3768 -3770 0
3766 -3770 0
-3549 -3767 3771 0
3549 -3771 0
3767 -3771 0
3770 3771 -3772 0
-3770 3772 0
-3771 3772 0
-106 -3691 3773 0
106 -3773 0
3691 -3773 0
-3555 -3773 -3774 0
3555 3773 -3774 0
3555 -3773 3774 0
-3555 3773 3774 0
-3774 -3772 -3775 0
3774 3772 -3775 0
3774 -3772 3775 0
-3774 3772 3775 0
-3774 -3772 3776 0
3774 -3776 0
3772 -3776 0
-3555 -3773 3777 0
3555 -3777 0
3773 -3777 0
3776 3777 -3778 0
-3776 3778 0
-3777 3778 0
-114 -3691 3779 0
114 -3779 0
3691 -3779 0
-3561 -3779 -3780 0
3561 3779 -3780 0
3561 -3779 3780 0
-3561 3779 3780 0
-3780 -3778 -3781 0
3780 3778 -3781 0
3780 -3778 3781 0
-3780 3778 3781 0
-3780 -3778 3782 0
3780 -3782 0
3778 -3782 0
-3561 -3779 3783 0
3561 -3783 0
3779 -3783 0
3782 3783 -3784 0
-3782 3784 0
-3783 3784 0
-122 -3691 3785 0
122 -3785 0
3691 -3785 0
-3567 -3785 -3786 0
3567 3785 -3786 0
3567 -3785 3786 0
-3567 3785 3786 0
-3786 -3784 -3787 0
3786 3784 -3787 0
3786 -3784 3787 0
-3786 3784 3787 0
-3786 -3784 3788 0
3786 -3788 0
3784 -3788 0
-3567 -3785 3789 0
3567 -3789 0
3785 -3789 0
3788 3789 -3790 0
-3788 3790 0
-3789 3790 0
-130 -3691 3791 0
130 -3791 0
3691 -3791 0
-3573 -3791 -3792 0
3573 3791 -3792 0
3573 -3791 3792 0
-3573 3791 3792 0
-3792 -3790 -3793 0
3792 3790 -3793 0
3792 -3790 3793 0
-3792 3790 3793 0
-3792 -3790 3794 0
3792 -3794 0
3790 -3794 0
-3573 -3791 3795 0
3573 -3795 0
3791 -3795 0
3794 3795 -3796 0
-3794 3796 0
-3795 3796 0
-138 -3691 3797 0
138 -3797 0
3691 -3797 0
-3579 -3797 -3798 0
3579 3797 -3798 0
3579 -3797 3798 0
-3579 3797 3798 0
-3798 -3796 -3799 0
3798 3796 -3799 0
3798 -3796 3799 0
-3798 3796 3799 0
-3798 -3796 3800 0
3798 -3800 0
3796 -3800 0
-3579 -3797 3801 0
3579 -3801 0
3797 -3801 0
3800 3801 -3802 0
-3800 3802 0
-3801 3802 0
-146 -3691 3803 0
146 -3803 0
3691 -3803 0
-3585 -3803 -3804 0
3585 3803 -3804 0
3585 -3803 3804 0
-3585 3803 3804 0
-3804 -3802 -3805 0
3804 3802 -3805 0
3804 -3802 3805 0
-3804 3802 3805 0
-3804 -3802 3806 0
3804 -3806 0
3802 -3806 0
-3585 -3803 3807 0
3585 -3807 0
3803 -3807 0
3806 3807 -3808 0
-3806 3808 0
-3807 3808 0
-154 -3691 3809 0
154 -3809 0
3691 -3809 0
-3591 -3809 -3810 0
3591 3809 -3810 0
3591 -3809 3810 0
-3591 3809 3810 0
-3810 -3808 -3811 0
3810 3808 -3811 0
3810 -3808 3811 0
-3810 3808 3811 0
-3810 -3808 3812 0
3810 -3812 0
3808 -3812 0
-3591 -3809 3813 0
3591 -3813 0
3809 -3813 0
3812 3813 -3814 0
-3812 3814 0
-3813 3814 0
-162 -3691 3815 0
162 -3815 0
3691 -3815 0
-3597 -3815 -3816 0
3597 3815 -3816 0
3597 -3815 3816 0
-3597 3815 3816 0
-3816 -3814 -3817 0
3816 3814 -3817 0
3816 -3814 3817 0
-3816 3814 3817 0
-3816 -3814 3818 0
3816 -3818 0
3814 -3818 0
-3597 -3815 3819 0
3597 -3819 0
3815 -3819 0
3818 3819 -3820 0
-3818 3820 0
-3819 3820 0
-170 -3691 3821 0
170 -3821 0
3691 -3821 0
-3603 -3821 -3822 0
3603 3821 -3822 0
3603 -3821 3822 0
-3603 3821 3822 0
-3822 -3820 -3823 0
3822 3820 -3823 0
3822 -3820 3823 0
-3822 3820 3823 0
-3822 -3820 3824 0
3822 -3824 0
3820 -3824 0
-3603 -3821 3825 0
3603 -3825 0
3821 -3825 0
3824 3825 -3826 0
-3824 3826 0
-3825 3826 0
-178 -3691 3827 0
178 -3827 0
3691 -3827 0
-3609 -3827 -3828 0
3609 3827 -3828 0
3609 -3827 3828 0
-3609 3827 3828 0
-3828 -3826 -3829 0
3828 3826 -3829 0
3828 -3826 3829 0
-3828 3826 3829 0
-3828 -3826 3830 0
3828 -3830 0
3826 -3830 0
-3609 -3827 3831 0
3609 -3831 0
3827 -3831 0
3830 3831 -3832 0
-3830 3832 0
-3831 3832 0
-186 -3691 3833 0
186 -3833 0
3691 -3833 0
-3615 -3833 -3834 0
3615 3833 -3834 0
3615 -3833 3834 0
-3615 3833 3834 0
-3834 -3832 -3835 0
3834 3832 -3835 0
3834 -3832 3835 0
-3834 3832 3835 0
-3834 -3832 3836 0
3834 -3836 0
3832 -3836 0
-3615 -3833 3837 0
3615 -3837 0
3833 -3837 0
3836 3837 -3838 0
-3836 3838 0
-3837 3838 0
-194 -3691 3839 0
194 -3839 0
3691 -3839 0
-3621 -3839 -3840 0
3621 3839 -3840 0
3621 -3839 3840 0
-3621 3839 3840 0
-3840 -3838 -3841 0
3840 3838 -3841 0
3840 -3838 3841 0
-3840 3838 3841 0
-3840 -3838 3842 0
3840 -3842 0
3838 -3842 0
-3621 -3839 3843 0
3621 -3843 0
3839 -3843 0
3842 3843 -3844 0
-3842 3844 0
-3843 3844 0
-202 -3691 3845 0
202 -3845 0
3691 -3845 0
-3627 -3845 -3846 0
3627 3845 -3846 0
3627 -3845 3846 0
-3627 3845 3846 0
-3846 -3844 -3847 0
3846 3844 -3847 0
3846 -3844 3847 0
-3846 3844 3847 0
-3846 -3844 3848 0
3846 -3848 0
3844 -3848 0
-3627 -3845 3849 0
3627 -3849 0
3845 -3849 0
3848 3849 -3850 0
-3848 3850 0
-3849 3850 0
-210 -3691 3851 0
210 -3851 0
3691 -3851 0
-3633 -3851 -3852 0
3633 3851 -3852 0
3633 -3851 3852 0
-3633 3851 3852 0
-3852 -3850 -3853 0
3852 3850 -3853 0
3852 -3850 3853 0
-3852 3850 3853 0
-3852 -3850 3854 0
3852 -3854 0
3850 -3854 0
-3633 -3851 3855 0
3633 -3855 0
3851 -3855 0
3854 3855 -3856 0
-3854 3856 0
-3855 3856 0
-218 -3691 3857 0
218 -3857 0
3691 -3857 0
-3639 -3857 -3858 0
3639 3857 -3858 0
3639 -3857 3858 0
-3639 3857 3858 0
-3858 -3856 -3859 0
3858 3856 -3859 0
3858 -3856 3859 0
-3858 3856 3859 0
-3858 -3856 3860 0
3858 -3860 0
3856 -3860 0
-3639 -3857 3861 0
3639 -3861 0
3857 -3861 0
3860 3861 -3862 0
-3860 3862 0
-3861 3862 0
-226 -3691 3863 0
226 -3863 0
3691 -3863 0
-3645 -3863 -3864 0
3645 3863 -3864 0
3645 -3863 3864 0
-3645 3863 3864 0
-3864 -3862 -3865 0
3864 3862 -3865 0
3864 -3862 3865 0
-3864 3862 3865 0
-3864 -3862 3866 0
3864 -3866 0
3862 -3866 0
-3645 -3863 3867 0
3645 -3867 0
3863 -3867 0
3866 3867 -3868 0
-3866 3868 0
-3867 3868 0
-234 -3691 3869 0
234 -3869 0
3691 -3869 0
-3651 -3869 -3870 0
3651 3869 -3870 0
3651 -3869 3870 0
-3651 3869 3870 0
-3870 -3868 -3871 0
3870 3868 -3871 0
3870 -3868 3871 0
-3870 3868 3871 0
-3870 -3868 3872 0
3870 -3872 0
3868 -3872 0
-3651 -3869 3873 0
3651 -3873 0
3869 -3873 0
3872 3873 -3874 0
-3872 3874 0
-3873 3874 0
-242 -3691 3875 0
242 -3875 0
3691 -3875 0
-3657 -3875 -3876 0
3657 3875 -3876 0
3657 -3875 3876 0
-3657 3875 3876 0
-3876 -3874 -3877 0
3876 3874 -3877 0
3876 -3874 3877 0
-3876 3874 3877 0
-3876 -3874 3878 0
3876 -3878 0
3874 -3878 0
-3657 -3875 3879 0
3657 -3879 0
3875 -3879 0
3878 3879 -3880 0
-3878 3880 0
-3879 3880 0
-250 -3691 3881 0
250 -3881 0
3691 -3881 0
-3663 -3881 -3882 0
3663 3881 -3882 0
3663 -3881 3882 0
-3663 3881 3882 0
-3882 -3880 -3883 0
3882 3880 -3883 0
3882 -3880 3883 0
-3882 3880 3883 0
-3882 -3880 3884 0
3882 -3884 0
3880 -3884 0
-3663 -3881 3885 0
3663 -3885 0
3881 -3885 0
3884 3885 -3886 0
-3884 3886 0
-3885 3886 0
-258 -3691 3887 0
258 -3887 0
3691 -3887 0
-3669 -3887 -3888 0
3669 3887 -3888 0
3669 -3887 3888 0
-3669 3887 3888 0
-3888 -3886 -3889 0
3888 3886 -3889 0
3888 -3886 3889 0
-3888 3886 3889 0
-3888 -3886 3890 0
3888 -3890 0
3886 -3890 0
-3669 -3887 3891 0
3669 -3891 0
3887 -3891 0
3890 3891 -3892 0
-3890 3892 0
-3891 3892 0
-266 -3691 3893 0
266 -3893 0
3691 -3893 0
-3675 -3893 -3894 0
3675 3893 -3894 0
3675 -3893 3894 0
-3675 3893 3894 0
-3894 -3892 -3895 0
3894 3892 -3895 0
3894 -3892 3895 0
-3894 3892 3895 0
-3894 -3892 3896 0
3894 -3896 0
3892 -3896 0
-3675 -3893 3897 0
3675 -3897 0
3893 -3897 0
3896 3897 -3898 0
-3896 3898 0
-3897 3898 0
-274 -3691 3899 0
274 -3899 0
3691 -3899 0
-3681 -3899 -3900 0
3681 3899 -3900 0
3681 -3899 3900 0
-3681 3899 3900 0
-3900 -3898 -3901 0
3900 3898 -3901 0
3900 -3898 3901 0
-3900 3898 3901 0
-3900 -3898 3902 0
3900 -3902 0
3898 -3902 0
-3681 -3899 3903 0
3681 -3903 0
3899 -3903 0
3902 3903 -3904 0
-3902 3904 0
-3903 3904 0
-282 -3691 3905 0
282 -3905 0
3691 -3905 0
-3687 -3905 -3906 0
3687 3905 -3906 0
3687 -3905 3906 0
-3687 3905 3906 0
-3906 -3904 -3907 0
3906 3904 -3907 0
3906 -3904 3907 0
-3906 3904 3907 0
-3906 -3904 3908 0
3906 -3908 0
3904 -3908 0
-3687 -3905 3909 0
3687 -3909 0
3905 -3909 0
3908 3909 -3910 0
-3908 3910 0
-3909 3910 0
-290 -3691 3911 0
290 -3911 0
3691 -3911 0
-3690 -3911 -3912 0
3690 3911 -3912 0
3690 -3911 3912 0
-3690 3911 3912 0
-3912 -3910 -3913 0
3912 3910 -3913 0
3912 -3910 3913 0
-3912 3910 3913 0
-3912 -3910 3914 0
3912 -3914 0
3910 -3914 0
-3690 -3911 3915 0
3690 -3915 0
3911 -3915 0
3914 3915 -3916 0
-3914 3916 0
-3915 3916 0
-1 -3917 3918 0
1 -3918 0
3917 -3918 0
-3697 -3918 -3919 0
3697 3918 -3919 0
3697 -3918 3919 0
-3697 3918 3919 0
-3697 -3918 3920 0
3697 -3920 0
3918 -3920 0
-4 -3917 3921 0
4 -3921 0
3917 -3921 0
-3703 -3921 -3922 0
3703 3921 -3922 0
3703 -3921 3922 0
-3703 3921 3922 0
-3922 -3920 -3923 0
3922 3920 -3923 0
3922 -3920 3923 0
-3922 3920 3923 0
-3922 -3920 3924 0
3922 -3924 0
3920 -3924 0
-3703 -3921 3925 0
3703 -3925 0
3921 -3925 0
3924 3925 -3926 0
-3924 3926 0
-3925 3926 0
-10 -3917 3927 0
10 -3927 0
3917 -3927 0
-3709 -3927 -3928 0
3709 3927 -3928 0
3709 -3927 3928 0
-3709 3927 3928 0
-3928 -3926 -3929 0
3928 3926 -3929 0
3928 -3926 3929 0
-3928 3926 3929 0
-3928 -3926 3930 0
3928 -3930 0
3926 -3930 0
-3709 -3927 3931 0
3709 -3931 0
3927 -3931 0
3930 3931 -3932 0
-3930 3932 0
-3931 3932 0
-18 -3917 3933 0
18 -3933 0
3917 -3933 0
-3715 -3933 -3934 0
3715 3933 -3934 0
3715 -3933 3934 0
-3715 3933 3934 0
-3934 -3932 -3935 0
3934 3932 -3935 0
3934 -3932 3935 0
-3934 3932 3935 0
-3934 -3932 3936 0
3934 -3936 0
3932 -3936 0
-3715 -3933 3937 0
3715 -3937 0
3933 -3937 0
3936 3937 -3938 0
-3936 3938 0
-3937 3938 0
-26 -3917 3939 0
26 -3939 0
3917 -3939 0
-3721 -3939 -3940 0
3721 3939 -3940 0
3721 -3939 3940 0
-3721 3939 3940 0
-3940 -3938 -3941 0
3940 3938 -3941 0
3940 -3938 3941 0
-3940 3938 3941 0
-3940 -3938 3942 0
3940 -3942 0
3938 -3942 0
-3721 -3939 3943 0
3721 -3943 0
3939 -3943 0
3942 3943 -3944 0
-3942 3944 0
-3943 3944 0
-34 -3917 3945 0
34 -3945 0
3917 -3945 0
-3727 -3945 -3946 0
3727 3945 -3946 0
3727 -3945 3946 0
-3727 3945 3946 0
-3946 -3944 -3947 0
3946 3944 -3947 0
3946 -3944 3947 0
-3946 3944 3947 0
-3946 -3944 3948 0
3946 -3948 0
3944 -3948 0
-3727 -3945 3949 0
3727 -3949 0
3945 -3949 0
3948 3949 -3950 0
-3948 3950 0
-3949 3950 0
-42 -3917 3951 0
42 -3951 0
3917 -3951 0
-3733 -3951 -3952 0
3733 3951 -3952 0
3733 -3951 3952 0
-3733 3951 3952 0
-3952 -3950 -3953 0
3952 3950 -3953 0
3952 -3950 3953 0
-3952 3950 3953 0
-3952 -3950 3954 0
3952 -3954 0
3950 -3954 0
-3733 -3951 3955 0
3733 -3955 0
3951 -3955 0
3954 3955 -3956 0
-3954 3956 0
-3955 3956 0
-50 -3917 3957 0
50 -3957 0
3917 -3957 0
-3739 -3957 -3958 0
3739 3957 -3958 0
3739 -3957 3958 0
-3739 3957 3958 0
-3958 -3956 -3959 0
3958 3956 -3959 0
3958 -3956 3959 0
-3958 3956 3959 0
-3958 -3956 3960 0
3958 -3960 0
3956 -3960 0
-3739 -3957 3961 0
3739 -3961 0
3957 -3961 0
3960 3961 -3962 0
-3960 3962 0
-3961 3962 0
-58 -3917 3963 0
58 -3963 0
3917 -3963 0
-3745 -3963 -3964 0
3745 3963 -3964 0
3745 -3963 3964 0
-3745 3963 3964 0
-3964 -3962 -3965 0
3964 3962 -3965 0
3964 -3962 3965 0
-3964 3962 3965 0
-3964 -3962 3966 0
3964 -3966 0
3962 -3966 0
-3745 -3963 3967 0
3745 -3967 0
3963 -3967 0
3966 3967 -3968 0
-3966 3968 0
-3967 3968 0
-66 -3917 3969 0
66 -3969 0
3917 -3969 0
-3751 -3969 -3970 0
3751 3969 -3970 0
3751 -3969 3970 0
-3751 3969 3970 0
-3970 -3968 -3971 0
3970 3968 -3971 0
3970 -3968 3971 0
-3970 3968 3971 0
-3970 -3968 3972 0
3970 -3972 0
3968 -3972 0
-3751 -3969 3973 0
3751 -3973 0
3969 -3973 0
3972 3973 -3974 0
-3972 3974 0
-3973 3974 0
-74 -3917 3975 0
74 -3975 0
3917 -3975 0
-3757 -3975 -3976 0
3757 3975 -3976 0
3757 -3975 3976 0
-3757 3975 3976 0
-3976 -3974 -3977 0
3976 3974 -3977 0
3976 -3974 3977 0
-3976 3974 3977 0
-3976 -3974 3978 0
3976 -3978 0
3974 -3978 0
-3757 -3975 3979 0
3757 -3979 0
3975 -3979 0
3978 3979 -3980 0
-3978 3980 0
-3979 3980 0
-82 -3917 3981 0
82 -3981 0
3917 -3981 0
-3763 -3981 -3982 0
3763 3981 -3982 0
3763 -3981 3982 0
-3763 3981 3982 0
-3982 -3980 -3983 0
3982 3980 -3983 0
3982 -3980 3983 0
-3982 3980 3983 0
-3982 -3980 3984 0
3982 -3984 0
3980 -3984 0
-3763 -3981 3985 0
3763 -3985 0
3981 -3985 0
3984 3985 -3986 0
-3984 3986 0
-3985 3986 0
-90 -3917 3987 0
90 -3987 0
3917 -3987 0
-3769 -3987 -3988 0
3769 3987 -3988 0
3769 -3987 3988 0
-3769 3987 3988 0
-3988 -3986 -3989 0
3988 3986 -3989 0
3988 -3986 3989 0
-3988 3986 3989 0
-3988 -3986 3990 0
3988 -3990 0
3986 -3990 0
-3769 -3987 3991 0
3769 -3991 0
3987 -3991 0
3990 3991 -3992 0
-3990 3992 0
-3991 3992 0
-98 -3917 3993 0
98 -3993 0
3917 -3993 0
-3775 -3993 -3994 0
3775 3993 -3994 0
3775 -3993 3994 0
-3775 3993 3994 0
-3994 -3992 -3995 0
3994 3992 -3995 0
3994 -3992 3995 0
-3994 3992 3995 0
-3994 -3992 3996 0
3994 -3996 0
3992 -3996 0
-3775 -3993 3997 0
3775 -3997 0
3993 -3997 0
3996 3997 -3998 0
-3996 3998 0
-3997 3998 0
-106 -3917 3999 0
106 -3999 0
3917 -3999 0
-3781 -3999 -4000 0
3781 3999 -4000 0
3781 -3999 4000 0
-3781 3999 4000 0
-4000 -3998 -4001 0
4000 3998 -4001 0
4000 -3998 4001 0
-4000 3998 4001 0
-4000 -3998 4002 0
4000 -4002 0
3998 -4002 0
-3781 -3999 4003 0
3781 -4003 0
3999 -4003 0
4002 4003 -4004 0
-4002 4004 0
-4003 4004 0
-114 -3917 4005 0
114 -4005 0
3917 -4005 0
-3787 -4005 -4006 0
3787 4005 -4006 0
3787 -4005 4006 0
-3787 4005 4006 0
-4006 -4004 -4007 0
4006 4004 -4007 0
4006 -4004 4007 0
-4006 4004 4007 0
-4006 -4004 4008 0
4006 -4008 0
4004 -4008 0
-3787 -4005 4009 0
3787 -4009 0
4005 -4009 0
4008 4009 -4010 0
-4008 4010 0
-4009 4010 0
-122 -3917 4011 0
122 -4011 0
3917 -4011 0
-3793 -4011 -4012 0
3793 4011 -4012 0
3793 -4011 4012 0
-3793 4011 4012 0
-4012 -4010 -4013 0
4012 4010 -4013 0
4012 -4010 4013 0
-4012 4010 4013 0
-4012 -4010 4014 0
4012 -4014 0
4010 -4014 0
-3793 -4011 4015 0
3793 -4015 0
4011 -4015 0
4014 4015 -4016 0
-4014 4016 0
-4015 4016 0
-130 -3917 4017 0
130 -4017 0
3917 -4017 0
-3799 -4017 -4018 0
3799 4017 -4018 0
3799 -4017 4018 0
-3799 4017 4018 0
-4018 -4016 -4019 0
4018 4016 -4019 0
4018 -4016 4019 0
-4018 4016 4019 0
-4018 -4016 4020 0
4018 -4020 0
4016 -4020 0
-3799 -4017 4021 0
3799 -4021 0
4017 -4021 0
4020 4021 -4022 0
-4020 4022 0
-4021 4022 0
-138 -3917 4023 0
138 -4023 0
3917 -4023 0
-3805 -4023 -4024 0
3805 4023 -4024 0
3805 -4023 4024 0
-3805 4023 4024 0
-4024 -4022 -4025 0
4024 4022 -4025 0
4024 -4022 4025 0
-4024 4022 4025 0
-4024 -4022 4026 0
4024 -4026 0
4022 -4026 0
-3805 -4023 4027 0
3805 -4027 0
4023 -4027 0
4026 4027 -4028 0
-4026 4028 0
-4027 4028 0
-146 -3917 4029 0
146 -4029 0
3917 -4029 0
-3811 -4029 -4030 0
3811 4029 -4030 0
3811 -4029 4030 0
-3811 4029 4030 0
-4030 -4028 -4031 0
4030 4028 -4031 0
4030 -4028 4031 0
-4030 4028 4031 0
-4030 -4028 4032 0
4030 -4032 0
4028 -4032 0
-3811 -4029 4033 0
3811 -4033 0
4029 -4033 0
4032 4033 -4034 0
-4032 4034 0
-4033 4034 0
-154 -3917 4035 0
154 -4035 0
3917 -4035 0
-3817 -4035 -4036 0
3817 4035 -4036 0
3817 -4035 4036 0
-3817 4035 4036 0
-4036 -4034 -4037 0
4036 4034 -4037 0
4036 -4034 4037 0
-4036 4034 4037 0
-4036 -4034 4038 0
4036 -4038 0
4034 -4038 0
-3817 -4035 4039 0
3817 -4039 0
4035 -4039 0
4038 4039 -4040 0
-4038 4040 0
-4039 4040 0
-162 -3917 4041 0
162 -4041 0
3917 -4041 0
-3823 -4041 -4042 0
3823 4041 -4042 0
3823 -4041 4042 0
-3823 4041 4042 0
-4042 -4040 -4043 0
4042 4040 -4043 0
4042 -4040 4043 0
-4042 4040 4043 0
-4042 -4040 4044 0
4042 -4044 0
4040 -4044 0
-3823 -4041 4045 0
3823 -4045 0
4041 -4045 0
4044 4045 -4046 0
-4044 4046 0
-4045 4046 0
-170 -3917 4047 0
170 -4047 0
3917 -4047 0
-3829 -4047 -4048 0
3829 4047 -4048 0
3829 -4047 4048 0
-3829 4047 4048 0
-4048 -4046 -4049 0
4048 4046 -4049 0
4048 -4046 4049 0
-4048 4046 4049 0
-4048 -4046 4050 0
4048 -4050 0
4046 -4050 0
-3829 -4047 4051 0
3829 -4051 0
4047 -4051 0
4050 4051 -4052 0
-4050 4052 0
-4051 4052 0
-178 -3917 4053 0
178 -4053 0
3917 -4053 0
-3835 -4053 -4054 0
3835 4053 -4054 0
3835 -4053 4054 0
-3835 4053 4054 0
-4054 -4052 -4055 0
4054 4052 -4055 0
4054 -4052 4055 0
-4054 4052 4055 0
-4054 -4052 4056 0
4054 -4056 0
4052 -4056 0
-3835 -4053 4057 0
3835 -4057 0
4053 -4057 0
4056 4057 -4058 0
-4056 4058 0
-4057 4058 0
-186 -3917 4059 0
186 -4059 0
3917 -4059 0
-3841 -4059 -4060 0
3841 4059 -4060 0
3841 -4059 4060 0
-3841 4059 4060 0
-4060 -4058 -4061 0
4060 4058 -4061 0
4060 -4058 4061 0
-4060 4058 4061 0
-4060 -4058 4062 0
4060 -4062 0
4058 -4062 0
-3841 -4059 4063 0
3841 -4063 0
4059 -4063 0
4062 4063 -4064 0
-4062 4064 0
-4063 4064 0
-194 -3917 4065 0
194 -4065 0
3917 -4065 0
-3847 -4065 -4066 0
3847 4065 -4066 0
3847 -4065 4066 0
-3847 4065 4066 0
-4066 -4064 -4067 0
4066 4064 -4067 0
4066 -4064 4067 0
-4066 4064 4067 0
-4066 -4064 4068 0
4066 -4068 0
4064 -4068 0
-3847 -4065 4069 0
3847 -4069 0
4065 -4069 0
4068 4069 -4070 0
-4068 4070 0
-4069 4070 0
-202 -3917 4071 0
202 -4071 0
3917 -4071 0
-3853 -4071 -4072 0
3853 4071 -4072 0
3853 -4071 4072 0
-3853 4071 4072 0
-4072 -4070 -4073 0
4072 4070 -4073 0
4072 -4070 4073 0
-4072 4070 4073 0
-4072 -4070 4074 0
4072 -4074 0
4070 -4074 0
-3853 -4071 4075 0
3853 -4075 0
4071 -4075 0
4074 4075 -4076 0
-4074 4076 0
-4075 4076 0
-210 -3917 4077 0
210 -4077 0
3917 -4077 0
-3859 -4077 -4078 0
3859 4077 -4078 0
3859 -4077 4078 0
-3859 4077 4078 0
-4078 -4076 -4079 0
4078 4076 -4079 0
4078 -4076 4079 0
-4078 4076 4079 0
-4078 -4076 4080 0
4078 -4080 0
4076 -4080 0
-3859 -4077 4081 0
3859 -4081 0
4077 -4081 0
4080 4081 -4082 0
-4080 4082 0
-4081 4082 0
-218 -3917 4083 0
218 -4083 0
3917 -4083 0
-3865 -4083 -4084 0
3865 4083 -4084 0
3865 -4083 4084 0
-3865 4083 4084 0
-4084 -4082 -4085 0
4084 4082 -4085 0
4084 -4082 4085 0
-4084 4082 4085 0
-4084 -4082 4086 0
4084 -4086 0
4082 -4086 0
-3865 -4083 4087 0
3865 -4087 0
4083 -4087 0
4086 4087 -4088 0
-4086 4088 0
-4087 4088 0
-226 -3917 4089 0
226 -4089 0
3917 -4089 0
-3871 -4089 -4090 0
3871 4089 -4090 0
3871 -4089 4090 0
-3871 4089 4090 0
-4090 -4088 -4091 0
4090 4088 -4091 0
4090 -4088 4091 0
-4090 4088 4091 0
-4090 -4088 4092 0
4090 -4092 0
4088 -4092 0
-3871 -4089 4093 0
3871 -4093 0
4089 -4093 0
4092 4093 -4094 0
-4092 4094 0
-4093 4094 0
-234 -3917 4095 0
234 -4095 0
3917 -4095 0
-3877 -4095 -4096 0
3877 4095 -4096 0
3877 -4095 4096 0
-3877 4095 4096 0
-4096 -4094 -4097 0
4096 4094 -4097 0
4096 -4094 4097 0
-4096 4094 4097 0
-4096 -4094 4098 0
4096 -4098 0
4094 -4098 0
-3877 -4095 4099 0
3877 -4099 0
4095 -4099 0
4098 4099 -4100 0
-4098 4100 0
-4099 4100 0
-242 -3917 4101 0
242 -4101 0
3917 -4101 0
-3883 -4101 -4102 0
3883 4101 -4102 0
3883 -4101 4102 0
-3883 4101 4102 0
-4102 -4100 -4103 0
4102 4100 -4103 0
4102 -4100 4103 0
-4102 4100 4103 0
-4102 -4100 4104 0
4102 -4104 0
4100 -4104 0
-3883 -4101 4105 0
3883 -4105 0
4101 -4105 0
4104 4105 -4106 0
-4104 4106 0
-4105 4106 0
-250 -3917 4107 0
250 -4107 0
3917 -4107 0
-3889 -4107 -4108 0
3889 4107 -4108 0
3889 -4107 4108 0
-3889 4107 4108 0
-4108 -4106 -4109 0
4108 4106 -4109 0
4108 -4106 4109 0
-4108 4106 4109 0
-4108 -4106 4110 0
4108 -4110 0
4106 -4110 0
-3889 -4107 4111 0
3889 -4111 0
4107 -4111 0
4110 4111 -4112 0
-4110 4112 0
-4111 4112 0
-258 -3917 4113 0
258 -4113 0
3917 -4113 0
-3895 -4113 -4114 0
3895 4113 -4114 0
3895 -4113 4114 0
-3895 4113 4114 0
-4114 -4112 -4115 0
4114 4112 -4115 0
4114 -4112 4115 0
-4114 4112 4115 0
-4114 -4112 4116 0
4114 -4116 0
4112 -4116 0
-3895 -4113 4117 0
3895 -4117 0
4113 -4117 0
4116 4117 -4118 0
-4116 4118 0
-4117 4118 0
-266 -3917 4119 0
266 -4119 0
3917 -4119 0
-3901 -4119 -4120 0
3901 4119 -4120 0
3901 -4119 4120 0
-3901 4119 4120 0
-4120 -4118 -4121 0
4120 4118 -4121 0
4120 -4118 4121 0
-4120 4118 4121 0
-4120 -4118 4122 0
4120 -4122 0
4118 -4122 0
-3901 -4119 4123 0
3901 -4123 0
4119 -4123 0
4122 4123 -4124 0
-4122 4124 0
-4123 4124 0
-274 -3917 4125 0
274 -4125 0
3917 -4125 0
-3907 -4125 -4126 0
3907 4125 -4126 0
3907 -4125 4126 0
-3907 4125 4126 0
-4126 -4124 -4127 0
4126 4124 -4127 0
4126 -4124 4127 0
-4126 4124 4127 0
-4126 -4124 4128 0
4126 -4128 0
4124 -4128 0
-3907 -4125 4129 0
3907 -4129 0
4125 -4129 0
4128 4129 -4130 0
-4128 4130 0
-4129 4130 0
-282 -3917 4131 0
282 -4131 0
3917 -4131 0
-3913 -4131 -4132 0
3913 4131 -4132 0
3913 -4131 4132 0
-3913 4131 4132 0
-4132 -4130 -4133 0
4132 4130 -4133 0
4132 -4130 4133 0
-4132 4130 4133 0
-4132 -4130 4134 0
4132 -4134 0
4130 -4134 0
-3913 -4131 4135 0
3913 -4135 0
4131 -4135 0
4134 4135 -4136 0
-4134 4136 0
-4135 4136 0
-290 -3917 4137 0
290 -4137 0
3917 -4137 0
-3916 -4137 -4138 0
3916 4137 -4138 0
3916 -4137 4138 0
-3916 4137 4138 0
-4138 -4136 -4139 0
4138 4136 -4139 0
4138 -4136 4139 0
-4138 4136 4139 0
-4138 -4136 4140 0
4138 -4140 0
4136 -4140 0
-3916 -4137 4141 0
3916 -4141 0
4137 -4141 0
4140 4141 -4142 0
-4140 4142 0
-4141 4142 0
-1 -4143 4144 0
1 -4144 0
4143 -4144 0
-3923 -4144 -4145 0
3923 4144 -4145 0
3923 -4144 4145 0
-3923 4144 4145 0
-3923 -4144 4146 0
3923 -4146 0
4144 -4146 0
-4 -4143 4147 0
4 -4147 0
4143 -4147 0
-3929 -4147 -4148 0
3929 4147 -4148 0
3929 -4147 4148 0
-3929 4147 4148 0
-4148 -4146 -4149 0
4148 4146 -4149 0
4148 -4146 4149 0
-4148 4146 4149 0
-4148 -4146 4150 0
4148 -4150 0
4146 -4150 0
-3929 -4147 4151 0
3929 -4151 0
4147 -4151 0
4150 4151 -4152 0
-4150 4152 0
-4151 4152 0
-10 -4143 4153 0
10 -4153 0
4143 -4153 0
-3935 -4153 -4154 0
3935 4153 -4154 0
3935 -4153 4154 0
-3935 4153 4154 0
-4154 -4152 -4155 0
4154 4152 -4155 0
4154 -4152 4155 0
-4154 4152 4155 0
-4154 -4152 4156 0
4154 -4156 0
4152 -4156 0
-3935 -4153 4157 0
3935 -4157 0
4153 -4157 0
4156 4157 -4158 0
-4156 4158 0
-4157 4158 0
-18 -4143 4159 0
18 -4159 0
4143 -4159 0
-3941 -4159 -4160 0
3941 4159 -4160 0
3941 -4159 4160 0
-3941 4159 4160 0
-4160 -4158 -4161 0
4160 4158 -4161 0
4160 -4158 4161 0
-4160 4158 4161 0
-4160 -4158 4162 0
4160 -4162 0
4158 -4162 0
-3941 -4159 4163 0
3941 -4163 0
4159 -4163 0
4162 4163 -4164 0
-4162 4164 0
-4163 4164 0
-26 -4143 4165 0
26 -4165 0
4143 -4165 0
-3947 -4165 -4166 0
3947 4165 -4166 0
3947 -4165 4166 0
-3947 4165 4166 0
-4166 -4164 -4167 0
4166 4164 -4167 0
4166 -4164 4167 0
-4166 4164 4167 0
-4166 -4164 4168 0
4166 -4168 0
4164 -4168 0
-3947 -4165 4169 0
3947 -4169 0
4165 -4169 0
4168 4169 -4170 0
-4168 4170 0
-4169 4170 0
-34 -4143 4171 0
34 -4171 0
4143 -4171 0
-3953 -4171 -4172 0
3953 4171 -4172 0
3953 -4171 4172 0
-3953 4171 4172 0
-4172 -4170 -4173 0
4172 4170 -4173 0
4172 -4170 4173 0
-4172 4170 4173 0
-4172 -4170 4174 0
4172 -4174 0
4170 -4174 0
-3953 -4171 4175 0
3953 -4175 0
4171 -4175 0
4174 4175 -4176 0
-4174 4176 0
-4175 4176 0
-42 -4143 4177 0
42 -4177 0
4143 -4177 0
-3959 -4177 -4178 0
3959 4177 -4178 0
3959 -4177 4178 0
-3959 4177 4178 0
-4178 -4176 -4179 0
4178 4176 -4179 0
4178 -4176 4179 0
-4178 4176 4179 0
-4178 -4176 4180 0
4178 -4180 0
4176 -4180 0
-3959 -4177 4181 0
3959 -4181 0
4177 -4181 0
4180 4181 -4182 0
-4180 4182 0
-4181 4182 0
-50 -4143 4183 0
50 -4183 0
4143 -4183 0
-3965 -4183 -4184 0
3965 4183 -4184 0
3965 -4183 4184 0
-3965 4183 4184 0
-4184 -4182 -4185 0
4184 4182 -4185 0
4184 -4182 4185 0
-4184 4182 4185 0
-4184 -4182 4186 0
4184 -4186 0
4182 -4186 0
-3965 -4183 4187 0
3965 -4187 0
4183 -4187 0
4186 4187 -4188 0
-4186 4188 0
-4187 4188 0
-58 -4143 4189 0
58 -4189 0
4143 -4189 0
-3971 -4189 -4190 0
3971 4189 -4190 0
3971 -4189 4190 0
-3971 4189 4190 0
-4190 -4188 -4191 0
4190 4188 -4191 0
4190 -4188 4191 0
-4190 4188 4191 0
-4190 -4188 4192 0
4190 -4192 0
4188 -4192 0
-3971 -4189 4193 0
3971 -4193 0
4189 -4193 0
4192 4193 -4194 0
-4192 4194 0
-4193 4194 0
-66 -4143 4195 0
66 -4195 0
4143 -4195 0
-3977 -4195 -4196 0
3977 4195 -4196 0
3977 -4195 4196 0
-3977 4195 4196 0
-4196 -4194 -4197 0
4196 4194 -4197 0
4196 -4194 4197 0
-4196 4194 4197 0
-4196 -4194 4198 0
4196 -4198 0
4194 -4198 0
-3977 -4195 4199 0
3977 -4199 0
4195 -4199 0
4198 4199 -4200 0
-4198 4200 0
-4199 4200 0
-74 -4143 4201 0
74 -4201 0
4143 -4201 0
-3983 -4201 -4202 0
3983 4201 -4202 0
3983 -4201 4202 0
-3983 4201 4202 0
-4202 -4200 -4203 0
4202 4200 -4203 0
4202 -4200 4203 0
-4202 4200 4203 0
-4202 -4200 4204 0
4202 -4204 0
4200 -4204 0
-3983 -4201 4205 0
3983 -4205 0
4201 -4205 0
4204 4205 -4206 0
-4204 4206 0
-4205 4206 0
-82 -4143 4207 0
82 -4207 0
4143 -4207 0
-3989 -4207 -4208 0
3989 4207 -4208 0
3989 -4207 4208 0
-3989 4207 4208 0
-4208 -4206 -4209 0
4208 4206 -4209 0
4208 -4206 4209 0
-4208 4206 4209 0
-4208 -4206 4210 0
4208 -4210 0
4206 -4210 0
-3989 -4207 4211 0
3989 -4211 0
4207 -4211 0
4210 4211 -4212 0
-4210 4212 0
-4211 4212 0
-90 -4143 4213 0
90 -4213 0
4143 -4213 0
-3995 -4213 -4214 0
3995 4213 -4214 0
3995 -4213 4214 0
-3995 4213 4214 0
-4214 -4212 -4215 0
4214 4212 -4215 0
4214 -4212 4215 0
-4214 4212 4215 0
-4214 -4212 4216 0
4214 -4216 0
4212 -4216 0
-3995 -4213 4217 0
3995 -4217 0
4213 -4217 0
4216 4217 -4218 0
-4216 4218 0
-4217 4218 0
-98 -4143 4219 0
98 -4219 0
4143 -4219 0
-4001 -4219 -4220 0
4001 4219 -4220 0
4001 -4219 4220 0
-4001 4219 4220 0
-4220 -4218 -4221 0
4220 4218 -4221 0
4220 -4218 4221 0
-4220 4218 4221 0
-4220 -4218 4222 0
4220 -4222 0
4218 -4222 0
-4001 -4219 4223 0
4001 -4223 0
4219 -4223 0
4222 4223 -4224 0
-4222 4224 0
-4223 4224 0
-106 -4143 4225 0
106 -4225 0
4143 -4225 0
-4007 -4225 -4226 0
4007 4225 -4226 0
4007 -4225 4226 0
-4007 4225 4226 0
-4226 -4224 -4227 0
4226 4224 -4227 0
4226 -4224 4227 0
-4226 4224 4227 0
-4226 -4224 4228 0
4226 -4228 0
4224 -4228 0
-4007 -4225 4229 0
4007 -4229 0
4225 -4229 0
4228 4229 -4230 0
-4228 4230 0
-4229 4230 0
-114 -4143 4231 0
114 -4231 0
4143 -4231 0
-4013 -4231 -4232 0
4013 4231 -4232 0
4013 -4231 4232 0
-4013 4231 4232 0
-4232 -4230 -4233 0
4232 4230 -4233 0
4232 -4230 4233 0
-4232 4230 4233 0
-4232 -4230 4234 0
4232 -4234 0
4230 -4234 0
-4013 -4231 4235 0
4013 -4235 0
4231 -4235 0
4234 4235 -4236 0
-4234 4236 0
-4235 4236 0
-122 -4143 4237 0
122 -4237 0
4143 -4237 0
-4019 -4237 -4238 0
4019 4237 -4238 0
4019 -4237 4238 0
-4019 4237 4238 0
-4238 -4236 -4239 0
4238 4236 -4239 0
4238 -4236 4239 0
-4238 4236 4239 0
-4238 -4236 4240 0
4238 -4240 0
4236 -4240 0
-4019 -4237 4241 0
4019 -4241 0
4237 -4241 0
4240 4241 -4242 0
-4240 4242 0
-4241 4242 0
-130 -4143 4243 0
130 -4243 0
4143 -4243 0
-4025 -4243 -4244 0
4025 4243 -4244 0
4025 -4243 4244 0
-4025 4243 4244 0
-4244 -4242 -4245 0
4244 4242 -4245 0
4244 -4242 4245 0
-4244 4242 4245 0
-4244 -4242 4246 0
4244 -4246 0
4242 -4246 0
-4025 -4243 4247 0
4025 -4247 0
4243 -4247 0
4246 4247 -4248 0
-4246 4248 0
-4247 4248 0
-138 -4143 4249 0
138 -4249 0
4143 -4249 0
-4031 -4249 -4250 0
4031 4249 -4250 0
4031 -4249 4250 0
-4031 4249 4250 0
-4250 -4248 -4251 0
4250 4248 -4251 0
4250 -4248 4251 0
-4250 4248 4251 0
-4250 -4248 4252 0
4250 -4252 0
4248 -4252 0
-4031 -4249 4253 0
4031 -4253 0
4249 -4253 0
4252 4253 -4254 0
-4252 4254 0
-4253 4254 0
-146 -4143 4255 0
146 -4255 0
4143 -4255 0
-4037 -4255 -4256 0
4037 4255 -4256 0
4037 -4255 4256 0
-4037 4255 4256 0
-4256 -4254 -4257 0
4256 4254 -4257 0
4256 -4254 4257 0
-4256 4254 4257 0
-4256 -4254 4258 0
4256 -4258 0
4254 -4258 0
-4037 -4255 4259 0
4037 -4259 0
4255 -4259 0
4258 4259 -4260 0
-4258 4260 0
-4259 4260 0
-154 -4143 4261 0
154 -4261 0
4143 -4261 0
-4043 -4261 -4262 0
4043 4261 -4262 0
4043 -4261 4262 0
-4043 4261 4262 0
-4262 -4260 -4263 0
4262 4260 -4263 0
4262 -4260 4263 0
-4262 4260 4263 0
-4262 -4260 4264 0
4262 -4264 0
4260 -4264 0
-4043 -4261 4265 0
4043 -4265 0
4261 -4265 0
4264 4265 -4266 0
-4264 4266 0
-4265 4266 0
-162 -4143 4267 0
162 -4267 0
4143 -4267 0
-4049 -4267 -4268 0
4049 4267 -4268 0
4049 -4267 4268 0
-4049 4267 4268 0
-4268 -4266 -4269 0
4268 4266 -4269 0
4268 -4266 4269 0
-4268 4266 4269 0
-4268 -4266 4270 0
4268 -4270 0
4266 -4270 0
-4049 -4267 4271 0
4049 -4271 0
4267 -4271 0
4270 4271 -4272 0
-4270 4272 0
-4271 4272 0
-170 -4143 4273 0
170 -4273 0
4143 -4273 0
-4055 -4273 -4274 0
4055 4273 -4274 0
4055 -4273 4274 0
-4055 4273 4274 0
-4274 -4272 -4275 0
4274 4272 -4275 0
4274 -4272 4275 0
-4274 4272 4275 0
-4274 -4272 4276 0
4274 -4276 0
4272 -4276 0
-4055 -4273 4277 0
4055 -4277 0
4273 -4277 0
4276 4277 -4278 0
-4276 4278 0
-4277 4278 0
-178 -4143 4279 0
178 -4279 0
4143 -4279 0
-4061 -4279 -4280 0
4061 4279 -4280 0
4061 -4279 4280 0
-4061 4279 4280 0
-4280 -4278 -4281 0
4280 4278 -4281 0
4280 -4278 4281 0
-4280 4278 4281 0
-4280 -4278 4282 0
4280 -4282 0
4278 -4282 0
-4061 -4279 4283 0
4061 -4283 0
4279 -4283 0
4282 4283 -4284 0
-4282 4284 0
-4283 4284 0
-186 -4143 4285 0
186 -4285 0
4143 -4285 0
-4067 -4285 -4286 0
4067 4285 -4286 0
4067 -4285 4286 0
-4067 4285 4286 0
-4286 -4284 -4287 0
4286 4284 -4287 0
4286 -4284 4287 0
-4286 4284 4287 0
-4286 -4284 4288 0
4286 -4288 0
4284 -4288 0
-4067 -4285 4289 0
4067 -4289 0
4285 -4289 0
4288 4289 -4290 0
-4288 4290 0
-4289 4290 0
-194 -4143 4291 0
194 -4291 0
4143 -4291 0
-4073 -4291 -4292 0
4073 4291 -4292 0
4073 -4291 4292 0
-4073 4291 4292 0
-4292 -4290 -4293 0
4292 4290 -4293 0
4292 -4290 4293 0
-4292 4290 4293 0
-4292 -4290 4294 0
4292 -4294 0
4290 -4294 0
-4073 -4291 4295 0
4073 -4295 0
4291 -4295 0
4294 4295 -4296 0
-4294 4296 0
-4295 4296 0
-202 -4143 4297 0
202 -4297 0
4143 -4297 0
-4079 -4297 -4298 0
4079 4297 -4298 0
4079 -4297 4298 0
-4079 4297 4298 0
-4298 -4296 -4299 0
4298 4296 -4299 0
4298 -4296 4299 0
-4298 4296 4299 0
-4298 -4296 4300 0
4298 -4300 0
4296 -4300 0
-4079 -4297 4301 0
4079 -4301 0
4297 -4301 0
4300 4301 -4302 0
-4300 4302 0
-4301 4302 0
-210 -4143 4303 0
210 -4303 0
4143 -4303 0
-4085 -4303 -4304 0
4085 4303 -4304 0
4085 -4303 4304 0
-4085 4303 4304 0
-4304 -4302 -4305 0
4304 4302 -4305 0
4304 -4302 4305 0
-4304 4302 4305 0
-4304 -4302 4306 0
4304 -4306 0
4302 -4306 0
-4085 -4303 4307 0
4085 -4307 0
4303 -4307 0
4306 4307 -4308 0
-4306 4308 0
-4307 4308 0
-218 -4143 4309 0
218 -4309 0
4143 -4309 0
-4091 -4309 -4310 0
4091 4309 -4310 0
4091 -4309 4310 0
-4091 4309 4310 0
-4310 -4308 -4311 0
4310 4308 -4311 0
4310 -4308 4311 0
-4310 4308 4311 0
-4310 -4308 4312 0
4310 -4312 0
4308 -4312 0
-4091 -4309 4313 0
4091 -4313 0
4309 -4313 0
4312 4313 -4314 0
-4312 4314 0
-4313 4314 0
-226 -4143 4315 0
226 -4315 0
4143 -4315 0
-4097 -4315 -4316 0
4097 4315 -4316 0
4097 -4315 4316 0
-4097 4315 4316 0
-4316 -4314 -4317 0
4316 4314 -4317 0
4316 -4314 4317 0
-4316 4314 4317 0
-4316 -4314 4318 0
4316 -4318 0
4314 -4318 0
-4097 -4315 4319 0
4097 -4319 0
4315 -4319 0
4318 4319 -4320 0
-4318 4320 0
-4319 4320 0
-234 -4143 4321 0
234 -4321 0
4143 -4321 0
-4103 -4321 -4322 0
4103 4321 -4322 0
4103 -4321 4322 0
-4103 4321 4322 0
-4322 -4320 -4323 0
4322 4320 -4323 0
4322 -4320 4323 0
-4322 4320 4323 0
-4322 -4320 4324 0
4322 -4324 0
4320 -4324 0
-4103 -4321 4325 0
4103 -4325 0
4321 -4325 0
4324 4325 -4326 0
-4324 4326 0
-4325 4326 0
-242 -4143 4327 0
242 -4327 0
4143 -4327 0
-4109 -4327 -4328 0
4109 4327 -4328 0
4109 -4327 4328 0
-4109 4327 4328 0
-4328 -4326 -4329 0
4328 4326 -4329 0
4328 -4326 4329 0
-4328 4326 4329 0
-4328 -4326 4330 0
4328 -4330 0
4326 -4330 0
-4109 -4327 4331 0
4109 -4331 0
4327 -4331 0
4330 4331 -4332 0
-4330 4332 0
-4331 4332 0
-250 -4143 4333 0
250 -4333 0
4143 -4333 0
-4115 -4333 -4334 0
4115 4333 -4334 0
4115 -4333 4334 0
-4115 4333 4334 0
-4334 -4332 -4335 0
4334 4332 -4335 0
4334 -4332 4335 0
-4334 4332 4335 0
-4334 -4332 4336 0
4334 -4336 0
4332 -4336 0
-4115 -4333 4337 0
4115 -4337 0
4333 -4337 0
4336 4337 -4338 0
-4336 4338 0
-4337 4338 0
-258 -4143 4339 0
258 -4339 0
4143 -4339 0
-4121 -4339 -4340 0
4121 4339 -4340 0
4121 -4339 4340 0
-4121 4339 4340 0
-4340 -4338 -4341 0
4340 4338 -4341 0
4340 -4338 4341 0
-4340 4338 4341 0
-4340 -4338 4342 0
4340 -4342 0
4338 -4342 0
-4121 -4339 4343 0
4121 -4343 0
4339 -4343 0
4342 4343 -4344 0
-4342 4344 0
-4343 4344 0
-266 -4143 4345 0
266 -4345 0
4143 -4345 0
-4127 -4345 -4346 0
4127 4345 -4346 0
4127 -4345 4346 0
-4127 4345 4346 0
-4346 -4344 -4347 0
4346 4344 -4347 0
4346 -4344 4347 0
-4346 4344 4347 0
-4346 -4344 4348 0
4346 -4348 0
4344 -4348 0
-4127 -4345 4349 0
4127 -4349 0
4345 -4349 0
4348 4349 -4350 0
-4348 4350 0
-4349 4350 0
-274 -4143 4351 0
274 -4351 0
4143 -4351 0
-4133 -4351 -4352 0
4133 4351 -4352 0
4133 -4351 4352 0
-4133 4351 4352 0
-4352 -4350 -4353 0
4352 4350 -4353 0
4352 -4350 4353 0
-4352 4350 4353 0
-4352 -4350 4354 0
4352 -4354 0
4350 -4354 0
-4133 -4351 4355 0
4133 -4355 0
4351 -4355 0
4354 4355 -4356 0
-4354 4356 0
-4355 4356 0
-282 -4143 4357 0
282 -4357 0
4143 -4357 0
-4139 -4357 -4358 0
4139 4357 -4358 0
4139 -4357 4358 0
-4139 4357 4358 0
-4358 -4356 -4359 0
4358 4356 -4359 0
4358 -4356 4359 0
-4358 4356 4359 0
-4358 -4356 4360 0
4358 -4360 0
4356 -4360 0
-4139 -4357 4361 0
4139 -4361 0
4357 -4361 0
4360 4361 -4362 0
-4360 4362 0
-4361 4362 0
-290 -4143 4363 0
290 -4363 0
4143 -4363 0
-4142 -4363 -4364 0
4142 4363 -4364 0
4142 -4363 4364 0
-4142 4363 4364 0
-4364 -4362 -4365 0
4364 4362 -4365 0
4364 -4362 4365 0
-4364 4362 4365 0
-4364 -4362 4366 0
4364 -4366 0
4362 -4366 0
-4142 -4363 4367 0
4142 -4367 0
4363 -4367 0
4366 4367 -4368 0
-4366 4368 0
-4367 4368 0
-1 -4369 4370 0
1 -4370 0
4369 -4370 0
-4149 -4370 -4371 0
4149 4370 -4371 0
4149 -4370 4371 0
-4149 4370 4371 0
-4149 -4370 4372 0
4149 -4372 0
4370 -4372 0
-4 -4369 4373 0
4 -4373 0
4369 -4373 0
-4155 -4373 -4374 0
4155 4373 -4374 0
4155 -4373 4374 0
-4155 4373 4374 0
-4374 -4372 -4375 0
4374 4372 -4375 0
4374 -4372 4375 0
-4374 4372 4375 0
-4374 -4372 4376 0
4374 -4376 0
4372 -4376 0
-4155 -4373 4377 0
4155 -4377 0
4373 -4377 0
4376 4377 -4378 0
-4376 4378 0
-4377 4378 0
-10 -4369 4379 0
10 -4379 0
4369 -4379 0
-4161 -4379 -4380 0
4161 4379 -4380 0
4161 -4379 4380 0
-4161 4379 4380 0
-4380 -4378 -4381 0
4380 4378 -4381 0
4380 -4378 4381 0
-4380 4378 4381 0
-4380 -4378 4382 0
4380 -4382 0
4378 -4382 0
-4161 -4379 4383 0
4161 -4383 0
4379 -4383 0
4382 4383 -4384 0
-4382 4384 0
-4383 4384 0
-18 -4369 4385 0
18 -4385 0
4369 -4385 0
-4167 -4385 -4386 0
4167 4385 -4386 0
4167 -4385 4386 0
-4167 4385 4386 0
-4386 -4384 -4387 0
4386 4384 -4387 0
4386 -4384 4387 0
-4386 4384 4387 0
-4386 -4384 4388 0
4386 -4388 0
4384 -4388 0
-4167 -4385 4389 0
4167 -4389 0
4385 -4389 0
4388 4389 -4390 0
-4388 4390 0
-4389 4390 0
-26 -4369 4391 0
26 -4391 0
4369 -4391 0
-4173 -4391 -4392 0
4173 4391 -4392 0
4173 -4391 4392 0
-4173 4391 4392 0
-4392 -4390 -4393 0
4392 4390 -4393 0
4392 -4390 4393 0
-4392 4390 4393 0
-4392 -4390 4394 0
4392 -4394 0
4390 -4394 0
-4173 -4391 4395 0
4173 -4395 0
4391 -4395 0
4394 4395 -4396 0
-4394 4396 0
-4395 4396 0
-34 -4369 4397 0
34 -4397 0
4369 -4397 0
-4179 -4397 -4398 0
4179 4397 -4398 0
4179 -4397 4398 0
-4179 4397 4398 0
-4398 -4396 -4399 0
4398 4396 -4399 0
4398 -4396 4399 0
-4398 4396 4399 0
-4398 -4396 4400 0
4398 -4400 0
4396 -4400 0
-4179 -4397 4401 0
4179 -4401 0
4397 -4401 0
4400 4401 -4402 0
-4400 4402 0
-4401 4402 0
-42 -4369 4403 0
42 -4403 0
4369 -4403 0
-4185 -4403 -4404 0
4185 4403 -4404 0
4185 -4403 4404 0
-4185 4403 4404 0
-4404 -4402 -4405 0
4404 4402 -4405 0
4404 -4402 4405 0
-4404 4402 4405 0
-4404 -4402 4406 0
4404 -4406 0
4402 -4406 0
-4185 -4403 4407 0
4185 -4407 0
4403 -4407 0
4406 4407 -4408 0
-4406 4408 0
-4407 4408 0
-50 -4369 4409 0
50 -4409 0
4369 -4409 0
-4191 -4409 -4410 0
4191 4409 -4410 0
4191 -4409 4410 0
-4191 4409 4410 0
-4410 -4408 -4411 0
4410 4408 -4411 0
4410 -4408 4411 0
-4410 4408 4411 0
-4410 -4408 4412 0
4410 -4412 0
4408 -4412 0
-4191 -4409 4413 0
4191 -4413 0
4409 -4413 0
4412 4413 -4414 0
-4412 4414 0
-4413 4414 0
-58 -4369 4415 0
58 -4415 0
4369 -4415 0
-4197 -4415 -4416 0
4197 4415 -4416 0
4197 -4415 4416 0
-4197 4415 4416 0
-4416 -4414 -4417 0
4416 4414 -4417 0
4416 -4414 4417 0
-4416 4414 4417 0
-4416 -4414 4418 0
4416 -4418 0
4414 -4418 0
-4197 -4415 4419 0
4197 -4419 0
4415 -4419 0
4418 4419 -4420 0
-4418 4420 0
-4419 4420 0
-66 -4369 4421 0
66 -4421 0
4369 -4421 0
-4203 -4421 -4422 0
4203 4421 -4422 0
4203 -4421 4422 0
-4203 4421 4422 0
-4422 -4420 -4423 0
4422 4420 -4423 0
4422 -4420 4423 0
-4422 4420 4423 0
-4422 -4420 4424 0
4422 -4424 0
4420 -4424 0
-4203 -4421 4425 0
4203 -4425 0
4421 -4425 0
4424 4425 -4426 0
-4424 4426 0
-4425 4426 0
-74 -4369 4427 0
74 -4427 0
4369 -4427 0
-4209 -4427 -4428 0
4209 4427 -4428 0
4209 -4427 4428 0
-4209 4427 4428 0
-4428 -4426 -4429 0
4428 4426 -4429 0
4428 -4426 4429 0
-4428 4426 4429 0
-4428 -4426 4430 0
4428 -4430 0
4426 -4430 0
-4209 -4427 4431 0
4209 -4431 0
4427 -4431 0
4430 4431 -4432 0
-4430 4432 0
-4431 4432 0
-82 -4369 4433 0
82 -4433 0
4369 -4433 0
-4215 -4433 -4434 0
4215 4433 -4434 0
4215 -4433 4434 0
-4215 4433 4434 0
-4434 -4432 -4435 0
4434 4432 -4435 0
4434 -4432 4435 0
-4434 4432 4435 0
-4434 -4432 4436 0
4434 -4436 0
4432 -4436 0
-4215 -4433 4437 0
4215 -4437 0
4433 -4437 0
4436 4437 -4438 0
-4436 4438 0
-4437 4438 0
-90 -4369 4439 0
90 -4439 0
4369 -4439 0
-4221 -4439 -4440 0
4221 4439 -4440 0
4221 -4439 4440 0
-4221 4439 4440 0
-4440 -4438 -4441 0
4440 4438 -4441 0
4440 -4438 4441 0
-4440 4438 4441 0
-4440 -4438 4442 0
4440 -4442 0
4438 -4442 0
-4221 -4439 4443 0
4221 -4443 0
4439 -4443 0
4442 4443 -4444 0
-4442 4444 0
-4443 4444 0
-98 -4369 4445 0
98 -4445 0
4369 -4445 0
-4227 -4445 -4446 0
4227 4445 -4446 0
4227 -4445 4446 0
-4227 4445 4446 0
-4446 -4444 -4447 0
4446 4444 -4447 0
4446 -4444 4447 0
-4446 4444 4447 0
-4446 -4444 4448 0
4446 -4448 0
4444 -4448 0
-4227 -4445 4449 0
4227 -4449 0
4445 -4449 0
4448 4449 -4450 0
-4448 4450 0
-4449 4450 0
-106 -4369 4451 0
106 -4451 0
4369 -4451 0
-4233 -4451 -4452 0
4233 4451 -4452 0
4233 -4451 4452 0
-4233 4451 4452 0
-4452 -4450 -4453 0
4452 4450 -4453 0
4452 -4450 4453 0
-4452 4450 4453 0
-4452 -4450 4454 0
4452 -4454 0
4450 -4454 0
-4233 -4451 4455 0
4233 -4455 0
4451 -4455 0
4454 4455 -4456 0
-4454 4456 0
-4455 4456 0
-114 -4369 4457 0
114 -4457 0
4369 -4457 0
-4239 -4457 -4458 0
4239 4457 -4458 0
4239 -4457 4458 0
-4239 4457 4458 0
-4458 -4456 -4459 0
4458 4456 -4459 0
4458 -4456 4459 0
-4458 4456 4459 0
-4458 -4456 4460 0
4458 -4460 0
4456 -4460 0
-4239 -4457 4461 0
4239 -4461 0
4457 -4461 0
4460 4461 -4462 0
-4460 4462 0
-4461 4462 0
-122 -4369 4463 0
122 -4463 0
4369 -4463 0
-4245 -4463 -4464 0
4245 4463 -4464 0
4245 -4463 4464 0
-4245 4463 4464 0
-4464 -4462 -4465 0
4464 4462 -4465 0
4464 -4462 4465 0
-4464 4462 4465 0
-4464 -4462 4466 0
4464 -4466 0
4462 -4466 0
-4245 -4463 4467 0
4245 -4467 0
4463 -4467 0
4466 4467 -4468 0
-4466 4468 0
-4467 4468 0
-130 -4369 4469 0
130 -4469 0
4369 -4469 0
-4251 -4469 -4470 0
4251 4469 -4470 0
4251 -4469 4470 0
-4251 4469 4470 0
-4470 -4468 -4471 0
4470 4468 -4471 0
4470 -4468 4471 0
-4470 4468 4471 0
-4470 -4468 4472 0
4470 -4472 0
4468 -4472 0
-4251 -4469 4473 0
4251 -4473 0
4469 -4473 0
4472 4473 -4474 0
-4472 4474 0
-4473 4474 0
-138 -4369 4475 0
138 -4475 0
4369 -4475 0
-4257 -4475 -4476 0
4257 4475 -4476 0
4257 -4475 4476 0
-4257 4475 4476 0
-4476 -4474 -4477 0
4476 4474 -4477 0
4476 -4474 4477 0
-4476 4474 4477 0
-4476 -4474 4478 0
4476 -4478 0
4474 -4478 0
-4257 -4475 4479 0
4257 -4479 0
4475 -4479 0
4478 4479 -4480 0
-4478 4480 0
-4479 4480 0
-146 -4369 4481 0
146 -4481 0
4369 -4481 0
-4263 -4481 -4482 0
4263 4481 -4482 0
4263 -4481 4482 0
-4263 4481 4482 0
-4482 -4480 -4483 0
4482 4480 -4483 0
4482 -4480 4483 0
-4482 4480 4483 0
-4482 -4480 4484 0
4482 -4484 0
4480 -4484 0
-4263 -4481 4485 0
4263 -4485 0
4481 -4485 0
4484 4485 -4486 0
-4484 4486 0
-4485 4486 0
-154 -4369 4487 0
154 -4487 0
4369 -4487 0
-4269 -4487 -4488 0
4269 4487 -4488 0
4269 -4487 4488 0
-4269 4487 4488 0
-4488 -4486 -4489 0
4488 4486 -4489 0
4488 -4486 4489 0
-4488 4486 4489 0
-4488 -4486 4490 0
4488 -4490 0
4486 -4490 0
-4269 -4487 4491 0
4269 -4491 0
4487 -4491 0
4490 4491 -4492 0
-4490 4492 0
-4491 4492 0
-162 -4369 4493 0
162 -4493 0
4369 -4493 0
-4275 -4493 -4494 0
4275 4493 -4494 0
4275 -4493 4494 0
-4275 4493 4494 0
-4494 -4492 -4495 0
4494 4492 -4495 0
4494 -4492 4495 0
-4494 4492 4495 0
-4494 -4492 4496 0
4494 -4496 0
4492 -4496 0
-4275 -4493 4497 0
4275 -4497 0
4493 -4497 0
4496 4497 -4498 0
-4496 4498 0
-4497 4498 0
-170 -4369 4499 0
170 -4499 0
4369 -4499 0
-4281 -4499 -4500 0
4281 4499 -4500 0
4281 -4499 4500 0
-4281 4499 4500 0
-4500 -4498 -4501 0
4500 4498 -4501 0
4500 -4498 4501 0
-4500 4498 4501 0
-4500 -4498 4502 0
4500 -4502 0
4498 -4502 0
-4281 -4499 4503 0
4281 -4503 0
4499 -4503 0
4502 4503 -4504 0
-4502 4504 0
-4503 4504 0
-178 -4369 4505 0
178 -4505 0
4369 -4505 0
-4287 -4505 -4506 0
4287 4505 -4506 0
4287 -4505 4506 0
-4287 4505 4506 0
-4506 -4504 -4507 0
4506 4504 -4507 0
4506 -4504 4507 0
-4506 4504 4507 0
-4506 -4504 4508 0
4506 -4508 0
4504 -4508 0
-4287 -4505 4509 0
4287 -4509 0
4505 -4509 0
4508 4509 -4510 0
-4508 4510 0
-4509 4510 0
-186 -4369 4511 0
186 -4511 0
4369 -4511 0
-4293 -4511 -4512 0
4293 4511 -4512 0
4293 -4511 4512 0
-4293 4511 4512 0
-4512 -4510 -4513 0
4512 4510 -4513 0
4512 -4510 4513 0
-4512 4510 4513 0
-4512 -4510 4514 0
4512 -4514 0
4510 -4514 0
-4293 -4511 4515 0
4293 -4515 0
4511 -4515 0
4514 4515 -4516 0
-4514 4516 0
-4515 4516 0
-194 -4369 4517 0
194 -4517 0
4369 -4517 0
-4299 -4517 -4518 0
4299 4517 -4518 0
4299 -4517 4518 0
-4299 4517 4518 0
-4518 -4516 -4519 0
4518 4516 -4519 0
4518 -4516 4519 0
-4518 4516 4519 0
-4518 -4516 4520 0
4518 -4520 0
4516 -4520 0
-4299 -4517 4521 0
4299 -4521 0
4517 -4521 0
4520 4521 -4522 0
-4520 4522 0
-4521 4522 0
-202 -4369 4523 0
202 -4523 0
4369 -4523 0
-4305 -4523 -4524 0
4305 4523 -4524 0
4305 -4523 4524 0
-4305 4523 4524 0
-4524 -4522 -4525 0
4524 4522 -4525 0
4524 -4522 4525 0
-4524 4522 4525 0
-4524 -4522 4526 0
4524 -4526 0
4522 -4526 0
-4305 -4523 4527 0
4305 -4527 0
4523 -4527 0
4526 4527 -4528 0
-4526 4528 0
-4527 4528 0
-210 -4369 4529 0
210 -4529 0
4369 -4529 0
-4311 -4529 -4530 0
4311 4529 -4530 0
4311 -4529 4530 0
-4311 4529 4530 0
-4530 -4528 -4531 0
4530 4528 -4531 0
4530 -4528 4531 0
-4530 4528 4531 0
-4530 -4528 4532 0
4530 -4532 0
4528 -4532 0
-4311 -4529 4533 0
4311 -4533 0
4529 -4533 0
4532 4533 -4534 0
-4532 4534 0
-4533 4534 0
-218 -4369 4535 0
218 -4535 0
4369 -4535 0
-4317 -4535 -4536 0
4317 4535 -4536 0
4317 -4535 4536 0
-4317 4535 4536 0
-4536 -4534 -4537 0
4536 4534 -4537 0
4536 -4534 4537 0
-4536 4534 4537 0
-4536 -4534 4538 0
4536 -4538 0
4534 -4538 0
-4317 -4535 4539 0
4317 -4539 0
4535 -4539 0
4538 4539 -4540 0
-4538 4540 0
-4539 4540 0
-226 -4369 4541 0
226 -4541 0
4369 -4541 0
-4323 -4541 -4542 0
4323 4541 -4542 0
4323 -4541 4542 0
-4323 4541 4542 0
-4542 -4540 -4543 0
4542 4540 -4543 0
4542 -4540 4543 0
-4542 4540 4543 0
-4542 -4540 4544 0
4542 -4544 0
4540 -4544 0
-4323 -4541 4545 0
4323 -4545 0
4541 -4545 0
4544 4545 -4546 0
-4544 4546 0
-4545 4546 0
-234 -4369 4547 0
234 -4547 0
4369 -4547 0
-4329 -4547 -4548 0
4329 4547 -4548 0
4329 -4547 4548 0
-4329 4547 4548 0
-4548 -4546 -4549 0
4548 4546 -4549 0
4548 -4546 4549 0
-4548 4546 4549 0
-4548 -4546 4550 0
4548 -4550 0
4546 -4550 0
-4329 -4547 4551 0
4329 -4551 0
4547 -4551 0
4550 4551 -4552 0
-4550 4552 0
-4551 4552 0
-242 -4369 4553 0
242 -4553 0
4369 -4553 0
-4335 -4553 -4554 0
4335 4553 -4554 0
4335 -4553 4554 0
-4335 4553 4554 0
-4554 -4552 -4555 0
4554 4552 -4555 0
4554 -4552 4555 0
-4554 4552 4555 0
-4554 -4552 4556 0
4554 -4556 0
4552 -4556 0
-4335 -4553 4557 0
4335 -4557 0
4553 -4557 0
4556 4557 -4558 0
-4556 4558 0
-4557 4558 0
-250 -4369 4559 0
250 -4559 0
4369 -4559 0
-4341 -4559 -4560 0
4341 4559 -4560 0
4341 -4559 4560 0
-4341 4559 4560 0
-4560 -4558 -4561 0
4560 4558 -4561 0
4560 -4558 4561 0
-4560 4558 4561 0
-4560 -4558 4562 0
4560 -4562 0
4558 -4562 0
-4341 -4559 4563 0
4341 -4563 0
4559 -4563 0
4562 4563 -4564 0
-4562 4564 0
-4563 4564 0
-258 -4369 4565 0
258 -4565 0
4369 -4565 0
-4347 -4565 -4566 0
4347 4565 -4566 0
4347 -4565 4566 0
-4347 4565 4566 0
-4566 -4564 -4567 0
4566 4564 -4567 0
4566 -4564 4567 0
-4566 4564 4567 0
-4566 -4564 4568 0
4566 -4568 0
4564 -4568 0
-4347 -4565 4569 0
4347 -4569 0
4565 -4569 0
4568 4569 -4570 0
-4568 4570 0
-4569 4570 0
-266 -4369 4571 0
266 -4571 0
4369 -4571 0
-4353 -4571 -4572 0
4353 4571 -4572 0
4353 -4571 4572 0
-4353 4571 4572 0
-4572 -4570 -4573 0
4572 4570 -4573 0
4572 -4570 4573 0
-4572 4570 4573 0
-4572 -4570 4574 0
4572 -4574 0
4570 -4574 0
-4353 -4571 4575 0
4353 -4575 0
4571 -4575 0
4574 4575 -4576 0
-4574 4576 0
-4575 4576 0
-274 -4369 4577 0
274 -4577 0
4369 -4577 0
-4359 -4577 -4578 0
4359 4577 -4578 0
4359 -4577 4578 0
-4359 4577 4578 0
-4578 -4576 -4579 0
4578 4576 -4579 0
4578 -4576 4579 0
-4578 4576 4579 0
-4578 -4576 4580 0
4578 -4580 0
4576 -4580 0
-4359 -4577 4581 0
4359 -4581 0
4577 -4581 0
4580 4581 -4582 0
-4580 4582 0
-4581 4582 0
-282 -4369 4583 0
282 -4583 0
4369 -4583 0
-4365 -4583 -4584 0
4365 4583 -4584 0
4365 -4583 4584 0
-4365 4583 4584 0
-4584 -4582 -4585 0
4584 4582 -4585 0
4584 -4582 4585 0
-4584 4582 4585 0
-4584 -4582 4586 0
4584 -4586 0
4582 -4586 0
-4365 -4583 4587 0
4365 -4587 0
4583 -4587 0
4586 4587 -4588 0
-4586 4588 0
-4587 4588 0
-290 -4369 4589 0
290 -4589 0
4369 -4589 0
-4368 -4589 -4590 0
4368 4589 -4590 0
4368 -4589 4590 0
-4368 4589 4590 0
-4590 -4588 -4591 0
4590 4588 -4591 0
4590 -4588 4591 0
-4590 4588 4591 0
-4590 -4588 4592 0
4590 -4592 0
4588 -4592 0
-4368 -4589 4593 0
4368 -4593 0
4589 -4593 0
4592 4593 -4594 0
-4592 4594 0
-4593 4594 0
-1 -4595 4596 0
1 -4596 0
4595 -4596 0
-4375 -4596 -4597 0
4375 4596 -4597 0
4375 -4596 4597 0
-4375 4596 4597 0
-4375 -4596 4598 0
4375 -4598 0
4596 -4598 0
-4 -4595 4599 0
4 -4599 0
4595 -4599 0
-4381 -4599 -4600 0
4381 4599 -4600 0
4381 -4599 4600 0
-4381 4599 4600 0
-4600 -4598 -4601 0
4600 4598 -4601 0
4600 -4598 4601 0
-4600 4598 4601 0
-4600 -4598 4602 0
4600 -4602 0
4598 -4602 0
-4381 -4599 4603 0
4381 -4603 0
4599 -4603 0
4602 4603 -4604 0
-4602 4604 0
-4603 4604 0
-10 -4595 4605 0
10 -4605 0
4595 -4605 0
-4387 -4605 -4606 0
4387 4605 -4606 0
4387 -4605 4606 0
-4387 4605 4606 0
-4606 -4604 -4607 0
4606 4604 -4607 0
4606 -4604 4607 0
-4606 4604 4607 0
-4606 -4604 4608 0
4606 -4608 0
4604 -4608 0
-4387 -4605 4609 0
4387 -4609 0
4605 -4609 0
4608 4609 -4610 0
-4608 4610 0
-4609 4610 0
-18 -4595 4611 0
18 -4611 0
4595 -4611 0
-4393 -4611 -4612 0
4393 4611 -4612 0
4393 -4611 4612 0
-4393 4611 4612 0
-4612 -4610 -4613 0
4612 4610 -4613 0
4612 -4610 4613 0
-4612 4610 4613 0
-4612 -4610 4614 0
4612 -4614 0
4610 -4614 0
-4393 -4611 4615 0
4393 -4615 0
4611 -4615 0
4614 4615 -4616 0
-4614 4616 0
-4615 4616 0
-26 -4595 4617 0
26 -4617 0
4595 -4617 0
-4399 -4617 -4618 0
4399 4617 -4618 0
4399 -4617 4618 0
-4399 4617 4618 0
-4618 -4616 -4619 0
4618 4616 -4619 0
4618 -4616 4619 0
-4618 4616 4619 0
-4618 -4616 4620 0
4618 -4620 0
4616 -4620 0
-4399 -4617 4621 0
4399 -4621 0
4617 -4621 0
4620 4621 -4622 0
-4620 4622 0
-4621 4622 0
-34 -4595 4623 0
34 -4623 0
4595 -4623 0
-4405 -4623 -4624 0
4405 4623 -4624 0
4405 -4623 4624 0
-4405 4623 4624 0
-4624 -4622 -4625 0
4624 4622 -4625 0
4624 -4622 4625 0
-4624 4622 4625 0
-4624 -4622 4626 0
4624 -4626 0
4622 -4626 0
-4405 -4623 4627 0
4405 -4627 0
4623 -4627 0
4626 4627 -4628 0
-4626 4628 0
-4627 4628 0
-42 -4595 4629 0
42 -4629 0
4595 -4629 0
-4411 -4629 -4630 0
4411 4629 -4630 0
4411 -4629 4630 0
-4411 4629 4630 0
-4630 -4628 -4631 0
4630 4628 -4631 0
4630 -4628 4631 0
-4630 4628 4631 0
-4630 -4628 4632 0
4630 -4632 0
4628 -4632 0
-4411 -4629 4633 0
4411 -4633 0
4629 -4633 0
4632 4633 -4634 0
-4632 4634 0
-4633 4634 0
-50 -4595 4635 0
50 -4635 0
4595 -4635 0
-4417 -4635 -4636 0
4417 4635 -4636 0
4417 -4635 4636 0
-4417 4635 4636 0
-4636 -4634 -4637 0
4636 4634 -4637 0
4636 -4634 4637 0
-4636 4634 4637 0
-4636 -4634 4638 0
4636 -4638 0
4634 -4638 0
-4417 -4635 4639 0
4417 -4639 0
4635 -4639 0
4638 4639 -4640 0
-4638 4640 0
-4639 4640 0
-58 -4595 4641 0
58 -4641 0
4595 -4641 0
-4423 -4641 -4642 0
4423 4641 -4642 0
4423 -4641 4642 0
-4423 4641 4642 0
-4642 -4640 -4643 0
4642 4640 -4643 0
4642 -4640 4643 0
-4642 4640 4643 0
-4642 -4640 4644 0
4642 -4644 0
4640 -4644 0
-4423 -4641 4645 0
4423 -4645 0
4641 -4645 0
4644 4645 -4646 0
-4644 4646 0
-4645 4646 0
-66 -4595 4647 0
66 -4647 0
4595 -4647 0
-4429 -4647 -4648 0
4429 4647 -4648 0
4429 -4647 4648 0
-4429 4647 4648 0
-4648 -4646 -4649 0
4648 4646 -4649 0
4648 -4646 4649 0
-4648 4646 4649 0
-4648 -4646 4650 0
4648 -4650 0
4646 -4650 0
-4429 -4647 4651 0
4429 -4651 0
4647 -4651 0
4650 4651 -4652 0
-4650 4652 0
-4651 4652 0
-74 -4595 4653 0
74 -4653 0
4595 -4653 0
-4435 -4653 -4654 0
4435 4653 -4654 0
4435 -4653 4654 0
-4435 4653 4654 0
-4654 -4652 -4655 0
4654 4652 -4655 0
4654 -4652 4655 0
-4654 4652 4655 0
-4654 -4652 4656 0
4654 -4656 0
4652 -4656 0
-4435 -4653 4657 0
4435 -4657 0
4653 -4657 0
4656 4657 -4658 0
-4656 4658 0
-4657 4658 0
-82 -4595 4659 0
82 -4659 0
4595 -4659 0
-4441 -4659 -4660 0
4441 4659 -4660 0
4441 -4659 4660 0
-4441 4659 4660 0
-4660 -4658 -4661 0
4660 4658 -4661 0
4660 -4658 4661 0
-4660 4658 4661 0
-4660 -4658 4662 0
4660 -4662 0
4658 -4662 0
-4441 -4659 4663 0
4441 -4663 0
4659 -4663 0
4662 4663 -4664 0
-4662 4664 0
-4663 4664 0
-90 -4595 4665 0
90 -4665 0
4595 -4665 0
-4447 -4665 -4666 0
4447 4665 -4666 0
4447 -4665 4666 0
-4447 4665 4666 0
-4666 -4664 -4667 0
4666 4664 -4667 0
4666 -4664 4667 0
-4666 4664 4667 0
-4666 -4664 4668 0
4666 -4668 0
4664 -4668 0
-4447 -4665 4669 0
4447 -4669 0
4665 -4669 0
4668 4669 -4670 0
-4668 4670 0
-4669 4670 0
-98 -4595 4671 0
98 -4671 0
4595 -4671 0
-4453 -4671 -4672 0
4453 4671 -4672 0
4453 -4671 4672 0
-4453 4671 4672 0
-4672 -4670 -4673 0
4672 4670 -4673 0
4672 -4670 4673 0
-4672 4670 4673 0
-4672 -4670 4674 0
4672 -4674 0
4670 -4674 0
-4453 -4671 4675 0
4453 -4675 0
4671 -4675 0
4674 4675 -4676 0
-4674 4676 0
-4675 4676 0
-106 -4595 4677 0
106 -4677 0
4595 -4677 0
-4459 -4677 -4678 0
4459 4677 -4678 0
4459 -4677 4678 0
-4459 4677 4678 0
-4678 -4676 -4679 0
4678 4676 -4679 0
4678 -4676 4679 0
-4678 4676 4679 0
-4678 -4676 4680 0
4678 -4680 0
4676 -4680 0
-4459 -4677 4681 0
4459 -4681 0
4677 -4681 0
4680 4681 -4682 0
-4680 4682 0
-4681 4682 0
-114 -4595 4683 0
114 -4683 0
4595 -4683 0
-4465 -4683 -4684 0
4465 4683 -4684 0
4465 -4683 4684 0
-4465 4683 4684 0
-4684 -4682 -4685 0
4684 4682 -4685 0
4684 -4682 4685 0
-4684 4682 4685 0
-4684 -4682 4686 0
4684 -4686 0
4682 -4686 0
-4465 -4683 4687 0
4465 -4687 0
4683 -4687 0
4686 4687 -4688 0
-4686 4688 0
-4687 4688 0
-122 -4595 4689 0
122 -4689 0
4595 -4689 0
-4471 -4689 -4690 0
4471 4689 -4690 0
4471 -4689 4690 0
-4471 4689 4690 0
-4690 -4688 -4691 0
4690 4688 -4691 0
4690 -4688 4691 0
-4690 4688 4691 0
-4690 -4688 4692 0
4690 -4692 0
4688 -4692 0
-4471 -4689 4693 0
4471 -4693 0
4689 -4693 0
4692 4693 -4694 0
-4692 4694 0
-4693 4694 0
-130 -4595 4695 0
130 -4695 0
4595 -4695 0
-4477 -4695 -4696 0
4477 4695 -4696 0
4477 -4695 4696 0
-4477 4695 4696 0
-4696 -4694 -4697 0
4696 4694 -4697 0
4696 -4694 4697 0
-4696 4694 4697 0
-4696 -4694 4698 0
4696 -4698 0
4694 -4698 0
-4477 -4695 4699 0
4477 -4699 0
4695 -4699 0
4698 4699 -4700 0
-4698 4700 0
-4699 4700 0
-138 -4595 4701 0
138 -4701 0
4595 -4701 0
-4483 -4701 -4702 0
4483 4701 -4702 0
4483 -4701 4702 0
-4483 4701 4702 0
-4702 -4700 -4703 0
4702 4700 -4703 0
4702 -4700 4703 0
-4702 4700 4703 0
-4702 -4700 4704 0
4702 -4704 0
4700 -4704 0
-4483 -4701 4705 0
4483 -4705 0
4701 -4705 0
4704 4705 -4706 0
-4704 4706 0
-4705 4706 0
-146 -4595 4707 0
146 -4707 0
4595 -4707 0
-4489 -4707 -4708 0
4489 4707 -4708 0
4489 -4707 4708 0
-4489 4707 4708 0
-4708 -4706 -4709 0
4708 4706 -4709 0
4708 -4706 4709 0
-4708 4706 4709 0
-4708 -4706 4710 0
4708 -4710 0
4706 -4710 0
-4489 -4707 4711 0
4489 -4711 0
4707 -4711 0
4710 4711 -4712 0
-4710 4712 0
-4711 4712 0
-154 -4595 4713 0
154 -4713 0
4595 -4713 0
-4495 -4713 -4714 0
4495 4713 -4714 0
4495 -4713 4714 0
-4495 4713 4714 0
-4714 -4712 -4715 0
4714 4712 -4715 0
4714 -4712 4715 0
-4714 4712 4715 0
-4714 -4712 4716 0
4714 -4716 0
4712 -4716 0
-4495 -4713 4717 0
4495 -4717 0
4713 -4717 0
4716 4717 -4718 0
-4716 4718 0
-4717 4718 0
-162 -4595 4719 0
162 -4719 0
4595 -4719 0
-4501 -4719 -4720 0
4501 4719 -4720 0
4501 -4719 4720 0
-4501 4719 4720 0
-4720 -4718 -4721 0
4720 4718 -4721 0
4720 -4718 4721 0
-4720 4718 4721 0
-4720 -4718 4722 0
4720 -4722 0
4718 -4722 0
-4501 -4719 4723 0
4501 -4723 0
4719 -4723 0
4722 4723 -4724 0
-4722 4724 0
-4723 4724 0
-170 -4595 4725 0
170 -4725 0
4595 -4725 0
-4507 -4725 -4726 0
4507 4725 -4726 0
4507 -4725 4726 0
-4507 4725 4726 0
-4726 -4724 -4727 0
4726 4724 -4727 0
4726 -4724 4727 0
-4726 4724 4727 0
-4726 -4724 4728 0
4726 -4728 0
4724 -4728 0
-4507 -4725 4729 0
4507 -4729 0
4725 -4729 0
4728 4729 -4730 0
-4728 4730 0
-4729 4730 0
-178 -4595 4731 0
178 -4731 0
4595 -4731 0
-4513 -4731 -4732 0
4513 4731 -4732 0
4513 -4731 4732 0
-4513 4731 4732 0
-4732 -4730 -4733 0
4732 4730 -4733 0
4732 -4730 4733 0
-4732 4730 4733 0
-4732 -4730 4734 0
4732 -4734 0
4730 -4734 0
-4513 -4731 4735 0
4513 -4735 0
4731 -4735 0
4734 4735 -4736 0
-4734 4736 0
-4735 4736 0
-186 -4595 4737 0
186 -4737 0
4595 -4737 0
-4519 -4737 -4738 0
4519 4737 -4738 0
4519 -4737 4738 0
-4519 4737 4738 0
-4738 -4736 -4739 0
4738 4736 -4739 0
4738 -4736 4739 0
-4738 4736 4739 0
-4738 -4736 4740 0
4738 -4740 0
4736 -4740 0
-4519 -4737 4741 0
4519 -4741 0
4737 -4741 0
4740 4741 -4742 0
-4740 4742 0
-4741 4742 0
-194 -4595 4743 0
194 -4743 0
4595 -4743 0
-4525 -4743 -4744 0
4525 4743 -4744 0
4525 -4743 4744 0
-4525 4743 4744 0
-4744 -4742 -4745 0
4744 4742 -4745 0
4744 -4742 4745 0
-4744 4742 4745 0
-4744 -4742 4746 0
4744 -4746 0
4742 -4746 0
-4525 -4743 4747 0
4525 -4747 0
4743 -4747 0
4746 4747 -4748 0
-4746 4748 0
-4747 4748 0
-202 -4595 4749 0
202 -4749 0
4595 -4749 0
-4531 -4749 -4750 0
4531 4749 -4750 0
4531 -4749 4750 0
-4531 4749 4750 0
-4750 -4748 -4751 0
4750 4748 -4751 0
4750 -4748 4751 0
-4750 4748 4751 0
-4750 -4748 4752 0
4750 -4752 0
4748 -4752 0
-4531 -4749 4753 0
4531 -4753 0
4749 -4753 0
4752 4753 -4754 0
-4752 4754 0
-4753 4754 0
-210 -4595 4755 0
210 -4755 0
4595 -4755 0
-4537 -4755 -4756 0
4537 4755 -4756 0
4537 -4755 4756 0
-4537 4755 4756 0
-4756 -4754 -4757 0
4756 4754 -4757 0
4756 -4754 4757 0
-4756 4754 4757 0
-4756 -4754 4758 0
4756 -4758 0
4754 -4758 0
-4537 -4755 4759 0
4537 -4759 0
4755 -4759 0
4758 4759 -4760 0
-4758 4760 0
-4759 4760 0
-218 -4595 4761 0
218 -4761 0
4595 -4761 0
-4543 -4761 -4762 0
4543 4761 -4762 0
4543 -4761 4762 0
-4543 4761 4762 0
-4762 -4760 -4763 0
4762 4760 -4763 0
4762 -4760 4763 0
-4762 4760 4763 0
-4762 -4760 4764 0
4762 -4764 0
4760 -4764 0
-4543 -4761 4765 0
4543 -4765 0
4761 -4765 0
4764 4765 -4766 0
-4764 4766 0
-4765 4766 0
-226 -4595 4767 0
226 -4767 0
4595 -4767 0
-4549 -4767 -4768 0
4549 4767 -4768 0
4549 -4767 4768 0
-4549 4767 4768 0
-4768 -4766 -4769 0
4768 4766 -4769 0
4768 -4766 4769 0
-4768 4766 4769 0
-4768 -4766 4770 0
4768 -4770 0
4766 -4770 0
-4549 -4767 4771 0
4549 -4771 0
4767 -4771 0
4770 4771 -4772 0
-4770 4772 0
-4771 4772 0
-234 -4595 4773 0
234 -4773 0
4595 -4773 0
-4555 -4773 -4774 0
4555 4773 -4774 0
4555 -4773 4774 0
-4555 4773 4774 0
-4774 -4772 -4775 0
4774 4772 -4775 0
4774 -4772 4775 0
-4774 4772 4775 0
-4774 -4772 4776 0
4774 -4776 0
4772 -4776 0
-4555 -4773 4777 0
4555 -4777 0
4773 -4777 0
4776 4777 -4778 0
-4776 4778 0
-4777 4778 0
-242 -4595 4779 0
242 -4779 0
4595 -4779 0
-4561 -4779 -4780 0
4561 4779 -4780 0
4561 -4779 4780 0
-4561 4779 4780 0
-4780 -4778 -4781 0
4780 4778 -4781 0
4780 -4778 4781 0
-4780 4778 4781 0
-4780 -4778 4782 0
4780 -4782 0
4778 -4782 0
-4561 -4779 4783 0
4561 -4783 0
4779 -4783 0
4782 4783 -4784 0
-4782 4784 0
-4783 4784 0
-250 -4595 4785 0
250 -4785 0
4595 -4785 0
-4567 -4785 -4786 0
4567 4785 -4786 0
4567 -4785 4786 0
-4567 4785 4786 0
-4786 -4784 -4787 0
4786 4784 -4787 0
4786 -4784 4787 0
-4786 4784 4787 0
-4786 -4784 4788 0
4786 -4788 0
4784 -4788 0
-4567 -4785 4789 0
4567 -4789 0
4785 -4789 0
4788 4789 -4790 0
-4788 4790 0
-4789 4790 0
-258 -4595 4791 0
258 -4791 0
4595 -4791 0
-4573 -4791 -4792 0
4573 4791 -4792 0
4573 -4791 4792 0
-4573 4791 4792 0
-4792 -4790 -4793 0
4792 4790 -4793 0
4792 -4790 4793 0
-4792 4790 4793 0
-4792 -4790 4794 0
4792 -4794 0
4790 -4794 0
-4573 -4791 4795 0
4573 -4795 0
4791 -4795 0
4794 4795 -4796 0
-4794 4796 0
-4795 4796 0
-266 -4595 4797 0
266 -4797 0
4595 -4797 0
-4579 -4797 -4798 0
4579 4797 -4798 0
4579 -4797 4798 0
-4579 4797 4798 0
-4798 -4796 -4799 0
4798 4796 -4799 0
4798 -4796 4799 0
-4798 4796 4799 0
-4798 -4796 4800 0
4798 -4800 0
4796 -4800 0
-4579 -4797 4801 0
4579 -4801 0
4797 -4801 0
4800 4801 -4802 0
-4800 4802 0
-4801 4802 0
-274 -4595 4803 0
274 -4803 0
4595 -4803 0
-4585 -4803 -4804 0
4585 4803 -4804 0
4585 -4803 4804 0
-4585 4803 4804 0
-4804 -4802 -4805 0
4804 4802 -4805 0
4804 -4802 4805 0
-4804 4802 4805 0
-4804 -4802 4806 0
4804 -4806 0
4802 -4806 0
-4585 -4803 4807 0
4585 -4807 0
4803 -4807 0
4806 4807 -4808 0
-4806 4808 0
-4807 4808 0
-282 -4595 4809 0
282 -4809 0
4595 -4809 0
-4591 -4809 -4810 0
4591 4809 -4810 0
4591 -4809 4810 0
-4591 4809 4810 0
-4810 -4808 -4811 0
4810 4808 -4811 0
4810 -4808 4811 0
-4810 4808 4811 0
-4810 -4808 4812 0
4810 -4812 0
4808 -4812 0
-4591 -4809 4813 0
4591 -4813 0
4809 -4813 0
4812 4813 -4814 0
-4812 4814 0
-4813 4814 0
-290 -4595 4815 0
290 -4815 0
4595 -4815 0
-4594 -4815 -4816 0
4594 4815 -4816 0
4594 -4815 4816 0
-4594 4815 4816 0
-4816 -4814 -4817 0
4816 4814 -4817 0
4816 -4814 4817 0
-4816 4814 4817 0
-4816 -4814 4818 0
4816 -4818 0
4814 -4818 0
-4594 -4815 4819 0
4594 -4819 0
4815 -4819 0
4818 4819 -4820 0
-4818 4820 0
-4819 4820 0
-1 -4821 4822 0
1 -4822 0
4821 -4822 0
-4601 -4822 -4823 0
4601 4822 -4823 0
4601 -4822 4823 0
-4601 4822 4823 0
-4601 -4822 4824 0
4601 -4824 0
4822 -4824 0
-4 -4821 4825 0
4 -4825 0
4821 -4825 0
-4607 -4825 -4826 0
4607 4825 -4826 0
4607 -4825 4826 0
-4607 4825 4826 0
-4826 -4824 -4827 0
4826 4824 -4827 0
4826 -4824 4827 0
-4826 4824 4827 0
-4826 -4824 4828 0
4826 -4828 0
4824 -4828 0
-4607 -4825 4829 0
4607 -4829 0
4825 -4829 0
4828 4829 -4830 0
-4828 4830 0
-4829 4830 0
-10 -4821 4831 0
10 -4831 0
4821 -4831 0
-4613 -4831 -4832 0
4613 4831 -4832 0
4613 -4831 4832 0
-4613 4831 4832 0
-4832 -4830 -4833 0
4832 4830 -4833 0
4832 -4830 4833 0
-4832 4830 4833 0
-4832 -4830 4834 0
4832 -4834 0
4830 -4834 0
-4613 -4831 4835 0
4613 -4835 0
4831 -4835 0
4834 4835 -4836 0
-4834 4836 0
-4835 4836 0
-18 -4821 4837 0
18 -4837 0
4821 -4837 0
-4619 -4837 -4838 0
4619 4837 -4838 0
4619 -4837 4838 0
-4619 4837 4838 0
-4838 -4836 -4839 0
4838 4836 -4839 0
4838 -4836 4839 0
-4838 4836 4839 0
-4838 -4836 4840 0
4838 -4840 0
4836 -4840 0
-4619 -4837 4841 0
4619 -4841 0
4837 -4841 0
4840 4841 -4842 0
-4840 4842 0
-4841 4842 0
-26 -4821 4843 0
26 -4843 0
4821 -4843 0
-4625 -4843 -4844 0
4625 4843 -4844 0
4625 -4843 4844 0
-4625 4843 4844 0
-4844 -4842 -4845 0
4844 4842 -4845 0
4844 -4842 4845 0
-4844 4842 4845 0
-4844 -4842 4846 0
4844 -4846 0
4842 -4846 0
-4625 -4843 4847 0
4625 -4847 0
4843 -4847 0
4846 4847 -4848 0
-4846 4848 0
-4847 4848 0
-34 -4821 4849 0
34 -4849 0
4821 -4849 0
-4631 -4849 -4850 0
4631 4849 -4850 0
4631 -4849 4850 0
-4631 4849 4850 0
-4850 -4848 -4851 0
4850 4848 -4851 0
4850 -4848 4851 0
-4850 4848 4851 0
-4850 -4848 4852 0
4850 -4852 0
4848 -4852 0
-4631 -4849 4853 0
4631 -4853 0
4849 -4853 0
4852 4853 -4854 0
-4852 4854 0
-4853 4854 0
-42 -4821 4855 0
42 -4855 0
4821 -4855 0
-4637 -4855 -4856 0
4637 4855 -4856 0
4637 -4855 4856 0
-4637 4855 4856 0
-4856 -4854 -4857 0
4856 4854 -4857 0
4856 -4854 4857 0
-4856 4854 4857 0
-4856 -4854 4858 0
4856 -4858 0
4854 -4858 0
-4637 -4855 4859 0
4637 -4859 0
4855 -4859 0
4858 4859 -4860 0
-4858 4860 0
-4859 4860 0
-50 -4821 4861 0
50 -4861 0
4821 -4861 0
-4643 -4861 -4862 0
4643 4861 -4862 0
4643 -4861 4862 0
-4643 4861 4862 0
-4862 -4860 -4863 0
4862 4860 -4863 0
4862 -4860 4863 0
-4862 4860 4863 0
-4862 -4860 4864 0
4862 -4864 0
4860 -4864 0
-4643 -4861 4865 0
4643 -4865 0
4861 -4865 0
4864 4865 -4866 0
-4864 4866 0
-4865 4866 0
-58 -4821 4867 0
58 -4867 0
4821 -4867 0
-4649 -4867 -4868 0
4649 4867 -4868 0
4649 -4867 4868 0
-4649 4867 4868 0
-4868 -4866 -4869 0
4868 4866 -4869 0
4868 -4866 4869 0
-4868 4866 4869 0
-4868 -4866 4870 0
4868 -4870 0
4866 -4870 0
-4649 -4867 4871 0
4649 -4871 0
4867 -4871 0
4870 4871 -4872 0
-4870 4872 0
-4871 4872 0
-66 -4821 4873 0
66 -4873 0
4821 -4873 0
-4655 -4873 -4874 0
4655 4873 -4874 0
4655 -4873 4874 0
-4655 4873 4874 0
-4874 -4872 -4875 0
4874 4872 -4875 0
4874 -4872 4875 0
-4874 4872 4875 0
-4874 -4872 4876 0
4874 -4876 0
4872 -4876 0
-4655 -4873 4877 0
4655 -4877 0
4873 -4877 0
4876 4877 -4878 0
-4876 4878 0
-4877 4878 0
-74 -4821 4879 0
74 -4879 0
4821 -4879 0
-4661 -4879 -4880 0
4661 4879 -4880 0
4661 -4879 4880 0
-4661 4879 4880 0
-4880 -4878 -4881 0
4880 4878 -4881 0
4880 -4878 4881 0
-4880 4878 4881 0
-4880 -4878 4882 0
4880 -4882 0
4878 -4882 0
-4661 -4879 4883 0
4661 -4883 0
4879 -4883 0
4882 4883 -4884 0
-4882 4884 0
-4883 4884 0
-82 -4821 4885 0
82 -4885 0
4821 -4885 0
-4667 -4885 -4886 0
4667 4885 -4886 0
4667 -4885 4886 0
-4667 4885 4886 0
-4886 -4884 -4887 0
4886 4884 -4887 0
4886 -4884 4887 0
-4886 4884 4887 0
-4886 -4884 4888 0
4886 -4888 0
4884 -4888 0
-4667 -4885 4889 0
4667 -4889 0
4885 -4889 0
4888 4889 -4890 0
-4888 4890 0
-4889 4890 0
-90 -4821 4891 0
90 -4891 0
4821 -4891 0
-4673 -4891 -4892 0
4673 4891 -4892 0
4673 -4891 4892 0
-4673 4891 4892 0
-4892 -4890 -4893 0
4892 4890 -4893 0
4892 -4890 4893 0
-4892 4890 4893 0
-4892 -4890 4894 0
4892 -4894 0
4890 -4894 0
-4673 -4891 4895 0
4673 -4895 0
4891 -4895 0
4894 4895 -4896 0
-4894 4896 0
-4895 4896 0
-98 -4821 4897 0
98 -4897 0
4821 -4897 0
-4679 -4897 -4898 0
4679 4897 -4898 0
4679 -4897 4898 0
-4679 4897 4898 0
-4898 -4896 -4899 0
4898 4896 -4899 0
4898 -4896 4899 0
-4898 4896 4899 0
-4898 -4896 4900 0
4898 -4900 0
4896 -4900 0
-4679 -4897 4901 0
4679 -4901 0
4897 -4901 0
4900 4901 -4902 0
-4900 4902 0
-4901 4902 0
-106 -4821 4903 0
106 -4903 0
4821 -4903 0
-4685 -4903 -4904 0
4685 4903 -4904 0
4685 -4903 4904 0
-4685 4903 4904 0
-4904 -4902 -4905 0
4904 4902 -4905 0
4904 -4902 4905 0
-4904 4902 4905 0
-4904 -4902 4906 0
4904 -4906 0
4902 -4906 0
-4685 -4903 4907 0
4685 -4907 0
4903 -4907 0
4906 4907 -4908 0
-4906 4908 0
-4907 4908 0
-114 -4821 4909 0
114 -4909 0
4821 -4909 0
-4691 -4909 -4910 0
4691 4909 -4910 0
4691 -4909 4910 0
-4691 4909 4910 0
-4910 -4908 -4911 0
4910 4908 -4911 0
4910 -4908 4911 0
-4910 4908 4911 0
-4910 -4908 4912 0
4910 -4912 0
4908 -4912 0
-4691 -4909 4913 0
4691 -4913 0
4909 -4913 0
4912 4913 -4914 0
-4912 4914 0
-4913 4914 0
-122 -4821 4915 0
122 -4915 0
4821 -4915 0
-4697 -4915 -4916 0
4697 4915 -4916 0
4697 -4915 4916 0
-4697 4915 4916 0
-4916 -4914 -4917 0
4916 4914 -4917 0
4916 -4914 4917 0
-4916 4914 4917 0
-4916 -4914 4918 0
4916 -4918 0
4914 -4918 0
-4697 -4915 4919 0
4697 -4919 0
4915 -4919 0
4918 4919 -4920 0
-4918 4920 0
-4919 4920 0
-130 -4821 4921 0
130 -4921 0
4821 -4921 0
-4703 -4921 -4922 0
4703 4921 -4922 0
4703 -4921 4922 0
-4703 4921 4922 0
-4922 -4920 -4923 0
4922 4920 -4923 0
4922 -4920 4923 0
-4922 4920 4923 0
-4922 -4920 4924 0
4922 -4924 0
4920 -4924 0
-4703 -4921 4925 0
4703 -4925 0
4921 -4925 0
4924 4925 -4926 0
-4924 4926 0
-4925 4926 0
-138 -4821 4927 0
138 -4927 0
4821 -4927 0
-4709 -4927 -4928 0
4709 4927 -4928 0
4709 -4927 4928 0
-4709 4927 4928 0
-4928 -4926 -4929 0
4928 4926 -4929 0
4928 -4926 4929 0
-4928 4926 4929 0
-4928 -4926 4930 0
4928 -4930 0
4926 -4930 0
-4709 -4927 4931 0
4709 -4931 0
4927 -4931 0
4930 4931 -4932 0
-4930 4932 0
-4931 4932 0
-146 -4821 4933 0
146 -4933 0
4821 -4933 0
-4715 -4933 -4934 0
4715 4933 -4934 0
4715 -4933 4934 0
-4715 4933 4934 0
-4934 -4932 -4935 0
4934 4932 -4935 0
4934 -4932 4935 0
-4934 4932 4935 0
-4934 -4932 4936 0
4934 -4936 0
4932 -4936 0
-4715 -4933 4937 0
4715 -4937 0
4933 -4937 0
4936 4937 -4938 0
-4936 4938 0
-4937 4938 0
-154 -4821 4939 0
154 -4939 0
4821 -4939 0
-4721 -4939 -4940 0
4721 4939 -4940 0
4721 -4939 4940 0
-4721 4939 4940 0
-4940 -4938 -4941 0
4940 4938 -4941 0
4940 -4938 4941 0
-4940 4938 4941 0
-4940 -4938 4942 0
4940 -4942 0
4938 -4942 0
-4721 -4939 4943 0
4721 -4943 0
4939 -4943 0
4942 4943 -4944 0
-4942 4944 0
-4943 4944 0
-162 -4821 4945 0
162 -4945 0
4821 -4945 0
-4727 -4945 -4946 0
4727 4945 -4946 0
4727 -4945 4946 0
-4727 4945 4946 0
-4946 -4944 -4947 0
4946 4944 -4947 0
4946 -4944 4947 0
-4946 4944 4947 0
-4946 -4944 4948 0
4946 -4948 0
4944 -4948 0
-4727 -4945 4949 0
4727 -4949 0
4945 -4949 0
4948 4949 -4950 0
-4948 4950 0
-4949 4950 0
-170 -4821 4951 0
170 -4951 0
4821 -4951 0
-4733 -4951 -4952 0
4733 4951 -4952 0
4733 -4951 4952 0
-4733 4951 4952 0
-4952 -4950 -4953 0
4952 4950 -4953 0
4952 -4950 4953 0
-4952 4950 4953 0
-4952 -4950 4954 0
4952 -4954 0
4950 -4954 0
-4733 -4951 4955 0
4733 -4955 0
4951 -4955 0
4954 4955 -4956 0
-4954 4956 0
-4955 4956 0
-178 -4821 4957 0
178 -4957 0
4821 -4957 0
-4739 -4957 -4958 0
4739 4957 -4958 0
4739 -4957 4958 0
-4739 4957 4958 0
-4958 -4956 -4959 0
4958 4956 -4959 0
4958 -4956 4959 0
-4958 4956 4959 0
-4958 -4956 4960 0
4958 -4960 0
4956 -4960 0
-4739 -4957 4961 0
4739 -4961 0
4957 -4961 0
4960 4961 -4962 0
-4960 4962 0
-4961 4962 0
-186 -4821 4963 0
186 -4963 0
4821 -4963 0
-4745 -4963 -4964 0
4745 4963 -4964 0
4745 -4963 4964 0
-4745 4963 4964 0
-4964 -4962 -4965 0
4964 4962 -4965 0
4964 -4962 4965 0
-4964 4962 4965 0
-4964 -4962 4966 0
4964 -4966 0
4962 -4966 0
-4745 -4963 4967 0
4745 -4967 0
4963 -4967 0
4966 4967 -4968 0
-4966 4968 0
-4967 4968 0
-194 -4821 4969 0
194 -4969 0
4821 -4969 0
-4751 -4969 -4970 0
4751 4969 -4970 0
4751 -4969 4970 0
-4751 4969 4970 0
-4970 -4968 -4971 0
4970 4968 -4971 0
4970 -4968 4971 0
-4970 4968 4971 0
-4970 -4968 4972 0
4970 -4972 0
4968 -4972 0
-4751 -4969 4973 0
4751 -4973 0
4969 -4973 0
4972 4973 -4974 0
-4972 4974 0
-4973 4974 0
-202 -4821 4975 0
202 -4975 0
4821 -4975 0
-4757 -4975 -4976 0
4757 4975 -4976 0
4757 -4975 4976 0
-4757 4975 4976 0
-4976 -4974 -4977 0
4976 4974 -4977 0
4976 -4974 4977 0
-4976 4974 4977 0
-4976 -4974 4978 0
4976 -4978 0
4974 -4978 0
-4757 -4975 4979 0
4757 -4979 0
4975 -4979 0
4978 4979 -4980 0
-4978 4980 0
-4979 4980 0
-210 -4821 4981 0
210 -4981 0
4821 -4981 0
-4763 -4981 -4982 0
4763 4981 -4982 0
4763 -4981 4982 0
-4763 4981 4982 0
-4982 -4980 -4983 0
4982 4980 -4983 0
4982 -4980 4983 0
-4982 4980 4983 0
-4982 -4980 4984 0
4982 -4984 0
4980 -4984 0
-4763 -4981 4985 0
4763 -4985 0
4981 -4985 0
4984 4985 -4986 0
-4984 4986 0
-4985 4986 0
-218 -4821 4987 0
218 -4987 0
4821 -4987 0
-4769 -4987 -4988 0
4769 4987 -4988 0
4769 -4987 4988 0
-4769 4987 4988 0
-4988 -4986 -4989 0
4988 4986 -4989 0
4988 -4986 4989 0
-4988 4986 4989 0
-4988 -4986 4990 0
4988 -4990 0
4986 -4990 0
-4769 -4987 4991 0
4769 -4991 0
4987 -4991 0
4990 4991 -4992 0
-4990 4992 0
-4991 4992 0
-226 -4821 4993 0
226 -4993 0
4821 -4993 0
-4775 -4993 -4994 0
4775 4993 -4994 0
4775 -4993 4994 0
-4775 4993 4994 0
-4994 -4992 -4995 0
4994 4992 -4995 0
4994 -4992 4995 0
-4994 4992 4995 0
-4994 -4992 4996 0
4994 -4996 0
4992 -4996 0
-4775 -4993 4997 0
4775 -4997 0
4993 -4997 0
4996 4997 -4998 0
-4996 4998 0
-4997 4998 0
-234 -4821 4999 0
234 -4999 0
4821 -4999 0
-4781 -4999 -5000 0
4781 4999 -5000 0
4781 -4999 5000 0
-4781 4999 5000 0
-5000 -4998 -5001 0
5000 4998 -5001 0
5000 -4998 5001 0
-5000 4998 5001 0
-5000 -4998 5002 0
5000 -5002 0
4998 -5002 0
-4781 -4999 5003 0
4781 -5003 0
4999 -5003 0
5002 5003 -5004 0
-5002 5004 0
-5003 5004 0
-242 -4821 5005 0
242 -5005 0
4821 -5005 0
-4787 -5005 -5006 0
4787 5005 -5006 0
4787 -5005 5006 0
-4787 5005 5006 0
-5006 -5004 -5007 0
5006 5004 -5007 0
5006 -5004 5007 0
-5006 5004 5007 0
-5006 -5004 5008 0
5006 -5008 0
5004 -5008 0
-4787 -5005 5009 0
4787 -5009 0
5005 -5009 0
5008 5009 -5010 0
-5008 5010 0
-5009 5010 0
-250 -4821 5011 0
250 -5011 0
4821 -5011 0
-4793 -5011 -5012 0
4793 5011 -5012 0
4793 -5011 5012 0
-4793 5011 5012 0
-5012 -5010 -5013 0
5012 5010 -5013 0
5012 -5010 5013 0
-5012 5010 5013 0
-5012 -5010 5014 0
5012 -5014 0
5010 -5014 0
-4793 -5011 5015 0
4793 -5015 0
5011 -5015 0
5014 5015 -5016 0
-5014 5016 0
-5015 5016 0
-258 -4821 5017 0
258 -5017 0
4821 -5017 0
-4799 -5017 -5018 0
4799 5017 -5018 0
4799 -5017 5018 0
-4799 5017 5018 0
-5018 -5016 -5019 0
5018 5016 -5019 0
5018 -5016 5019 0
-5018 5016 5019 0
-5018 -5016 5020 0
5018 -5020 0
5016 -5020 0
-4799 -5017 5021 0
4799 -5021 0
5017 -5021 0
5020 5021 -5022 0
-5020 5022 0
-5021 5022 0
-266 -4821 5023 0
266 -5023 0
4821 -5023 0
-4805 -5023 -5024 0
4805 5023 -5024 0
4805 -5023 5024 0
-4805 5023 5024 0
-5024 -5022 -5025 0
5024 5022 -5025 0
5024 -5022 5025 0
-5024 5022 5025 0
-5024 -5022 5026 0
5024 -5026 0
5022 -5026 0
-4805 -5023 5027 0
4805 -5027 0
5023 -5027 0
5026 5027 -5028 0
-5026 5028 0
-5027 5028 0
-274 -4821 5029 0
274 -5029 0
4821 -5029 0
-4811 -5029 -5030 0
4811 5029 -5030 0
4811 -5029 5030 0
-4811 5029 5030 0
-5030 -5028 -5031 0
5030 5028 -5031 0
5030 -5028 5031 0
-5030 5028 5031 0
-5030 -5028 5032 0
5030 -5032 0
5028 -5032 0
-4811 -5029 5033 0
4811 -5033 0
5029 -5033 0
5032 5033 -5034 0
-5032 5034 0
-5033 5034 0
-282 -4821 5035 0
282 -5035 0
4821 -5035 0
-4817 -5035 -5036 0
4817 5035 -5036 0
4817 -5035 5036 0
-4817 5035 5036 0
-5036 -5034 -5037 0
5036 5034 -5037 0
5036 -5034 5037 0
-5036 5034 5037 0
-5036 -5034 5038 0
5036 -5038 0
5034 -5038 0
-4817 -5035 5039 0
4817 -5039 0
5035 -5039 0
5038 5039 -5040 0
-5038 5040 0
-5039 5040 0
-290 -4821 5041 0
290 -5041 0
4821 -5041 0
-4820 -5041 -5042 0
4820 5041 -5042 0
4820 -5041 5042 0
-4820 5041 5042 0
-5042 -5040 -5043 0
5042 5040 -5043 0
5042 -5040 5043 0
-5042 5040 5043 0
-5042 -5040 5044 0
5042 -5044 0
5040 -5044 0
-4820 -5041 5045 0
4820 -5045 0
5041 -5045 0
5044 5045 -5046 0
-5044 5046 0
-5045 5046 0
-1 -5047 5048 0
1 -5048 0
5047 -5048 0
-4827 -5048 -5049 0
4827 5048 -5049 0
4827 -5048 5049 0
-4827 5048 5049 0
-4827 -5048 5050 0
4827 -5050 0
5048 -5050 0
-4 -5047 5051 0
4 -5051 0
5047 -5051 0
-4833 -5051 -5052 0
4833 5051 -5052 0
4833 -5051 5052 0
-4833 5051 5052 0
-5052 -5050 -5053 0
5052 5050 -5053 0
5052 -5050 5053 0
-5052 5050 5053 0
-5052 -5050 5054 0
5052 -5054 0
5050 -5054 0
-4833 -5051 5055 0
4833 -5055 0
5051 -5055 0
5054 5055 -5056 0
-5054 5056 0
-5055 5056 0
-10 -5047 5057 0
10 -5057 0
5047 -5057 0
-4839 -5057 -5058 0
4839 5057 -5058 0
4839 -5057 5058 0
-4839 5057 5058 0
-5058 -5056 -5059 0
5058 5056 -5059 0
5058 -5056 5059 0
-5058 5056 5059 0
-5058 -5056 5060 0
5058 -5060 0
5056 -5060 0
-4839 -5057 5061 0
4839 -5061 0
5057 -5061 0
5060 5061 -5062 0
-5060 5062 0
-5061 5062 0
-18 -5047 5063 0
18 -5063 0
5047 -5063 0
-4845 -5063 -5064 0
4845 5063 -5064 0
4845 -5063 5064 0
-4845 5063 5064 0
-5064 -5062 -5065 0
5064 5062 -5065 0
5064 -5062 5065 0
-5064 5062 5065 0
-5064 -5062 5066 0
5064 -5066 0
5062 -5066 0
-4845 -5063 5067 0
4845 -5067 0
5063 -5067 0
5066 5067 -5068 0
-5066 5068 0
-5067 5068 0
-26 -5047 5069 0
26 -5069 0
5047 -5069 0
-4851 -5069 -5070 0
4851 5069 -5070 0
4851 -5069 5070 0
-4851 5069 5070 0
-5070 -5068 -5071 0
5070 5068 -5071 0
5070 -5068 5071 0
-5070 5068 5071 0
-5070 -5068 5072 0
5070 -5072 0
5068 -5072 0
-4851 -5069 5073 0
4851 -5073 0
5069 -5073 0
5072 5073 -5074 0
-5072 5074 0
-5073 5074 0
-34 -5047 5075 0
34 -5075 0
5047 -5075 0
-4857 -5075 -5076 0
4857 5075 -5076 0
4857 -5075 5076 0
-4857 5075 5076 0
-5076 -5074 -5077 0
5076 5074 -5077 0
5076 -5074 5077 0
-5076 5074 5077 0
-5076 -5074 5078 0
5076 -5078 0
5074 -5078 0
-4857 -5075 5079 0
4857 -5079 0
5075 -5079 0
5078 5079 -5080 0
-5078 5080 0
-5079 5080 0
-42 -5047 5081 0
42 -5081 0
5047 -5081 0
-4863 -5081 -5082 0
4863 5081 -5082 0
4863 -5081 5082 0
-4863 5081 5082 0
-5082 -5080 -5083 0
5082 5080 -5083 0
5082 -5080 5083 0
-5082 5080 5083 0
-5082 -5080 5084 0
5082 -5084 0
5080 -5084 0
-4863 -5081 5085 0
4863 -5085 0
5081 -5085 0
5084 5085 -5086 0
-5084 5086 0
-5085 5086 0
-50 -5047 5087 0
50 -5087 0
5047 -5087 0
-4869 -5087 -5088 0
4869 5087 -5088 0
4869 -5087 5088 0
-4869 5087 5088 0
-5088 -5086 -5089 0
5088 5086 -5089 0
5088 -5086 5089 0
-5088 5086 5089 0
-5088 -5086 5090 0
5088 -5090 0
5086 -5090 0
-4869 -5087 5091 0
4869 -5091 0
5087 -5091 0
5090 5091 -5092 0
-5090 5092 0
-5091 5092 0
-58 -5047 5093 0
58 -5093 0
5047 -5093 0
-4875 -5093 -5094 0
4875 5093 -5094 0
4875 -5093 5094 0
-4875 5093 5094 0
-5094 -5092 -5095 0
5094 5092 -5095 0
5094 -5092 5095 0
-5094 5092 5095 0
-5094 -5092 5096 0
5094 -5096 0
5092 -5096 0
-4875 -5093 5097 0
4875 -5097 0
5093 -5097 0
5096 5097 -5098 0
-5096 5098 0
-5097 5098 0
-66 -5047 5099 0
66 -5099 0
5047 -5099 0
-4881 -5099 -5100 0
4881 5099 -5100 0
4881 -5099 5100 0
-4881 5099 5100 0
-5100 -5098 -5101 0
5100 5098 -5101 0
5100 -5098 5101 0
-5100 5098 5101 0
-5100 -5098 5102 0
5100 -5102 0
5098 -5102 0
-4881 -5099 5103 0
4881 -5103 0
5099 -5103 0
5102 5103 -5104 0
-5102 5104 0
-5103 5104 0
-74 -5047 5105 0
74 -5105 0
5047 -5105 0
-4887 -5105 -5106 0
4887 5105 -5106 0
4887 -5105 5106 0
-4887 5105 5106 0
-5106 -5104 -5107 0
5106 5104 -5107 0
5106 -5104 5107 0
-5106 5104 5107 0
-5106 -5104 5108 0
5106 -5108 0
5104 -5108 0
-4887 -5105 5109 0
4887 -5109 0
5105 -5109 0
5108 5109 -5110 0
-5108 5110 0
-5109 5110 0
-82 -5047 5111 0
82 -5111 0
5047 -5111 0
-4893 -5111 -5112 0
4893 5111 -5112 0
4893 -5111 5112 0
-4893 5111 5112 0
-5112 -5110 -5113 0
5112 5110 -5113 0
5112 -5110 5113 0
-5112 5110 5113 0
-5112 -5110 5114 0
5112 -5114 0
5110 -5114 0
-4893 -5111 5115 0
4893 -5115 0
5111 -5115 0
5114 5115 -5116 0
-5114 5116 0
-5115 5116 0
-90 -5047 5117 0
90 -5117 0
5047 -5117 0
-4899 -5117 -5118 0
4899 5117 -5118 0
4899 -5117 5118 0
-4899 5117 5118 0
-5118 -5116 -5119 0
5118 5116 -5119 0
5118 -5116 5119 0
-5118 5116 5119 0
-5118 -5116 5120 0
5118 -5120 0
5116 -5120 0
-4899 -5117 5121 0
4899 -5121 0
5117 -5121 0
5120 5121 -5122 0
-5120 5122 0
-5121 5122 0
-98 -5047 5123 0
98 -5123 0
5047 -5123 0
-4905 -5123 -5124 0
4905 5123 -5124 0
4905 -5123 5124 0
-4905 5123 5124 0
-5124 -5122 -5125 0
5124 5122 -5125 0
5124 -5122 5125 0
-5124 5122 5125 0
-5124 -5122 5126 0
5124 -5126 0
5122 -5126 0
-4905 -5123 5127 0
4905 -5127 0
5123 -5127 0
5126 5127 -5128 0
-5126 5128 0
-5127 5128 0
-106 -5047 5129 0
106 -5129 0
5047 -5129 0
-4911 -5129 -5130 0
4911 5129 -5130 0
4911 -5129 5130 0
-4911 5129 5130 0
-5130 -5128 -5131 0
5130 5128 -5131 0
5130 -5128 5131 0
-5130 5128 5131 0
-5130 -5128 5132 0
5130 -5132 0
5128 -5132 0
-4911 -5129 5133 0
4911 -5133 0
5129 -5133 0
5132 5133 -5134 0
-5132 5134 0
-5133 5134 0
-114 -5047 5135 0
114 -5135 0
5047 -5135 0
-4917 -5135 -5136 0
4917 5135 -5136 0
4917 -5135 5136 0
-4917 5135 5136 0
-5136 -5134 -5137 0
5136 5134 -5137 0
5136 -5134 5137 0
-5136 5134 5137 0
-5136 -5134 5138 0
5136 -5138 0
5134 -5138 0
-4917 -5135 5139 0
4917 -5139 0
5135 -5139 0
5138 5139 -5140 0
-5138 5140 0
-5139 5140 0
-122 -5047 5141 0
122 -5141 0
5047 -5141 0
-4923 -5141 -5142 0
4923 5141 -5142 0
4923 -5141 5142 0
-4923 5141 5142 0
-5142 -5140 -5143 0
5142 5140 -5143 0
5142 -5140 5143 0
-5142 5140 5143 0
-5142 -5140 5144 0
5142 -5144 0
5140 -5144 0
-4923 -5141 5145 0
4923 -5145 0
5141 -5145 0
5144 5145 -5146 0
-5144 5146 0
-5145 5146 0
-130 -5047 5147 0
130 -5147 0
5047 -5147 0
-4929 -5147 -5148 0
4929 5147 -5148 0
4929 -5147 5148 0
-4929 5147 5148 0
-5148 -5146 -5149 0
5148 5146 -5149 0
5148 -5146 5149 0
-5148 5146 5149 0
-5148 -5146 5150 0
5148 -5150 0
5146 -5150 0
-4929 -5147 5151 0
4929 -5151 0
5147 -5151 0
5150 5151 -5152 0
-5150 5152 0
-5151 5152 0
-138 -5047 5153 0
138 -5153 0
5047 -5153 0
-4935 -5153 -5154 0
4935 5153 -5154 0
4935 -5153 5154 0
-4935 5153 5154 0
-5154 -5152 -5155 0
5154 5152 -5155 0
5154 -5152 5155 0
-5154 5152 5155 0
-5154 -5152 5156 0
5154 -5156 0
5152 -5156 0
-4935 -5153 5157 0
4935 -5157 0
5153 -5157 0
5156 5157 -5158 0
-5156 5158 0
-5157 5158 0
-146 -5047 5159 0
146 -5159 0
5047 -5159 0
-4941 -5159 -5160 0
4941 5159 -5160 0
4941 -5159 5160 0
-4941 5159 5160 0
-5160 -5158 -5161 0
5160 5158 -5161 0
5160 -5158 5161 0
-5160 5158 5161 0
-5160 -5158 5162 0
5160 -5162 0
5158 -5162 0
-4941 -5159 5163 0
4941 -5163 0
5159 -5163 0
5162 5163 -5164 0
-5162 5164 0
-5163 5164 0
-154 -5047 5165 0
154 -5165 0
5047 -5165 0
-4947 -5165 -5166 0
4947 5165 -5166 0
4947 -5165 5166 0
-4947 5165 5166 0
-5166 -5164 -5167 0
5166 5164 -5167 0
5166 -5164 5167 0
-5166 5164 5167 0
-5166 -5164 5168 0
5166 -5168 0
5164 -5168 0
-4947 -5165 5169 0
4947 -5169 0
5165 -5169 0
5168 5169 -5170 0
-5168 5170 0
-5169 5170 0
-162 -5047 5171 0
162 -5171 0
5047 -5171 0
-4953 -5171 -5172 0
4953 5171 -5172 0
4953 -5171 5172 0
-4953 5171 5172 0
-5172 -5170 -5173 0
5172 5170 -5173 0
5172 -5170 5173 0
-5172 5170 5173 0
-5172 -5170 5174 0
5172 -5174 0
5170 -5174 0
-4953 -5171 5175 0
4953 -5175 0
5171 -5175 0
5174 5175 -5176 0
-5174 5176 0
-5175 5176 0
-170 -5047 5177 0
170 -5177 0
5047 -5177 0
-4959 -5177 -5178 0
4959 5177 -5178 0
4959 -5177 5178 0
-4959 5177 5178 0
-5178 -5176 -5179 0
5178 5176 -5179 0
5178 -5176 5179 0
-5178 5176 5179 0
-5178 -5176 5180 0
5178 -5180 0
5176 -5180 0
-4959 -5177 5181 0
4959 -5181 0
5177 -5181 0
5180 5181 -5182 0
-5180 5182 0
-5181 5182 0
-178 -5047 5183 0
178 -5183 0
5047 -5183 0
-4965 -5183 -5184 0
4965 5183 -5184 0
4965 -5183 5184 0
-4965 5183 5184 0
-5184 -5182 -5185 0
5184 5182 -5185 0
5184 -5182 5185 0
-5184 5182 5185 0
-5184 -5182 5186 0
5184 -5186 0
5182 -5186 0
-4965 -5183 5187 0
4965 -5187 0
5183 -5187 0
5186 5187 -5188 0
-5186 5188 0
-5187 5188 0
-186 -5047 5189 0
186 -5189 0
5047 -5189 0
-4971 -5189 -5190 0
4971 5189 -5190 0
4971 -5189 5190 0
-4971 5189 5190 0
-5190 -5188 -5191 0
5190 5188 -5191 0
5190 -5188 5191 0
-5190 5188 5191 0
-5190 -5188 5192 0
5190 -5192 0
5188 -5192 0
-4971 -5189 5193 0
4971 -5193 0
5189 -5193 0
5192 5193 -5194 0
-5192 5194 0
-5193 5194 0
-194 -5047 5195 0
194 -5195 0
5047 -5195 0
-4977 -5195 -5196 0
4977 5195 -5196 0
4977 -5195 5196 0
-4977 5195 5196 0
-5196 -5194 -5197 0
5196 5194 -5197 0
5196 -5194 5197 0
-5196 5194 5197 0
-5196 -5194 5198 0
5196 -5198 0
5194 -5198 0
-4977 -5195 5199 0
4977 -5199 0
5195 -5199 0
5198 5199 -5200 0
-5198 5200 0
-5199 5200 0
-202 -5047 5201 0
202 -5201 0
5047 -5201 0
-4983 -5201 -5202 0
4983 5201 -5202 0
4983 -5201 5202 0
-4983 5201 5202 0
-5202 -5200 -5203 0
5202 5200 -5203 0
5202 -5200 5203 0
-5202 5200 5203 0
-5202 -5200 5204 0
5202 -5204 0
5200 -5204 0
-4983 -5201 5205 0
4983 -5205 0
5201 -5205 0
5204 5205 -5206 0
-5204 5206 0
-5205 5206 0
-210 -5047 5207 0
210 -5207 0
5047 -5207 0
-4989 -5207 -5208 0
4989 5207 -5208 0
4989 -5207 5208 0
-4989 5207 5208 0
-5208 -5206 -5209 0
5208 5206 -5209 0
5208 -5206 5209 0
-5208 5206 5209 0
-5208 -5206 5210 0
5208 -5210 0
5206 -5210 0
-4989 -5207 5211 0
4989 -5211 0
5207 -5211 0
5210 5211 -5212 0
-5210 5212 0
-5211 5212 0
-218 -5047 5213 0
218 -5213 0
5047 -5213 0
-4995 -5213 -5214 0
4995 5213 -5214 0
4995 -5213 5214 0
-4995 5213 5214 0
-5214 -5212 -5215 0
5214 5212 -5215 0
5214 -5212 5215 0
-5214 5212 5215 0
-5214 -5212 5216 0
5214 -5216 0
5212 -5216 0
-4995 -5213 5217 0
4995 -5217 0
5213 -5217 0
5216 5217 -5218 0
-5216 5218 0
-5217 5218 0
-226 -5047 5219 0
226 -5219 0
5047 -5219 0
-5001 -5219 -5220 0
5001 5219 -5220 0
5001 -5219 5220 0
-5001 5219 5220 0
-5220 -5218 -5221 0
5220 5218 -5221 0
5220 -5218 5221 0
-5220 5218 5221 0
-5220 -5218 5222 0
5220 -5222 0
5218 -5222 0
-5001 -5219 5223 0
5001 -5223 0
5219 -5223 0
5222 5223 -5224 0
-5222 5224 0
-5223 5224 0
-234 -5047 5225 0
234 -5225 0
5047 -5225 0
-5007 -5225 -5226 0
5007 5225 -5226 0
5007 -5225 5226 0
-5007 5225 5226 0
-5226 -5224 -5227 0
5226 5224 -5227 0
5226 -5224 5227 0
-5226 5224 5227 0
-5226 -5224 5228 0
5226 -5228 0
5224 -5228 0
-5007 -5225 5229 0
5007 -5229 0
5225 -5229 0
5228 5229 -5230 0
-5228 5230 0
-5229 5230 0
-242 -5047 5231 0
242 -5231 0
5047 -5231 0
-5013 -5231 -5232 0
5013 5231 -5232 0
5013 -5231 5232 0
-5013 5231 5232 0
-5232 -5230 -5233 0
5232 5230 -5233 0
5232 -5230 5233 0
-5232 5230 5233 0
-5232 -5230 5234 0
5232 -5234 0
5230 -5234 0
-5013 -5231 5235 0
5013 -5235 0
5231 -5235 0
5234 5235 -5236 0
-5234 5236 0
-5235 5236 0
-250 -5047 5237 0
250 -5237 0
5047 -5237 0
-5019 -5237 -5238 0
5019 5237 -5238 0
5019 -5237 5238 0
-5019 5237 5238 0
-5238 -5236 -5239 0
5238 5236 -5239 0
5238 -5236 5239 0
-5238 5236 5239 0
-5238 -5236 5240 0
5238 -5240 0
5236 -5240 0
-5019 -5237 5241 0
5019 -5241 0
5237 -5241 0
5240 5241 -5242 0
-5240 5242 0
-5241 5242 0
-258 -5047 5243 0
258 -5243 0
5047 -5243 0
-5025 -5243 -5244 0
5025 5243 -5244 0
5025 -5243 5244 0
-5025 5243 5244 0
-5244 -5242 -5245 0
5244 5242 -5245 0
5244 -5242 5245 0
-5244 5242 5245 0
-5244 -5242 5246 0
5244 -5246 0
5242 -5246 0
-5025 -5243 5247 0
5025 -5247 0
5243 -5247 0
5246 5247 -5248 0
-5246 5248 0
-5247 5248 0
-266 -5047 5249 0
266 -5249 0
5047 -5249 0
-5031 -5249 -5250 0
5031 5249 -5250 0
5031 -5249 5250 0
-5031 5249 5250 0
-5250 -5248 -5251 0
5250 5248 -5251 0
5250 -5248 5251 0
-5250 5248 5251 0
-5250 -5248 5252 0
5250 -5252 0
5248 -5252 0
-5031 -5249 5253 0
5031 -5253 0
5249 -5253 0
5252 5253 -5254 0
-5252 5254 0
-5253 5254 0
-274 -5047 5255 0
274 -5255 0
5047 -5255 0
-5037 -5255 -5256 0
5037 5255 -5256 0
5037 -5255 5256 0
-5037 5255 5256 0
-5256 -5254 -5257 0
5256 5254 -5257 0
5256 -5254 5257 0
-5256 5254 5257 0
-5256 -5254 5258 0
5256 -5258 0
5254 -5258 0
-5037 -5255 5259 0
5037 -5259 0
5255 -5259 0
5258 5259 -5260 0
-5258 5260 0
-5259 5260 0
-282 -5047 5261 0
282 -5261 0
5047 -5261 0
-5043 -5261 -5262 0
5043 5261 -5262 0
5043 -5261 5262 0
-5043 5261 5262 0
-5262 -5260 -5263 0
5262 5260 -5263 0
5262 -5260 5263 0
-5262 5260 5263 0
-5262 -5260 5264 0
5262 -5264 0
5260 -5264 0
-5043 -5261 5265 0
5043 -5265 0
5261 -5265 0
5264 5265 -5266 0
-5264 5266 0
-5265 5266 0
-290 -5047 5267 0
290 -5267 0
5047 -5267 0
-5046 -5267 -5268 0
5046 5267 -5268 0
5046 -5267 5268 0
-5046 5267 5268 0
-5268 -5266 -5269 0
5268 5266 -5269 0
5268 -5266 5269 0
-5268 5266 5269 0
-5268 -5266 5270 0
5268 -5270 0
5266 -5270 0
-5046 -5267 5271 0
5046 -5271 0
5267 -5271 0
5270 5271 -5272 0
-5270 5272 0
-5271 5272 0
-1 -5273 5274 0
1 -5274 0
5273 -5274 0
-5053 -5274 -5275 0
5053 5274 -5275 0
5053 -5274 5275 0
-5053 5274 5275 0
-5053 -5274 5276 0
5053 -5276 0
5274 -5276 0
-4 -5273 5277 0
4 -5277 0
5273 -5277 0
-5059 -5277 -5278 0
5059 5277 -5278 0
5059 -5277 5278 0
-5059 5277 5278 0
-5278 -5276 -5279 0
5278 5276 -5279 0
5278 -5276 5279 0
-5278 5276 5279 0
-5278 -5276 5280 0
5278 -5280 0
5276 -5280 0
-5059 -5277 5281 0
5059 -5281 0
5277 -5281 0
5280 5281 -5282 0
-5280 5282 0
-5281 5282 0
-10 -5273 5283 0
10 -5283 0
5273 -5283 0
-5065 -5283 -5284 0
5065 5283 -5284 0
5065 -5283 5284 0
-5065 5283 5284 0
-5284 -5282 -5285 0
5284 5282 -5285 0
5284 -5282 5285 0
-5284 5282 5285 0
-5284 -5282 5286 0
5284 -5286 0
5282 -5286 0
-5065 -5283 5287 0
5065 -5287 0
5283 -5287 0
5286 5287 -5288 0
-5286 5288 0
-5287 5288 0
-18 -5273 5289 0
18 -5289 0
5273 -5289 0
-5071 -5289 -5290 0
5071 5289 -5290 0
5071 -5289 5290 0
-5071 5289 5290 0
-5290 -5288 -5291 0
5290 5288 -5291 0
5290 -5288 5291 0
-5290 5288 5291 0
-5290 -5288 5292 0
5290 -5292 0
5288 -5292 0
-5071 -5289 5293 0
5071 -5293 0
5289 -5293 0
5292 5293 -5294 0
-5292 5294 0
-5293 5294 0
-26 -5273 5295 0
26 -5295 0
5273 -5295 0
-5077 -5295 -5296 0
5077 5295 -5296 0
5077 -5295 5296 0
-5077 5295 5296 0
-5296 -5294 -5297 0
5296 5294 -5297 0
5296 -5294 5297 0
-5296 5294 5297 0
-5296 -5294 5298 0
5296 -5298 0
5294 -5298 0
-5077 -5295 5299 0
5077 -5299 0
5295 -5299 0
5298 5299 -5300 0
-5298 5300 0
-5299 5300 0
-34 -5273 5301 0
34 -5301 0
5273 -5301 0
-5083 -5301 -5302 0
5083 5301 -5302 0
5083 -5301 5302 0
-5083 5301 5302 0
-5302 -5300 -5303 0
5302 5300 -5303 0
5302 -5300 5303 0
-5302 5300 5303 0
-5302 -5300 5304 0
5302 -5304 0
5300 -5304 0
-5083 -5301 5305 0
5083 -5305 0
5301 -5305 0
5304 5305 -5306 0
-5304 5306 0
-5305 5306 0
-42 -5273 5307 0
42 -5307 0
5273 -5307 0
-5089 -5307 -5308 0
5089 5307 -5308 0
5089 -5307 5308 0
-5089 5307 5308 0
-5308 -5306 -5309 0
5308 5306 -5309 0
5308 -5306 5309 0
-5308 5306 5309 0
-5308 -5306 5310 0
5308 -5310 0
5306 -5310 0
-5089 -5307 5311 0
5089 -5311 0
5307 -5311 0
5310 5311 -5312 0
-5310 5312 0
-5311 5312 0
-50 -5273 5313 0
50 -5313 0
5273 -5313 0
-5095 -5313 -5314 0
5095 5313 -5314 0
5095 -5313 5314 0
-5095 5313 5314 0
-5314 -5312 -5315 0
5314 5312 -5315 0
5314 -5312 5315 0
-5314 5312 5315 0
-5314 -5312 5316 0
5314 -5316 0
5312 -5316 0
-5095 -5313 5317 0
5095 -5317 0
5313 -5317 0
5316 5317 -5318 0
-5316 5318 0
-5317 5318 0
-58 -5273 5319 0
58 -5319 0
5273 -5319 0
-5101 -5319 -5320 0
5101 5319 -5320 0
5101 -5319 5320 0
-5101 5319 5320 0
-5320 -5318 -5321 0
5320 5318 -5321 0
5320 -5318 5321 0
-5320 5318 5321 0
-5320 -5318 5322 0
5320 -5322 0
5318 -5322 0
-5101 -5319 5323 0
5101 -5323 0
5319 -5323 0
5322 5323 -5324 0
-5322 5324 0
-5323 5324 0
-66 -5273 5325 0
66 -5325 0
5273 -5325 0
-5107 -5325 -5326 0
5107 5325 -5326 0
5107 -5325 5326 0
-5107 5325 5326 0
-5326 -5324 -5327 0
5326 5324 -5327 0
5326 -5324 5327 0
-5326 5324 5327 0
-5326 -5324 5328 0
5326 -5328 0
5324 -5328 0
-5107 -5325 5329 0
5107 -5329 0
5325 -5329 0
5328 5329 -5330 0
-5328 5330 0
-5329 5330 0
-74 -5273 5331 0
74 -5331 0
5273 -5331 0
-5113 -5331 -5332 0
5113 5331 -5332 0
5113 -5331 5332 0
-5113 5331 5332 0
-5332 -5330 -5333 0
5332 5330 -5333 0
5332 -5330 5333 0
-5332 5330 5333 0
-5332 -5330 5334 0
5332 -5334 0
5330 -5334 0
-5113 -5331 5335 0
5113 -5335 0
5331 -5335 0
5334 5335 -5336 0
-5334 5336 0
-5335 5336 0
-82 -5273 5337 0
82 -5337 0
5273 -5337 0
-5119 -5337 -5338 0
5119 5337 -5338 0
5119 -5337 5338 0
-5119 5337 5338 0
-5338 -5336 -5339 0
5338 5336 -5339 0
5338 -5336 5339 0
-5338 5336 5339 0
-5338 -5336 5340 0
5338 -5340 0
5336 -5340 0
-5119 -5337 5341 0
5119 -5341 0
5337 -5341 0
5340 5341 -5342 0
-5340 5342 0
-5341 5342 0
-90 -5273 5343 0
90 -5343 0
5273 -5343 0
-5125 -5343 -5344 0
5125 5343 -5344 0
5125 -5343 5344 0
-5125 5343 5344 0
-5344 -5342 -5345 0
5344 5342 -5345 0
5344 -5342 5345 0
-5344 5342 5345 0
-5344 -5342 5346 0
5344 -5346 0
5342 -5346 0
-5125 -5343 5347 0
5125 -5347 0
5343 -5347 0
5346 5347 -5348 0
-5346 5348 0
-5347 5348 0
-98 -5273 5349 0
98 -5349 0
5273 -5349 0
-5131 -5349 -5350 0
5131 5349 -5350 0
5131 -5349 5350 0
-5131 5349 5350 0
-5350 -5348 -5351 0
5350 5348 -5351 0
5350 -5348 5351 0
-5350 5348 5351 0
-5350 -5348 5352 0
5350 -5352 0
5348 -5352 0
-5131 -5349 5353 0
5131 -5353 0
5349 -5353 0
5352 5353 -5354 0
-5352 5354 0
-5353 5354 0
-106 -5273 5355 0
106 -5355 0
5273 -5355 0
-5137 -5355 -5356 0
5137 5355 -5356 0
5137 -5355 5356 0
-5137 5355 5356 0
-5356 -5354 -5357 0
5356 5354 -5357 0
5356 -5354 5357 0
-5356 5354 5357 0
-5356 -5354 5358 0
5356 -5358 0
5354 -5358 0
-5137 -5355 5359 0
5137 -5359 0
5355 -5359 0
5358 5359 -5360 0
-5358 5360 0
-5359 5360 0
-114 -5273 5361 0
114 -5361 0
5273 -5361 0
-5143 -5361 -5362 0
5143 5361 -5362 0
5143 -5361 5362 0
-5143 5361 5362 0
-5362 -5360 -5363 0
5362 5360 -5363 0
5362 -5360 5363 0
-5362 5360 5363 0
-5362 -5360 5364 0
5362 -5364 0
5360 -5364 0
-5143 -5361 5365 0
5143 -5365 0
5361 -5365 0
5364 5365 -5366 0
-5364 5366 0
-5365 5366 0
-122 -5273 5367 0
122 -5367 0
5273 -5367 0
-5149 -5367 -5368 0
5149 5367 -5368 0
5149 -5367 5368 0
-5149 5367 5368 0
-5368 -5366 -5369 0
5368 5366 -5369 0
5368 -5366 5369 0
-5368 5366 5369 0
-5368 -5366 5370 0
5368 -5370 0
5366 -5370 0
-5149 -5367 5371 0
5149 -5371 0
5367 -5371 0
5370 5371 -5372 0
-5370 5372 0
-5371 5372 0
-130 -5273 5373 0
130 -5373 0
5273 -5373 0
-5155 -5373 -5374 0
5155 5373 -5374 0
5155 -5373 5374 0
-5155 5373 5374 0
-5374 -5372 -5375 0
5374 5372 -5375 0
5374 -5372 5375 0
-5374 5372 5375 0
-5374 -5372 5376 0
5374 -5376 0
5372 -5376 0
-5155 -5373 5377 0
5155 -5377 0
5373 -5377 0
5376 5377 -5378 0
-5376 5378 0
-5377 5378 0
-138 -5273 5379 0
138 -5379 0
5273 -5379 0
-5161 -5379 -5380 0
5161 5379 -5380 0
5161 -5379 5380 0
-5161 5379 5380 0
-5380 -5378 -5381 0
5380 5378 -5381 0
5380 -5378 5381 0
-5380 5378 5381 0
-5380 -5378 5382 0
5380 -5382 0
5378 -5382 0
-5161 -5379 5383 0
5161 -5383 0
5379 -5383 0
5382 5383 -5384 0
-5382 5384 0
-5383 5384 0
-146 -5273 5385 0
146 -5385 0
5273 -5385 0
-5167 -5385 -5386 0
5167 5385 -5386 0
5167 -5385 5386 0
-5167 5385 5386 0
-5386 -5384 -5387 0
5386 5384 -5387 0
5386 -5384 5387 0
-5386 5384 5387 0
-5386 -5384 5388 0
5386 -5388 0
5384 -5388 0
-5167 -5385 5389 0
5167 -5389 0
5385 -5389 0
5388 5389 -5390 0
-5388 5390 0
-5389 5390 0
-154 -5273 5391 0
154 -5391 0
5273 -5391 0
-5173 -5391 -5392 0
5173 5391 -5392 0
5173 -5391 5392 0
-5173 5391 5392 0
-5392 -5390 -5393 0
5392 5390 -5393 0
5392 -5390 5393 0
-5392 5390 5393 0
-5392 -5390 5394 0
5392 -5394 0
5390 -5394 0
-5173 -5391 5395 0
5173 -5395 0
5391 -5395 0
5394 5395 -5396 0
-5394 5396 0
-5395 5396 0
-162 -5273 5397 0
162 -5397 0
5273 -5397 0
-5179 -5397 -5398 0
5179 5397 -5398 0
5179 -5397 5398 0
-5179 5397 5398 0
-5398 -5396 -5399 0
5398 5396 -5399 0
5398 -5396 5399 0
-5398 5396 5399 0
-5398 -5396 5400 0
5398 -5400 0
5396 -5400 0
-5179 -5397 5401 0
5179 -5401 0
5397 -5401 0
5400 5401 -5402 0
-5400 5402 0
-5401 5402 0
-170 -5273 5403 0
170 -5403 0
5273 -5403 0
-5185 -5403 -5404 0
5185 5403 -5404 0
5185 -5403 5404 0
-5185 5403 5404 0
-5404 -5402 -5405 0
5404 5402 -5405 0
5404 -5402 5405 0
-5404 5402 5405 0
-5404 -5402 5406 0
5404 -5406 0
5402 -5406 0
-5185 -5403 5407 0
5185 -5407 0
5403 -5407 0
5406 5407 -5408 0
-5406 5408 0
-5407 5408 0
-178 -5273 5409 0
178 -5409 0
5273 -5409 0
-5191 -5409 -5410 0
5191 5409 -5410 0
5191 -5409 5410 0
-5191 5409 5410 0
-5410 -5408 -5411 0
5410 5408 -5411 0
5410 -5408 5411 0
-5410 5408 5411 0
-5410 -5408 5412 0
5410 -5412 0
5408 -5412 0
-5191 -5409 5413 0
5191 -5413 0
5409 -5413 0
5412 5413 -5414 0
-5412 5414 0
-5413 5414 0
-186 -5273 5415 0
186 -5415 0
5273 -5415 0
-5197 -5415 -5416 0
5197 5415 -5416 0
5197 -5415 5416 0
-5197 5415 5416 0
-5416 -5414 -5417 0
5416 5414 -5417 0
5416 -5414 5417 0
-5416 5414 5417 0
-5416 -5414 5418 0
5416 -5418 0
5414 -5418 0
-5197 -5415 5419 0
5197 -5419 0
5415 -5419 0
5418 5419 -5420 0
-5418 5420 0
-5419 5420 0
-194 -5273 5421 0
194 -5421 0
5273 -5421 0
-5203 -5421 -5422 0
5203 5421 -5422 0
5203 -5421 5422 0
-5203 5421 5422 0
-5422 -5420 -5423 0
5422 5420 -5423 0
5422 -5420 5423 0
-5422 5420 5423 0
-5422 -5420 5424 0
5422 -5424 0
5420 -5424 0
-5203 -5421 5425 0
5203 -5425 0
5421 -5425 0
5424 5425 -5426 0
-5424 5426 0
-5425 5426 0
-202 -5273 5427 0
202 -5427 0
5273 -5427 0
-5209 -5427 -5428 0
5209 5427 -5428 0
5209 -5427 5428 0
-5209 5427 5428 0
-5428 -5426 -5429 0
5428 5426 -5429 0
5428 -5426 5429 0
-5428 5426 5429 0
-5428 -5426 5430 0
5428 -5430 0
5426 -5430 0
-5209 -5427 5431 0
5209 -5431 0
5427 -5431 0
5430 5431 -5432 0
-5430 5432 0
-5431 5432 0
-210 -5273 5433 0
210 -5433 0
5273 -5433 0
-5215 -5433 -5434 0
5215 5433 -5434 0
5215 -5433 5434 0
-5215 5433 5434 0
-5434 -5432 -5435 0
5434 5432 -5435 0
5434 -5432 5435 0
-5434 5432 5435 0
-5434 -5432 5436 0
5434 -5436 0
5432 -5436 0
-5215 -5433 5437 0
5215 -5437 0
5433 -5437 0
5436 5437 -5438 0
-5436 5438 0
-5437 5438 0
-218 -5273 5439 0
218 -5439 0
5273 -5439 0
-5221 -5439 -5440 0
5221 5439 -5440 0
5221 -5439 5440 0
-5221 5439 5440 0
-5440 -5438 -5441 0
5440 5438 -5441 0
5440 -5438 5441 0
-5440 5438 5441 0
-5440 -5438 5442 0
5440 -5442 0
5438 -5442 0
-5221 -5439 5443 0
5221 -5443 0
5439 -5443 0
5442 5443 -5444 0
-5442 5444 0
-5443 5444 0
-226 -5273 5445 0
226 -5445 0
5273 -5445 0
-5227 -5445 -5446 0
5227 5445 -5446 0
5227 -5445 5446 0
-5227 5445 5446 0
-5446 -5444 -5447 0
5446 5444 -5447 0
5446 -5444 5447 0
-5446 5444 5447 0
-5446 -5444 5448 0
5446 -5448 0
5444 -5448 0
-5227 -5445 5449 0
5227 -5449 0
5445 -5449 0
5448 5449 -5450 0
-5448 5450 0
-5449 5450 0
-234 -5273 5451 0
234 -5451 0
5273 -5451 0
-5233 -5451 -5452 0
5233 5451 -5452 0
5233 -5451 5452 0
-5233 5451 5452 0
-5452 -5450 -5453 0
5452 5450 -5453 0
5452 -5450 5453 0
-5452 5450 5453 0
-5452 -5450 5454 0
5452 -5454 0
5450 -5454 0
-5233 -5451 5455 0
5233 -5455 0
5451 -5455 0
5454 5455 -5456 0
-5454 5456 0
-5455 5456 0
-242 -5273 5457 0
242 -5457 0
5273 -5457 0
-5239 -5457 -5458 0
5239 5457 -5458 0
5239 -5457 5458 0
-5239 5457 5458 0
-5458 -5456 -5459 0
5458 5456 -5459 0
5458 -5456 5459 0
-5458 5456 5459 0
-5458 -5456 5460 0
5458 -5460 0
5456 -5460 0
-5239 -5457 5461 0
5239 -5461 0
5457 -5461 0
5460 5461 -5462 0
-5460 5462 0
-5461 5462 0
-250 -5273 5463 0
250 -5463 0
5273 -5463 0
-5245 -5463 -5464 0
5245 5463 -5464 0
5245 -5463 5464 0
-5245 5463 5464 0
-5464 -5462 -5465 0
5464 5462 -5465 0
5464 -5462 5465 0
-5464 5462 5465 0
-5464 -5462 5466 0
5464 -5466 0
5462 -5466 0
-5245 -5463 5467 0
5245 -5467 0
5463 -5467 0
5466 5467 -5468 0
-5466 5468 0
-5467 5468 0
-258 -5273 5469 0
258 -5469 0
5273 -5469 0
-5251 -5469 -5470 0
5251 5469 -5470 0
5251 -5469 5470 0
-5251 5469 5470 0
-5470 -5468 -5471 0
5470 5468 -5471 0
5470 -5468 5471 0
-5470 5468 5471 0
-5470 -5468 5472 0
5470 -5472 0
5468 -5472 0
-5251 -5469 5473 0
5251 -5473 0
5469 -5473 0
5472 5473 -5474 0
-5472 5474 0
-5473 5474 0
-266 -5273 5475 0
266 -5475 0
5273 -5475 0
-5257 -5475 -5476 0
5257 5475 -5476 0
5257 -5475 5476 0
-5257 5475 5476 0
-5476 -5474 -5477 0
5476 5474 -5477 0
5476 -5474 5477 0
-5476 5474 5477 0
-5476 -5474 5478 0
5476 -5478 0
5474 -5478 0
-5257 -5475 5479 0
5257 -5479 0
5475 -5479 0
5478 5479 -5480 0
-5478 5480 0
-5479 5480 0
-274 -5273 5481 0
274 -5481 0
5273 -5481 0
-5263 -5481 -5482 0
5263 5481 -5482 0
5263 -5481 5482 0
-5263 5481 5482 0
-5482 -5480 -5483 0
5482 5480 -5483 0
5482 -5480 5483 0
-5482 5480 5483 0
-5482 -5480 5484 0
5482 -5484 0
5480 -5484 0
-5263 -5481 5485 0
5263 -5485 0
5481 -5485 0
5484 5485 -5486 0
-5484 5486 0
-5485 5486 0
-282 -5273 5487 0
282 -5487 0
5273 -5487 0
-5269 -5487 -5488 0
5269 5487 -5488 0
5269 -5487 5488 0
-5269 5487 5488 0
-5488 -5486 -5489 0
5488 5486 -5489 0
5488 -5486 5489 0
-5488 5486 5489 0
-5488 -5486 5490 0
5488 -5490 0
5486 -5490 0
-5269 -5487 5491 0
5269 -5491 0
5487 -5491 0
5490 5491 -5492 0
-5490 5492 0
-5491 5492 0
-290 -5273 5493 0
290 -5493 0
5273 -5493 0
-5272 -5493 -5494 0
5272 5493 -5494 0
5272 -5493 5494 0
-5272 5493 5494 0
-5494 -5492 -5495 0
5494 5492 -5495 0
5494 -5492 5495 0
-5494 5492 5495 0
-5494 -5492 5496 0
5494 -5496 0
5492 -5496 0
-5272 -5493 5497 0
5272 -5497 0
5493 -5497 0
5496 5497 -5498 0
-5496 5498 0
-5497 5498 0
-1 -5499 5500 0
1 -5500 0
5499 -5500 0
-5279 -5500 -5501 0
5279 5500 -5501 0
5279 -5500 5501 0
-5279 5500 5501 0
-5279 -5500 5502 0
5279 -5502 0
5500 -5502 0
-4 -5499 5503 0
4 -5503 0
5499 -5503 0
-5285 -5503 -5504 0
5285 5503 -5504 0
5285 -5503 5504 0
-5285 5503 5504 0
-5504 -5502 -5505 0
5504 5502 -5505 0
5504 -5502 5505 0
-5504 5502 5505 0
-5504 -5502 5506 0
5504 -5506 0
5502 -5506 0
-5285 -5503 5507 0
5285 -5507 0
5503 -5507 0
5506 5507 -5508 0
-5506 5508 0
-5507 5508 0
-10 -5499 5509 0
10 -5509 0
5499 -5509 0
-5291 -5509 -5510 0
5291 5509 -5510 0
5291 -5509 5510 0
-5291 5509 5510 0
-5510 -5508 -5511 0
5510 5508 -5511 0
5510 -5508 5511 0
-5510 5508 5511 0
-5510 -5508 5512 0
5510 -5512 0
5508 -5512 0
-5291 -5509 5513 0
5291 -5513 0
5509 -5513 0
5512 5513 -5514 0
-5512 5514 0
-5513 5514 0
-18 -5499 5515 0
18 -5515 0
5499 -5515 0
-5297 -5515 -5516 0
5297 5515 -5516 0
5297 -5515 5516 0
-5297 5515 5516 0
-5516 -5514 -5517 0
5516 5514 -5517 0
5516 -5514 5517 0
-5516 5514 5517 0
-5516 -5514 5518 0
5516 -5518 0
5514 -5518 0
-5297 -5515 5519 0
5297 -5519 0
5515 -5519 0
5518 5519 -5520 0
-5518 5520 0
-5519 5520 0
-26 -5499 5521 0
26 -5521 0
5499 -5521 0
-5303 -5521 -5522 0
5303 5521 -5522 0
5303 -5521 5522 0
-5303 5521 5522 0
-5522 -5520 -5523 0
5522 5520 -5523 0
5522 -5520 5523 0
-5522 5520 5523 0
-5522 -5520 5524 0
5522 -5524 0
5520 -5524 0
-5303 -5521 5525 0
5303 -5525 0
5521 -5525 0
5524 5525 -5526 0
-5524 5526 0
-5525 5526 0
-34 -5499 5527 0
34 -5527 0
5499 -5527 0
-5309 -5527 -5528 0
5309 5527 -5528 0
5309 -5527 5528 0
-5309 5527 5528 0
-5528 -5526 -5529 0
5528 5526 -5529 0
5528 -5526 5529 0
-5528 5526 5529 0
-5528 -5526 5530 0
5528 -5530 0
5526 -5530 0
-5309 -5527 5531 0
5309 -5531 0
5527 -5531 0
5530 5531 -5532 0
-5530 5532 0
-5531 5532 0
-42 -5499 5533 0
42 -5533 0
5499 -5533 0
-5315 -5533 -5534 0
5315 5533 -5534 0
5315 -5533 5534 0
-5315 5533 5534 0
-5534 -5532 -5535 0
5534 5532 -5535 0
5534 -5532 5535 0
-5534 5532 5535 0
-5534 -5532 5536 0
5534 -5536 0
5532 -5536 0
-5315 -5533 5537 0
5315 -5537 0
5533 -5537 0
5536 5537 -5538 0
-5536 5538 0
-5537 5538 0
-50 -5499 5539 0
50 -5539 0
5499 -5539 0
-5321 -5539 -5540 0
5321 5539 -5540 0
5321 -5539 5540 0
-5321 5539 5540 0
-5540 -5538 -5541 0
5540 5538 -5541 0
5540 -5538 5541 0
-5540 5538 5541 0
-5540 -5538 5542 0
5540 -5542 0
5538 -5542 0
-5321 -5539 5543 0
5321 -5543 0
5539 -5543 0
5542 5543 -5544 0
-5542 5544 0
-5543 5544 0
-58 -5499 5545 0
58 -5545 0
5499 -5545 0
-5327 -5545 -5546 0
5327 5545 -5546 0
5327 -5545 5546 0
-5327 5545 5546 0
-5546 -5544 -5547 0
5546 5544 -5547 0
5546 -5544 5547 0
-5546 5544 5547 0
-5546 -5544 5548 0
5546 -5548 0
5544 -5548 0
-5327 -5545 5549 0
5327 -5549 0
5545 -5549 0
5548 5549 -5550 0
-5548 5550 0
-5549 5550 0
-66 -5499 5551 0
66 -5551 0
5499 -5551 0
-5333 -5551 -5552 0
5333 5551 -5552 0
5333 -5551 5552 0
-5333 5551 5552 0
-5552 -5550 -5553 0
5552 5550 -5553 0
5552 -5550 5553 0
-5552 5550 5553 0
-5552 -5550 5554 0
5552 -5554 0
5550 -5554 0
-5333 -5551 5555 0
5333 -5555 0
5551 -5555 0
5554 5555 -5556 0
-5554 5556 0
-5555 5556 0
-74 -5499 5557 0
74 -5557 0
5499 -5557 0
-5339 -5557 -5558 0
5339 5557 -5558 0
5339 -5557 5558 0
-5339 5557 5558 0
-5558 -5556 -5559 0
5558 5556 -5559 0
5558 -5556 5559 0
-5558 5556 5559 0
-5558 -5556 5560 0
5558 -5560 0
5556 -5560 0
-5339 -5557 5561 0
5339 -5561 0
5557 -5561 0
5560 5561 -5562 0
-5560 5562 0
-5561 5562 0
-82 -5499 5563 0
82 -5563 0
5499 -5563 0
-5345 -5563 -5564 0
5345 5563 -5564 0
5345 -5563 5564 0
-5345 5563 5564 0
-5564 -5562 -5565 0
5564 5562 -5565 0
5564 -5562 5565 0
-5564 5562 5565 0
-5564 -5562 5566 0
5564 -5566 0
5562 -5566 0
-5345 -5563 5567 0
5345 -5567 0
5563 -5567 0
5566 5567 -5568 0
-5566 5568 0
-5567 5568 0
-90 -5499 5569 0
90 -5569 0
5499 -5569 0
-5351 -5569 -5570 0
5351 5569 -5570 0
5351 -5569 5570 0
-5351 5569 5570 0
-5570 -5568 -5571 0
5570 5568 -5571 0
5570 -5568 5571 0
-5570 5568 5571 0
-5570 -5568 5572 0
5570 -5572 0
5568 -5572 0
-5351 -5569 5573 0
5351 -5573 0
5569 -5573 0
5572 5573 -5574 0
-5572 5574 0
-5573 5574 0
-98 -5499 5575 0
98 -5575 0
5499 -5575 0
-5357 -5575 -5576 0
5357 5575 -5576 0
5357 -5575 5576 0
-5357 5575 5576 0
-5576 -5574 -5577 0
5576 5574 -5577 0
5576 -5574 5577 0
-5576 5574 5577 0
-5576 -5574 5578 0
5576 -5578 0
5574 -5578 0
-5357 -5575 5579 0
5357 -5579 0
5575 -5579 0
5578 5579 -5580 0
-5578 5580 0
-5579 5580 0
-106 -5499 5581 0
106 -5581 0
5499 -5581 0
-5363 -5581 -5582 0
5363 5581 -5582 0
5363 -5581 5582 0
-5363 5581 5582 0
-5582 -5580 -5583 0
5582 5580 -5583 0
5582 -5580 5583 0
-5582 5580 5583 0
-5582 -5580 5584 0
5582 -5584 0
5580 -5584 0
-5363 -5581 5585 0
5363 -5585 0
5581 -5585 0
5584 5585 -5586 0
-5584 5586 0
-5585 5586 0
-114 -5499 5587 0
114 -5587 0
5499 -5587 0
-5369 -5587 -5588 0
5369 5587 -5588 0
5369 -5587 5588 0
-5369 5587 5588 0
-5588 -5586 -5589 0
5588 5586 -5589 0
5588 -5586 5589 0
-5588 5586 5589 0
-5588 -5586 5590 0
5588 -5590 0
5586 -5590 0
-5369 -5587 5591 0
5369 -5591 0
5587 -5591 0
5590 5591 -5592 0
-5590 5592 0
-5591 5592 0
-122 -5499 5593 0
122 -5593 0
5499 -5593 0
-5375 -5593 -5594 0
5375 5593 -5594 0
5375 -5593 5594 0
-5375 5593 5594 0
-5594 -5592 -5595 0
5594 5592 -5595 0
5594 -5592 5595 0
-5594 5592 5595 0
-5594 -5592 5596 0
5594 -5596 0
5592 -5596 0
-5375 -5593 5597 0
5375 -5597 0
5593 -5597 0
5596 5597 -5598 0
-5596 5598 0
-5597 5598 0
-130 -5499 5599 0
130 -5599 0
5499 -5599 0
-5381 -5599 -5600 0
5381 5599 -5600 0
5381 -5599 5600 0
-5381 5599 5600 0
-5600 -5598 -5601 0
5600 5598 -5601 0
5600 -5598 5601 0
-5600 5598 5601 0
-5600 -5598 5602 0
5600 -5602 0
5598 -5602 0
-5381 -5599 5603 0
5381 -5603 0
5599 -5603 0
5602 5603 -5604 0
-5602 5604 0
-5603 5604 0
-138 -5499 5605 0
138 -5605 0
5499 -5605 0
-5387 -5605 -5606 0
5387 5605 -5606 0
5387 -5605 5606 0
-5387 5605 5606 0
-5606 -5604 -5607 0
5606 5604 -5607 0
5606 -5604 5607 0
-5606 5604 5607 0
-5606 -5604 5608 0
5606 -5608 0
5604 -5608 0
-5387 -5605 5609 0
5387 -5609 0
5605 -5609 0
5608 5609 -5610 0
-5608 5610 0
-5609 5610 0
-146 -5499 5611 0
146 -5611 0
5499 -5611 0
-5393 -5611 -5612 0
5393 5611 -5612 0
5393 -5611 5612 0
-5393 5611 5612 0
-5612 -5610 -5613 0
5612 5610 -5613 0
5612 -5610 5613 0
-5612 5610 5613 0
-5612 -5610 5614 0
5612 -5614 0
5610 -5614 0
-5393 -5611 5615 0
5393 -5615 0
5611 -5615 0
5614 5615 -5616 0
-5614 5616 0
-5615 5616 0
-154 -5499 5617 0
154 -5617 0
5499 -5617 0
-5399 -5617 -5618 0
5399 5617 -5618 0
5399 -5617 5618 0
-5399 5617 5618 0
-5618 -5616 -5619 0
5618 5616 -5619 0
5618 -5616 5619 0
-5618 5616 5619 0
-5618 -5616 5620 0
5618 -5620 0
5616 -5620 0
-5399 -5617 5621 0
5399 -5621 0
5617 -5621 0
5620 5621 -5622 0
-5620 5622 0
-5621 5622 0
-162 -5499 5623 0
162 -5623 0
5499 -5623 0
-5405 -5623 -5624 0
5405 5623 -5624 0
5405 -5623 5624 0
-5405 5623 5624 0
-5624 -5622 -5625 0
5624 5622 -5625 0
5624 -5622 5625 0
-5624 5622 5625 0
-5624 -5622 5626 0
5624 -5626 0
5622 -5626 0
-5405 -5623 5627 0
5405 -5627 0
5623 -5627 0
5626 5627 -5628 0
-5626 5628 0
-5627 5628 0
-170 -5499 5629 0
170 -5629 0
5499 -5629 0
-5411 -5629 -5630 0
5411 5629 -5630 0
5411 -5629 5630 0
-5411 5629 5630 0
-5630 -5628 -5631 0
5630 5628 -5631 0
5630 -5628 5631 0
-5630 5628 5631 0
-5630 -5628 5632 0
5630 -5632 0
5628 -5632 0
-5411 -5629 5633 0
5411 -5633 0
5629 -5633 0
5632 5633 -5634 0
-5632 5634 0
-5633 5634 0
-178 -5499 5635 0
178 -5635 0
5499 -5635 0
-5417 -5635 -5636 0
5417 5635 -5636 0
5417 -5635 5636 0
-5417 5635 5636 0
-5636 -5634 -5637 0
5636 5634 -5637 0
5636 -5634 5637 0
-5636 5634 5637 0
-5636 -5634 5638 0
5636 -5638 0
5634 -5638 0
-5417 -5635 5639 0
5417 -5639 0
5635 -5639 0
5638 5639 -5640 0
-5638 5640 0
-5639 5640 0
-186 -5499 5641 0
186 -5641 0
5499 -5641 0
-5423 -5641 -5642 0
5423 5641 -5642 0
5423 -5641 5642 0
-5423 5641 5642 0
-5642 -5640 -5643 0
5642 5640 -5643 0
5642 -5640 5643 0
-5642 5640 5643 0
-5642 -5640 5644 0
5642 -5644 0
5640 -5644 0
-5423 -5641 5645 0
5423 -5645 0
5641 -5645 0
5644 5645 -5646 0
-5644 5646 0
-5645 5646 0
-194 -5499 5647 0
194 -5647 0
5499 -5647 0
-5429 -5647 -5648 0
5429 5647 -5648 0
5429 -5647 5648 0
-5429 5647 5648 0
-5648 -5646 -5649 0
5648 5646 -5649 0
5648 -5646 5649 0
-5648 5646 5649 0
-5648 -5646 5650 0
5648 -5650 0
5646 -5650 0
-5429 -5647 5651 0
5429 -5651 0
5647 -5651 0
5650 5651 -5652 0
-5650 5652 0
-5651 5652 0
-202 -5499 5653 0
202 -5653 0
5499 -5653 0
-5435 -5653 -5654 0
5435 5653 -5654 0
5435 -5653 5654 0
-5435 5653 5654 0
-5654 -5652 -5655 0
5654 5652 -5655 0
5654 -5652 5655 0
-5654 5652 5655 0
-5654 -5652 5656 0
5654 -5656 0
5652 -5656 0
-5435 -5653 5657 0
5435 -5657 0
5653 -5657 0
5656 5657 -5658 0
-5656 5658 0
-5657 5658 0
-210 -5499 5659 0
210 -5659 0
5499 -5659 0
-5441 -5659 -5660 0
5441 5659 -5660 0
5441 -5659 5660 0
-5441 5659 5660 0
-5660 -5658 -5661 0
5660 5658 -5661 0
5660 -5658 5661 0
-5660 5658 5661 0
-5660 -5658 5662 0
5660 -5662 0
5658 -5662 0
-5441 -5659 5663 0
5441 -5663 0
5659 -5663 0
5662 5663 -5664 0
-5662 5664 0
-5663 5664 0
-218 -5499 5665 0
218 -5665 0
5499 -5665 0
-5447 -5665 -5666 0
5447 5665 -5666 0
5447 -5665 5666 0
-5447 5665 5666 0
-5666 -5664 -5667 0
5666 5664 -5667 0
5666 -5664 5667 0
-5666 5664 5667 0
-5666 -5664 5668 0
5666 -5668 0
5664 -5668 0
-5447 -5665 5669 0
5447 -5669 0
5665 -5669 0
5668 5669 -5670 0
-5668 5670 0
-5669 5670 0
-226 -5499 5671 0
226 -5671 0
5499 -5671 0
-5453 -5671 -5672 0
5453 5671 -5672 0
5453 -5671 5672 0
-5453 5671 5672 0
-5672 -5670 -5673 0
5672 5670 -5673 0
5672 -5670 5673 0
-5672 5670 5673 0
-5672 -5670 5674 0
5672 -5674 0
5670 -5674 0
-5453 -5671 5675 0
5453 -5675 0
5671 -5675 0
5674 5675 -5676 0
-5674 5676 0
-5675 5676 0
-234 -5499 5677 0
234 -5677 0
5499 -5677 0
-5459 -5677 -5678 0
5459 5677 -5678 0
5459 -5677 5678 0
-5459 5677 5678 0
-5678 -5676 -5679 0
5678 5676 -5679 0
5678 -5676 5679 0
-5678 5676 5679 0
-5678 -5676 5680 0
5678 -5680 0
5676 -5680 0
-5459 -5677 5681 0
5459 -5681 0
5677 -5681 0
5680 5681 -5682 0
-5680 5682 0
-5681 5682 0
-242 -5499 5683 0
242 -5683 0
5499 -5683 0
-5465 -5683 -5684 0
5465 5683 -5684 0
5465 -5683 5684 0
-5465 5683 5684 0
-5684 -5682 -5685 0
5684 5682 -5685 0
5684 -5682 5685 0
-5684 5682 5685 0
-5684 -5682 5686 0
5684 -5686 0
5682 -5686 0
-5465 -5683 5687 0
5465 -5687 0
5683 -5687 0
5686 5687 -5688 0
-5686 5688 0
-5687 5688 0
-250 -5499 5689 0
250 -5689 0
5499 -5689 0
-5471 -5689 -5690 0
5471 5689 -5690 0
5471 -5689 5690 0
-5471 5689 5690 0
-5690 -5688 -5691 0
5690 5688 -5691 0
5690 -5688 5691 0
-5690 5688 5691 0
-5690 -5688 5692 0
5690 -5692 0
5688 -5692 0
-5471 -5689 5693 0
5471 -5693 0
5689 -5693 0
5692 5693 -5694 0
-5692 5694 0
-5693 5694 0
-258 -5499 5695 0
258 -5695 0
5499 -5695 0
-5477 -5695 -5696 0
5477 5695 -5696 0
5477 -5695 5696 0
-5477 5695 5696 0
-5696 -5694 -5697 0
5696 5694 -5697 0
5696 -5694 5697 0
-5696 5694 5697 0
-5696 -5694 5698 0
5696 -5698 0
5694 -5698 0
-5477 -5695 5699 0
5477 -5699 0
5695 -5699 0
5698 5699 -5700 0
-5698 5700 0
-5699 5700 0
-266 -5499 5701 0
266 -5701 0
5499 -5701 0
-5483 -5701 -5702 0
5483 5701 -5702 0
5483 -5701 5702 0
-5483 5701 5702 0
-5702 -5700 -5703 0
5702 5700 -5703 0
5702 -5700 5703 0
-5702 5700 5703 0
-5702 -5700 5704 0
5702 -5704 0
5700 -5704 0
-5483 -5701 5705 0
5483 -5705 0
5701 -5705 0
5704 5705 -5706 0
-5704 5706 0
-5705 5706 0
-274 -5499 5707 0
274 -5707 0
5499 -5707 0
-5489 -5707 -5708 0
5489 5707 -5708 0
5489 -5707 5708 0
-5489 5707 5708 0
-5708 -5706 -5709 0
5708 5706 -5709 0
5708 -5706 5709 0
-5708 5706 5709 0
-5708 -5706 5710 0
5708 -5710 0
5706 -5710 0
-5489 -5707 5711 0
5489 -5711 0
5707 -5711 0
5710 5711 -5712 0
-5710 5712 0
-5711 5712 0
-282 -5499 5713 0
282 -5713 0
5499 -5713 0
-5495 -5713 -5714 0
5495 5713 -5714 0
5495 -5713 5714 0
-5495 5713 5714 0
-5714 -5712 -5715 0
5714 5712 -5715 0
5714 -5712 5715 0
-5714 5712 5715 0
-5714 -5712 5716 0
5714 -5716 0
5712 -5716 0
-5495 -5713 5717 0
5495 -5717 0
5713 -5717 0
5716 5717 -5718 0
-5716 5718 0
-5717 5718 0
-290 -5499 5719 0
290 -5719 0
5499 -5719 0
-5498 -5719 -5720 0
5498 5719 -5720 0
5498 -5719 5720 0
-5498 5719 5720 0
-5720 -5718 -5721 0
5720 5718 -5721 0
5720 -5718 5721 0
-5720 5718 5721 0
-5720 -5718 5722 0
5720 -5722 0
5718 -5722 0
-5498 -5719 5723 0
5498 -5723 0
5719 -5723 0
5722 5723 -5724 0
-5722 5724 0
-5723 5724 0
-1 -5725 5726 0
1 -5726 0
5725 -5726 0
-5505 -5726 -5727 0
5505 5726 -5727 0
5505 -5726 5727 0
-5505 5726 5727 0
-5505 -5726 5728 0
5505 -5728 0
5726 -5728 0
-4 -5725 5729 0
4 -5729 0
5725 -5729 0
-5511 -5729 -5730 0
5511 5729 -5730 0
5511 -5729 5730 0
-5511 5729 5730 0
-5730 -5728 -5731 0
5730 5728 -5731 0
5730 -5728 5731 0
-5730 5728 5731 0
-5730 -5728 5732 0
5730 -5732 0
5728 -5732 0
-5511 -5729 5733 0
5511 -5733 0
5729 -5733 0
5732 5733 -5734 0
-5732 5734 0
-5733 5734 0
-10 -5725 5735 0
10 -5735 0
5725 -5735 0
-5517 -5735 -5736 0
5517 5735 -5736 0
5517 -5735 5736 0
-5517 5735 5736 0
-5736 -5734 -5737 0
5736 5734 -5737 0
5736 -5734 5737 0
-5736 5734 5737 0
-5736 -5734 5738 0
5736 -5738 0
5734 -5738 0
-5517 -5735 5739 0
5517 -5739 0
5735 -5739 0
5738 5739 -5740 0
-5738 5740 0
-5739 5740 0
-18 -5725 5741 0
18 -5741 0
5725 -5741 0
-5523 -5741 -5742 0
5523 5741 -5742 0
5523 -5741 5742 0
-5523 5741 5742 0
-5742 -5740 -5743 0
5742 5740 -5743 0
5742 -5740 5743 0
-5742 5740 5743 0
-5742 -5740 5744 0
5742 -5744 0
5740 -5744 0
-5523 -5741 5745 0
5523 -5745 0
5741 -5745 0
5744 5745 -5746 0
-5744 5746 0
-5745 5746 0
-26 -5725 5747 0
26 -5747 0
5725 -5747 0
-5529 -5747 -5748 0
5529 5747 -5748 0
5529 -5747 5748 0
-5529 5747 5748 0
-5748 -5746 -5749 0
5748 5746 -5749 0
5748 -5746 5749 0
-5748 5746 5749 0
-5748 -5746 5750 0
5748 -5750 0
5746 -5750 0
-5529 -5747 5751 0
5529 -5751 0
5747 -5751 0
5750 5751 -5752 0
-5750 5752 0
-5751 5752 0
-34 -5725 5753 0
34 -5753 0
5725 -5753 0
-5535 -5753 -5754 0
5535 5753 -5754 0
5535 -5753 5754 0
-5535 5753 5754 0
-5754 -5752 -5755 0
5754 5752 -5755 0
5754 -5752 5755 0
-5754 5752 5755 0
-5754 -5752 5756 0
5754 -5756 0
5752 -5756 0
-5535 -5753 5757 0
5535 -5757 0
5753 -5757 0
5756 5757 -5758 0
-5756 5758 0
-5757 5758 0
-42 -5725 5759 0
42 -5759 0
5725 -5759 0
-5541 -5759 -5760 0
5541 5759 -5760 0
5541 -5759 5760 0
-5541 5759 5760 0
-5760 -5758 -5761 0
5760 5758 -5761 0
5760 -5758 5761 0
-5760 5758 5761 0
-5760 -5758 5762 0
5760 -5762 0
5758 -5762 0
-5541 -5759 5763 0
5541 -5763 0
5759 -5763 0
5762 5763 -5764 0
-5762 5764 0
-5763 5764 0
-50 -5725 5765 0
50 -5765 0
5725 -5765 0
-5547 -5765 -5766 0
5547 5765 -5766 0
5547 -5765 5766 0
-5547 5765 5766 0
-5766 -5764 -5767 0
5766 5764 -5767 0
5766 -5764 5767 0
-5766 5764 5767 0
-5766 -5764 5768 0
5766 -5768 0
5764 -5768 0
-5547 -5765 5769 0
5547 -5769 0
5765 -5769 0
5768 5769 -5770 0
-5768 5770 0
-5769 5770 0
-58 -5725 5771 0
58 -5771 0
5725 -5771 0
-5553 -5771 -5772 0
5553 5771 -5772 0
5553 -5771 5772 0
-5553 5771 5772 0
-5772 -5770 -5773 0
5772 5770 -5773 0
5772 -5770 5773 0
-5772 5770 5773 0
-5772 -5770 5774 0
5772 -5774 0
5770 -5774 0
-5553 -5771 5775 0
5553 -5775 0
5771 -5775 0
5774 5775 -5776 0
-5774 5776 0
-5775 5776 0
-66 -5725 5777 0
66 -5777 0
5725 -5777 0
-5559 -5777 -5778 0
5559 5777 -5778 0
5559 -5777 5778 0
-5559 5777 5778 0
-5778 -5776 -5779 0
5778 5776 -5779 0
5778 -5776 5779 0
-5778 5776 5779 0
-5778 -5776 5780 0
5778 -5780 0
5776 -5780 0
-5559 -5777 5781 0
5559 -5781 0
5777 -5781 0
5780 5781 -5782 0
-5780 5782 0
-5781 5782 0
-74 -5725 5783 0
74 -5783 0
5725 -5783 0
-5565 -5783 -5784 0
5565 5783 -5784 0
5565 -5783 5784 0
-5565 5783 5784 0
-5784 -5782 -5785 0
5784 5782 -5785 0
5784 -5782 5785 0
-5784 5782 5785 0
-5784 -5782 5786 0
5784 -5786 0
5782 -5786 0
-5565 -5783 5787 0
5565 -5787 0
5783 -5787 0
5786 5787 -5788 0
-5786 5788 0
-5787 5788 0
-82 -5725 5789 0
82 -5789 0
5725 -5789 0
-5571 -5789 -5790 0
5571 5789 -5790 0
5571 -5789 5790 0
-5571 5789 5790 0
-5790 -5788 -5791 0
5790 5788 -5791 0
5790 -5788 5791 0
-5790 5788 5791 0
-5790 -5788 5792 0
5790 -5792 0
5788 -5792 0
-5571 -5789 5793 0
5571 -5793 0
5789 -5793 0
5792 5793 -5794 0
-5792 5794 0
-5793 5794 0
-90 -5725 5795 0
90 -5795 0
5725 -5795 0
-5577 -5795 -5796 0
5577 5795 -5796 0
5577 -5795 5796 0
-5577 5795 5796 0
-5796 -5794 -5797 0
5796 5794 -5797 0
5796 -5794 5797 0
-5796 5794 5797 0
-5796 -5794 5798 0
5796 -5798 0
5794 -5798 0
-5577 -5795 5799 0
5577 -5799 0
5795 -5799 0
5798 5799 -5800 0
-5798 5800 0
-5799 5800 0
-98 -5725 5801 0
98 -5801 0
5725 -5801 0
-5583 -5801 -5802 0
5583 5801 -5802 0
5583 -5801 5802 0
-5583 5801 5802 0
-5802 -5800 -5803 0
5802 5800 -5803 0
5802 -5800 5803 0
-5802 5800 5803 0
-5802 -5800 5804 0
5802 -5804 0
5800 -5804 0
-5583 -5801 5805 0
5583 -5805 0
5801 -5805 0
5804 5805 -5806 0
-5804 5806 0
-5805 5806 0
-106 -5725 5807 0
106 -5807 0
5725 -5807 0
-5589 -5807 -5808 0
5589 5807 -5808 0
5589 -5807 5808 0
-5589 5807 5808 0
-5808 -5806 -5809 0
5808 5806 -5809 0
5808 -5806 5809 0
-5808 5806 5809 0
-5808 -5806 5810 0
5808 -5810 0
5806 -5810 0
-5589 -5807 5811 0
5589 -5811 0
5807 -5811 0
5810 5811 -5812 0
-5810 5812 0
-5811 5812 0
-114 -5725 5813 0
114 -5813 0
5725 -5813 0
-5595 -5813 -5814 0
5595 5813 -5814 0
5595 -5813 5814 0
-5595 5813 5814 0
-5814 -5812 -5815 0
5814 5812 -5815 0
5814 -5812 5815 0
-5814 5812 5815 0
-5814 -5812 5816 0
5814 -5816 0
5812 -5816 0
-5595 -5813 5817 0
5595 -5817 0
5813 -5817 0
5816 5817 -5818 0
-5816 5818 0
-5817 5818 0
-122 -5725 5819 0
122 -5819 0
5725 -5819 0
-5601 -5819 -5820 0
5601 5819 -5820 0
5601 -5819 5820 0
-5601 5819 5820 0
-5820 -5818 -5821 0
5820 5818 -5821 0
5820 -5818 5821 0
-5820 5818 5821 0
-5820 -5818 5822 0
5820 -5822 0
5818 -5822 0
-5601 -5819 5823 0
5601 -5823 0
5819 -5823 0
5822 5823 -5824 0
-5822 5824 0
-5823 5824 0
-130 -5725 5825 0
130 -5825 0
5725 -5825 0
-5607 -5825 -5826 0
5607 5825 -5826 0
5607 -5825 5826 0
-5607 5825 5826 0
-5826 -5824 -5827 0
5826 5824 -5827 0
5826 -5824 5827 0
-5826 5824 5827 0
-5826 -5824 5828 0
5826 -5828 0
5824 -5828 0
-5607 -5825 5829 0
5607 -5829 0
5825 -5829 0
5828 5829 -5830 0
-5828 5830 0
-5829 5830 0
-138 -5725 5831 0
138 -5831 0
5725 -5831 0
-5613 -5831 -5832 0
5613 5831 -5832 0
5613 -5831 5832 0
-5613 5831 5832 0
-5832 -5830 -5833 0
5832 5830 -5833 0
5832 -5830 5833 0
-5832 5830 5833 0
-5832 -5830 5834 0
5832 -5834 0
5830 -5834 0
-5613 -5831 5835 0
5613 -5835 0
5831 -5835 0
5834 5835 -5836 0
-5834 5836 0
-5835 5836 0
-146 -5725 5837 0
146 -5837 0
5725 -5837 0
-5619 -5837 -5838 0
5619 5837 -5838 0
5619 -5837 5838 0
-5619 5837 5838 0
-5838 -5836 -5839 0
5838 5836 -5839 0
5838 -5836 5839 0
-5838 5836 5839 0
-5838 -5836 5840 0
5838 -5840 0
5836 -5840 0
-5619 -5837 5841 0
5619 -5841 0
5837 -5841 0
5840 5841 -5842 0
-5840 5842 0
-5841 5842 0
-154 -5725 5843 0
154 -5843 0
5725 -5843 0
-5625 -5843 -5844 0
5625 5843 -5844 0
5625 -5843 5844 0
-5625 5843 5844 0
-5844 -5842 -5845 0
5844 5842 -5845 0
5844 -5842 5845 0
-5844 5842 5845 0
-5844 -5842 5846 0
5844 -5846 0
5842 -5846 0
-5625 -5843 5847 0
5625 -5847 0
5843 -5847 0
5846 5847 -5848 0
-5846 5848 0
-5847 5848 0
-162 -5725 5849 0
162 -5849 0
5725 -5849 0
-5631 -5849 -5850 0
5631 5849 -5850 0
5631 -5849 5850 0
-5631 5849 5850 0
-5850 -5848 -5851 0
5850 5848 -5851 0
5850 -5848 5851 0
-5850 5848 5851 0
-5850 -5848 5852 0
5850 -5852 0
5848 -5852 0
-5631 -5849 5853 0
5631 -5853 0
5849 -5853 0
5852 5853 -5854 0
-5852 5854 0
-5853 5854 0
-170 -5725 5855 0
170 -5855 0
5725 -5855 0
-5637 -5855 -5856 0
5637 5855 -5856 0
5637 -5855 5856 0
-5637 5855 5856 0
-5856 -5854 -5857 0
5856 5854 -5857 0
5856 -5854 5857 0
-5856 5854 5857 0
-5856 -5854 5858 0
5856 -5858 0
5854 -5858 0
-5637 -5855 5859 0
5637 -5859 0
5855 -5859 0
5858 5859 -5860 0
-5858 5860 0
-5859 5860 0
-178 -5725 5861 0
178 -5861 0
5725 -5861 0
-5643 -5861 -5862 0
5643 5861 -5862 0
5643 -5861 5862 0
-5643 5861 5862 0
-5862 -5860 -5863 0
5862 5860 -5863 0
5862 -5860 5863 0
-5862 5860 5863 0
-5862 -5860 5864 0
5862 -5864 0
5860 -5864 0
-5643 -5861 5865 0
5643 -5865 0
5861 -5865 0
5864 5865 -5866 0
-5864 5866 0
-5865 5866 0
-186 -5725 5867 0
186 -5867 0
5725 -5867 0
-5649 -5867 -5868 0
5649 5867 -5868 0
5649 -5867 5868 0
-5649 5867 5868 0
-5868 -5866 -5869 0
5868 5866 -5869 0
5868 -5866 5869 0
-5868 5866 5869 0
-5868 -5866 5870 0
5868 -5870 0
5866 -5870 0
-5649 -5867 5871 0
5649 -5871 0
5867 -5871 0
5870 5871 -5872 0
-5870 5872 0
-5871 5872 0
-194 -5725 5873 0
194 -5873 0
5725 -5873 0
-5655 -5873 -5874 0
5655 5873 -5874 0
5655 -5873 5874 0
-5655 5873 5874 0
-5874 -5872 -5875 0
5874 5872 -5875 0
5874 -5872 5875 0
-5874 5872 5875 0
-5874 -5872 5876 0
5874 -5876 0
5872 -5876 0
-5655 -5873 5877 0
5655 -5877 0
5873 -5877 0
5876 5877 -5878 0
-5876 5878 0
-5877 5878 0
-202 -5725 5879 0
202 -5879 0
5725 -5879 0
-5661 -5879 -5880 0
5661 5879 -5880 0
5661 -5879 5880 0
-5661 5879 5880 0
-5880 -5878 -5881 0
5880 5878 -5881 0
5880 -5878 5881 0
-5880 5878 5881 0
-5880 -5878 5882 0
5880 -5882 0
5878 -5882 0
-5661 -5879 5883 0
5661 -5883 0
5879 -5883 0
5882 5883 -5884 0
-5882 5884 0
-5883 5884 0
-210 -5725 5885 0
210 -5885 0
5725 -5885 0
-5667 -5885 -5886 0
5667 5885 -5886 0
5667 -5885 5886 0
-5667 5885 5886 0
-5886 -5884 -5887 0
5886 5884 -5887 0
5886 -5884 5887 0
-5886 5884 5887 0
-5886 -5884 5888 0
5886 -5888 0
5884 -5888 0
-5667 -5885 5889 0
5667 -5889 0
5885 -5889 0
5888 5889 -5890 0
-5888 5890 0
-5889 5890 0
-218 -5725 5891 0
218 -5891 0
5725 -5891 0
-5673 -5891 -5892 0
5673 5891 -5892 0
5673 -5891 5892 0
-5673 5891 5892 0
-5892 -5890 -5893 0
5892 5890 -5893 0
5892 -5890 5893 0
-5892 5890 5893 0
-5892 -5890 5894 0
5892 -5894 0
5890 -5894 0
-5673 -5891 5895 0
5673 -5895 0
5891 -5895 0
5894 5895 -5896 0
-5894 5896 0
-5895 5896 0
-226 -5725 5897 0
226 -5897 0
5725 -5897 0
-5679 -5897 -5898 0
5679 5897 -5898 0
5679 -5897 5898 0
-5679 5897 5898 0
-5898 -5896 -5899 0
5898 5896 -5899 0
5898 -5896 5899 0
-5898 5896 5899 0
-5898 -5896 5900 0
5898 -5900 0
5896 -5900 0
-5679 -5897 5901 0
5679 -5901 0
5897 -5901 0
5900 5901 -5902 0
-5900 5902 0
-5901 5902 0
-234 -5725 5903 0
234 -5903 0
5725 -5903 0
-5685 -5903 -5904 0
5685 5903 -5904 0
5685 -5903 5904 0
-5685 5903 5904 0
-5904 -5902 -5905 0
5904 5902 -5905 0
5904 -5902 5905 0
-5904 5902 5905 0
-5904 -5902 5906 0
5904 -5906 0
5902 -5906 0
-5685 -5903 5907 0
5685 -5907 0
5903 -5907 0
5906 5907 -5908 0
-5906 5908 0
-5907 5908 0
-242 -5725 5909 0
242 -5909 0
5725 -5909 0
-5691 -5909 -5910 0
5691 5909 -5910 0
5691 -5909 5910 0
-5691 5909 5910 0
-5910 -5908 -5911 0
5910 5908 -5911 0
5910 -5908 5911 0
-5910 5908 5911 0
-5910 -5908 5912 0
5910 -5912 0
5908 -5912 0
-5691 -5909 5913 0
5691 -5913 0
5909 -5913 0
5912 5913 -5914 0
-5912 5914 0
-5913 5914 0
-250 -5725 5915 0
250 -5915 0
5725 -5915 0
-5697 -5915 -5916 0
5697 5915 -5916 0
5697 -5915 5916 0
-5697 5915 5916 0
-5916 -5914 -5917 0
5916 5914 -5917 0
5916 -5914 5917 0
-5916 5914 5917 0
-5916 -5914 5918 0
5916 -5918 0
5914 -5918 0
-5697 -5915 5919 0
5697 -5919 0
5915 -5919 0
5918 5919 -5920 0
-5918 5920 0
-5919 5920 0
-258 -5725 5921 0
258 -5921 0
5725 -5921 0
-5703 -5921 -5922 0
5703 5921 -5922 0
5703 -5921 5922 0
-5703 5921 5922 0
-5922 -5920 -5923 0
5922 5920 -5923 0
5922 -5920 5923 0
-5922 5920 5923 0
-5922 -5920 5924 0
5922 -5924 0
5920 -5924 0
-5703 -5921 5925 0
5703 -5925 0
5921 -5925 0
5924 5925 -5926 0
-5924 5926 0
-5925 5926 0
-266 -5725 5927 0
266 -5927 0
5725 -5927 0
-5709 -5927 -5928 0
5709 5927 -5928 0
5709 -5927 5928 0
-5709 5927 5928 0
-5928 -5926 -5929 0
5928 5926 -5929 0
5928 -5926 5929 0
-5928 5926 5929 0
-5928 -5926 5930 0
5928 -5930 0
5926 -5930 0
-5709 -5927 5931 0
5709 -5931 0
5927 -5931 0
5930 5931 -5932 0
-5930 5932 0
-5931 5932 0
-274 -5725 5933 0
274 -5933 0
5725 -5933 0
-5715 -5933 -5934 0
5715 5933 -5934 0
5715 -5933 5934 0
-5715 5933 5934 0
-5934 -5932 -5935 0
5934 5932 -5935 0
5934 -5932 5935 0
-5934 5932 5935 0
-5934 -5932 5936 0
5934 -5936 0
5932 -5936 0
-5715 -5933 5937 0
5715 -5937 0
5933 -5937 0
5936 5937 -5938 0
-5936 5938 0
-5937 5938 0
-282 -5725 5939 0
282 -5939 0
5725 -5939 0
-5721 -5939 -5940 0
5721 5939 -5940 0
5721 -5939 5940 0
-5721 5939 5940 0
-5940 -5938 -5941 0
5940 5938 -5941 0
5940 -5938 5941 0
-5940 5938 5941 0
-5940 -5938 5942 0
5940 -5942 0
5938 -5942 0
-5721 -5939 5943 0
5721 -5943 0
5939 -5943 0
5942 5943 -5944 0
-5942 5944 0
-5943 5944 0
-290 -5725 5945 0
290 -5945 0
5725 -5945 0
-5724 -5945 -5946 0
5724 5945 -5946 0
5724 -5945 5946 0
-5724 5945 5946 0
-5946 -5944 -5947 0
5946 5944 -5947 0
5946 -5944 5947 0
-5946 5944 5947 0
-5946 -5944 5948 0
5946 -5948 0
5944 -5948 0
-5724 -5945 5949 0
5724 -5949 0
5945 -5949 0
5948 5949 -5950 0
-5948 5950 0
-5949 5950 0
-1 -5951 5952 0
1 -5952 0
5951 -5952 0
-5731 -5952 -5953 0
5731 5952 -5953 0
5731 -5952 5953 0
-5731 5952 5953 0
-5731 -5952 5954 0
5731 -5954 0
5952 -5954 0
-4 -5951 5955 0
4 -5955 0
5951 -5955 0
-5737 -5955 -5956 0
5737 5955 -5956 0
5737 -5955 5956 0
-5737 5955 5956 0
-5956 -5954 -5957 0
5956 5954 -5957 0
5956 -5954 5957 0
-5956 5954 5957 0
-5956 -5954 5958 0
5956 -5958 0
5954 -5958 0
-5737 -5955 5959 0
5737 -5959 0
5955 -5959 0
5958 5959 -5960 0
-5958 5960 0
-5959 5960 0
-10 -5951 5961 0
10 -5961 0
5951 -5961 0
-5743 -5961 -5962 0
5743 5961 -5962 0
5743 -5961 5962 0
-5743 5961 5962 0
-5962 -5960 -5963 0
5962 5960 -5963 0
5962 -5960 5963 0
-5962 5960 5963 0
-5962 -5960 5964 0
5962 -5964 0
5960 -5964 0
-5743 -5961 5965 0
5743 -5965 0
5961 -5965 0
5964 5965 -5966 0
-5964 5966 0
-5965 5966 0
-18 -5951 5967 0
18 -5967 0
5951 -5967 0
-5749 -5967 -5968 0
5749 5967 -5968 0
5749 -5967 5968 0
-5749 5967 5968 0
-5968 -5966 -5969 0
5968 5966 -5969 0
5968 -5966 5969 0
-5968 5966 5969 0
-5968 -5966 5970 0
5968 -5970 0
5966 -5970 0
-5749 -5967 5971 0
5749 -5971 0
5967 -5971 0
5970 5971 -5972 0
-5970 5972 0
-5971 5972 0
-26 -5951 5973 0
26 -5973 0
5951 -5973 0
-5755 -5973 -5974 0
5755 5973 -5974 0
5755 -5973 5974 0
-5755 5973 5974 0
-5974 -5972 -5975 0
5974 5972 -5975 0
5974 -5972 5975 0
-5974 5972 5975 0
-5974 -5972 5976 0
5974 -5976 0
5972 -5976 0
-5755 -5973 5977 0
5755 -5977 0
5973 -5977 0
5976 5977 -5978 0
-5976 5978 0
-5977 5978 0
-34 -5951 5979 0
34 -5979 0
5951 -5979 0
-5761 -5979 -5980 0
5761 5979 -5980 0
5761 -5979 5980 0
-5761 5979 5980 0
-5980 -5978 -5981 0
5980 5978 -5981 0
5980 -5978 5981 0
-5980 5978 5981 0
-5980 -5978 5982 0
5980 -5982 0
5978 -5982 0
-5761 -5979 5983 0
5761 -5983 0
5979 -5983 0
5982 5983 -5984 0
-5982 5984 0
-5983 5984 0
-42 -5951 5985 0
42 -5985 0
5951 -5985 0
-5767 -5985 -5986 0
5767 5985 -5986 0
5767 -5985 5986 0
-5767 5985 5986 0
-5986 -5984 -5987 0
5986 5984 -5987 0
5986 -5984 5987 0
-5986 5984 5987 0
-5986 -5984 5988 0
5986 -5988 0
5984 -5988 0
-5767 -5985 5989 0
5767 -5989 0
5985 -5989 0
5988 5989 -5990 0
-5988 5990 0
-5989 5990 0
-50 -5951 5991 0
50 -5991 0
5951 -5991 0
-5773 -5991 -5992 0
5773 5991 -5992 0
5773 -5991 5992 0
-5773 5991 5992 0
-5992 -5990 -5993 0
5992 5990 -5993 0
5992 -5990 5993 0
-5992 5990 5993 0
-5992 -5990 5994 0
5992 -5994 0
5990 -5994 0
-5773 -5991 5995 0
5773 -5995 0
5991 -5995 0
5994 5995 -5996 0
-5994 5996 0
-5995 5996 0
-58 -5951 5997 0
58 -5997 0
5951 -5997 0
-5779 -5997 -5998 0
5779 5997 -5998 0
5779 -5997 5998 0
-5779 5997 5998 0
-5998 -5996 -5999 0
5998 5996 -5999 0
5998 -5996 5999 0
-5998 5996 5999 0
-5998 -5996 6000 0
5998 -6000 0
5996 -6000 0
-5779 -5997 6001 0
5779 -6001 0
5997 -6001 0
6000 6001 -6002 0
-6000 6002 0
-6001 6002 0
-66 -5951 6003 0
66 -6003 0
5951 -6003 0
-5785 -6003 -6004 0
5785 6003 -6004 0
5785 -6003 6004 0
-5785 6003 6004 0
-6004 -6002 -6005 0
6004 6002 -6005 0
6004 -6002 6005 0
-6004 6002 6005 0
-6004 -6002 6006 0
6004 -6006 0
6002 -6006 0
-5785 -6003 6007 0
5785 -6007 0
6003 -6007 0
6006 6007 -6008 0
-6006 6008 0
-6007 6008 0
-74 -5951 6009 0
74 -6009 0
5951 -6009 0
-5791 -6009 -6010 0
5791 6009 -6010 0
5791 -6009 6010 0
-5791 6009 6010 0
-6010 -6008 -6011 0
6010 6008 -6011 0
6010 -6008 6011 0
-6010 6008 6011 0
-6010 -6008 6012 0
6010 -6012 0
6008 -6012 0
-5791 -6009 6013 0
5791 -6013 0
6009 -6013 0
6012 6013 -6014 0
-6012 6014 0
-6013 6014 0
-82 -5951 6015 0
82 -6015 0
5951 -6015 0
-5797 -6015 -6016 0
5797 6015 -6016 0
5797 -6015 6016 0
-5797 6015 6016 0
-6016 -6014 -6017 0
6016 6014 -6017 0
6016 -6014 6017 0
-6016 6014 6017 0
-6016 -6014 6018 0
6016 -6018 0
6014 -6018 0
-5797 -6015 6019 0
5797 -6019 0
6015 -6019 0
6018 6019 -6020 0
-6018 6020 0
-6019 6020 0
-90 -5951 6021 0
90 -6021 0
5951 -6021 0
-5803 -6021 -6022 0
5803 6021 -6022 0
5803 -6021 6022 0
-5803 6021 6022 0
-6022 -6020 -6023 0
6022 6020 -6023 0
6022 -6020 6023 0
-6022 6020 6023 0
-6022 -6020 6024 0
6022 -6024 0
6020 -6024 0
-5803 -6021 6025 0
5803 -6025 0
6021 -6025 0
6024 6025 -6026 0
-6024 6026 0
-6025 6026 0
-98 -5951 6027 0
98 -6027 0
5951 -6027 0
-5809 -6027 -6028 0
5809 6027 -6028 0
5809 -6027 6028 0
-5809 6027 6028 0
-6028 -6026 -6029 0
6028 6026 -6029 0
6028 -6026 6029 0
-6028 6026 6029 0
-6028 -6026 6030 0
6028 -6030 0
6026 -6030 0
-5809 -6027 6031 0
5809 -6031 0
6027 -6031 0
6030 6031 -6032 0
-6030 6032 0
-6031 6032 0
-106 -5951 6033 0
106 -6033 0
5951 -6033 0
-5815 -6033 -6034 0
5815 6033 -6034 0
5815 -6033 6034 0
-5815 6033 6034 0
-6034 -6032 -6035 0
6034 6032 -6035 0
6034 -6032 6035 0
-6034 6032 6035 0
-6034 -6032 6036 0
6034 -6036 0
6032 -6036 0
-5815 -6033 6037 0
5815 -6037 0
6033 -6037 0
6036 6037 -6038 0
-6036 6038 0
-6037 6038 0
-114 -5951 6039 0
114 -6039 0
5951 -6039 0
-5821 -6039 -6040 0
5821 6039 -6040 0
5821 -6039 6040 0
-5821 6039 6040 0
-6040 -6038 -6041 0
6040 6038 -6041 0
6040 -6038 6041 0
-6040 6038 6041 0
-6040 -6038 6042 0
6040 -6042 0
6038 -6042 0
-5821 -6039 6043 0
5821 -6043 0
6039 -6043 0
6042 6043 -6044 0
-6042 6044 0
-6043 6044 0
-122 -5951 6045 0
122 -6045 0
5951 -6045 0
-5827 -6045 -6046 0
5827 6045 -6046 0
5827 -6045 6046 0
-5827 6045 6046 0
-6046 -6044 -6047 0
6046 6044 -6047 0
6046 -6044 6047 0
-6046 6044 6047 0
-6046 -6044 6048 0
6046 -6048 0
6044 -6048 0
-5827 -6045 6049 0
5827 -6049 0
6045 -6049 0
6048 6049 -6050 0
-6048 6050 0
-6049 6050 0
-130 -5951 6051 0
130 -6051 0
5951 -6051 0
-5833 -6051 -6052 0
5833 6051 -6052 0
5833 -6051 6052 0
-5833 6051 6052 0
-6052 -6050 -6053 0
6052 6050 -6053 0
6052 -6050 6053 0
-6052 6050 6053 0
-6052 -6050 6054 0
6052 -6054 0
6050 -6054 0
-5833 -6051 6055 0
5833 -6055 0
6051 -6055 0
6054 6055 -6056 0
-6054 6056 0
-6055 6056 0
-138 -5951 6057 0
138 -6057 0
5951 -6057 0
-5839 -6057 -6058 0
5839 6057 -6058 0
5839 -6057 6058 0
-5839 6057 6058 0
-6058 -6056 -6059 0
6058 6056 -6059 0
6058 -6056 6059 0
-6058 6056 6059 0
-6058 -6056 6060 0
6058 -6060 0
6056 -6060 0
-5839 -6057 6061 0
5839 -6061 0
6057 -6061 0
6060 6061 -6062 0
-6060 6062 0
-6061 6062 0
-146 -5951 6063 0
146 -6063 0
5951 -6063 0
-5845 -6063 -6064 0
5845 6063 -6064 0
5845 -6063 6064 0
-5845 6063 6064 0
-6064 -6062 -6065 0
6064 6062 -6065 0
6064 -6062 6065 0
-6064 6062 6065 0
-6064 -6062 6066 0
6064 -6066 0
6062 -6066 0
-5845 -6063 6067 0
5845 -6067 0
6063 -6067 0
6066 6067 -6068 0
-6066 6068 0
-6067 6068 0
-154 -5951 6069 0
154 -6069 0
5951 -6069 0
-5851 -6069 -6070 0
5851 6069 -6070 0
5851 -6069 6070 0
-5851 6069 6070 0
-6070 -6068 -6071 0
6070 6068 -6071 0
6070 -6068 6071 0
-6070 6068 6071 0
-6070 -6068 6072 0
6070 -6072 0
6068 -6072 0
-5851 -6069 6073 0
5851 -6073 0
6069 -6073 0
6072 6073 -6074 0
-6072 6074 0
-6073 6074 0
-162 -5951 6075 0
162 -6075 0
5951 -6075 0
-5857 -6075 -6076 0
5857 6075 -6076 0
5857 -6075 6076 0
-5857 6075 6076 0
-6076 -6074 -6077 0
6076 6074 -6077 0
6076 -6074 6077 0
-6076 6074 6077 0
-6076 -6074 6078 0
6076 -6078 0
6074 -6078 0
-5857 -6075 6079 0
5857 -6079 0
6075 -6079 0
6078 6079 -6080 0
-6078 6080 0
-6079 6080 0
-170 -5951 6081 0
170 -6081 0
5951 -6081 0
-5863 -6081 -6082 0
5863 6081 -6082 0
5863 -6081 6082 0
-5863 6081 6082 0
-6082 -6080 -6083 0
6082 6080 -6083 0
6082 -6080 6083 0
-6082 6080 6083 0
-6082 -6080 6084 0
6082 -6084 0
6080 -6084 0
-5863 -6081 6085 0
5863 -6085 0
6081 -6085 0
6084 6085 -6086 0
-6084 6086 0
-6085 6086 0
-178 -5951 6087 0
178 -6087 0
5951 -6087 0
-5869 -6087 -6088 0
5869 6087 -6088 0
5869 -6087 6088 0
-5869 6087 6088 0
-6088 -6086 -6089 0
6088 6086 -6089 0
6088 -6086 6089 0
-6088 6086 6089 0
-6088 -6086 6090 0
6088 -6090 0
6086 -6090 0
-5869 -6087 6091 0
5869 -6091 0
6087 -6091 0
6090 6091 -6092 0
-6090 6092 0
-6091 6092 0
-186 -5951 6093 0
186 -6093 0
5951 -6093 0
-5875 -6093 -6094 0
5875 6093 -6094 0
5875 -6093 6094 0
-5875 6093 6094 0
-6094 -6092 -6095 0
6094 6092 -6095 0
6094 -6092 6095 0
-6094 6092 6095 0
-6094 -6092 6096 0
6094 -6096 0
6092 -6096 0
-5875 -6093 6097 0
5875 -6097 0
6093 -6097 0
6096 6097 -6098 0
-6096 6098 0
-6097 6098 0
-194 -5951 6099 0
194 -6099 0
5951 -6099 0
-5881 -6099 -6100 0
5881 6099 -6100 0
5881 -6099 6100 0
-5881 6099 6100 0
-6100 -6098 -6101 0
6100 6098 -6101 0
6100 -6098 6101 0
-6100 6098 6101 0
-6100 -6098 6102 0
6100 -6102 0
6098 -6102 0
-5881 -6099 6103 0
5881 -6103 0
6099 -6103 0
6102 6103 -6104 0
-6102 6104 0
-6103 6104 0
-202 -5951 6105 0
202 -6105 0
5951 -6105 0
-5887 -6105 -6106 0
5887 6105 -6106 0
5887 -6105 6106 0
-5887 6105 6106 0
-6106 -6104 -6107 0
6106 6104 -6107 0
6106 -6104 6107 0
-6106 6104 6107 0
-6106 -6104 6108 0
6106 -6108 0
6104 -6108 0
-5887 -6105 6109 0
5887 -6109 0
6105 -6109 0
6108 6109 -6110 0
-6108 6110 0
-6109 6110 0
-210 -5951 6111 0
210 -6111 0
5951 -6111 0
-5893 -6111 -6112 0
5893 6111 -6112 0
5893 -6111 6112 0
-5893 6111 6112 0
-6112 -6110 -6113 0
6112 6110 -6113 0
6112 -6110 6113 0
-6112 6110 6113 0
-6112 -6110 6114 0
6112 -6114 0
6110 -6114 0
-5893 -6111 6115 0
5893 -6115 0
6111 -6115 0
6114 6115 -6116 0
-6114 6116 0
-6115 6116 0
-218 -5951 6117 0
218 -6117 0
5951 -6117 0
-5899 -6117 -6118 0
5899 6117 -6118 0
5899 -6117 6118 0
-5899 6117 6118 0
-6118 -6116 -6119 0
6118 6116 -6119 0
6118 -6116 6119 0
-6118 6116 6119 0
-6118 -6116 6120 0
6118 -6120 0
6116 -6120 0
-5899 -6117 6121 0
5899 -6121 0
6117 -6121 0
6120 6121 -6122 0
-6120 6122 0
-6121 6122 0
-226 -5951 6123 0
226 -6123 0
5951 -6123 0
-5905 -6123 -6124 0
5905 6123 -6124 0
5905 -6123 6124 0
-5905 6123 6124 0
-6124 -6122 -6125 0
6124 6122 -6125 0
6124 -6122 6125 0
-6124 6122 6125 0
-6124 -6122 6126 0
6124 -6126 0
6122 -6126 0
-5905 -6123 6127 0
5905 -6127 0
6123 -6127 0
6126 6127 -6128 0
-6126 6128 0
-6127 6128 0
-234 -5951 6129 0
234 -6129 0
5951 -6129 0
-5911 -6129 -6130 0
5911 6129 -6130 0
5911 -6129 6130 0
-5911 6129 6130 0
-6130 -6128 -6131 0
6130 6128 -6131 0
6130 -6128 6131 0
-6130 6128 6131 0
-6130 -6128 6132 0
6130 -6132 0
6128 -6132 0
-5911 -6129 6133 0
5911 -6133 0
6129 -6133 0
6132 6133 -6134 0
-6132 6134 0
-6133 6134 0
-242 -5951 6135 0
242 -6135 0
5951 -6135 0
-5917 -6135 -6136 0
5917 6135 -6136 0
5917 -6135 6136 0
-5917 6135 6136 0
-6136 -6134 -6137 0
6136 6134 -6137 0
6136 -6134 6137 0
-6136 6134 6137 0
-6136 -6134 6138 0
6136 -6138 0
6134 -6138 0
-5917 -6135 6139 0
5917 -6139 0
6135 -6139 0
6138 6139 -6140 0
-6138 6140 0
-6139 6140 0
-250 -5951 6141 0
250 -6141 0
5951 -6141 0
-5923 -6141 -6142 0
5923 6141 -6142 0
5923 -6141 6142 0
-5923 6141 6142 0
-6142 -6140 -6143 0
6142 6140 -6143 0
6142 -6140 6143 0
-6142 6140 6143 0
-6142 -6140 6144 0
6142 -6144 0
6140 -6144 0
-5923 -6141 6145 0
5923 -6145 0
6141 -6145 0
6144 6145 -6146 0
-6144 6146 0
-6145 6146 0
-258 -5951 6147 0
258 -6147 0
5951 -6147 0
-5929 -6147 -6148 0
5929 6147 -6148 0
5929 -6147 6148 0
-5929 6147 6148 0
-6148 -6146 -6149 0
6148 6146 -6149 0
6148 -6146 6149 0
-6148 6146 6149 0
-6148 -6146 6150 0
6148 -6150 0
6146 -6150 0
-5929 -6147 6151 0
5929 -6151 0
6147 -6151 0
6150 6151 -6152 0
-6150 6152 0
-6151 6152 0
-266 -5951 6153 0
266 -6153 0
5951 -6153 0
-5935 -6153 -6154 0
5935 6153 -6154 0
5935 -6153 6154 0
-5935 6153 6154 0
-6154 -6152 -6155 0
6154 6152 -6155 0
6154 -6152 6155 0
-6154 6152 6155 0
-6154 -6152 6156 0
6154 -6156 0
6152 -6156 0
-5935 -6153 6157 0
5935 -6157 0
6153 -6157 0
6156 6157 -6158 0
-6156 6158 0
-6157 6158 0
-274 -5951 6159 0
274 -6159 0
5951 -6159 0
-5941 -6159 -6160 0
5941 6159 -6160 0
5941 -6159 6160 0
-5941 6159 6160 0
-6160 -6158 -6161 0
6160 6158 -6161 0
6160 -6158 6161 0
-6160 6158 6161 0
-6160 -6158 6162 0
6160 -6162 0
6158 -6162 0
-5941 -6159 6163 0
5941 -6163 0
6159 -6163 0
6162 6163 -6164 0
-6162 6164 0
-6163 6164 0
-282 -5951 6165 0
282 -6165 0
5951 -6165 0
-5947 -6165 -6166 0
5947 6165 -6166 0
5947 -6165 6166 0
-5947 6165 6166 0
-6166 -6164 -6167 0
6166 6164 -6167 0
6166 -6164 6167 0
-6166 6164 6167 0
-6166 -6164 6168 0
6166 -6168 0
6164 -6168 0
-5947 -6165 6169 0
5947 -6169 0
6165 -6169 0
6168 6169 -6170 0
-6168 6170 0
-6169 6170 0
-290 -5951 6171 0
290 -6171 0
5951 -6171 0
-5950 -6171 -6172 0
5950 6171 -6172 0
5950 -6171 6172 0
-5950 6171 6172 0
-6172 -6170 -6173 0
6172 6170 -6173 0
6172 -6170 6173 0
-6172 6170 6173 0
-6172 -6170 6174 0
6172 -6174 0
6170 -6174 0
-5950 -6171 6175 0
5950 -6175 0
6171 -6175 0
6174 6175 -6176 0
-6174 6176 0
-6175 6176 0
-1 -6177 6178 0
1 -6178 0
6177 -6178 0
-5957 -6178 -6179 0
5957 6178 -6179 0
5957 -6178 6179 0
-5957 6178 6179 0
-5957 -6178 6180 0
5957 -6180 0
6178 -6180 0
-4 -6177 6181 0
4 -6181 0
6177 -6181 0
-5963 -6181 -6182 0
5963 6181 -6182 0
5963 -6181 6182 0
-5963 6181 6182 0
-6182 -6180 -6183 0
6182 6180 -6183 0
6182 -6180 6183 0
-6182 6180 6183 0
-6182 -6180 6184 0
6182 -6184 0
6180 -6184 0
-5963 -6181 6185 0
5963 -6185 0
6181 -6185 0
6184 6185 -6186 0
-6184 6186 0
-6185 6186 0
-10 -6177 6187 0
10 -6187 0
6177 -6187 0
-5969 -6187 -6188 0
5969 6187 -6188 0
5969 -6187 6188 0
-5969 6187 6188 0
-6188 -6186 -6189 0
6188 6186 -6189 0
6188 -6186 6189 0
-6188 6186 6189 0
-6188 -6186 6190 0
6188 -6190 0
6186 -6190 0
-5969 -6187 6191 0
5969 -6191 0
6187 -6191 0
6190 6191 -6192 0
-6190 6192 0
-6191 6192 0
-18 -6177 6193 0
18 -6193 0
6177 -6193 0
-5975 -6193 -6194 0
5975 6193 -6194 0
5975 -6193 6194 0
-5975 6193 6194 0
-6194 -6192 -6195 0
6194 6192 -6195 0
6194 -6192 6195 0
-6194 6192 6195 0
-6194 -6192 6196 0
6194 -6196 0
6192 -6196 0
-5975 -6193 6197 0
5975 -6197 0
6193 -6197 0
6196 6197 -6198 0
-6196 6198 0
-6197 6198 0
-26 -6177 6199 0
26 -6199 0
6177 -6199 0
-5981 -6199 -6200 0
5981 6199 -6200 0
5981 -6199 6200 0
-5981 6199 6200 0
-6200 -6198 -6201 0
6200 6198 -6201 0
6200 -6198 6201 0
-6200 6198 6201 0
-6200 -6198 6202 0
6200 -6202 0
6198 -6202 0
-5981 -6199 6203 0
5981 -6203 0
6199 -6203 0
6202 6203 -6204 0
-6202 6204 0
-6203 6204 0
-34 -6177 6205 0
34 -6205 0
6177 -6205 0
-5987 -6205 -6206 0
5987 6205 -6206 0
5987 -6205 6206 0
-5987 6205 6206 0
-6206 -6204 -6207 0
6206 6204 -6207 0
6206 -6204 6207 0
-6206 6204 6207 0
-6206 -6204 6208 0
6206 -6208 0
6204 -6208 0
-5987 -6205 6209 0
5987 -6209 0
6205 -6209 0
6208 6209 -6210 0
-6208 6210 0
-6209 6210 0
-42 -6177 6211 0
42 -6211 0
6177 -6211 0
-5993 -6211 -6212 0
5993 6211 -6212 0
5993 -6211 6212 0
-5993 6211 6212 0
-6212 -6210 -6213 0
6212 6210 -6213 0
6212 -6210 6213 0
-6212 6210 6213 0
-6212 -6210 6214 0
6212 -6214 0
6210 -6214 0
-5993 -6211 6215 0
5993 -6215 0
6211 -6215 0
6214 6215 -6216 0
-6214 6216 0
-6215 6216 0
-50 -6177 6217 0
50 -6217 0
6177 -6217 0
-5999 -6217 -6218 0
5999 6217 -6218 0
5999 -6217 6218 0
-5999 6217 6218 0
-6218 -6216 -6219 0
6218 6216 -6219 0
6218 -6216 6219 0
-6218 6216 6219 0
-6218 -6216 6220 0
6218 -6220 0
6216 -6220 0
-5999 -6217 6221 0
5999 -6221 0
6217 -6221 0
6220 6221 -6222 0
-6220 6222 0
-6221 6222 0
-58 -6177 6223 0
58 -6223 0
6177 -6223 0
-6005 -6223 -6224 0
6005 6223 -6224 0
6005 -6223 6224 0
-6005 6223 6224 0
-6224 -6222 -6225 0
6224 6222 -6225 0
6224 -6222 6225 0
-6224 6222 6225 0
-6224 -6222 6226 0
6224 -6226 0
6222 -6226 0
-6005 -6223 6227 0
6005 -6227 0
6223 -6227 0
6226 6227 -6228 0
-6226 6228 0
-6227 6228 0
-66 -6177 6229 0
66 -6229 0
6177 -6229 0
-6011 -6229 -6230 0
6011 6229 -6230 0
6011 -6229 6230 0
-6011 6229 6230 0
-6230 -6228 -6231 0
6230 6228 -6231 0
6230 -6228 6231 0
-6230 6228 6231 0
-6230 -6228 6232 0
6230 -6232 0
6228 -6232 0
-6011 -6229 6233 0
6011 -6233 0
6229 -6233 0
6232 6233 -6234 0
-6232 6234 0
-6233 6234 0
-74 -6177 6235 0
74 -6235 0
6177 -6235 0
-6017 -6235 -6236 0
6017 6235 -6236 0
6017 -6235 6236 0
-6017 6235 6236 0
-6236 -6234 -6237 0
6236 6234 -6237 0
6236 -6234 6237 0
-6236 6234 6237 0
-6236 -6234 6238 0
6236 -6238 0
6234 -6238 0
-6017 -6235 6239 0
6017 -6239 0
6235 -6239 0
6238 6239 -6240 0
-6238 6240 0
-6239 6240 0
-82 -6177 6241 0
82 -6241 0
6177 -6241 0
-6023 -6241 -6242 0
6023 6241 -6242 0
6023 -6241 6242 0
-6023 6241 6242 0
-6242 -6240 -6243 0
6242 6240 -6243 0
6242 -6240 6243 0
-6242 6240 6243 0
-6242 -6240 6244 0
6242 -6244 0
6240 -6244 0
-6023 -6241 6245 0
6023 -6245 0
6241 -6245 0
6244 6245 -6246 0
-6244 6246 0
-6245 6246 0
-90 -6177 6247 0
90 -6247 0
6177 -6247 0
-6029 -6247 -6248 0
6029 6247 -6248 0
6029 -6247 6248 0
-6029 6247 6248 0
-6248 -6246 -6249 0
6248 6246 -6249 0
6248 -6246 6249 0
-6248 6246 6249 0
-6248 -6246 6250 0
6248 -6250 0
6246 -6250 0
-6029 -6247 6251 0
6029 -6251 0
6247 -6251 0
6250 6251 -6252 0
-6250 6252 0
-6251 6252 0
-98 -6177 6253 0
98 -6253 0
6177 -6253 0
-6035 -6253 -6254 0
6035 6253 -6254 0
6035 -6253 6254 0
-6035 6253 6254 0
-6254 -6252 -6255 0
6254 6252 -6255 0
6254 -6252 6255 0
-6254 6252 6255 0
-6254 -6252 6256 0
6254 -6256 0
6252 -6256 0
-6035 -6253 6257 0
6035 -6257 0
6253 -6257 0
6256 6257 -6258 0
-6256 6258 0
-6257 6258 0
-106 -6177 6259 0
106 -6259 0
6177 -6259 0
-6041 -6259 -6260 0
6041 6259 -6260 0
6041 -6259 6260 0
-6041 6259 6260 0
-6260 -6258 -6261 0
6260 6258 -6261 0
6260 -6258 6261 0
-6260 6258 6261 0
-6260 -6258 6262 0
6260 -6262 0
6258 -6262 0
-6041 -6259 6263 0
6041 -6263 0
6259 -6263 0
6262 6263 -6264 0
-6262 6264 0
-6263 6264 0
-114 -6177 6265 0
114 -6265 0
6177 -6265 0
-6047 -6265 -6266 0
6047 6265 -6266 0
6047 -6265 6266 0
-6047 6265 6266 0
-6266 -6264 -6267 0
6266 6264 -6267 0
6266 -6264 6267 0
-6266 6264 6267 0
-6266 -6264 6268 0
6266 -6268 0
6264 -6268 0
-6047 -6265 6269 0
6047 -6269 0
6265 -6269 0
6268 6269 -6270 0
-6268 6270 0
-6269 6270 0
-122 -6177 6271 0
122 -6271 0
6177 -6271 0
-6053 -6271 -6272 0
6053 6271 -6272 0
6053 -6271 6272 0
-6053 6271 6272 0
-6272 -6270 -6273 0
6272 6270 -6273 0
6272 -6270 6273 0
-6272 6270 6273 0
-6272 -6270 6274 0
6272 -6274 0
6270 -6274 0
-6053 -6271 6275 0
6053 -6275 0
6271 -6275 0
6274 6275 -6276 0
-6274 6276 0
-6275 6276 0
-130 -6177 6277 0
130 -6277 0
6177 -6277 0
-6059 -6277 -6278 0
6059 6277 -6278 0
6059 -6277 6278 0
-6059 6277 6278 0
-6278 -6276 -6279 0
6278 6276 -6279 0
6278 -6276 6279 0
-6278 6276 6279 0
-6278 -6276 6280 0
6278 -6280 0
6276 -6280 0
-6059 -6277 6281 0
6059 -6281 0
6277 -6281 0
6280 6281 -6282 0
-6280 6282 0
-6281 6282 0
-138 -6177 6283 0
138 -6283 0
6177 -6283 0
-6065 -6283 -6284 0
6065 6283 -6284 0
6065 -6283 6284 0
-6065 6283 6284 0
-6284 -6282 -6285 0
6284 6282 -6285 0
6284 -6282 6285 0
-6284 6282 6285 0
-6284 -6282 6286 0
6284 -6286 0
6282 -6286 0
-6065 -6283 6287 0
6065 -6287 0
6283 -6287 0
6286 6287 -6288 0
-6286 6288 0
-6287 6288 0
-146 -6177 6289 0
146 -6289 0
6177 -6289 0
-6071 -6289 -6290 0
6071 6289 -6290 0
6071 -6289 6290 0
-6071 6289 6290 0
-6290 -6288 -6291 0
6290 6288 -6291 0
6290 -6288 6291 0
-6290 6288 6291 0
-6290 -6288 6292 0
6290 -6292 0
6288 -6292 0
-6071 -6289 6293 0
6071 -6293 0
6289 -6293 0
6292 6293 -6294 0
-6292 6294 0
-6293 6294 0
-154 -6177 6295 0
154 -6295 0
6177 -6295 0
-6077 -6295 -6296 0
6077 6295 -6296 0
6077 -6295 6296 0
-6077 6295 6296 0
-6296 -6294 -6297 0
6296 6294 -6297 0
6296 -6294 6297 0
-6296 6294 6297 0
-6296 -6294 6298 0
6296 -6298 0
6294 -6298 0
-6077 -6295 6299 0
6077 -6299 0
6295 -6299 0
6298 6299 -6300 0
-6298 6300 0
-6299 6300 0
-162 -6177 6301 0
162 -6301 0
6177 -6301 0
-6083 -6301 -6302 0
6083 6301 -6302 0
6083 -6301 6302 0
-6083 6301 6302 0
-6302 -6300 -6303 0
6302 6300 -6303 0
6302 -6300 6303 0
-6302 6300 6303 0
-6302 -6300 6304 0
6302 -6304 0
6300 -6304 0
-6083 -6301 6305 0
6083 -6305 0
6301 -6305 0
6304 6305 -6306 0
-6304 6306 0
-6305 6306 0
-170 -6177 6307 0
170 -6307 0
6177 -6307 0
-6089 -6307 -6308 0
6089 6307 -6308 0
6089 -6307 6308 0
-6089 6307 6308 0
-6308 -6306 -6309 0
6308 6306 -6309 0
6308 -6306 6309 0
-6308 6306 6309 0
-6308 -6306 6310 0
6308 -6310 0
6306 -6310 0
-6089 -6307 6311 0
6089 -6311 0
6307 -6311 0
6310 6311 -6312 0
-6310 6312 0
-6311 6312 0
-178 -6177 6313 0
178 -6313 0
6177 -6313 0
-6095 -6313 -6314 0
6095 6313 -6314 0
6095 -6313 6314 0
-6095 6313 6314 0
-6314 -6312 -6315 0
6314 6312 -6315 0
6314 -6312 6315 0
-6314 6312 6315 0
-6314 -6312 6316 0
6314 -6316 0
6312 -6316 0
-6095 -6313 6317 0
6095 -6317 0
6313 -6317 0
6316 6317 -6318 0
-6316 6318 0
-6317 6318 0
-186 -6177 6319 0
186 -6319 0
6177 -6319 0
-6101 -6319 -6320 0
6101 6319 -6320 0
6101 -6319 6320 0
-6101 6319 6320 0
-6320 -6318 -6321 0
6320 6318 -6321 0
6320 -6318 6321 0
-6320 6318 6321 0
-6320 -6318 6322 0
6320 -6322 0
6318 -6322 0
-6101 -6319 6323 0
6101 -6323 0
6319 -6323 0
6322 6323 -6324 0
-6322 6324 0
-6323 6324 0
-194 -6177 6325 0
194 -6325 0
6177 -6325 0
-6107 -6325 -6326 0
6107 6325 -6326 0
6107 -6325 6326 0
-6107 6325 6326 0
-6326 -6324 -6327 0
6326 6324 -6327 0
6326 -6324 6327 0
-6326 6324 6327 0
-6326 -6324 6328 0
6326 -6328 0
6324 -6328 0
-6107 -6325 6329 0
6107 -6329 0
6325 -6329 0
6328 6329 -6330 0
-6328 6330 0
-6329 6330 0
-202 -6177 6331 0
202 -6331 0
6177 -6331 0
-6113 -6331 -6332 0
6113 6331 -6332 0
6113 -6331 6332 0
-6113 6331 6332 0
-6332 -6330 -6333 0
6332 6330 -6333 0
6332 -6330 6333 0
-6332 6330 6333 0
-6332 -6330 6334 0
6332 -6334 0
6330 -6334 0
-6113 -6331 6335 0
6113 -6335 0
6331 -6335 0
6334 6335 -6336 0
-6334 6336 0
-6335 6336 0
-210 -6177 6337 0
210 -6337 0
6177 -6337 0
-6119 -6337 -6338 0
6119 6337 -6338 0
6119 -6337 6338 0
-6119 6337 6338 0
-6338 -6336 -6339 0
6338 6336 -6339 0
6338 -6336 6339 0
-6338 6336 6339 0
-6338 -6336 6340 0
6338 -6340 0
6336 -6340 0
-6119 -6337 6341 0
6119 -6341 0
6337 -6341 0
6340 6341 -6342 0
-6340 6342 0
-6341 6342 0
-218 -6177 6343 0
218 -6343 0
6177 -6343 0
-6125 -6343 -6344 0
6125 6343 -6344 0
6125 -6343 6344 0
-6125 6343 6344 0
-6344 -6342 -6345 0
6344 6342 -6345 0
6344 -6342 6345 0
-6344 6342 6345 0
-6344 -6342 6346 0
6344 -6346 0
6342 -6346 0
-6125 -6343 6347 0
6125 -6347 0
6343 -6347 0
6346 6347 -6348 0
-6346 6348 0
-6347 6348 0
-226 -6177 6349 0
226 -6349 0
6177 -6349 0
-6131 -6349 -6350 0
6131 6349 -6350 0
6131 -6349 6350 0
-6131 6349 6350 0
-6350 -6348 -6351 0
6350 6348 -6351 0
6350 -6348 6351 0
-6350 6348 6351 0
-6350 -6348 6352 0
6350 -6352 0
6348 -6352 0
-6131 -6349 6353 0
6131 -6353 0
6349 -6353 0
6352 6353 -6354 0
-6352 6354 0
-6353 6354 0
-234 -6177 6355 0
234 -6355 0
6177 -6355 0
-6137 -6355 -6356 0
6137 6355 -6356 0
6137 -6355 6356 0
-6137 6355 6356 0
-6356 -6354 -6357 0
6356 6354 -6357 0
6356 -6354 6357 0
-6356 6354 6357 0
-6356 -6354 6358 0
6356 -6358 0
6354 -6358 0
-6137 -6355 6359 0
6137 -6359 0
6355 -6359 0
6358 6359 -6360 0
-6358 6360 0
-6359 6360 0
-242 -6177 6361 0
242 -6361 0
6177 -6361 0
-6143 -6361 -6362 0
6143 6361 -6362 0
6143 -6361 6362 0
-6143 6361 6362 0
-6362 -6360 -6363 0
6362 6360 -6363 0
6362 -6360 6363 0
-6362 6360 6363 0
-6362 -6360 6364 0
6362 -6364 0
6360 -6364 0
-6143 -6361 6365 0
6143 -6365 0
6361 -6365 0
6364 6365 -6366 0
-6364 6366 0
-6365 6366 0
-250 -6177 6367 0
250 -6367 0
6177 -6367 0
-6149 -6367 -6368 0
6149 6367 -6368 0
6149 -6367 6368 0
-6149 6367 6368 0
-6368 -6366 -6369 0
6368 6366 -6369 0
6368 -6366 6369 0
-6368 6366 6369 0
-6368 -6366 6370 0
6368 -6370 0
6366 -6370 0
-6149 -6367 6371 0
6149 -6371 0
6367 -6371 0
6370 6371 -6372 0
-6370 6372 0
-6371 6372 0
-258 -6177 6373 0
258 -6373 0
6177 -6373 0
-6155 -6373 -6374 0
6155 6373 -6374 0
6155 -6373 6374 0
-6155 6373 6374 0
-6374 -6372 -6375 0
6374 6372 -6375 0
6374 -6372 6375 0
-6374 6372 6375 0
-6374 -6372 6376 0
6374 -6376 0
6372 -6376 0
-6155 -6373 6377 0
6155 -6377 0
6373 -6377 0
6376 6377 -6378 0
-6376 6378 0
-6377 6378 0
-266 -6177 6379 0
266 -6379 0
6177 -6379 0
-6161 -6379 -6380 0
6161 6379 -6380 0
6161 -6379 6380 0
-6161 6379 6380 0
-6380 -6378 -6381 0
6380 6378 -6381 0
6380 -6378 6381 0
-6380 6378 6381 0
-6380 -6378 6382 0
6380 -6382 0
6378 -6382 0
-6161 -6379 6383 0
6161 -6383 0
6379 -6383 0
6382 6383 -6384 0
-6382 6384 0
-6383 6384 0
-274 -6177 6385 0
274 -6385 0
6177 -6385 0
-6167 -6385 -6386 0
6167 6385 -6386 0
6167 -6385 6386 0
-6167 6385 6386 0
-6386 -6384 -6387 0
6386 6384 -6387 0
6386 -6384 6387 0
-6386 6384 6387 0
-6386 -6384 6388 0
6386 -6388 0
6384 -6388 0
-6167 -6385 6389 0
6167 -6389 0
6385 -6389 0
6388 6389 -6390 0
-6388 6390 0
-6389 6390 0
-282 -6177 6391 0
282 -6391 0
6177 -6391 0
-6173 -6391 -6392 0
6173 6391 -6392 0
6173 -6391 6392 0
-6173 6391 6392 0
-6392 -6390 -6393 0
6392 6390 -6393 0
6392 -6390 6393 0
-6392 6390 6393 0
-6392 -6390 6394 0
6392 -6394 0
6390 -6394 0
-6173 -6391 6395 0
6173 -6395 0
6391 -6395 0
6394 6395 -6396 0
-6394 6396 0
-6395 6396 0
-290 -6177 6397 0
290 -6397 0
6177 -6397 0
-6176 -6397 -6398 0
6176 6397 -6398 0
6176 -6397 6398 0
-6176 6397 6398 0
-6398 -6396 -6399 0
6398 6396 -6399 0
6398 -6396 6399 0
-6398 6396 6399 0
-6398 -6396 6400 0
6398 -6400 0
6396 -6400 0
-6176 -6397 6401 0
6176 -6401 0
6397 -6401 0
6400 6401 -6402 0
-6400 6402 0
-6401 6402 0
-1 -6403 6404 0
1 -6404 0
6403 -6404 0
-6183 -6404 -6405 0
6183 6404 -6405 0
6183 -6404 6405 0
-6183 6404 6405 0
-6183 -6404 6406 0
6183 -6406 0
6404 -6406 0
-4 -6403 6407 0
4 -6407 0
6403 -6407 0
-6189 -6407 -6408 0
6189 6407 -6408 0
6189 -6407 6408 0
-6189 6407 6408 0
-6408 -6406 -6409 0
6408 6406 -6409 0
6408 -6406 6409 0
-6408 6406 6409 0
-6408 -6406 6410 0
6408 -6410 0
6406 -6410 0
-6189 -6407 6411 0
6189 -6411 0
6407 -6411 0
6410 6411 -6412 0
-6410 6412 0
-6411 6412 0
-10 -6403 6413 0
10 -6413 0
6403 -6413 0
-6195 -6413 -6414 0
6195 6413 -6414 0
6195 -6413 6414 0
-6195 6413 6414 0
-6414 -6412 -6415 0
6414 6412 -6415 0
6414 -6412 6415 0
-6414 6412 6415 0
-6414 -6412 6416 0
6414 -6416 0
6412 -6416 0
-6195 -6413 6417 0
6195 -6417 0
6413 -6417 0
6416 6417 -6418 0
-6416 6418 0
-6417 6418 0
-18 -6403 6419 0
18 -6419 0
6403 -6419 0
-6201 -6419 -6420 0
6201 6419 -6420 0
6201 -6419 6420 0
-6201 6419 6420 0
-6420 -6418 -6421 0
6420 6418 -6421 0
6420 -6418 6421 0
-6420 6418 6421 0
-6420 -6418 6422 0
6420 -6422 0
6418 -6422 0
-6201 -6419 6423 0
6201 -6423 0
6419 -6423 0
6422 6423 -6424 0
-6422 6424 0
-6423 6424 0
-26 -6403 6425 0
26 -6425 0
6403 -6425 0
-6207 -6425 -6426 0
6207 6425 -6426 0
6207 -6425 6426 0
-6207 6425 6426 0
-6426 -6424 -6427 0
6426 6424 -6427 0
6426 -6424 6427 0
-6426 6424 6427 0
-6426 -6424 6428 0
6426 -6428 0
6424 -6428 0
-6207 -6425 6429 0
6207 -6429 0
6425 -6429 0
6428 6429 -6430 0
-6428 6430 0
-6429 6430 0
-34 -6403 6431 0
34 -6431 0
6403 -6431 0
-6213 -6431 -6432 0
6213 6431 -6432 0
6213 -6431 6432 0
-6213 6431 6432 0
-6432 -6430 -6433 0
6432 6430 -6433 0
6432 -6430 6433 0
-6432 6430 6433 0
-6432 -6430 6434 0
6432 -6434 0
6430 -6434 0
-6213 -6431 6435 0
6213 -6435 0
6431 -6435 0
6434 6435 -6436 0
-6434 6436 0
-6435 6436 0
-42 -6403 6437 0
42 -6437 0
6403 -6437 0
-6219 -6437 -6438 0
6219 6437 -6438 0
6219 -6437 6438 0
-6219 6437 6438 0
-6438 -6436 -6439 0
6438 6436 -6439 0
6438 -6436 6439 0
-6438 6436 6439 0
-6438 -6436 6440 0
6438 -6440 0
6436 -6440 0
-6219 -6437 6441 0
6219 -6441 0
6437 -6441 0
6440 6441 -6442 0
-6440 6442 0
-6441 6442 0
-50 -6403 6443 0
50 -6443 0
6403 -6443 0
-6225 -6443 -6444 0
6225 6443 -6444 0
6225 -6443 6444 0
-6225 6443 6444 0
-6444 -6442 -6445 0
6444 6442 -6445 0
6444 -6442 6445 0
-6444 6442 6445 0
-6444 -6442 6446 0
6444 -6446 0
6442 -6446 0
-6225 -6443 6447 0
6225 -6447 0
6443 -6447 0
6446 6447 -6448 0
-6446 6448 0
-6447 6448 0
-58 -6403 6449 0
58 -6449 0
6403 -6449 0
-6231 -6449 -6450 0
6231 6449 -6450 0
6231 -6449 6450 0
-6231 6449 6450 0
-6450 -6448 -6451 0
6450 6448 -6451 0
6450 -6448 6451 0
-6450 6448 6451 0
-6450 -6448 6452 0
6450 -6452 0
6448 -6452 0
-6231 -6449 6453 0
6231 -6453 0
6449 -6453 0
6452 6453 -6454 0
-6452 6454 0
-6453 6454 0
-66 -6403 6455 0
66 -6455 0
6403 -6455 0
-6237 -6455 -6456 0
6237 6455 -6456 0
6237 -6455 6456 0
-6237 6455 6456 0
-6456 -6454 -6457 0
6456 6454 -6457 0
6456 -6454 6457 0
-6456 6454 6457 0
-6456 -6454 6458 0
6456 -6458 0
6454 -6458 0
-6237 -6455 6459 0
6237 -6459 0
6455 -6459 0
6458 6459 -6460 0
-6458 6460 0
-6459 6460 0
-74 -6403 6461 0
74 -6461 0
6403 -6461 0
-6243 -6461 -6462 0
6243 6461 -6462 0
6243 -6461 6462 0
-6243 6461 6462 0
-6462 -6460 -6463 0
6462 6460 -6463 0
6462 -6460 6463 0
-6462 6460 6463 0
-6462 -6460 6464 0
6462 -6464 0
6460 -6464 0
-6243 -6461 6465 0
6243 -6465 0
6461 -6465 0
6464 6465 -6466 0
-6464 6466 0
-6465 6466 0
-82 -6403 6467 0
82 -6467 0
6403 -6467 0
-6249 -6467 -6468 0
6249 6467 -6468 0
6249 -6467 6468 0
-6249 6467 6468 0
-6468 -6466 -6469 0
6468 6466 -6469 0
6468 -6466 6469 0
-6468 6466 6469 0
-6468 -6466 6470 0
6468 -6470 0
6466 -6470 0
-6249 -6467 6471 0
6249 -6471 0
6467 -6471 0
6470 6471 -6472 0
-6470 6472 0
-6471 6472 0
-90 -6403 6473 0
90 -6473 0
6403 -6473 0
-6255 -6473 -6474 0
6255 6473 -6474 0
6255 -6473 6474 0
-6255 6473 6474 0
-6474 -6472 -6475 0
6474 6472 -6475 0
6474 -6472 6475 0
-6474 6472 6475 0
-6474 -6472 6476 0
6474 -6476 0
6472 -6476 0
-6255 -6473 6477 0
6255 -6477 0
6473 -6477 0
6476 6477 -6478 0
-6476 6478 0
-6477 6478 0
-98 -6403 6479 0
98 -6479 0
6403 -6479 0
-6261 -6479 -6480 0
6261 6479 -6480 0
6261 -6479 6480 0
-6261 6479 6480 0
-6480 -6478 -6481 0
6480 6478 -6481 0
6480 -6478 6481 0
-6480 6478 6481 0
-6480 -6478 6482 0
6480 -6482 0
6478 -6482 0
-6261 -6479 6483 0
6261 -6483 0
6479 -6483 0
6482 6483 -6484 0
-6482 6484 0
-6483 6484 0
-106 -6403 6485 0
106 -6485 0
6403 -6485 0
-6267 -6485 -6486 0
6267 6485 -6486 0
6267 -6485 6486 0
-6267 6485 6486 0
-6486 -6484 -6487 0
6486 6484 -6487 0
6486 -6484 6487 0
-6486 6484 6487 0
-6486 -6484 6488 0
6486 -6488 0
6484 -6488 0
-6267 -6485 6489 0
6267 -6489 0
6485 -6489 0
6488 6489 -6490 0
-6488 6490 0
-6489 6490 0
-114 -6403 6491 0
114 -6491 0
6403 -6491 0
-6273 -6491 -6492 0
6273 6491 -6492 0
6273 -6491 6492 0
-6273 6491 6492 0
-6492 -6490 -6493 0
6492 6490 -6493 0
6492 -6490 6493 0
-6492 6490 6493 0
-6492 -6490 6494 0
6492 -6494 0
6490 -6494 0
-6273 -6491 6495 0
6273 -6495 0
6491 -6495 0
6494 6495 -6496 0
-6494 6496 0
-6495 6496 0
-122 -6403 6497 0
122 -6497 0
6403 -6497 0
-6279 -6497 -6498 0
6279 6497 -6498 0
6279 -6497 6498 0
-6279 6497 6498 0
-6498 -6496 -6499 0
6498 6496 -6499 0
6498 -6496 6499 0
-6498 6496 6499 0
-6498 -6496 6500 0
6498 -6500 0
6496 -6500 0
-6279 -6497 6501 0
6279 -6501 0
6497 -6501 0
6500 6501 -6502 0
-6500 6502 0
-6501 6502 0
-130 -6403 6503 0
130 -6503 0
6403 -6503 0
-6285 -6503 -6504 0
6285 6503 -6504 0
6285 -6503 6504 0
-6285 6503 6504 0
-6504 -6502 -6505 0
6504 6502 -6505 0
6504 -6502 6505 0
-6504 6502 6505 0
-6504 -6502 6506 0
6504 -6506 0
6502 -6506 0
-6285 -6503 6507 0
6285 -6507 0
6503 -6507 0
6506 6507 -6508 0
-6506 6508 0
-6507 6508 0
-138 -6403 6509 0
138 -6509 0
6403 -6509 0
-6291 -6509 -6510 0
6291 6509 -6510 0
6291 -6509 6510 0
-6291 6509 6510 0
-6510 -6508 -6511 0
6510 6508 -6511 0
6510 -6508 6511 0
-6510 6508 6511 0
-6510 -6508 6512 0
6510 -6512 0
6508 -6512 0
-6291 -6509 6513 0
6291 -6513 0
6509 -6513 0
6512 6513 -6514 0
-6512 6514 0
-6513 6514 0
-146 -6403 6515 0
146 -6515 0
6403 -6515 0
-6297 -6515 -6516 0
6297 6515 -6516 0
6297 -6515 6516 0
-6297 6515 6516 0
-6516 -6514 -6517 0
6516 6514 -6517 0
6516 -6514 6517 0
-6516 6514 6517 0
-6516 -6514 6518 0
6516 -6518 0
6514 -6518 0
-6297 -6515 6519 0
6297 -6519 0
6515 -6519 0
6518 6519 -6520 0
-6518 6520 0
-6519 6520 0
-154 -6403 6521 0
154 -6521 0
6403 -6521 0
-6303 -6521 -6522 0
6303 6521 -6522 0
6303 -6521 6522 0
-6303 6521 6522 0
-6522 -6520 -6523 0
6522 6520 -6523 0
6522 -6520 6523 0
-6522 6520 6523 0
-6522 -6520 6524 0
6522 -6524 0
6520 -6524 0
-6303 -6521 6525 0
6303 -6525 0
6521 -6525 0
6524 6525 -6526 0
-6524 6526 0
-6525 6526 0
-162 -6403 6527 0
162 -6527 0
6403 -6527 0
-6309 -6527 -6528 0
6309 6527 -6528 0
6309 -6527 6528 0
-6309 6527 6528 0
-6528 -6526 -6529 0
6528 6526 -6529 0
6528 -6526 6529 0
-6528 6526 6529 0
-6528 -6526 6530 0
6528 -6530 0
6526 -6530 0
-6309 -6527 6531 0
6309 -6531 0
6527 -6531 0
6530 6531 -6532 0
-6530 6532 0
-6531 6532 0
-170 -6403 6533 0
170 -6533 0
6403 -6533 0
-6315 -6533 -6534 0
6315 6533 -6534 0
6315 -6533 6534 0
-6315 6533 6534 0
-6534 -6532 -6535 0
6534 6532 -6535 0
6534 -6532 6535 0
-6534 6532 6535 0
-6534 -6532 6536 0
6534 -6536 0
6532 -6536 0
-6315 -6533 6537 0
6315 -6537 0
6533 -6537 0
6536 6537 -6538 0
-6536 6538 0
-6537 6538 0
-178 -6403 6539 0
178 -6539 0
6403 -6539 0
-6321 -6539 -6540 0
6321 6539 -6540 0
6321 -6539 6540 0
-6321 6539 6540 0
-6540 -6538 -6541 0
6540 6538 -6541 0
6540 -6538 6541 0
-6540 6538 6541 0
-6540 -6538 6542 0
6540 -6542 0
6538 -6542 0
-6321 -6539 6543 0
6321 -6543 0
6539 -6543 0
6542 6543 -6544 0
-6542 6544 0
-6543 6544 0
-186 -6403 6545 0
186 -6545 0
6403 -6545 0
-6327 -6545 -6546 0
6327 6545 -6546 0
6327 -6545 6546 0
-6327 6545 6546 0
-6546 -6544 -6547 0
6546 6544 -6547 0
6546 -6544 6547 0
-6546 6544 6547 0
-6546 -6544 6548 0
6546 -6548 0
6544 -6548 0
-6327 -6545 6549 0
6327 -6549 0
6545 -6549 0
6548 6549 -6550 0
-6548 6550 0
-6549 6550 0
-194 -6403 6551 0
194 -6551 0
6403 -6551 0
-6333 -6551 -6552 0
6333 6551 -6552 0
6333 -6551 6552 0
-6333 6551 6552 0
-6552 -6550 -6553 0
6552 6550 -6553 0
6552 -6550 6553 0
-6552 6550 6553 0
-6552 -6550 6554 0
6552 -6554 0
6550 -6554 0
-6333 -6551 6555 0
6333 -6555 0
6551 -6555 0
6554 6555 -6556 0
-6554 6556 0
-6555 6556 0
-202 -6403 6557 0
202 -6557 0
6403 -6557 0
-6339 -6557 -6558 0
6339 6557 -6558 0
6339 -6557 6558 0
-6339 6557 6558 0
-6558 -6556 -6559 0
6558 6556 -6559 0
6558 -6556 6559 0
-6558 6556 6559 0
-6558 -6556 6560 0
6558 -6560 0
6556 -6560 0
-6339 -6557 6561 0
6339 -6561 0
6557 -6561 0
6560 6561 -6562 0
-6560 6562 0
-6561 6562 0
-210 -6403 6563 0
210 -6563 0
6403 -6563 0
-6345 -6563 -6564 0
6345 6563 -6564 0
6345 -6563 6564 0
-6345 6563 6564 0
-6564 -6562 -6565 0
6564 6562 -6565 0
6564 -6562 6565 0
-6564 6562 6565 0
-6564 -6562 6566 0
6564 -6566 0
6562 -6566 0
-6345 -6563 6567 0
6345 -6567 0
6563 -6567 0
6566 6567 -6568 0
-6566 6568 0
-6567 6568 0
-218 -6403 6569 0
218 -6569 0
6403 -6569 0
-6351 -6569 -6570 0
6351 6569 -6570 0
6351 -6569 6570 0
-6351 6569 6570 0
-6570 -6568 -6571 0
6570 6568 -6571 0
6570 -6568 6571 0
-6570 6568 6571 0
-6570 -6568 6572 0
6570 -6572 0
6568 -6572 0
-6351 -6569 6573 0
6351 -6573 0
6569 -6573 0
6572 6573 -6574 0
-6572 6574 0
-6573 6574 0
-226 -6403 6575 0
226 -6575 0
6403 -6575 0
-6357 -6575 -6576 0
6357 6575 -6576 0
6357 -6575 6576 0
-6357 6575 6576 0
-6576 -6574 -6577 0
6576 6574 -6577 0
6576 -6574 6577 0
-6576 6574 6577 0
-6576 -6574 6578 0
6576 -6578 0
6574 -6578 0
-6357 -6575 6579 0
6357 -6579 0
6575 -6579 0
6578 6579 -6580 0
-6578 6580 0
-6579 6580 0
-234 -6403 6581 0
234 -6581 0
6403 -6581 0
-6363 -6581 -6582 0
6363 6581 -6582 0
6363 -6581 6582 0
-6363 6581 6582 0
-6582 -6580 -6583 0
6582 6580 -6583 0
6582 -6580 6583 0
-6582 6580 6583 0
-6582 -6580 6584 0
6582 -6584 0
6580 -6584 0
-6363 -6581 6585 0
6363 -6585 0
6581 -6585 0
6584 6585 -6586 0
-6584 6586 0
-6585 6586 0
-242 -6403 6587 0
242 -6587 0
6403 -6587 0
-6369 -6587 -6588 0
6369 6587 -6588 0
6369 -6587 6588 0
-6369 6587 6588 0
-6588 -6586 -6589 0
6588 6586 -6589 0
6588 -6586 6589 0
-6588 6586 6589 0
-6588 -6586 6590 0
6588 -6590 0
6586 -6590 0
-6369 -6587 6591 0
6369 -6591 0
6587 -6591 0
6590 6591 -6592 0
-6590 6592 0
-6591 6592 0
-250 -6403 6593 0
250 -6593 0
6403 -6593 0
-6375 -6593 -6594 0
6375 6593 -6594 0
6375 -6593 6594 0
-6375 6593 6594 0
-6594 -6592 -6595 0
6594 6592 -6595 0
6594 -6592 6595 0
-6594 6592 6595 0
-6594 -6592 6596 0
6594 -6596 0
6592 -6596 0
-6375 -6593 6597 0
6375 -6597 0
6593 -6597 0
6596 6597 -6598 0
-6596 6598 0
-6597 6598 0
-258 -6403 6599 0
258 -6599 0
6403 -6599 0
-6381 -6599 -6600 0
6381 6599 -6600 0
6381 -6599 6600 0
-6381 6599 6600 0
-6600 -6598 -6601 0
6600 6598 -6601 0
6600 -6598 6601 0
-6600 6598 6601 0
-6600 -6598 6602 0
6600 -6602 0
6598 -6602 0
-6381 -6599 6603 0
6381 -6603 0
6599 -6603 0
6602 6603 -6604 0
-6602 6604 0
-6603 6604 0
-266 -6403 6605 0
266 -6605 0
6403 -6605 0
-6387 -6605 -6606 0
6387 6605 -6606 0
6387 -6605 6606 0
-6387 6605 6606 0
-6606 -6604 -6607 0
6606 6604 -6607 0
6606 -6604 6607 0
-6606 6604 6607 0
-6606 -6604 6608 0
6606 -6608 0
6604 -6608 0
-6387 -6605 6609 0
6387 -6609 0
6605 -6609 0
6608 6609 -6610 0
-6608 6610 0
-6609 6610 0
-274 -6403 6611 0
274 -6611 0
6403 -6611 0
-6393 -6611 -6612 0
6393 6611 -6612 0
6393 -6611 6612 0
-6393 6611 6612 0
-6612 -6610 -6613 0
6612 6610 -6613 0
6612 -6610 6613 0
-6612 6610 6613 0
-6612 -6610 6614 0
6612 -6614 0
6610 -6614 0
-6393 -6611 6615 0
6393 -6615 0
6611 -6615 0
6614 6615 -6616 0
-6614 6616 0
-6615 6616 0
-282 -6403 6617 0
282 -6617 0
6403 -6617 0
-6399 -6617 -6618 0
6399 6617 -6618 0
6399 -6617 6618 0
-6399 6617 6618 0
-6618 -6616 -6619 0
6618 6616 -6619 0
6618 -6616 6619 0
-6618 6616 6619 0
-6618 -6616 6620 0
6618 -6620 0
6616 -6620 0
-6399 -6617 6621 0
6399 -6621 0
6617 -6621 0
6620 6621 -6622 0
-6620 6622 0
-6621 6622 0
-290 -6403 6623 0
290 -6623 0
6403 -6623 0
-6402 -6623 -6624 0
6402 6623 -6624 0
6402 -6623 6624 0
-6402 6623 6624 0
-6624 -6622 -6625 0
6624 6622 -6625 0
6624 -6622 6625 0
-6624 6622 6625 0
-6624 -6622 6626 0
6624 -6626 0
6622 -6626 0
-6402 -6623 6627 0
6402 -6627 0
6623 -6627 0
6626 6627 -6628 0
-6626 6628 0
-6627 6628 0
-1 -6629 6630 0
1 -6630 0
6629 -6630 0
-6409 -6630 -6631 0
6409 6630 -6631 0
6409 -6630 6631 0
-6409 6630 6631 0
-6409 -6630 6632 0
6409 -6632 0
6630 -6632 0
-4 -6629 6633 0
4 -6633 0
6629 -6633 0
-6415 -6633 -6634 0
6415 6633 -6634 0
6415 -6633 6634 0
-6415 6633 6634 0
-6634 -6632 -6635 0
6634 6632 -6635 0
6634 -6632 6635 0
-6634 6632 6635 0
-6634 -6632 6636 0
6634 -6636 0
6632 -6636 0
-6415 -6633 6637 0
6415 -6637 0
6633 -6637 0
6636 6637 -6638 0
-6636 6638 0
-6637 6638 0
-10 -6629 6639 0
10 -6639 0
6629 -6639 0
-6421 -6639 -6640 0
6421 6639 -6640 0
6421 -6639 6640 0
-6421 6639 6640 0
-6640 -6638 -6641 0
6640 6638 -6641 0
6640 -6638 6641 0
-6640 6638 6641 0
-6640 -6638 6642 0
6640 -6642 0
6638 -6642 0
-6421 -6639 6643 0
6421 -6643 0
6639 -6643 0
6642 6643 -6644 0
-6642 6644 0
-6643 6644 0
-18 -6629 6645 0
18 -6645 0
6629 -6645 0
-6427 -6645 -6646 0
6427 6645 -6646 0
6427 -6645 6646 0
-6427 6645 6646 0
-6646 -6644 -6647 0
6646 6644 -6647 0
6646 -6644 6647 0
-6646 6644 6647 0
-6646 -6644 6648 0
6646 -6648 0
6644 -6648 0
-6427 -6645 6649 0
6427 -6649 0
6645 -6649 0
6648 6649 -6650 0
-6648 6650 0
-6649 6650 0
-26 -6629 6651 0
26 -6651 0
6629 -6651 0
-6433 -6651 -6652 0
6433 6651 -6652 0
6433 -6651 6652 0
-6433 6651 6652 0
-6652 -6650 -6653 0
6652 6650 -6653 0
6652 -6650 6653 0
-6652 6650 6653 0
-6652 -6650 6654 0
6652 -6654 0
6650 -6654 0
-6433 -6651 6655 0
6433 -6655 0
6651 -6655 0
6654 6655 -6656 0
-6654 6656 0
-6655 6656 0
-34 -6629 6657 0
34 -6657 0
6629 -6657 0
-6439 -6657 -6658 0
6439 6657 -6658 0
6439 -6657 6658 0
-6439 6657 6658 0
-6658 -6656 -6659 0
6658 6656 -6659 0
6658 -6656 6659 0
-6658 6656 6659 0
-6658 -6656 6660 0
6658 -6660 0
6656 -6660 0
-6439 -6657 6661 0
6439 -6661 0
6657 -6661 0
6660 6661 -6662 0
-6660 6662 0
-6661 6662 0
-42 -6629 6663 0
42 -6663 0
6629 -6663 0
-6445 -6663 -6664 0
6445 6663 -6664 0
6445 -6663 6664 0
-6445 6663 6664 0
-6664 -6662 -6665 0
6664 6662 -6665 0
6664 -6662 6665 0
-6664 6662 6665 0
-6664 -6662 6666 0
6664 -6666 0
6662 -6666 0
-6445 -6663 6667 0
6445 -6667 0
6663 -6667 0
6666 6667 -6668 0
-6666 6668 0
-6667 6668 0
-50 -6629 6669 0
50 -6669 0
6629 -6669 0
-6451 -6669 -6670 0
6451 6669 -6670 0
6451 -6669 6670 0
-6451 6669 6670 0
-6670 -6668 -6671 0
6670 6668 -6671 0
6670 -6668 6671 0
-6670 6668 6671 0
-6670 -6668 6672 0
6670 -6672 0
6668 -6672 0
-6451 -6669 6673 0
6451 -6673 0
6669 -6673 0
6672 6673 -6674 0
-6672 6674 0
-6673 6674 0
-58 -6629 6675 0
58 -6675 0
6629 -6675 0
-6457 -6675 -6676 0
6457 6675 -6676 0
6457 -6675 6676 0
-6457 6675 6676 0
-6676 -6674 -6677 0
6676 6674 -6677 0
6676 -6674 6677 0
-6676 6674 6677 0
-6676 -6674 6678 0
6676 -6678 0
6674 -6678 0
-6457 -6675 6679 0
6457 -6679 0
6675 -6679 0
6678 6679 -6680 0
-6678 6680 0
-6679 6680 0
-66 -6629 6681 0
66 -6681 0
6629 -6681 0
-6463 -6681 -6682 0
6463 6681 -6682 0
6463 -6681 6682 0
-6463 6681 6682 0
-6682 -6680 -6683 0
6682 6680 -6683 0
6682 -6680 6683 0
-6682 6680 6683 0
-6682 -6680 6684 0
6682 -6684 0
6680 -6684 0
-6463 -6681 6685 0
6463 -6685 0
6681 -6685 0
6684 6685 -6686 0
-6684 6686 0
-6685 6686 0
-74 -6629 6687 0
74 -6687 0
6629 -6687 0
-6469 -6687 -6688 0
6469 6687 -6688 0
6469 -6687 6688 0
-6469 6687 6688 0
-6688 -6686 -6689 0
6688 6686 -6689 0
6688 -6686 6689 0
-6688 6686 6689 0
-6688 -6686 6690 0
6688 -6690 0
6686 -6690 0
-6469 -6687 6691 0
6469 -6691 0
6687 -6691 0
6690 6691 -6692 0
-6690 6692 0
-6691 6692 0
-82 -6629 6693 0
82 -6693 0
6629 -6693 0
-6475 -6693 -6694 0
6475 6693 -6694 0
6475 -6693 6694 0
-6475 6693 6694 0
-6694 -6692 -6695 0
6694 6692 -6695 0
6694 -6692 6695 0
-6694 6692 6695 0
-6694 -6692 6696 0
6694 -6696 0
6692 -6696 0
-6475 -6693 6697 0
6475 -6697 0
6693 -6697 0
6696 6697 -6698 0
-6696 6698 0
-6697 6698 0
-90 -6629 6699 0
90 -6699 0
6629 -6699 0
-6481 -6699 -6700 0
6481 6699 -6700 0
6481 -6699 6700 0
-6481 6699 6700 0
-6700 -6698 -6701 0
6700 6698 -6701 0
6700 -6698 6701 0
-6700 6698 6701 0
-6700 -6698 6702 0
6700 -6702 0
6698 -6702 0
-6481 -6699 6703 0
6481 -6703 0
6699 -6703 0
6702 6703 -6704 0
-6702 6704 0
-6703 6704 0
-98 -6629 6705 0
98 -6705 0
6629 -6705 0
-6487 -6705 -6706 0
6487 6705 -6706 0
6487 -6705 6706 0
-6487 6705 6706 0
-6706 -6704 -6707 0
6706 6704 -6707 0
6706 -6704 6707 0
-6706 6704 6707 0
-6706 -6704 6708 0
6706 -6708 0
6704 -6708 0
-6487 -6705 6709 0
6487 -6709 0
6705 -6709 0
6708 6709 -6710 0
-6708 6710 0
-6709 6710 0
-106 -6629 6711 0
106 -6711 0
6629 -6711 0
-6493 -6711 -6712 0
6493 6711 -6712 0
6493 -6711 6712 0
-6493 6711 6712 0
-6712 -6710 -6713 0
6712 6710 -6713 0
6712 -6710 6713 0
-6712 6710 6713 0
-6712 -6710 6714 0
6712 -6714 0
6710 -6714 0
-6493 -6711 6715 0
6493 -6715 0
6711 -6715 0
6714 6715 -6716 0
-6714 6716 0
-6715 6716 0
-114 -6629 6717 0
114 -6717 0
6629 -6717 0
-6499 -6717 -6718 0
6499 6717 -6718 0
6499 -6717 6718 0
-6499 6717 6718 0
-6718 -6716 -6719 0
6718 6716 -6719 0
6718 -6716 6719 0
-6718 6716 6719 0
-6718 -6716 6720 0
6718 -6720 0
6716 -6720 0
-6499 -6717 6721 0
6499 -6721 0
6717 -6721 0
6720 6721 -6722 0
-6720 6722 0
-6721 6722 0
-122 -6629 6723 0
122 -6723 0
6629 -6723 0
-6505 -6723 -6724 0
6505 6723 -6724 0
6505 -6723 6724 0
-6505 6723 6724 0
-6724 -6722 -6725 0
6724 6722 -6725 0
6724 -6722 6725 0
-6724 6722 6725 0
-6724 -6722 6726 0
6724 -6726 0
6722 -6726 0
-6505 -6723 6727 0
6505 -6727 0
6723 -6727 0
6726 6727 -6728 0
-6726 6728 0
-6727 6728 0
-130 -6629 6729 0
130 -6729 0
6629 -6729 0
-6511 -6729 -6730 0
6511 6729 -6730 0
6511 -6729 6730 0
-6511 6729 6730 0
-6730 -6728 -6731 0
6730 6728 -6731 0
6730 -6728 6731 0
-6730 6728 6731 0
-6730 -6728 6732 0
6730 -6732 0
6728 -6732 0
-6511 -6729 6733 0
6511 -6733 0
6729 -6733 0
6732 6733 -6734 0
-6732 6734 0
-6733 6734 0
-138 -6629 6735 0
138 -6735 0
6629 -6735 0
-6517 -6735 -6736 0
6517 6735 -6736 0
6517 -6735 6736 0
-6517 6735 6736 0
-6736 -6734 -6737 0
6736 6734 -6737 0
6736 -6734 6737 0
-6736 6734 6737 0
-6736 -6734 6738 0
6736 -6738 0
6734 -6738 0
-6517 -6735 6739 0
6517 -6739 0
6735 -6739 0
6738 6739 -6740 0
-6738 6740 0
-6739 6740 0
-146 -6629 6741 0
146 -6741 0
6629 -6741 0
-6523 -6741 -6742 0
6523 6741 -6742 0
6523 -6741 6742 0
-6523 6741 6742 0
-6742 -6740 -6743 0
6742 6740 -6743 0
6742 -6740 6743 0
-6742 6740 6743 0
-6742 -6740 6744 0
6742 -6744 0
6740 -6744 0
-6523 -6741 6745 0
6523 -6745 0
6741 -6745 0
6744 6745 -6746 0
-6744 6746 0
-6745 6746 0
-154 -6629 6747 0
154 -6747 0
6629 -6747 0
-6529 -6747 -6748 0
6529 6747 -6748 0
6529 -6747 6748 0
-6529 6747 6748 0
-6748 -6746 -6749 0
6748 6746 -6749 0
6748 -6746 6749 0
-6748 6746 6749 0
-6748 -6746 6750 0
6748 -6750 0
6746 -6750 0
-6529 -6747 6751 0
6529 -6751 0
6747 -6751 0
6750 6751 -6752 0
-6750 6752 0
-6751 6752 0
-162 -6629 6753 0
162 -6753 0
6629 -6753 0
-6535 -6753 -6754 0
6535 6753 -6754 0
6535 -6753 6754 0
-6535 6753 6754 0
-6754 -6752 -6755 0
6754 6752 -6755 0
6754 -6752 6755 0
-6754 6752 6755 0
-6754 -6752 6756 0
6754 -6756 0
6752 -6756 0
-6535 -6753 6757 0
6535 -6757 0
6753 -6757 0
6756 6757 -6758 0
-6756 6758 0
-6757 6758 0
-170 -6629 6759 0
170 -6759 0
6629 -6759 0
-6541 -6759 -6760 0
6541 6759 -6760 0
6541 -6759 6760 0
-6541 6759 6760 0
-6760 -6758 -6761 0
6760 6758 -6761 0
6760 -6758 6761 0
-6760 6758 6761 0
-6760 -6758 6762 0
6760 -6762 0
6758 -6762 0
-6541 -6759 6763 0
6541 -6763 0
6759 -6763 0
6762 6763 -6764 0
-6762 6764 0
-6763 6764 0
-178 -6629 6765 0
178 -6765 0
6629 -6765 0
-6547 -6765 -6766 0
6547 6765 -6766 0
6547 -6765 6766 0
-6547 6765 6766 0
-6766 -6764 -6767 0
6766 6764 -6767 0
6766 -6764 6767 0
-6766 6764 6767 0
-6766 -6764 6768 0
6766 -6768 0
6764 -6768 0
-6547 -6765 6769 0
6547 -6769 0
6765 -6769 0
6768 6769 -6770 0
-6768 6770 0
-6769 6770 0
-186 -6629 6771 0
186 -6771 0
6629 -6771 0
-6553 -6771 -6772 0
6553 6771 -6772 0
6553 -6771 6772 0
-6553 6771 6772 0
-6772 -6770 -6773 0
6772 6770 -6773 0
6772 -6770 6773 0
-6772 6770 6773 0
-6772 -6770 6774 0
6772 -6774 0
6770 -6774 0
-6553 -6771 6775 0
6553 -6775 0
6771 -6775 0
6774 6775 -6776 0
-6774 6776 0
-6775 6776 0
-194 -6629 6777 0
194 -6777 0
6629 -6777 0
-6559 -6777 -6778 0
6559 6777 -6778 0
6559 -6777 6778 0
-6559 6777 6778 0
-6778 -6776 -6779 0
6778 6776 -6779 0
6778 -6776 6779 0
-6778 6776 6779 0
-6778 -6776 6780 0
6778 -6780 0
6776 -6780 0
-6559 -6777 6781 0
6559 -6781 0
6777 -6781 0
6780 6781 -6782 0
-6780 6782 0
-6781 6782 0
-202 -6629 6783 0
202 -6783 0
6629 -6783 0
-6565 -6783 -6784 0
6565 6783 -6784 0
6565 -6783 6784 0
-6565 6783 6784 0
-6784 -6782 -6785 0
6784 6782 -6785 0
6784 -6782 6785 0
-6784 6782 6785 0
-6784 -6782 6786 0
6784 -6786 0
6782 -6786 0
-6565 -6783 6787 0
6565 -6787 0
6783 -6787 0
6786 6787 -6788 0
-6786 6788 0
-6787 6788 0
-210 -6629 6789 0
210 -6789 0
6629 -6789 0
-6571 -6789 -6790 0
6571 6789 -6790 0
6571 -6789 6790 0
-6571 6789 6790 0
-6790 -6788 -6791 0
6790 6788 -6791 0
6790 -6788 6791 0
-6790 6788 6791 0
-6790 -6788 6792 0
6790 -6792 0
6788 -6792 0
-6571 -6789 6793 0
6571 -6793 0
6789 -6793 0
6792 6793 -6794 0
-6792 6794 0
-6793 6794 0
-218 -6629 6795 0
218 -6795 0
6629 -6795 0
-6577 -6795 -6796 0
6577 6795 -6796 0
6577 -6795 6796 0
-6577 6795 6796 0
-6796 -6794 -6797 0
6796 6794 -6797 0
6796 -6794 6797 0
-6796 6794 6797 0
-6796 -6794 6798 0
6796 -6798 0
6794 -6798 0
-6577 -6795 6799 0
6577 -6799 0
6795 -6799 0
6798 6799 -6800 0
-6798 6800 0
-6799 6800 0
-226 -6629 6801 0
226 -6801 0
6629 -6801 0
-6583 -6801 -6802 0
6583 6801 -6802 0
6583 -6801 6802 0
-6583 6801 6802 0
-6802 -6800 -6803 0
6802 6800 -6803 0
6802 -6800 6803 0
-6802 6800 6803 0
-6802 -6800 6804 0
6802 -6804 0
6800 -6804 0
-6583 -6801 6805 0
6583 -6805 0
6801 -6805 0
6804 6805 -6806 0
-6804 6806 0
-6805 6806 0
-234 -6629 6807 0
234 -6807 0
6629 -6807 0
-6589 -6807 -6808 0
6589 6807 -6808 0
6589 -6807 6808 0
-6589 6807 6808 0
-6808 -6806 -6809 0
6808 6806 -6809 0
6808 -6806 6809 0
-6808 6806 6809 0
-6808 -6806 6810 0
6808 -6810 0
6806 -6810 0
-6589 -6807 6811 0
6589 -6811 0
6807 -6811 0
6810 6811 -6812 0
-6810 6812 0
-6811 6812 0
-242 -6629 6813 0
242 -6813 0
6629 -6813 0
-6595 -6813 -6814 0
6595 6813 -6814 0
6595 -6813 6814 0
-6595 6813 6814 0
-6814 -6812 -6815 0
6814 6812 -6815 0
6814 -6812 6815 0
-6814 6812 6815 0
-6814 -6812 6816 0
6814 -6816 0
6812 -6816 0
-6595 -6813 6817 0
6595 -6817 0
6813 -6817 0
6816 6817 -6818 0
-6816 6818 0
-6817 6818 0
-250 -6629 6819 0
250 -6819 0
6629 -6819 0
-6601 -6819 -6820 0
6601 6819 -6820 0
6601 -6819 6820 0
-6601 6819 6820 0
-6820 -6818 -6821 0
6820 6818 -6821 0
6820 -6818 6821 0
-6820 6818 6821 0
-6820 -6818 6822 0
6820 -6822 0
6818 -6822 0
-6601 -6819 6823 0
6601 -6823 0
6819 -6823 0
6822 6823 -6824 0
-6822 6824 0
-6823 6824 0
-258 -6629 6825 0
258 -6825 0
6629 -6825 0
-6607 -6825 -6826 0
6607 6825 -6826 0
6607 -6825 6826 0
-6607 6825 6826 0
-6826 -6824 -6827 0
6826 6824 -6827 0
6826 -6824 6827 0
-6826 6824 6827 0
-6826 -6824 6828 0
6826 -6828 0
6824 -6828 0
-6607 -6825 6829 0
6607 -6829 0
6825 -6829 0
6828 6829 -6830 0
-6828 6830 0
-6829 6830 0
-266 -6629 6831 0
266 -6831 0
6629 -6831 0
-6613 -6831 -6832 0
6613 6831 -6832 0
6613 -6831 6832 0
-6613 6831 6832 0
-6832 -6830 -6833 0
6832 6830 -6833 0
6832 -6830 6833 0
-6832 6830 6833 0
-6832 -6830 6834 0
6832 -6834 0
6830 -6834 0
-6613 -6831 6835 0
6613 -6835 0
6831 -6835 0
6834 6835 -6836 0
-6834 6836 0
-6835 6836 0
-274 -6629 6837 0
274 -6837 0
6629 -6837 0
-6619 -6837 -6838 0
6619 6837 -6838 0
6619 -6837 6838 0
-6619 6837 6838 0
-6838 -6836 -6839 0
6838 6836 -6839 0
6838 -6836 6839 0
-6838 6836 6839 0
-6838 -6836 6840 0
6838 -6840 0
6836 -6840 0
-6619 -6837 6841 0
6619 -6841 0
6837 -6841 0
6840 6841 -6842 0
-6840 6842 0
-6841 6842 0
-282 -6629 6843 0
282 -6843 0
6629 -6843 0
-6625 -6843 -6844 0
6625 6843 -6844 0
6625 -6843 6844 0
-6625 6843 6844 0
-6844 -6842 -6845 0
6844 6842 -6845 0
6844 -6842 6845 0
-6844 6842 6845 0
-6844 -6842 6846 0
6844 -6846 0
6842 -6846 0
-6625 -6843 6847 0
6625 -6847 0
6843 -6847 0
6846 6847 -6848 0
-6846 6848 0
-6847 6848 0
-290 -6629 6849 0
290 -6849 0
6629 -6849 0
-6628 -6849 -6850 0
6628 6849 -6850 0
6628 -6849 6850 0
-6628 6849 6850 0
-6850 -6848 -6851 0
6850 6848 -6851 0
6850 -6848 6851 0
-6850 6848 6851 0
-6850 -6848 6852 0
6850 -6852 0
6848 -6852 0
-6628 -6849 6853 0
6628 -6853 0
6849 -6853 0
6852 6853 -6854 0
-6852 6854 0
-6853 6854 0
-1 -6855 6856 0
1 -6856 0
6855 -6856 0
-6635 -6856 -6857 0
6635 6856 -6857 0
6635 -6856 6857 0
-6635 6856 6857 0
-6635 -6856 6858 0
6635 -6858 0
6856 -6858 0
-4 -6855 6859 0
4 -6859 0
6855 -6859 0
-6641 -6859 -6860 0
6641 6859 -6860 0
6641 -6859 6860 0
-6641 6859 6860 0
-6860 -6858 -6861 0
6860 6858 -6861 0
6860 -6858 6861 0
-6860 6858 6861 0
-6860 -6858 6862 0
6860 -6862 0
6858 -6862 0
-6641 -6859 6863 0
6641 -6863 0
6859 -6863 0
6862 6863 -6864 0
-6862 6864 0
-6863 6864 0
-10 -6855 6865 0
10 -6865 0
6855 -6865 0
-6647 -6865 -6866 0
6647 6865 -6866 0
6647 -6865 6866 0
-6647 6865 6866 0
-6866 -6864 -6867 0
6866 6864 -6867 0
6866 -6864 6867 0
-6866 6864 6867 0
-6866 -6864 6868 0
6866 -6868 0
6864 -6868 0
-6647 -6865 6869 0
6647 -6869 0
6865 -6869 0
6868 6869 -6870 0
-6868 6870 0
-6869 6870 0
-18 -6855 6871 0
18 -6871 0
6855 -6871 0
-6653 -6871 -6872 0
6653 6871 -6872 0
6653 -6871 6872 0
-6653 6871 6872 0
-6872 -6870 -6873 0
6872 6870 -6873 0
6872 -6870 6873 0
-6872 6870 6873 0
-6872 -6870 6874 0
6872 -6874 0
6870 -6874 0
-6653 -6871 6875 0
6653 -6875 0
6871 -6875 0
6874 6875 -6876 0
-6874 6876 0
-6875 6876 0
-26 -6855 6877 0
26 -6877 0
6855 -6877 0
-6659 -6877 -6878 0
6659 6877 -6878 0
6659 -6877 6878 0
-6659 6877 6878 0
-6878 -6876 -6879 0
6878 6876 -6879 0
6878 -6876 6879 0
-6878 6876 6879 0
-6878 -6876 6880 0
6878 -6880 0
6876 -6880 0
-6659 -6877 6881 0
6659 -6881 0
6877 -6881 0
6880 6881 -6882 0
-6880 6882 0
-6881 6882 0
-34 -6855 6883 0
34 -6883 0
6855 -6883 0
-6665 -6883 -6884 0
6665 6883 -6884 0
6665 -6883 6884 0
-6665 6883 6884 0
-6884 -6882 -6885 0
6884 6882 -6885 0
6884 -6882 6885 0
-6884 6882 6885 0
-6884 -6882 6886 0
6884 -6886 0
6882 -6886 0
-6665 -6883 6887 0
6665 -6887 0
6883 -6887 0
6886 6887 -6888 0
-6886 6888 0
-6887 6888 0
-42 -6855 6889 0
42 -6889 0
6855 -6889 0
-6671 -6889 -6890 0
6671 6889 -6890 0
6671 -6889 6890 0
-6671 6889 6890 0
-6890 -6888 -6891 0
6890 6888 -6891 0
6890 -6888 6891 0
-6890 6888 6891 0
-6890 -6888 6892 0
6890 -6892 0
6888 -6892 0
-6671 -6889 6893 0
6671 -6893 0
6889 -6893 0
6892 6893 -6894 0
-6892 6894 0
-6893 6894 0
-50 -6855 6895 0
50 -6895 0
6855 -6895 0
-6677 -6895 -6896 0
6677 6895 -6896 0
6677 -6895 6896 0
-6677 6895 6896 0
-6896 -6894 -6897 0
6896 6894 -6897 0
6896 -6894 6897 0
-6896 6894 6897 0
-6896 -6894 6898 0
6896 -6898 0
6894 -6898 0
-6677 -6895 6899 0
6677 -6899 0
6895 -6899 0
6898 6899 -6900 0
-6898 6900 0
-6899 6900 0
-58 -6855 6901 0
58 -6901 0
6855 -6901 0
-6683 -6901 -6902 0
6683 6901 -6902 0
6683 -6901 6902 0
-6683 6901 6902 0
-6902 -6900 -6903 0
6902 6900 -6903 0
6902 -6900 6903 0
-6902 6900 6903 0
-6902 -6900 6904 0
6902 -6904 0
6900 -6904 0
-6683 -6901 6905 0
6683 -6905 0
6901 -6905 0
6904 6905 -6906 0
-6904 6906 0
-6905 6906 0
-66 -6855 6907 0
66 -6907 0
6855 -6907 0
-6689 -6907 -6908 0
6689 6907 -6908 0
6689 -6907 6908 0
-6689 6907 6908 0
-6908 -6906 -6909 0
6908 6906 -6909 0
6908 -6906 6909 0
-6908 6906 6909 0
-6908 -6906 6910 0
6908 -6910 0
6906 -6910 0
-6689 -6907 6911 0
6689 -6911 0
6907 -6911 0
6910 6911 -6912 0
-6910 6912 0
-6911 6912 0
-74 -6855 6913 0
74 -6913 0
6855 -6913 0
-6695 -6913 -6914 0
6695 6913 -6914 0
6695 -6913 6914 0
-6695 6913 6914 0
-6914 -6912 -6915 0
6914 6912 -6915 0
6914 -6912 6915 0
-6914 6912 6915 0
-6914 -6912 6916 0
6914 -6916 0
6912 -6916 0
-6695 -6913 6917 0
6695 -6917 0
6913 -6917 0
6916 6917 -6918 0
-6916 6918 0
-6917 6918 0
-82 -6855 6919 0
82 -6919 0
6855 -6919 0
-6701 -6919 -6920 0
6701 6919 -6920 0
6701 -6919 6920 0
-6701 6919 6920 0
-6920 -6918 -6921 0
6920 6918 -6921 0
6920 -6918 6921 0
-6920 6918 6921 0
-6920 -6918 6922 0
6920 -6922 0
6918 -6922 0
-6701 -6919 6923 0
6701 -6923 0
6919 -6923 0
6922 6923 -6924 0
-6922 6924 0
-6923 6924 0
-90 -6855 6925 0
90 -6925 0
6855 -6925 0
-6707 -6925 -6926 0
6707 6925 -6926 0
6707 -6925 6926 0
-6707 6925 6926 0
-6926 -6924 -6927 0
6926 6924 -6927 0
6926 -6924 6927 0
-6926 6924 6927 0
-6926 -6924 6928 0
6926 -6928 0
6924 -6928 0
-6707 -6925 6929 0
6707 -6929 0
6925 -6929 0
6928 6929 -6930 0
-6928 6930 0
-6929 6930 0
-98 -6855 6931 0
98 -6931 0
6855 -6931 0
-6713 -6931 -6932 0
6713 6931 -6932 0
6713 -6931 6932 0
-6713 6931 6932 0
-6932 -6930 -6933 0
6932 6930 -6933 0
6932 -6930 6933 0
-6932 6930 6933 0
-6932 -6930 6934 0
6932 -6934 0
6930 -6934 0
-6713 -6931 6935 0
6713 -6935 0
6931 -6935 0
6934 6935 -6936 0
-6934 6936 0
-6935 6936 0
-106 -6855 6937 0
106 -6937 0
6855 -6937 0
-6719 -6937 -6938 0
6719 6937 -6938 0
6719 -6937 6938 0
-6719 6937 6938 0
-6938 -6936 -6939 0
6938 6936 -6939 0
6938 -6936 6939 0
-6938 6936 6939 0
-6938 -6936 6940 0
6938 -6940 0
6936 -6940 0
-6719 -6937 6941 0
6719 -6941 0
6937 -6941 0
6940 6941 -6942 0
-6940 6942 0
-6941 6942 0
-114 -6855 6943 0
114 -6943 0
6855 -6943 0
-6725 -6943 -6944 0
6725 6943 -6944 0
6725 -6943 6944 0
-6725 6943 6944 0
-6944 -6942 -6945 0
6944 6942 -6945 0
6944 -6942 6945 0
-6944 6942 6945 0
-6944 -6942 6946 0
6944 -6946 0
6942 -6946 0
-6725 -6943 6947 0
6725 -6947 0
6943 -6947 0
6946 6947 -6948 0
-6946 6948 0
-6947 6948 0
-122 -6855 6949 0
122 -6949 0
6855 -6949 0
-6731 -6949 -6950 0
6731 6949 -6950 0
6731 -6949 6950 0
-6731 6949 6950 0
-6950 -6948 -6951 0
6950 6948 -6951 0
6950 -6948 6951 0
-6950 6948 6951 0
-6950 -6948 6952 0
6950 -6952 0
6948 -6952 0
-6731 -6949 6953 0
6731 -6953 0
6949 -6953 0
6952 6953 -6954 0
-6952 6954 0
-6953 6954 0
-130 -6855 6955 0
130 -6955 0
6855 -6955 0
-6737 -6955 -6956 0
6737 6955 -6956 0
6737 -6955 6956 0
-6737 6955 6956 0
-6956 -6954 -6957 0
6956 6954 -6957 0
6956 -6954 6957 0
-6956 6954 6957 0
-6956 -6954 6958 0
6956 -6958 0
6954 -6958 0
-6737 -6955 6959 0
6737 -6959 0
6955 -6959 0
6958 6959 -6960 0
-6958 6960 0
-6959 6960 0
-138 -6855 6961 0
138 -6961 0
6855 -6961 0
-6743 -6961 -6962 0
6743 6961 -6962 0
6743 -6961 6962 0
-6743 6961 6962 0
-6962 -6960 -6963 0
6962 6960 -6963 0
6962 -6960 6963 0
-6962 6960 6963 0
-6962 -6960 6964 0
6962 -6964 0
6960 -6964 0
-6743 -6961 6965 0
6743 -6965 0
6961 -6965 0
6964 6965 -6966 0
-6964 6966 0
-6965 6966 0
-146 -6855 6967 0
146 -6967 0
6855 -6967 0
-6749 -6967 -6968 0
6749 6967 -6968 0
6749 -6967 6968 0
-6749 6967 6968 0
-6968 -6966 -6969 0
6968 6966 -6969 0
6968 -6966 6969 0
-6968 6966 6969 0
-6968 -6966 6970 0
6968 -6970 0
6966 -6970 0
-6749 -6967 6971 0
6749 -6971 0
6967 -6971 0
6970 6971 -6972 0
-6970 6972 0
-6971 6972 0
-154 -6855 6973 0
154 -6973 0
6855 -6973 0
-6755 -6973 -6974 0
6755 6973 -6974 0
6755 -6973 6974 0
-6755 6973 6974 0
-6974 -6972 -6975 0
6974 6972 -6975 0
6974 -6972 6975 0
-6974 6972 6975 0
-6974 -6972 6976 0
6974 -6976 0
6972 -6976 0
-6755 -6973 6977 0
6755 -6977 0
6973 -6977 0
6976 6977 -6978 0
-6976 6978 0
-6977 6978 0
-162 -6855 6979 0
162 -6979 0
6855 -6979 0
-6761 -6979 -6980 0
6761 6979 -6980 0
6761 -6979 6980 0
-6761 6979 6980 0
-6980 -6978 -6981 0
6980 6978 -6981 0
6980 -6978 6981 0
-6980 6978 6981 0
-6980 -6978 6982 0
6980 -6982 0
6978 -6982 0
-6761 -6979 6983 0
6761 -6983 0
6979 -6983 0
6982 6983 -6984 0
-6982 6984 0
-6983 6984 0
-170 -6855 6985 0
170 -6985 0
6855 -6985 0
-6767 -6985 -6986 0
6767 6985 -6986 0
6767 -6985 6986 0
-6767 6985 6986 0
-6986 -6984 -6987 0
6986 6984 -6987 0
6986 -6984 6987 0
-6986 6984 6987 0
-6986 -6984 6988 0
6986 -6988 0
6984 -6988 0
-6767 -6985 6989 0
6767 -6989 0
6985 -6989 0
6988 6989 -6990 0
-6988 6990 0
-6989 6990 0
-178 -6855 6991 0
178 -6991 0
6855 -6991 0
-6773 -6991 -6992 0
6773 6991 -6992 0
6773 -6991 6992 0
-6773 6991 6992 0
-6992 -6990 -6993 0
6992 6990 -6993 0
6992 -6990 6993 0
-6992 6990 6993 0
-6992 -6990 6994 0
6992 -6994 0
6990 -6994 0
-6773 -6991 6995 0
6773 -6995 0
6991 -6995 0
6994 6995 -6996 0
-6994 6996 0
-6995 6996 0
-186 -6855 6997 0
186 -6997 0
6855 -6997 0
-6779 -6997 -6998 0
6779 6997 -6998 0
6779 -6997 6998 0
-6779 6997 6998 0
-6998 -6996 -6999 0
6998 6996 -6999 0
6998 -6996 6999 0
-6998 6996 6999 0
-6998 -6996 7000 0
6998 -7000 0
6996 -7000 0
-6779 -6997 7001 0
6779 -7001 0
6997 -7001 0
7000 7001 -7002 0
-7000 7002 0
-7001 7002 0
-194 -6855 7003 0
194 -7003 0
6855 -7003 0
-6785 -7003 -7004 0
6785 7003 -7004 0
6785 -7003 7004 0
-6785 7003 7004 0
-7004 -7002 -7005 0
7004 7002 -7005 0
7004 -7002 7005 0
-7004 7002 7005 0
-7004 -7002 7006 0
7004 -7006 0
7002 -7006 0
-6785 -7003 7007 0
6785 -7007 0
7003 -7007 0
7006 7007 -7008 0
-7006 7008 0
-7007 7008 0
-202 -6855 7009 0
202 -7009 0
6855 -7009 0
-6791 -7009 -7010 0
6791 7009 -7010 0
6791 -7009 7010 0
-6791 7009 7010 0
-7010 -7008 -7011 0
7010 7008 -7011 0
7010 -7008 7011 0
-7010 7008 7011 0
-7010 -7008 7012 0
7010 -7012 0
7008 -7012 0
-6791 -7009 7013 0
6791 -7013 0
7009 -7013 0
7012 7013 -7014 0
-7012 7014 0
-7013 7014 0
-210 -6855 7015 0
210 -7015 0
6855 -7015 0
-6797 -7015 -7016 0
6797 7015 -7016 0
6797 -7015 7016 0
-6797 7015 7016 0
-7016 -7014 -7017 0
7016 7014 -7017 0
7016 -7014 7017 0
-7016 7014 7017 0
-7016 -7014 7018 0
7016 -7018 0
7014 -7018 0
-6797 -7015 7019 0
6797 -7019 0
7015 -7019 0
7018 7019 -7020 0
-7018 7020 0
-7019 7020 0
-218 -6855 7021 0
218 -7021 0
6855 -7021 0
-6803 -7021 -7022 0
6803 7021 -7022 0
6803 -7021 7022 0
-6803 7021 7022 0
-7022 -7020 -7023 0
7022 7020 -7023 0
7022 -7020 7023 0
-7022 7020 7023 0
-7022 -7020 7024 0
7022 -7024 0
7020 -7024 0
-6803 -7021 7025 0
6803 -7025 0
7021 -7025 0
7024 7025 -7026 0
-7024 7026 0
-7025 7026 0
-226 -6855 7027 0
226 -7027 0
6855 -7027 0
-6809 -7027 -7028 0
6809 7027 -7028 0
6809 -7027 7028 0
-6809 7027 7028 0
-7028 -7026 -7029 0
7028 7026 -7029 0
7028 -7026 7029 0
-7028 7026 7029 0
-7028 -7026 7030 0
7028 -7030 0
7026 -7030 0
-6809 -7027 7031 0
6809 -7031 0
7027 -7031 0
7030 7031 -7032 0
-7030 7032 0
-7031 7032 0
-234 -6855 7033 0
234 -7033 0
6855 -7033 0
-6815 -7033 -7034 0
6815 7033 -7034 0
6815 -7033 7034 0
-6815 7033 7034 0
-7034 -7032 -7035 0
7034 7032 -7035 0
7034 -7032 7035 0
-7034 7032 7035 0
-7034 -7032 7036 0
7034 -7036 0
7032 -7036 0
-6815 -7033 7037 0
6815 -7037 0
7033 -7037 0
7036 7037 -7038 0
-7036 7038 0
-7037 7038 0
-242 -6855 7039 0
242 -7039 0
6855 -7039 0
-6821 -7039 -7040 0
6821 7039 -7040 0
6821 -7039 7040 0
-6821 7039 7040 0
-7040 -7038 -7041 0
7040 7038 -7041 0
7040 -7038 7041 0
-7040 7038 7041 0
-7040 -7038 7042 0
7040 -7042 0
7038 -7042 0
-6821 -7039 7043 0
6821 -7043 0
7039 -7043 0
7042 7043 -7044 0
-7042 7044 0
-7043 7044 0
-250 -6855 7045 0
250 -7045 0
6855 -7045 0
-6827 -7045 -7046 0
6827 7045 -7046 0
6827 -7045 7046 0
-6827 7045 7046 0
-7046 -7044 -7047 0
7046 7044 -7047 0
7046 -7044 7047 0
-7046 7044 7047 0
-7046 -7044 7048 0
7046 -7048 0
7044 -7048 0
-6827 -7045 7049 0
6827 -7049 0
7045 -7049 0
7048 7049 -7050 0
-7048 7050 0
-7049 7050 0
-258 -6855 7051 0
258 -7051 0
6855 -7051 0
-6833 -7051 -7052 0
6833 7051 -7052 0
6833 -7051 7052 0
-6833 7051 7052 0
-7052 -7050 -7053 0
7052 7050 -7053 0
7052 -7050 7053 0
-7052 7050 7053 0
-7052 -7050 7054 0
7052 -7054 0
7050 -7054 0
-6833 -7051 7055 0
6833 -7055 0
7051 -7055 0
7054 7055 -7056 0
-7054 7056 0
-7055 7056 0
-266 -6855 7057 0
266 -7057 0
6855 -7057 0
-6839 -7057 -7058 0
6839 7057 -7058 0
6839 -7057 7058 0
-6839 7057 7058 0
-7058 -7056 -7059 0
7058 7056 -7059 0
7058 -7056 7059 0
-7058 7056 7059 0
-7058 -7056 7060 0
7058 -7060 0
7056 -7060 0
-6839 -7057 7061 0
6839 -7061 0
7057 -7061 0
7060 7061 -7062 0
-7060 7062 0
-7061 7062 0
-274 -6855 7063 0
274 -7063 0
6855 -7063 0
-6845 -7063 -7064 0
6845 7063 -7064 0
6845 -7063 7064 0
-6845 7063 7064 0
-7064 -7062 -7065 0
7064 7062 -7065 0
7064 -7062 7065 0
-7064 7062 7065 0
-7064 -7062 7066 0
7064 -7066 0
7062 -7066 0
-6845 -7063 7067 0
6845 -7067 0
7063 -7067 0
7066 7067 -7068 0
-7066 7068 0
-7067 7068 0
-282 -6855 7069 0
282 -7069 0
6855 -7069 0
-6851 -7069 -7070 0
6851 7069 -7070 0
6851 -7069 7070 0
-6851 7069 7070 0
-7070 -7068 -7071 0
7070 7068 -7071 0
7070 -7068 7071 0
-7070 7068 7071 0
-7070 -7068 7072 0
7070 -7072 0
7068 -7072 0
-6851 -7069 7073 0
6851 -7073 0
7069 -7073 0
7072 7073 -7074 0
-7072 7074 0
-7073 7074 0
-290 -6855 7075 0
290 -7075 0
6855 -7075 0
-6854 -7075 -7076 0
6854 7075 -7076 0
6854 -7075 7076 0
-6854 7075 7076 0
-7076 -7074 -7077 0
7076 7074 -7077 0
7076 -7074 7077 0
-7076 7074 7077 0
-7076 -7074 7078 0
7076 -7078 0
7074 -7078 0
-6854 -7075 7079 0
6854 -7079 0
7075 -7079 0
7078 7079 -7080 0
-7078 7080 0
-7079 7080 0
-1 -7081 7082 0
1 -7082 0
7081 -7082 0
-6861 -7082 -7083 0
6861 7082 -7083 0
6861 -7082 7083 0
-6861 7082 7083 0
-6861 -7082 7084 0
6861 -7084 0
7082 -7084 0
-4 -7081 7085 0
4 -7085 0
7081 -7085 0
-6867 -7085 -7086 0
6867 7085 -7086 0
6867 -7085 7086 0
-6867 7085 7086 0
-7086 -7084 -7087 0
7086 7084 -7087 0
7086 -7084 7087 0
-7086 7084 7087 0
-7086 -7084 7088 0
7086 -7088 0
7084 -7088 0
-6867 -7085 7089 0
6867 -7089 0
7085 -7089 0
7088 7089 -7090 0
-7088 7090 0
-7089 7090 0
-10 -7081 7091 0
10 -7091 0
7081 -7091 0
-6873 -7091 -7092 0
6873 7091 -7092 0
6873 -7091 7092 0
-6873 7091 7092 0
-7092 -7090 -7093 0
7092 7090 -7093 0
7092 -7090 7093 0
-7092 7090 7093 0
-7092 -7090 7094 0
7092 -7094 0
7090 -7094 0
-6873 -7091 7095 0
6873 -7095 0
7091 -7095 0
7094 7095 -7096 0
-7094 7096 0
-7095 7096 0
-18 -7081 7097 0
18 -7097 0
7081 -7097 0
-6879 -7097 -7098 0
6879 7097 -7098 0
6879 -7097 7098 0
-6879 7097 7098 0
-7098 -7096 -7099 0
7098 7096 -7099 0
7098 -7096 7099 0
-7098 7096 7099 0
-7098 -7096 7100 0
7098 -7100 0
7096 -7100 0
-6879 -7097 7101 0
6879 -7101 0
7097 -7101 0
7100 7101 -7102 0
-7100 7102 0
-7101 7102 0
-26 -7081 7103 0
26 -7103 0
7081 -7103 0
-6885 -7103 -7104 0
6885 7103 -7104 0
6885 -7103 7104 0
-6885 7103 7104 0
-7104 -7102 -7105 0
7104 7102 -7105 0
7104 -7102 7105 0
-7104 7102 7105 0
-7104 -7102 7106 0
7104 -7106 0
7102 -7106 0
-6885 -7103 7107 0
6885 -7107 0
7103 -7107 0
7106 7107 -7108 0
-7106 7108 0
-7107 7108 0
-34 -7081 7109 0
34 -7109 0
7081 -7109 0
-6891 -7109 -7110 0
6891 7109 -7110 0
6891 -7109 7110 0
-6891 7109 7110 0
-7110 -7108 -7111 0
7110 7108 -7111 0
7110 -7108 7111 0
-7110 7108 7111 0
-7110 -7108 7112 0
7110 -7112 0
7108 -7112 0
-6891 -7109 7113 0
6891 -7113 0
7109 -7113 0
7112 7113 -7114 0
-7112 7114 0
-7113 7114 0
-42 -7081 7115 0
42 -7115 0
7081 -7115 0
-6897 -7115 -7116 0
6897 7115 -7116 0
6897 -7115 7116 0
-6897 7115 7116 0
-7116 -7114 -7117 0
7116 7114 -7117 0
7116 -7114 7117 0
-7116 7114 7117 0
-7116 -7114 7118 0
7116 -7118 0
7114 -7118 0
-6897 -7115 7119 0
6897 -7119 0
7115 -7119 0
7118 7119 -7120 0
-7118 7120 0
-7119 7120 0
-50 -7081 7121 0
50 -7121 0
7081 -7121 0
-6903 -7121 -7122 0
6903 7121 -7122 0
6903 -7121 7122 0
-6903 7121 7122 0
-7122 -7120 -7123 0
7122 7120 -7123 0
7122 -7120 7123 0
-7122 7120 7123 0
-7122 -7120 7124 0
7122 -7124 0
7120 -7124 0
-6903 -7121 7125 0
6903 -7125 0
7121 -7125 0
7124 7125 -7126 0
-7124 7126 0
-7125 7126 0
-58 -7081 7127 0
58 -7127 0
7081 -7127 0
-6909 -7127 -7128 0
6909 7127 -7128 0
6909 -7127 7128 0
-6909 7127 7128 0
-7128 -7126 -7129 0
7128 7126 -7129 0
7128 -7126 7129 0
-7128 7126 7129 0
-7128 -7126 7130 0
7128 -7130 0
7126 -7130 0
-6909 -7127 7131 0
6909 -7131 0
7127 -7131 0
7130 7131 -7132 0
-7130 7132 0
-7131 7132 0
-66 -7081 7133 0
66 -7133 0
7081 -7133 0
-6915 -7133 -7134 0
6915 7133 -7134 0
6915 -7133 7134 0
-6915 7133 7134 0
-7134 -7132 -7135 0
7134 7132 -7135 0
7134 -7132 7135 0
-7134 7132 7135 0
-7134 -7132 7136 0
7134 -7136 0
7132 -7136 0
-6915 -7133 7137 0
6915 -7137 0
7133 -7137 0
7136 7137 -7138 0
-7136 7138 0
-7137 7138 0
-74 -7081 7139 0
74 -7139 0
7081 -7139 0
-6921 -7139 -7140 0
6921 7139 -7140 0
6921 -7139 7140 0
-6921 7139 7140 0
-7140 -7138 -7141 0
7140 7138 -7141 0
7140 -7138 7141 0
-7140 7138 7141 0
-7140 -7138 7142 0
7140 -7142 0
7138 -7142 0
-6921 -7139 7143 0
6921 -7143 0
7139 -7143 0
7142 7143 -7144 0
-7142 7144 0
-7143 7144 0
-82 -7081 7145 0
82 -7145 0
7081 -7145 0
-6927 -7145 -7146 0
6927 7145 -7146 0
6927 -7145 7146 0
-6927 7145 7146 0
-7146 -7144 -7147 0
7146 7144 -7147 0
7146 -7144 7147 0
-7146 7144 7147 0
-7146 -7144 7148 0
7146 -7148 0
7144 -7148 0
-6927 -7145 7149 0
6927 -7149 0
7145 -7149 0
7148 7149 -7150 0
-7148 7150 0
-7149 7150 0
-90 -7081 7151 0
90 -7151 0
7081 -7151 0
-6933 -7151 -7152 0
6933 7151 -7152 0
6933 -7151 7152 0
-6933 7151 7152 0
-7152 -7150 -7153 0
7152 7150 -7153 0
7152 -7150 7153 0
-7152 7150 7153 0
-7152 -7150 7154 0
7152 -7154 0
7150 -7154 0
-6933 -7151 7155 0
6933 -7155 0
7151 -7155 0
7154 7155 -7156 0
-7154 7156 0
-7155 7156 0
-98 -7081 7157 0
98 -7157 0
7081 -7157 0
-6939 -7157 -7158 0
6939 7157 -7158 0
6939 -7157 7158 0
-6939 7157 7158 0
-7158 -7156 -7159 0
7158 7156 -7159 0
7158 -7156 7159 0
-7158 7156 7159 0
-7158 -7156 7160 0
7158 -7160 0
7156 -7160 0
-6939 -7157 7161 0
6939 -7161 0
7157 -7161 0
7160 7161 -7162 0
-7160 7162 0
-7161 7162 0
-106 -7081 7163 0
106 -7163 0
7081 -7163 0
-6945 -7163 -7164 0
6945 7163 -7164 0
6945 -7163 7164 0
-6945 7163 7164 0
-7164 -7162 -7165 0
7164 7162 -7165 0
7164 -7162 7165 0
-7164 7162 7165 0
-7164 -7162 7166 0
7164 -7166 0
7162 -7166 0
-6945 -7163 7167 0
6945 -7167 0
7163 -7167 0
7166 7167 -7168 0
-7166 7168 0
-7167 7168 0
-114 -7081 7169 0
114 -7169 0
7081 -7169 0
-6951 -7169 -7170 0
6951 7169 -7170 0
6951 -7169 7170 0
-6951 7169 7170 0
-7170 -7168 -7171 0
7170 7168 -7171 0
7170 -7168 7171 0
-7170 7168 7171 0
-7170 -7168 7172 0
7170 -7172 0
7168 -7172 0
-6951 -7169 7173 0
6951 -7173 0
7169 -7173 0
7172 7173 -7174 0
-7172 7174 0
-7173 7174 0
-122 -7081 7175 0
122 -7175 0
7081 -7175 0
-6957 -7175 -7176 0
6957 7175 -7176 0
6957 -7175 7176 0
-6957 7175 7176 0
-7176 -7174 -7177 0
7176 7174 -7177 0
7176 -7174 7177 0
-7176 7174 7177 0
-7176 -7174 7178 0
7176 -7178 0
7174 -7178 0
-6957 -7175 7179 0
6957 -7179 0
7175 -7179 0
7178 7179 -7180 0
-7178 7180 0
-7179 7180 0
-130 -7081 7181 0
130 -7181 0
7081 -7181 0
-6963 -7181 -7182 0
6963 7181 -7182 0
6963 -7181 7182 0
-6963 7181 7182 0
-7182 -7180 -7183 0
7182 7180 -7183 0
7182 -7180 7183 0
-7182 7180 7183 0
-7182 -7180 7184 0
7182 -7184 0
7180 -7184 0
-6963 -7181 7185 0
6963 -7185 0
7181 -7185 0
7184 7185 -7186 0
-7184 7186 0
-7185 7186 0
-138 -7081 7187 0
138 -7187 0
7081 -7187 0
-6969 -7187 -7188 0
6969 7187 -7188 0
6969 -7187 7188 0
-6969 7187 7188 0
-7188 -7186 -7189 0
7188 7186 -7189 0
7188 -7186 7189 0
-7188 7186 7189 0
-7188 -7186 7190 0
7188 -7190 0
7186 -7190 0
-6969 -7187 7191 0
6969 -7191 0
7187 -7191 0
7190 7191 -7192 0
-7190 7192 0
-7191 7192 0
-146 -7081 7193 0
146 -7193 0
7081 -7193 0
-6975 -7193 -7194 0
6975 7193 -7194 0
6975 -7193 7194 0
-6975 7193 7194 0
-7194 -7192 -7195 0
7194 7192 -7195 0
7194 -7192 7195 0
-7194 7192 7195 0
-7194 -7192 7196 0
7194 -7196 0
7192 -7196 0
-6975 -7193 7197 0
6975 -7197 0
7193 -7197 0
7196 7197 -7198 0
-7196 7198 0
-7197 7198 0
-154 -7081 7199 0
154 -7199 0
7081 -7199 0
-6981 -7199 -7200 0
6981 7199 -7200 0
6981 -7199 7200 0
-6981 7199 7200 0
-7200 -7198 -7201 0
7200 7198 -7201 0
7200 -7198 7201 0
-7200 7198 7201 0
-7200 -7198 7202 0
7200 -7202 0
7198 -7202 0
-6981 -7199 7203 0
6981 -7203 0
7199 -7203 0
7202 7203 -7204 0
-7202 7204 0
-7203 7204 0
-162 -7081 7205 0
162 -7205 0
7081 -7205 0
-6987 -7205 -7206 0
6987 7205 -7206 0
6987 -7205 7206 0
-6987 7205 7206 0
-7206 -7204 -7207 0
7206 7204 -7207 0
7206 -7204 7207 0
-7206 7204 7207 0
-7206 -7204 7208 0
7206 -7208 0
7204 -7208 0
-6987 -7205 7209 0
6987 -7209 0
7205 -7209 0
7208 7209 -7210 0
-7208 7210 0
-7209 7210 0
-170 -7081 7211 0
170 -7211 0
7081 -7211 0
-6993 -7211 -7212 0
6993 7211 -7212 0
6993 -7211 7212 0
-6993 7211 7212 0
-7212 -7210 -7213 0
7212 7210 -7213 0
7212 -7210 7213 0
-7212 7210 7213 0
-7212 -7210 7214 0
7212 -7214 0
7210 -7214 0
-6993 -7211 7215 0
6993 -7215 0
7211 -7215 0
7214 7215 -7216 0
-7214 7216 0
-7215 7216 0
-178 -7081 7217 0
178 -7217 0
7081 -7217 0
-6999 -7217 -7218 0
6999 7217 -7218 0
6999 -7217 7218 0
-6999 7217 7218 0
-7218 -7216 -7219 0
7218 7216 -7219 0
7218 -7216 7219 0
-7218 7216 7219 0
-7218 -7216 7220 0
7218 -7220 0
7216 -7220 0
-6999 -7217 7221 0
6999 -7221 0
7217 -7221 0
7220 7221 -7222 0
-7220 7222 0
-7221 7222 0
-186 -7081 7223 0
186 -7223 0
7081 -7223 0
-7005 -7223 -7224 0
7005 7223 -7224 0
7005 -7223 7224 0
-7005 7223 7224 0
-7224 -7222 -7225 0
7224 7222 -7225 0
7224 -7222 7225 0
-7224 7222 7225 0
-7224 -7222 7226 0
7224 -7226 0
7222 -7226 0
-7005 -7223 7227 0
7005 -7227 0
7223 -7227 0
7226 7227 -7228 0
-7226 7228 0
-7227 7228 0
-194 -7081 7229 0
194 -7229 0
7081 -7229 0
-7011 -7229 -7230 0
7011 7229 -7230 0
7011 -7229 7230 0
-7011 7229 7230 0
-7230 -7228 -7231 0
7230 7228 -7231 0
7230 -7228 7231 0
-7230 7228 7231 0
-7230 -7228 7232 0
7230 -7232 0
7228 -7232 0
-7011 -7229 7233 0
7011 -7233 0
7229 -7233 0
7232 7233 -7234 0
-7232 7234 0
-7233 7234 0
-202 -7081 7235 0
202 -7235 0
7081 -7235 0
-7017 -7235 -7236 0
7017 7235 -7236 0
7017 -7235 7236 0
-7017 7235 7236 0
-7236 -7234 -7237 0
7236 7234 -7237 0
7236 -7234 7237 0
-7236 7234 7237 0
-7236 -7234 7238 0
7236 -7238 0
7234 -7238 0
-7017 -7235 7239 0
7017 -7239 0
7235 -7239 0
7238 7239 -7240 0
-7238 7240 0
-7239 7240 0
-210 -7081 7241 0
210 -7241 0
7081 -7241 0
-7023 -7241 -7242 0
7023 7241 -7242 0
7023 -7241 7242 0
-7023 7241 7242 0
-7242 -7240 -7243 0
7242 7240 -7243 0
7242 -7240 7243 0
-7242 7240 7243 0
-7242 -7240 7244 0
7242 -7244 0
7240 -7244 0
-7023 -7241 7245 0
7023 -7245 0
7241 -7245 0
7244 7245 -7246 0
-7244 7246 0
-7245 7246 0
-218 -7081 7247 0
218 -7247 0
7081 -7247 0
-7029 -7247 -7248 0
7029 7247 -7248 0
7029 -7247 7248 0
-7029 7247 7248 0
-7248 -7246 -7249 0
7248 7246 -7249 0
7248 -7246 7249 0
-7248 7246 7249 0
-7248 -7246 7250 0
7248 -7250 0
7246 -7250 0
-7029 -7247 7251 0
7029 -7251 0
7247 -7251 0
7250 7251 -7252 0
-7250 7252 0
-7251 7252 0
-226 -7081 7253 0
226 -7253 0
7081 -7253 0
-7035 -7253 -7254 0
7035 7253 -7254 0
7035 -7253 7254 0
-7035 7253 7254 0
-7254 -7252 -7255 0
7254 7252 -7255 0
7254 -7252 7255 0
-7254 7252 7255 0
-7254 -7252 7256 0
7254 -7256 0
7252 -7256 0
-7035 -7253 7257 0
7035 -7257 0
7253 -7257 0
7256 7257 -7258 0
-7256 7258 0
-7257 7258 0
-234 -7081 7259 0
234 -7259 0
7081 -7259 0
-7041 -7259 -7260 0
7041 7259 -7260 0
7041 -7259 7260 0
-7041 7259 7260 0
-7260 -7258 -7261 0
7260 7258 -7261 0
7260 -7258 7261 0
-7260 7258 7261 0
-7260 -7258 7262 0
7260 -7262 0
7258 -7262 0
-7041 -7259 7263 0
7041 -7263 0
7259 -7263 0
7262 7263 -7264 0
-7262 7264 0
-7263 7264 0
-242 -7081 7265 0
242 -7265 0
7081 -7265 0
-7047 -7265 -7266 0
7047 7265 -7266 0
7047 -7265 7266 0
-7047 7265 7266 0
-7266 -7264 -7267 0
7266 7264 -7267 0
7266 -7264 7267 0
-7266 7264 7267 0
-7266 -7264 7268 0
7266 -7268 0
7264 -7268 0
-7047 -7265 7269 0
7047 -7269 0
7265 -7269 0
7268 7269 -7270 0
-7268 7270 0
-7269 7270 0
-250 -7081 7271 0
250 -7271 0
7081 -7271 0
-7053 -7271 -7272 0
7053 7271 -7272 0
7053 -7271 7272 0
-7053 7271 7272 0
-7272 -7270 -7273 0
7272 7270 -7273 0
7272 -7270 7273 0
-7272 7270 7273 0
-7272 -7270 7274 0
7272 -7274 0
7270 -7274 0
-7053 -7271 7275 0
7053 -7275 0
7271 -7275 0
7274 7275 -7276 0
-7274 7276 0
-7275 7276 0
-258 -7081 7277 0
258 -7277 0
7081 -7277 0
-7059 -7277 -7278 0
7059 7277 -7278 0
7059 -7277 7278 0
-7059 7277 7278 0
-7278 -7276 -7279 0
7278 7276 -7279 0
7278 -7276 7279 0
-7278 7276 7279 0
-7278 -7276 7280 0
7278 -7280 0
7276 -7280 0
-7059 -7277 7281 0
7059 -7281 0
7277 -7281 0
7280 7281 -7282 0
-7280 7282 0
-7281 7282 0
-266 -7081 7283 0
266 -7283 0
7081 -7283 0
-7065 -7283 -7284 0
7065 7283 -7284 0
7065 -7283 7284 0
-7065 7283 7284 0
-7284 -7282 -7285 0
7284 7282 -7285 0
7284 -7282 7285 0
-7284 7282 7285 0
-7284 -7282 7286 0
7284 -7286 0
7282 -7286 0
-7065 -7283 7287 0
7065 -7287 0
7283 -7287 0
7286 7287 -7288 0
-7286 7288 0
-7287 7288 0
-274 -7081 7289 0
274 -7289 0
7081 -7289 0
-7071 -7289 -7290 0
7071 7289 -7290 0
7071 -7289 7290 0
-7071 7289 7290 0
-7290 -7288 -7291 0
7290 7288 -7291 0
7290 -7288 7291 0
-7290 7288 7291 0
-7290 -7288 7292 0
7290 -7292 0
7288 -7292 0
-7071 -7289 7293 0
7071 -7293 0
7289 -7293 0
7292 7293 -7294 0
-7292 7294 0
-7293 7294 0
-282 -7081 7295 0
282 -7295 0
7081 -7295 0
-7077 -7295 -7296 0
7077 7295 -7296 0
7077 -7295 7296 0
-7077 7295 7296 0
-7296 -7294 -7297 0
7296 7294 -7297 0
7296 -7294 7297 0
-7296 7294 7297 0
-7296 -7294 7298 0
7296 -7298 0
7294 -7298 0
-7077 -7295 7299 0
7077 -7299 0
7295 -7299 0
7298 7299 -7300 0
-7298 7300 0
-7299 7300 0
-290 -7081 7301 0
290 -7301 0
7081 -7301 0
-7080 -7301 -7302 0
7080 7301 -7302 0
7080 -7301 7302 0
-7080 7301 7302 0
-7302 -7300 -7303 0
7302 7300 -7303 0
7302 -7300 7303 0
-7302 7300 7303 0
-7302 -7300 7304 0
7302 -7304 0
7300 -7304 0
-7080 -7301 7305 0
7080 -7305 0
7301 -7305 0
7304 7305 -7306 0
-7304 7306 0
-7305 7306 0
-1 -7307 7308 0
1 -7308 0
7307 -7308 0
-7087 -7308 -7309 0
7087 7308 -7309 0
7087 -7308 7309 0
-7087 7308 7309 0
-7087 -7308 7310 0
7087 -7310 0
7308 -7310 0
-4 -7307 7311 0
4 -7311 0
7307 -7311 0
-7093 -7311 -7312 0
7093 7311 -7312 0
7093 -7311 7312 0
-7093 7311 7312 0
-7312 -7310 -7313 0
7312 7310 -7313 0
7312 -7310 7313 0
-7312 7310 7313 0
-7312 -7310 7314 0
7312 -7314 0
7310 -7314 0
-7093 -7311 7315 0
7093 -7315 0
7311 -7315 0
7314 7315 -7316 0
-7314 7316 0
-7315 7316 0
-10 -7307 7317 0
10 -7317 0
7307 -7317 0
-7099 -7317 -7318 0
7099 7317 -7318 0
7099 -7317 7318 0
-7099 7317 7318 0
-7318 -7316 -7319 0
7318 7316 -7319 0
7318 -7316 7319 0
-7318 7316 7319 0
-7318 -7316 7320 0
7318 -7320 0
7316 -7320 0
-7099 -7317 7321 0
7099 -7321 0
7317 -7321 0
7320 7321 -7322 0
-7320 7322 0
-7321 7322 0
-18 -7307 7323 0
18 -7323 0
7307 -7323 0
-7105 -7323 -7324 0
7105 7323 -7324 0
7105 -7323 7324 0
-7105 7323 7324 0
-7324 -7322 -7325 0
7324 7322 -7325 0
7324 -7322 7325 0
-7324 7322 7325 0
-7324 -7322 7326 0
7324 -7326 0
7322 -7326 0
-7105 -7323 7327 0
7105 -7327 0
7323 -7327 0
7326 7327 -7328 0
-7326 7328 0
-7327 7328 0
-26 -7307 7329 0
26 -7329 0
7307 -7329 0
-7111 -7329 -7330 0
7111 7329 -7330 0
7111 -7329 7330 0
-7111 7329 7330 0
-7330 -7328 -7331 0
7330 7328 -7331 0
7330 -7328 7331 0
-7330 7328 7331 0
-7330 -7328 7332 0
7330 -7332 0
7328 -7332 0
-7111 -7329 7333 0
7111 -7333 0
7329 -7333 0
7332 7333 -7334 0
-7332 7334 0
-7333 7334 0
-34 -7307 7335 0
34 -7335 0
7307 -7335 0
-7117 -7335 -7336 0
7117 7335 -7336 0
7117 -7335 7336 0
-7117 7335 7336 0
-7336 -7334 -7337 0
7336 7334 -7337 0
7336 -7334 7337 0
-7336 7334 7337 0
-7336 -7334 7338 0
7336 -7338 0
7334 -7338 0
-7117 -7335 7339 0
7117 -7339 0
7335 -7339 0
7338 7339 -7340 0
-7338 7340 0
-7339 7340 0
-42 -7307 7341 0
42 -7341 0
7307 -7341 0
-7123 -7341 -7342 0
7123 7341 -7342 0
7123 -7341 7342 0
-7123 7341 7342 0
-7342 -7340 -7343 0
7342 7340 -7343 0
7342 -7340 7343 0
-7342 7340 7343 0
-7342 -7340 7344 0
7342 -7344 0
7340 -7344 0
-7123 -7341 7345 0
7123 -7345 0
7341 -7345 0
7344 7345 -7346 0
-7344 7346 0
-7345 7346 0
-50 -7307 7347 0
50 -7347 0
7307 -7347 0
-7129 -7347 -7348 0
7129 7347 -7348 0
7129 -7347 7348 0
-7129 7347 7348 0
-7348 -7346 -7349 0
7348 7346 -7349 0
7348 -7346 7349 0
-7348 7346 7349 0
-7348 -7346 7350 0
7348 -7350 0
7346 -7350 0
-7129 -7347 7351 0
7129 -7351 0
7347 -7351 0
7350 7351 -7352 0
-7350 7352 0
-7351 7352 0
-58 -7307 7353 0
58 -7353 0
7307 -7353 0
-7135 -7353 -7354 0
7135 7353 -7354 0
7135 -7353 7354 0
-7135 7353 7354 0
-7354 -7352 -7355 0
7354 7352 -7355 0
7354 -7352 7355 0
-7354 7352 7355 0
-7354 -7352 7356 0
7354 -7356 0
7352 -7356 0
-7135 -7353 7357 0
7135 -7357 0
7353 -7357 0
7356 7357 -7358 0
-7356 7358 0
-7357 7358 0
-66 -7307 7359 0
66 -7359 0
7307 -7359 0
-7141 -7359 -7360 0
7141 7359 -7360 0
7141 -7359 7360 0
-7141 7359 7360 0
-7360 -7358 -7361 0
7360 7358 -7361 0
7360 -7358 7361 0
-7360 7358 7361 0
-7360 -7358 7362 0
7360 -7362 0
7358 -7362 0
-7141 -7359 7363 0
7141 -7363 0
7359 -7363 0
7362 7363 -7364 0
-7362 7364 0
-7363 7364 0
-74 -7307 7365 0
74 -7365 0
7307 -7365 0
-7147 -7365 -7366 0
7147 7365 -7366 0
7147 -7365 7366 0
-7147 7365 7366 0
-7366 -7364 -7367 0
7366 7364 -7367 0
7366 -7364 7367 0
-7366 7364 7367 0
-7366 -7364 7368 0
7366 -7368 0
7364 -7368 0
-7147 -7365 7369 0
7147 -7369 0
7365 -7369 0
7368 7369 -7370 0
-7368 7370 0
-7369 7370 0
-82 -7307 7371 0
82 -7371 0
7307 -7371 0
-7153 -7371 -7372 0
7153 7371 -7372 0
7153 -7371 7372 0
-7153 7371 7372 0
-7372 -7370 -7373 0
7372 7370 -7373 0
7372 -7370 7373 0
-7372 7370 7373 0
-7372 -7370 7374 0
7372 -7374 0
7370 -7374 0
-7153 -7371 7375 0
7153 -7375 0
7371 -7375 0
7374 7375 -7376 0
-7374 7376 0
-7375 7376 0
-90 -7307 7377 0
90 -7377 0
7307 -7377 0
-7159 -7377 -7378 0
7159 7377 -7378 0
7159 -7377 7378 0
-7159 7377 7378 0
-7378 -7376 -7379 0
7378 7376 -7379 0
7378 -7376 7379 0
-7378 7376 7379 0
-7378 -7376 7380 0
7378 -7380 0
7376 -7380 0
-7159 -7377 7381 0
7159 -7381 0
7377 -7381 0
7380 7381 -7382 0
-7380 7382 0
-7381 7382 0
-98 -7307 7383 0
98 -7383 0
7307 -7383 0
-7165 -7383 -7384 0
7165 7383 -7384 0
7165 -7383 7384 0
-7165 7383 7384 0
-7384 -7382 -7385 0
7384 7382 -7385 0
7384 -7382 7385 0
-7384 7382 7385 0
-7384 -7382 7386 0
7384 -7386 0
7382 -7386 0
-7165 -7383 7387 0
7165 -7387 0
7383 -7387 0
7386 7387 -7388 0
-7386 7388 0
-7387 7388 0
-106 -7307 7389 0
106 -7389 0
7307 -7389 0
-7171 -7389 -7390 0
7171 7389 -7390 0
7171 -7389 7390 0
-7171 7389 7390 0
-7390 -7388 -7391 0
7390 7388 -7391 0
7390 -7388 7391 0
-7390 7388 7391 0
-7390 -7388 7392 0
7390 -7392 0
7388 -7392 0
-7171 -7389 7393 0
7171 -7393 0
7389 -7393 0
7392 7393 -7394 0
-7392 7394 0
-7393 7394 0
-114 -7307 7395 0
114 -7395 0
7307 -7395 0
-7177 -7395 -7396 0
7177 7395 -7396 0
7177 -7395 7396 0
-7177 7395 7396 0
-7396 -7394 -7397 0
7396 7394 -7397 0
7396 -7394 7397 0
-7396 7394 7397 0
-7396 -7394 7398 0
7396 -7398 0
7394 -7398 0
-7177 -7395 7399 0
7177 -7399 0
7395 -7399 0
7398 7399 -7400 0
-7398 7400 0
-7399 7400 0
-122 -7307 7401 0
122 -7401 0
7307 -7401 0
-7183 -7401 -7402 0
7183 7401 -7402 0
7183 -7401 7402 0
-7183 7401 7402 0
-7402 -7400 -7403 0
7402 7400 -7403 0
7402 -7400 7403 0
-7402 7400 7403 0
-7402 -7400 7404 0
7402 -7404 0
7400 -7404 0
-7183 -7401 7405 0
7183 -7405 0
7401 -7405 0
7404 7405 -7406 0
-7404 7406 0
-7405 7406 0
-130 -7307 7407 0
130 -7407 0
7307 -7407 0
-7189 -7407 -7408 0
7189 7407 -7408 0
7189 -7407 7408 0
-7189 7407 7408 0
-7408 -7406 -7409 0
7408 7406 -7409 0
7408 -7406 7409 0
-7408 7406 7409 0
-7408 -7406 7410 0
7408 -7410 0
7406 -7410 0
-7189 -7407 7411 0
7189 -7411 0
7407 -7411 0
7410 7411 -7412 0
-7410 7412 0
-7411 7412 0
-138 -7307 7413 0
138 -7413 0
7307 -7413 0
-7195 -7413 -7414 0
7195 7413 -7414 0
7195 -7413 7414 0
-7195 7413 7414 0
-7414 -7412 -7415 0
7414 7412 -7415 0
7414 -7412 7415 0
-7414 7412 7415 0
-7414 -7412 7416 0
7414 -7416 0
7412 -7416 0
-7195 -7413 7417 0
7195 -7417 0
7413 -7417 0
7416 7417 -7418 0
-7416 7418 0
-7417 7418 0
-146 -7307 7419 0
146 -7419 0
7307 -7419 0
-7201 -7419 -7420 0
7201 7419 -7420 0
7201 -7419 7420 0
-7201 7419 7420 0
-7420 -7418 -7421 0
7420 7418 -7421 0
7420 -7418 7421 0
-7420 7418 7421 0
-7420 -7418 7422 0
7420 -7422 0
7418 -7422 0
-7201 -7419 7423 0
7201 -7423 0
7419 -7423 0
7422 7423 -7424 0
-7422 7424 0
-7423 7424 0
-154 -7307 7425 0
154 -7425 0
7307 -7425 0
-7207 -7425 -7426 0
7207 7425 -7426 0
7207 -7425 7426 0
-7207 7425 7426 0
-7426 -7424 -7427 0
7426 7424 -7427 0
7426 -7424 7427 0
-7426 7424 7427 0
-7426 -7424 7428 0
7426 -7428 0
7424 -7428 0
-7207 -7425 7429 0
7207 -7429 0
7425 -7429 0
7428 7429 -7430 0
-7428 7430 0
-7429 7430 0
-162 -7307 7431 0
162 -7431 0
7307 -7431 0
-7213 -7431 -7432 0
7213 7431 -7432 0
7213 -7431 7432 0
-7213 7431 7432 0
-7432 -7430 -7433 0
7432 7430 -7433 0
7432 -7430 7433 0
-7432 7430 7433 0
-7432 -7430 7434 0
7432 -7434 0
7430 -7434 0
-7213 -7431 7435 0
7213 -7435 0
7431 -7435 0
7434 7435 -7436 0
-7434 7436 0
-7435 7436 0
-170 -7307 7437 0
170 -7437 0
7307 -7437 0
-7219 -7437 -7438 0
7219 7437 -7438 0
7219 -7437 7438 0
-7219 7437 7438 0
-7438 -7436 -7439 0
7438 7436 -7439 0
7438 -7436 7439 0
-7438 7436 7439 0
-7438 -7436 7440 0
7438 -7440 0
7436 -7440 0
-7219 -7437 7441 0
7219 -7441 0
7437 -7441 0
7440 7441 -7442 0
-7440 7442 0
-7441 7442 0
-178 -7307 7443 0
178 -7443 0
7307 -7443 0
-7225 -7443 -7444 0
7225 7443 -7444 0
7225 -7443 7444 0
-7225 7443 7444 0
-7444 -7442 -7445 0
7444 7442 -7445 0
7444 -7442 7445 0
-7444 7442 7445 0
-7444 -7442 7446 0
7444 -7446 0
7442 -7446 0
-7225 -7443 7447 0
7225 -7447 0
7443 -7447 0
7446 7447 -7448 0
-7446 7448 0
-7447 7448 0
-186 -7307 7449 0
186 -7449 0
7307 -7449 0
-7231 -7449 -7450 0
7231 7449 -7450 0
7231 -7449 7450 0
-7231 7449 7450 0
-7450 -7448 -7451 0
7450 7448 -7451 0
7450 -7448 7451 0
-7450 7448 7451 0
-7450 -7448 7452 0
7450 -7452 0
7448 -7452 0
-7231 -7449 7453 0
7231 -7453 0
7449 -7453 0
7452 7453 -7454 0
-7452 7454 0
-7453 7454 0
-194 -7307 7455 0
194 -7455 0
7307 -7455 0
-7237 -7455 -7456 0
7237 7455 -7456 0
7237 -7455 7456 0
-7237 7455 7456 0
-7456 -7454 -7457 0
7456 7454 -7457 0
7456 -7454 7457 0
-7456 7454 7457 0
-7456 -7454 7458 0
7456 -7458 0
7454 -7458 0
-7237 -7455 7459 0
7237 -7459 0
7455 -7459 0
7458 7459 -7460 0
-7458 7460 0
-7459 7460 0
-202 -7307 7461 0
202 -7461 0
7307 -7461 0
-7243 -7461 -7462 0
7243 7461 -7462 0
7243 -7461 7462 0
-7243 7461 7462 0
-7462 -7460 -7463 0
7462 7460 -7463 0
7462 -7460 7463 0
-7462 7460 7463 0
-7462 -7460 7464 0
7462 -7464 0
7460 -7464 0
-7243 -7461 7465 0
7243 -7465 0
7461 -7465 0
7464 7465 -7466 0
-7464 7466 0
-7465 7466 0
-210 -7307 7467 0
210 -7467 0
7307 -7467 0
-7249 -7467 -7468 0
7249 7467 -7468 0
7249 -7467 7468 0
-7249 7467 7468 0
-7468 -7466 -7469 0
7468 7466 -7469 0
7468 -7466 7469 0
-7468 7466 7469 0
-7468 -7466 7470 0
7468 -7470 0
7466 -7470 0
-7249 -7467 7471 0
7249 -7471 0
7467 -7471 0
7470 7471 -7472 0
-7470 7472 0
-7471 7472 0
-218 -7307 7473 0
218 -7473 0
7307 -7473 0
-7255 -7473 -7474 0
7255 7473 -7474 0
7255 -7473 7474 0
-7255 7473 7474 0
-7474 -7472 -7475 0
7474 7472 -7475 0
7474 -7472 7475 0
-7474 7472 7475 0
-7474 -7472 7476 0
7474 -7476 0
7472 -7476 0
-7255 -7473 7477 0
7255 -7477 0
7473 -7477 0
7476 7477 -7478 0
-7476 7478 0
-7477 7478 0
-226 -7307 7479 0
226 -7479 0
7307 -7479 0
-7261 -7479 -7480 0
7261 7479 -7480 0
7261 -7479 7480 0
-7261 7479 7480 0
-7480 -7478 -7481 0
7480 7478 -7481 0
7480 -7478 7481 0
-7480 7478 7481 0
-7480 -7478 7482 0
7480 -7482 0
7478 -7482 0
-7261 -7479 7483 0
7261 -7483 0
7479 -7483 0
7482 7483 -7484 0
-7482 7484 0
-7483 7484 0
-234 -7307 7485 0
234 -7485 0
7307 -7485 0
-7267 -7485 -7486 0
7267 7485 -7486 0
7267 -7485 7486 0
-7267 7485 7486 0
-7486 -7484 -7487 0
7486 7484 -7487 0
7486 -7484 7487 0
-7486 7484 7487 0
-7486 -7484 7488 0
7486 -7488 0
7484 -7488 0
-7267 -7485 7489 0
7267 -7489 0
7485 -7489 0
7488 7489 -7490 0
-7488 7490 0
-7489 7490 0
-242 -7307 7491 0
242 -7491 0
7307 -7491 0
-7273 -7491 -7492 0
7273 7491 -7492 0
7273 -7491 7492 0
-7273 7491 7492 0
-7492 -7490 -7493 0
7492 7490 -7493 0
7492 -7490 7493 0
-7492 7490 7493 0
-7492 -7490 7494 0
7492 -7494 0
7490 -7494 0
-7273 -7491 7495 0
7273 -7495 0
7491 -7495 0
7494 7495 -7496 0
-7494 7496 0
-7495 7496 0
-250 -7307 7497 0
250 -7497 0
7307 -7497 0
-7279 -7497 -7498 0
7279 7497 -7498 0
7279 -7497 7498 0
-7279 7497 7498 0
-7498 -7496 -7499 0
7498 7496 -7499 0
7498 -7496 7499 0
-7498 7496 7499 0
-7498 -7496 7500 0
7498 -7500 0
7496 -7500 0
-7279 -7497 7501 0
7279 -7501 0
7497 -7501 0
7500 7501 -7502 0
-7500 7502 0
-7501 7502 0
-258 -7307 7503 0
258 -7503 0
7307 -7503 0
-7285 -7503 -7504 0
7285 7503 -7504 0
7285 -7503 7504 0
-7285 7503 7504 0
-7504 -7502 -7505 0
7504 7502 -7505 0
7504 -7502 7505 0
-7504 7502 7505 0
-7504 -7502 7506 0
7504 -7506 0
7502 -7506 0
-7285 -7503 7507 0
7285 -7507 0
7503 -7507 0
7506 7507 -7508 0
-7506 7508 0
-7507 7508 0
-266 -7307 7509 0
266 -7509 0
7307 -7509 0
-7291 -7509 -7510 0
7291 7509 -7510 0
7291 -7509 7510 0
-7291 7509 7510 0
-7510 -7508 -7511 0
7510 7508 -7511 0
7510 -7508 7511 0
-7510 7508 7511 0
-7510 -7508 7512 0
7510 -7512 0
7508 -7512 0
-7291 -7509 7513 0
7291 -7513 0
7509 -7513 0
7512 7513 -7514 0
-7512 7514 0
-7513 7514 0
-274 -7307 7515 0
274 -7515 0
7307 -7515 0
-7297 -7515 -7516 0
7297 7515 -7516 0
7297 -7515 7516 0
-7297 7515 7516 0
-7516 -7514 -7517 0
7516 7514 -7517 0
7516 -7514 7517 0
-7516 7514 7517 0
-7516 -7514 7518 0
7516 -7518 0
7514 -7518 0
-7297 -7515 7519 0
7297 -7519 0
7515 -7519 0
7518 7519 -7520 0
-7518 7520 0
-7519 7520 0
-282 -7307 7521 0
282 -7521 0
7307 -7521 0
-7303 -7521 -7522 0
7303 7521 -7522 0
7303 -7521 7522 0
-7303 7521 7522 0
-7522 -7520 -7523 0
7522 7520 -7523 0
7522 -7520 7523 0
-7522 7520 7523 0
-7522 -7520 7524 0
7522 -7524 0
7520 -7524 0
-7303 -7521 7525 0
7303 -7525 0
7521 -7525 0
7524 7525 -7526 0
-7524 7526 0
-7525 7526 0
-290 -7307 7527 0
290 -7527 0
7307 -7527 0
-7306 -7527 -7528 0
7306 7527 -7528 0
7306 -7527 7528 0
-7306 7527 7528 0
-7528 -7526 -7529 0
7528 7526 -7529 0
7528 -7526 7529 0
-7528 7526 7529 0
-7528 -7526 7530 0
7528 -7530 0
7526 -7530 0
-7306 -7527 7531 0
7306 -7531 0
7527 -7531 0
7530 7531 -7532 0
-7530 7532 0
-7531 7532 0
-1 -7533 7534 0
1 -7534 0
7533 -7534 0
-7313 -7534 -7535 0
7313 7534 -7535 0
7313 -7534 7535 0
-7313 7534 7535 0
-7313 -7534 7536 0
7313 -7536 0
7534 -7536 0
-4 -7533 7537 0
4 -7537 0
7533 -7537 0
-7319 -7537 -7538 0
7319 7537 -7538 0
7319 -7537 7538 0
-7319 7537 7538 0
-7538 -7536 -7539 0
7538 7536 -7539 0
7538 -7536 7539 0
-7538 7536 7539 0
-7538 -7536 7540 0
7538 -7540 0
7536 -7540 0
-7319 -7537 7541 0
7319 -7541 0
7537 -7541 0
7540 7541 -7542 0
-7540 7542 0
-7541 7542 0
-10 -7533 7543 0
10 -7543 0
7533 -7543 0
-7325 -7543 -7544 0
7325 7543 -7544 0
7325 -7543 7544 0
-7325 7543 7544 0
-7544 -7542 -7545 0
7544 7542 -7545 0
7544 -7542 7545 0
-7544 7542 7545 0
-7544 -7542 7546 0
7544 -7546 0
7542 -7546 0
-7325 -7543 7547 0
7325 -7547 0
7543 -7547 0
7546 7547 -7548 0
-7546 7548 0
-7547 7548 0
-18 -7533 7549 0
18 -7549 0
7533 -7549 0
-7331 -7549 -7550 0
7331 7549 -7550 0
7331 -7549 7550 0
-7331 7549 7550 0
-7550 -7548 -7551 0
7550 7548 -7551 0
7550 -7548 7551 0
-7550 7548 7551 0
-7550 -7548 7552 0
7550 -7552 0
7548 -7552 0
-7331 -7549 7553 0
7331 -7553 0
7549 -7553 0
7552 7553 -7554 0
-7552 7554 0
-7553 7554 0
-26 -7533 7555 0
26 -7555 0
7533 -7555 0
-7337 -7555 -7556 0
7337 7555 -7556 0
7337 -7555 7556 0
-7337 7555 7556 0
-7556 -7554 -7557 0
7556 7554 -7557 0
7556 -7554 7557 0
-7556 7554 7557 0
-7556 -7554 7558 0
7556 -7558 0
7554 -7558 0
-7337 -7555 7559 0
7337 -7559 0
7555 -7559 0
7558 7559 -7560 0
-7558 7560 0
-7559 7560 0
-34 -7533 7561 0
34 -7561 0
7533 -7561 0
-7343 -7561 -7562 0
7343 7561 -7562 0
7343 -7561 7562 0
-7343 7561 7562 0
-7562 -7560 -7563 0
7562 7560 -7563 0
7562 -7560 7563 0
-7562 7560 7563 0
-7562 -7560 7564 0
7562 -7564 0
7560 -7564 0
-7343 -7561 7565 0
7343 -7565 0
7561 -7565 0
7564 7565 -7566 0
-7564 7566 0
-7565 7566 0
-42 -7533 7567 0
42 -7567 0
7533 -7567 0
-7349 -7567 -7568 0
7349 7567 -7568 0
7349 -7567 7568 0
-7349 7567 7568 0
-7568 -7566 -7569 0
7568 7566 -7569 0
7568 -7566 7569 0
-7568 7566 7569 0
-7568 -7566 7570 0
7568 -7570 0
7566 -7570 0
-7349 -7567 7571 0
7349 -7571 0
7567 -7571 0
7570 7571 -7572 0
-7570 7572 0
-7571 7572 0
-50 -7533 7573 0
50 -7573 0
7533 -7573 0
-7355 -7573 -7574 0
7355 7573 -7574 0
7355 -7573 7574 0
-7355 7573 7574 0
-7574 -7572 -7575 0
7574 7572 -7575 0
7574 -7572 7575 0
-7574 7572 7575 0
-7574 -7572 7576 0
7574 -7576 0
7572 -7576 0
-7355 -7573 7577 0
7355 -7577 0
7573 -7577 0
7576 7577 -7578 0
-7576 7578 0
-7577 7578 0
-58 -7533 7579 0
58 -7579 0
7533 -7579 0
-7361 -7579 -7580 0
7361 7579 -7580 0
7361 -7579 7580 0
-7361 7579 7580 0
-7580 -7578 -7581 0
7580 7578 -7581 0
7580 -7578 7581 0
-7580 7578 7581 0
-7580 -7578 7582 0
7580 -7582 0
7578 -7582 0
-7361 -7579 7583 0
7361 -7583 0
7579 -7583 0
7582 7583 -7584 0
-7582 7584 0
-7583 7584 0
-66 -7533 7585 0
66 -7585 0
7533 -7585 0
-7367 -7585 -7586 0
7367 7585 -7586 0
7367 -7585 7586 0
-7367 7585 7586 0
-7586 -7584 -7587 0
7586 7584 -7587 0
7586 -7584 7587 0
-7586 7584 7587 0
-7586 -7584 7588 0
7586 -7588 0
7584 -7588 0
-7367 -7585 7589 0
7367 -7589 0
7585 -7589 0
7588 7589 -7590 0
-7588 7590 0
-7589 7590 0
-74 -7533 7591 0
74 -7591 0
7533 -7591 0
-7373 -7591 -7592 0
7373 7591 -7592 0
7373 -7591 7592 0
-7373 7591 7592 0
-7592 -7590 -7593 0
7592 7590 -7593 0
7592 -7590 7593 0
-7592 7590 7593 0
-7592 -7590 7594 0
7592 -7594 0
7590 -7594 0
-7373 -7591 7595 0
7373 -7595 0
7591 -7595 0
7594 7595 -7596 0
-7594 7596 0
-7595 7596 0
-82 -7533 7597 0
82 -7597 0
7533 -7597 0
-7379 -7597 -7598 0
7379 7597 -7598 0
7379 -7597 7598 0
-7379 7597 7598 0
-7598 -7596 -7599 0
7598 7596 -7599 0
7598 -7596 7599 0
-7598 7596 7599 0
-7598 -7596 7600 0
7598 -7600 0
7596 -7600 0
-7379 -7597 7601 0
7379 -7601 0
7597 -7601 0
7600 7601 -7602 0
-7600 7602 0
-7601 7602 0
-90 -7533 7603 0
90 -7603 0
7533 -7603 0
-7385 -7603 -7604 0
7385 7603 -7604 0
7385 -7603 7604 0
-7385 7603 7604 0
-7604 -7602 -7605 0
7604 7602 -7605 0
7604 -7602 7605 0
-7604 7602 7605 0
-7604 -7602 7606 0
7604 -7606 0
7602 -7606 0
-7385 -7603 7607 0
7385 -7607 0
7603 -7607 0
7606 7607 -7608 0
-7606 7608 0
-7607 7608 0
-98 -7533 7609 0
98 -7609 0
7533 -7609 0
-7391 -7609 -7610 0
7391 7609 -7610 0
7391 -7609 7610 0
-7391 7609 7610 0
-7610 -7608 -7611 0
7610 7608 -7611 0
7610 -7608 7611 0
-7610 7608 7611 0
-7610 -7608 7612 0
7610 -7612 0
7608 -7612 0
-7391 -7609 7613 0
7391 -7613 0
7609 -7613 0
7612 7613 -7614 0
-7612 7614 0
-7613 7614 0
-106 -7533 7615 0
106 -7615 0
7533 -7615 0
-7397 -7615 -7616 0
7397 7615 -7616 0
7397 -7615 7616 0
-7397 7615 7616 0
-7616 -7614 -7617 0
7616 7614 -7617 0
7616 -7614 7617 0
-7616 7614 7617 0
-7616 -7614 7618 0
7616 -7618 0
7614 -7618 0
-7397 -7615 7619 0
7397 -7619 0
7615 -7619 0
7618 7619 -7620 0
-7618 7620 0
-7619 7620 0
-114 -7533 7621 0
114 -7621 0
7533 -7621 0
-7403 -7621 -7622 0
7403 7621 -7622 0
7403 -7621 7622 0
-7403 7621 7622 0
-7622 -7620 -7623 0
7622 7620 -7623 0
7622 -7620 7623 0
-7622 7620 7623 0
-7622 -7620 7624 0
7622 -7624 0
7620 -7624 0
-7403 -7621 7625 0
7403 -7625 0
7621 -7625 0
7624 7625 -7626 0
-7624 7626 0
-7625 7626 0
-122 -7533 7627 0
122 -7627 0
7533 -7627 0
-7409 -7627 -7628 0
7409 7627 -7628 0
7409 -7627 7628 0
-7409 7627 7628 0
-7628 -7626 -7629 0
7628 7626 -7629 0
7628 -7626 7629 0
-7628 7626 7629 0
-7628 -7626 7630 0
7628 -7630 0
7626 -7630 0
-7409 -7627 7631 0
7409 -7631 0
7627 -7631 0
7630 7631 -7632 0
-7630 7632 0
-7631 7632 0
-130 -7533 7633 0
130 -7633 0
7533 -7633 0
-7415 -7633 -7634 0
7415 7633 -7634 0
7415 -7633 7634 0
-7415 7633 7634 0
-7634 -7632 -7635 0
7634 7632 -7635 0
7634 -7632 7635 0
-7634 7632 7635 0
-7634 -7632 7636 0
7634 -7636 0
7632 -7636 0
-7415 -7633 7637 0
7415 -7637 0
7633 -7637 0
7636 7637 -7638 0
-7636 7638 0
-7637 7638 0
-138 -7533 7639 0
138 -7639 0
7533 -7639 0
-7421 -7639 -7640 0
7421 7639 -7640 0
7421 -7639 7640 0
-7421 7639 7640 0
-7640 -7638 -7641 0
7640 7638 -7641 0
7640 -7638 7641 0
-7640 7638 7641 0
-7640 -7638 7642 0
7640 -7642 0
7638 -7642 0
-7421 -7639 7643 0
7421 -7643 0
7639 -7643 0
7642 7643 -7644 0
-7642 7644 0
-7643 7644 0
-146 -7533 7645 0
146 -7645 0
7533 -7645 0
-7427 -7645 -7646 0
7427 7645 -7646 0
7427 -7645 7646 0
-7427 7645 7646 0
-7646 -7644 -7647 0
7646 7644 -7647 0
7646 -7644 7647 0
-7646 7644 7647 0
-7646 -7644 7648 0
7646 -7648 0
7644 -7648 0
-7427 -7645 7649 0
7427 -7649 0
7645 -7649 0
7648 7649 -7650 0
-7648 7650 0
-7649 7650 0
-154 -7533 7651 0
154 -7651 0
7533 -7651 0
-7433 -7651 -7652 0
7433 7651 -7652 0
7433 -7651 7652 0
-7433 7651 7652 0
-7652 -7650 -7653 0
7652 7650 -7653 0
7652 -7650 7653 0
-7652 7650 7653 0
-7652 -7650 7654 0
7652 -7654 0
7650 -7654 0
-7433 -7651 7655 0
7433 -7655 0
7651 -7655 0
7654 7655 -7656 0
-7654 7656 0
-7655 7656 0
-162 -7533 7657 0
162 -7657 0
7533 -7657 0
-7439 -7657 -7658 0
7439 7657 -7658 0
7439 -7657 7658 0
-7439 7657 7658 0
-7658 -7656 -7659 0
7658 7656 -7659 0
7658 -7656 7659 0
-7658 7656 7659 0
-7658 -7656 7660 0
7658 -7660 0
7656 -7660 0
-7439 -7657 7661 0
7439 -7661 0
7657 -7661 0
7660 7661 -7662 0
-7660 7662 0
-7661 7662 0
-170 -7533 7663 0
170 -7663 0
7533 -7663 0
-7445 -7663 -7664 0
7445 7663 -7664 0
7445 -7663 7664 0
-7445 7663 7664 0
-7664 -7662 -7665 0
7664 7662 -7665 0
7664 -7662 7665 0
-7664 7662 7665 0
-7664 -7662 7666 0
7664 -7666 0
7662 -7666 0
-7445 -7663 7667 0
7445 -7667 0
7663 -7667 0
7666 7667 -7668 0
-7666 7668 0
-7667 7668 0
-178 -7533 7669 0
178 -7669 0
7533 -7669 0
-7451 -7669 -7670 0
7451 7669 -7670 0
7451 -7669 7670 0
-7451 7669 7670 0
-7670 -7668 -7671 0
7670 7668 -7671 0
7670 -7668 7671 0
-7670 7668 7671 0
-7670 -7668 7672 0
7670 -7672 0
7668 -7672 0
-7451 -7669 7673 0
7451 -7673 0
7669 -7673 0
7672 7673 -7674 0
-7672 7674 0
-7673 7674 0
-186 -7533 7675 0
186 -7675 0
7533 -7675 0
-7457 -7675 -7676 0
7457 7675 -7676 0
7457 -7675 7676 0
-7457 7675 7676 0
-7676 -7674 -7677 0
7676 7674 -7677 0
7676 -7674 7677 0
-7676 7674 7677 0
-7676 -7674 7678 0
7676 -7678 0
7674 -7678 0
-7457 -7675 7679 0
7457 -7679 0
7675 -7679 0
7678 7679 -7680 0
-7678 7680 0
-7679 7680 0
-194 -7533 7681 0
194 -7681 0
7533 -7681 0
-7463 -7681 -7682 0
7463 7681 -7682 0
7463 -7681 7682 0
-7463 7681 7682 0
-7682 -7680 -7683 0
7682 7680 -7683 0
7682 -7680 7683 0
-7682 7680 7683 0
-7682 -7680 7684 0
7682 -7684 0
7680 -7684 0
-7463 -7681 7685 0
7463 -7685 0
7681 -7685 0
7684 7685 -7686 0
-7684 7686 0
-7685 7686 0
-202 -7533 7687 0
202 -7687 0
7533 -7687 0
-7469 -7687 -7688 0
7469 7687 -7688 0
7469 -7687 7688 0
-7469 7687 7688 0
-7688 -7686 -7689 0
7688 7686 -7689 0
7688 -7686 7689 0
-7688 7686 7689 0
-7688 -7686 7690 0
7688 -7690 0
7686 -7690 0
-7469 -7687 7691 0
7469 -7691 0
7687 -7691 0
7690 7691 -7692 0
-7690 7692 0
-7691 7692 0
-210 -7533 7693 0
210 -7693 0
7533 -7693 0
-7475 -7693 -7694 0
7475 7693 -7694 0
7475 -7693 7694 0
-7475 7693 7694 0
-7694 -7692 -7695 0
7694 7692 -7695 0
7694 -7692 7695 0
-7694 7692 7695 0
-7694 -7692 7696 0
7694 -7696 0
7692 -7696 0
-7475 -7693 7697 0
7475 -7697 0
7693 -7697 0
7696 7697 -7698 0
-7696 7698 0
-7697 7698 0
-218 -7533 7699 0
218 -7699 0
7533 -7699 0
-7481 -7699 -7700 0
7481 7699 -7700 0
7481 -7699 7700 0
-7481 7699 7700 0
-7700 -7698 -7701 0
7700 7698 -7701 0
7700 -7698 7701 0
-7700 7698 7701 0
-7700 -7698 7702 0
7700 -7702 0
7698 -7702 0
-7481 -7699 7703 0
7481 -7703 0
7699 -7703 0
7702 7703 -7704 0
-7702 7704 0
-7703 7704 0
-226 -7533 7705 0
226 -7705 0
7533 -7705 0
-7487 -7705 -7706 0
7487 7705 -7706 0
7487 -7705 7706 0
-7487 7705 7706 0
-7706 -7704 -7707 0
7706 7704 -7707 0
7706 -7704 7707 0
-7706 7704 7707 0
-7706 -7704 7708 0
7706 -7708 0
7704 -7708 0
-7487 -7705 7709 0
7487 -7709 0
7705 -7709 0
7708 7709 -7710 0
-7708 7710 0
-7709 7710 0
-234 -7533 7711 0
234 -7711 0
7533 -7711 0
-7493 -7711 -7712 0
7493 7711 -7712 0
7493 -7711 7712 0
-7493 7711 7712 0
-7712 -7710 -7713 0
7712 7710 -7713 0
7712 -7710 7713 0
-7712 7710 7713 0
-7712 -7710 7714 0
7712 -7714 0
7710 -7714 0
-7493 -7711 7715 0
7493 -7715 0
7711 -7715 0
7714 7715 -7716 0
-7714 7716 0
-7715 7716 0
-242 -7533 7717 0
242 -7717 0
7533 -7717 0
-7499 -7717 -7718 0
7499 7717 -7718 0
7499 -7717 7718 0
-7499 7717 7718 0
-7718 -7716 -7719 0
7718 7716 -7719 0
7718 -7716 7719 0
-7718 7716 7719 0
-7718 -7716 7720 0
7718 -7720 0
7716 -7720 0
-7499 -7717 7721 0
7499 -7721 0
7717 -7721 0
7720 7721 -7722 0
-7720 7722 0
-7721 7722 0
-250 -7533 7723 0
250 -7723 0
7533 -7723 0
-7505 -7723 -7724 0
7505 7723 -7724 0
7505 -7723 7724 0
-7505 7723 7724 0
-7724 -7722 -7725 0
7724 7722 -7725 0
7724 -7722 7725 0
-7724 7722 7725 0
-7724 -7722 7726 0
7724 -7726 0
7722 -7726 0
-7505 -7723 7727 0
7505 -7727 0
7723 -7727 0
7726 7727 -7728 0
-7726 7728 0
-7727 7728 0
-258 -7533 7729 0
258 -7729 0
7533 -7729 0
-7511 -7729 -7730 0
7511 7729 -7730 0
7511 -7729 7730 0
-7511 7729 7730 0
-7730 -7728 -7731 0
7730 7728 -7731 0
7730 -7728 7731 0
-7730 7728 7731 0
-7730 -7728 7732 0
7730 -7732 0
7728 -7732 0
-7511 -7729 7733 0
7511 -7733 0
7729 -7733 0
7732 7733 -7734 0
-7732 7734 0
-7733 7734 0
-266 -7533 7735 0
266 -7735 0
7533 -7735 0
-7517 -7735 -7736 0
7517 7735 -7736 0
7517 -7735 7736 0
-7517 7735 7736 0
-7736 -7734 -7737 0
7736 7734 -7737 0
7736 -7734 7737 0
-7736 7734 7737 0
-7736 -7734 7738 0
7736 -7738 0
7734 -7738 0
-7517 -7735 7739 0
7517 -7739 0
7735 -7739 0
7738 7739 -7740 0
-7738 7740 0
-7739 7740 0
-274 -7533 7741 0
274 -7741 0
7533 -7741 0
-7523 -7741 -7742 0
7523 7741 -7742 0
7523 -7741 7742 0
-7523 7741 7742 0
-7742 -7740 -7743 0
7742 7740 -7743 0
7742 -7740 7743 0
-7742 7740 7743 0
-7742 -7740 7744 0
7742 -7744 0
7740 -7744 0
-7523 -7741 7745 0
7523 -7745 0
7741 -7745 0
7744 7745 -7746 0
-7744 7746 0
-7745 7746 0
-282 -7533 7747 0
282 -7747 0
7533 -7747 0
-7529 -7747 -7748 0
7529 7747 -7748 0
7529 -7747 7748 0
-7529 7747 7748 0
-7748 -7746 -7749 0
7748 7746 -7749 0
7748 -7746 7749 0
-7748 7746 7749 0
-7748 -7746 7750 0
7748 -7750 0
7746 -7750 0
-7529 -7747 7751 0
7529 -7751 0
7747 -7751 0
7750 7751 -7752 0
-7750 7752 0
-7751 7752 0
-290 -7533 7753 0
290 -7753 0
7533 -7753 0
-7532 -7753 -7754 0
7532 7753 -7754 0
7532 -7753 7754 0
-7532 7753 7754 0
-7754 -7752 -7755 0
7754 7752 -7755 0
7754 -7752 7755 0
-7754 7752 7755 0
-7754 -7752 7756 0
7754 -7756 0
7752 -7756 0
-7532 -7753 7757 0
7532 -7757 0
7753 -7757 0
7756 7757 -7758 0
-7756 7758 0
-7757 7758 0
-1 -7759 7760 0
1 -7760 0
7759 -7760 0
-7539 -7760 -7761 0
7539 7760 -7761 0
7539 -7760 7761 0
-7539 7760 7761 0
-7539 -7760 7762 0
7539 -7762 0
7760 -7762 0
-4 -7759 7763 0
4 -7763 0
7759 -7763 0
-7545 -7763 -7764 0
7545 7763 -7764 0
7545 -7763 7764 0
-7545 7763 7764 0
-7764 -7762 -7765 0
7764 7762 -7765 0
7764 -7762 7765 0
-7764 7762 7765 0
-7764 -7762 7766 0
7764 -7766 0
7762 -7766 0
-7545 -7763 7767 0
7545 -7767 0
7763 -7767 0
7766 7767 -7768 0
-7766 7768 0
-7767 7768 0
-10 -7759 7769 0
10 -7769 0
7759 -7769 0
-7551 -7769 -7770 0
7551 7769 -7770 0
7551 -7769 7770 0
-7551 7769 7770 0
-7770 -7768 -7771 0
7770 7768 -7771 0
7770 -7768 7771 0
-7770 7768 7771 0
-7770 -7768 7772 0
7770 -7772 0
7768 -7772 0
-7551 -7769 7773 0
7551 -7773 0
7769 -7773 0
7772 7773 -7774 0
-7772 7774 0
-7773 7774 0
-18 -7759 7775 0
18 -7775 0
7759 -7775 0
-7557 -7775 -7776 0
7557 7775 -7776 0
7557 -7775 7776 0
-7557 7775 7776 0
-7776 -7774 -7777 0
7776 7774 -7777 0
7776 -7774 7777 0
-7776 7774 7777 0
-7776 -7774 7778 0
7776 -7778 0
7774 -7778 0
-7557 -7775 7779 0
7557 -7779 0
7775 -7779 0
7778 7779 -7780 0
-7778 7780 0
-7779 7780 0
-26 -7759 7781 0
26 -7781 0
7759 -7781 0
-7563 -7781 -7782 0
7563 7781 -7782 0
7563 -7781 7782 0
-7563 7781 7782 0
-7782 -7780 -7783 0
7782 7780 -7783 0
7782 -7780 7783 0
-7782 7780 7783 0
-7782 -7780 7784 0
7782 -7784 0
7780 -7784 0
-7563 -7781 7785 0
7563 -7785 0
7781 -7785 0
7784 7785 -7786 0
-7784 7786 0
-7785 7786 0
-34 -7759 7787 0
34 -7787 0
7759 -7787 0
-7569 -7787 -7788 0
7569 7787 -7788 0
7569 -7787 7788 0
-7569 7787 7788 0
-7788 -7786 -7789 0
7788 7786 -7789 0
7788 -7786 7789 0
-7788 7786 7789 0
-7788 -7786 7790 0
7788 -7790 0
7786 -7790 0
-7569 -7787 7791 0
7569 -7791 0
7787 -7791 0
7790 7791 -7792 0
-7790 7792 0
-7791 7792 0
-42 -7759 7793 0
42 -7793 0
7759 -7793 0
-7575 -7793 -7794 0
7575 7793 -7794 0
7575 -7793 7794 0
-7575 7793 7794 0
-7794 -7792 -7795 0
7794 7792 -7795 0
7794 -7792 7795 0
-7794 7792 7795 0
-7794 -7792 7796 0
7794 -7796 0
7792 -7796 0
-7575 -7793 7797 0
7575 -7797 0
7793 -7797 0
7796 7797 -7798 0
-7796 7798 0
-7797 7798 0
-50 -7759 7799 0
50 -7799 0
7759 -7799 0
-7581 -7799 -7800 0
7581 7799 -7800 0
7581 -7799 7800 0
-7581 7799 7800 0
-7800 -7798 -7801 0
7800 7798 -7801 0
7800 -7798 7801 0
-7800 7798 7801 0
-7800 -7798 7802 0
7800 -7802 0
7798 -7802 0
-7581 -7799 7803 0
7581 -7803 0
7799 -7803 0
7802 7803 -7804 0
-7802 7804 0
-7803 7804 0
-58 -7759 7805 0
58 -7805 0
7759 -7805 0
-7587 -7805 -7806 0
7587 7805 -7806 0
7587 -7805 7806 0
-7587 7805 7806 0
-7806 -7804 -7807 0
7806 7804 -7807 0
7806 -7804 7807 0
-7806 7804 7807 0
-7806 -7804 7808 0
7806 -7808 0
7804 -7808 0
-7587 -7805 7809 0
7587 -7809 0
7805 -7809 0
7808 7809 -7810 0
-7808 7810 0
-7809 7810 0
-66 -7759 7811 0
66 -7811 0
7759 -7811 0
-7593 -7811 -7812 0
7593 7811 -7812 0
7593 -7811 7812 0
-7593 7811 7812 0
-7812 -7810 -7813 0
7812 7810 -7813 0
7812 -7810 7813 0
-7812 7810 7813 0
-7812 -7810 7814 0
7812 -7814 0
7810 -7814 0
-7593 -7811 7815 0
7593 -7815 0
7811 -7815 0
7814 7815 -7816 0
-7814 7816 0
-7815 7816 0
-74 -7759 7817 0
74 -7817 0
7759 -7817 0
-7599 -7817 -7818 0
7599 7817 -7818 0
7599 -7817 7818 0
-7599 7817 7818 0
-7818 -7816 -7819 0
7818 7816 -7819 0
7818 -7816 7819 0
-7818 7816 7819 0
-7818 -7816 7820 0
7818 -7820 0
7816 -7820 0
-7599 -7817 7821 0
7599 -7821 0
7817 -7821 0
7820 7821 -7822 0
-7820 7822 0
-7821 7822 0
-82 -7759 7823 0
82 -7823 0
7759 -7823 0
-7605 -7823 -7824 0
7605 7823 -7824 0
7605 -7823 7824 0
-7605 7823 7824 0
-7824 -7822 -7825 0
7824 7822 -7825 0
7824 -7822 7825 0
-7824 7822 7825 0
-7824 -7822 7826 0
7824 -7826 0
7822 -7826 0
-7605 -7823 7827 0
7605 -7827 0
7823 -7827 0
7826 7827 -7828 0
-7826 7828 0
-7827 7828 0
-90 -7759 7829 0
90 -7829 0
7759 -7829 0
-7611 -7829 -7830 0
7611 7829 -7830 0
7611 -7829 7830 0
-7611 7829 7830 0
-7830 -7828 -7831 0
7830 7828 -7831 0
7830 -7828 7831 0
-7830 7828 7831 0
-7830 -7828 7832 0
7830 -7832 0
7828 -7832 0
-7611 -7829 7833 0
7611 -7833 0
7829 -7833 0
7832 7833 -7834 0
-7832 7834 0
-7833 7834 0
-98 -7759 7835 0
98 -7835 0
7759 -7835 0
-7617 -7835 -7836 0
7617 7835 -7836 0
7617 -7835 7836 0
-7617 7835 7836 0
-7836 -7834 -7837 0
7836 7834 -7837 0
7836 -7834 7837 0
-7836 7834 7837 0
-7836 -7834 7838 0
7836 -7838 0
7834 -7838 0
-7617 -7835 7839 0
7617 -7839 0
7835 -7839 0
7838 7839 -7840 0
-7838 7840 0
-7839 7840 0
-106 -7759 7841 0
106 -7841 0
7759 -7841 0
-7623 -7841 -7842 0
7623 7841 -7842 0
7623 -7841 7842 0
-7623 7841 7842 0
-7842 -7840 -7843 0
7842 7840 -7843 0
7842 -7840 7843 0
-7842 7840 7843 0
-7842 -7840 7844 0
7842 -7844 0
7840 -7844 0
-7623 -7841 7845 0
7623 -7845 0
7841 -7845 0
7844 7845 -7846 0
-7844 7846 0
-7845 7846 0
-114 -7759 7847 0
114 -7847 0
7759 -7847 0
-7629 -7847 -7848 0
7629 7847 -7848 0
7629 -7847 7848 0
-7629 7847 7848 0
-7848 -7846 -7849 0
7848 7846 -7849 0
7848 -7846 7849 0
-7848 7846 7849 0
-7848 -7846 7850 0
7848 -7850 0
7846 -7850 0
-7629 -7847 7851 0
7629 -7851 0
7847 -7851 0
7850 7851 -7852 0
-7850 7852 0
-7851 7852 0
-122 -7759 7853 0
122 -7853 0
7759 -7853 0
-7635 -7853 -7854 0
7635 7853 -7854 0
7635 -7853 7854 0
-7635 7853 7854 0
-7854 -7852 -7855 0
7854 7852 -7855 0
7854 -7852 7855 0
-7854 7852 7855 0
-7854 -7852 7856 0
7854 -7856 0
7852 -7856 0
-7635 -7853 7857 0
7635 -7857 0
7853 -7857 0
7856 7857 -7858 0
-7856 7858 0
-7857 7858 0
-130 -7759 7859 0
130 -7859 0
7759 -7859 0
-7641 -7859 -7860 0
7641 7859 -7860 0
7641 -7859 7860 0
-7641 7859 7860 0
-7860 -7858 -7861 0
7860 7858 -7861 0
7860 -7858 7861 0
-7860 7858 7861 0
-7860 -7858 7862 0
7860 -7862 0
7858 -7862 0
-7641 -7859 7863 0
7641 -7863 0
7859 -7863 0
7862 7863 -7864 0
-7862 7864 0
-7863 7864 0
-138 -7759 7865 0
138 -7865 0
7759 -7865 0
-7647 -7865 -7866 0
7647 7865 -7866 0
7647 -7865 7866 0
-7647 7865 7866 0
-7866 -7864 -7867 0
7866 7864 -7867 0
7866 -7864 7867 0
-7866 7864 7867 0
-7866 -7864 7868 0
7866 -7868 0
7864 -7868 0
-7647 -7865 7869 0
7647 -7869 0
7865 -7869 0
7868 7869 -7870 0
-7868 7870 0
-7869 7870 0
-146 -7759 7871 0
146 -7871 0
7759 -7871 0
-7653 -7871 -7872 0
7653 7871 -7872 0
7653 -7871 7872 0
-7653 7871 7872 0
-7872 -7870 -7873 0
7872 7870 -7873 0
7872 -7870 7873 0
-7872 7870 7873 0
-7872 -7870 7874 0
7872 -7874 0
7870 -7874 0
-7653 -7871 7875 0
7653 -7875 0
7871 -7875 0
7874 7875 -7876 0
-7874 7876 0
-7875 7876 0
-154 -7759 7877 0
154 -7877 0
7759 -7877 0
-7659 -7877 -7878 0
7659 7877 -7878 0
7659 -7877 7878 0
-7659 7877 7878 0
-7878 -7876 -7879 0
7878 7876 -7879 0
7878 -7876 7879 0
-7878 7876 7879 0
-7878 -7876 7880 0
7878 -7880 0
7876 -7880 0
-7659 -7877 7881 0
7659 -7881 0
7877 -7881 0
7880 7881 -7882 0
-7880 7882 0
-7881 7882 0
-162 -7759 7883 0
162 -7883 0
7759 -7883 0
-7665 -7883 -7884 0
7665 7883 -7884 0
7665 -7883 7884 0
-7665 7883 7884 0
-7884 -7882 -7885 0
7884 7882 -7885 0
7884 -7882 7885 0
-7884 7882 7885 0
-7884 -7882 7886 0
7884 -7886 0
7882 -7886 0
-7665 -7883 7887 0
7665 -7887 0
7883 -7887 0
7886 7887 -7888 0
-7886 7888 0
-7887 7888 0
-170 -7759 7889 0
170 -7889 0
7759 -7889 0
-7671 -7889 -7890 0
7671 7889 -7890 0
7671 -7889 7890 0
-7671 7889 7890 0
-7890 -7888 -7891 0
7890 7888 -7891 0
7890 -7888 7891 0
-7890 7888 7891 0
-7890 -7888 7892 0
7890 -7892 0
7888 -7892 0
-7671 -7889 7893 0
7671 -7893 0
7889 -7893 0
7892 7893 -7894 0
-7892 7894 0
-7893 7894 0
-178 -7759 7895 0
178 -7895 0
7759 -7895 0
-7677 -7895 -7896 0
7677 7895 -7896 0
7677 -7895 7896 0
-7677 7895 7896 0
-7896 -7894 -7897 0
7896 7894 -7897 0
7896 -7894 7897 0
-7896 7894 7897 0
-7896 -7894 7898 0
7896 -7898 0
7894 -7898 0
-7677 -7895 7899 0
7677 -7899 0
7895 -7899 0
7898 7899 -7900 0
-7898 7900 0
-7899 7900 0
-186 -7759 7901 0
186 -7901 0
7759 -7901 0
-7683 -7901 -7902 0
7683 7901 -7902 0
7683 -7901 7902 0
-7683 7901 7902 0
-7902 -7900 -7903 0
7902 7900 -7903 0
7902 -7900 7903 0
-7902 7900 7903 0
-7902 -7900 7904 0
7902 -7904 0
7900 -7904 0
-7683 -7901 7905 0
7683 -7905 0
7901 -7905 0
7904 7905 -7906 0
-7904 7906 0
-7905 7906 0
-194 -7759 7907 0
194 -7907 0
7759 -7907 0
-7689 -7907 -7908 0
7689 7907 -7908 0
7689 -7907 7908 0
-7689 7907 7908 0
-7908 -7906 -7909 0
7908 7906 -7909 0
7908 -7906 7909 0
-7908 7906 7909 0
-7908 -7906 7910 0
7908 -7910 0
7906 -7910 0
-7689 -7907 7911 0
7689 -7911 0
7907 -7911 0
7910 7911 -7912 0
-7910 7912 0
-7911 7912 0
-202 -7759 7913 0
202 -7913 0
7759 -7913 0
-7695 -7913 -7914 0
7695 7913 -7914 0
7695 -7913 7914 0
-7695 7913 7914 0
-7914 -7912 -7915 0
7914 7912 -7915 0
7914 -7912 7915 0
-7914 7912 7915 0
-7914 -7912 7916 0
7914 -7916 0
7912 -7916 0
-7695 -7913 7917 0
7695 -7917 0
7913 -7917 0
7916 7917 -7918 0
-7916 7918 0
-7917 7918 0
-210 -7759 7919 0
210 -7919 0
7759 -7919 0
-7701 -7919 -7920 0
7701 7919 -7920 0
7701 -7919 7920 0
-7701 7919 7920 0
-7920 -7918 -7921 0
7920 7918 -7921 0
7920 -7918 7921 0
-7920 7918 7921 0
-7920 -7918 7922 0
7920 -7922 0
7918 -7922 0
-7701 -7919 7923 0
7701 -7923 0
7919 -7923 0
7922 7923 -7924 0
-7922 7924 0
-7923 7924 0
-218 -7759 7925 0
218 -7925 0
7759 -7925 0
-7707 -7925 -7926 0
7707 7925 -7926 0
7707 -7925 7926 0
-7707 7925 7926 0
-7926 -7924 -7927 0
7926 7924 -7927 0
7926 -7924 7927 0
-7926 7924 7927 0
-7926 -7924 7928 0
7926 -7928 0
7924 -7928 0
-7707 -7925 7929 0
7707 -7929 0
7925 -7929 0
7928 7929 -7930 0
-7928 7930 0
-7929 7930 0
-226 -7759 7931 0
226 -7931 0
7759 -7931 0
-7713 -7931 -7932 0
7713 7931 -7932 0
7713 -7931 7932 0
-7713 7931 7932 0
-7932 -7930 -7933 0
7932 7930 -7933 0
7932 -7930 7933 0
-7932 7930 7933 0
-7932 -7930 7934 0
7932 -7934 0
7930 -7934 0
-7713 -7931 7935 0
7713 -7935 0
7931 -7935 0
7934 7935 -7936 0
-7934 7936 0
-7935 7936 0
-234 -7759 7937 0
234 -7937 0
7759 -7937 0
-7719 -7937 -7938 0
7719 7937 -7938 0
7719 -7937 7938 0
-7719 7937 7938 0
-7938 -7936 -7939 0
7938 7936 -7939 0
7938 -7936 7939 0
-7938 7936 7939 0
-7938 -7936 7940 0
7938 -7940 0
7936 -7940 0
-7719 -7937 7941 0
7719 -7941 0
7937 -7941 0
7940 7941 -7942 0
-7940 7942 0
-7941 7942 0
-242 -7759 7943 0
242 -7943 0
7759 -7943 0
-7725 -7943 -7944 0
7725 7943 -7944 0
7725 -7943 7944 0
-7725 7943 7944 0
-7944 -7942 -7945 0
7944 7942 -7945 0
7944 -7942 7945 0
-7944 7942 7945 0
-7944 -7942 7946 0
7944 -7946 0
7942 -7946 0
-7725 -7943 7947 0
7725 -7947 0
7943 -7947 0
7946 7947 -7948 0
-7946 7948 0
-7947 7948 0
-250 -7759 7949 0
250 -7949 0
7759 -7949 0
-7731 -7949 -7950 0
7731 7949 -7950 0
7731 -7949 7950 0
-7731 7949 7950 0
-7950 -7948 -7951 0
7950 7948 -7951 0
7950 -7948 7951 0
-7950 7948 7951 0
-7950 -7948 7952 0
7950 -7952 0
7948 -7952 0
-7731 -7949 7953 0
7731 -7953 0
7949 -7953 0
7952 7953 -7954 0
-7952 7954 0
-7953 7954 0
-258 -7759 7955 0
258 -7955 0
7759 -7955 0
-7737 -7955 -7956 0
7737 7955 -7956 0
7737 -7955 7956 0
-7737 7955 7956 0
-7956 -7954 -7957 0
7956 7954 -7957 0
7956 -7954 7957 0
-7956 7954 7957 0
-7956 -7954 7958 0
7956 -7958 0
7954 -7958 0
-7737 -7955 7959 0
7737 -7959 0
7955 -7959 0
7958 7959 -7960 0
-7958 7960 0
-7959 7960 0
-266 -7759 7961 0
266 -7961 0
7759 -7961 0
-7743 -7961 -7962 0
7743 7961 -7962 0
7743 -7961 7962 0
-7743 7961 7962 0
-7962 -7960 -7963 0
7962 7960 -7963 0
7962 -7960 7963 0
-7962 7960 7963 0
-7962 -7960 7964 0
7962 -7964 0
7960 -7964 0
-7743 -7961 7965 0
7743 -7965 0
7961 -7965 0
7964 7965 -7966 0
-7964 7966 0
-7965 7966 0
-274 -7759 7967 0
274 -7967 0
7759 -7967 0
-7749 -7967 -7968 0
7749 7967 -7968 0
7749 -7967 7968 0
-7749 7967 7968 0
-7968 -7966 -7969 0
7968 7966 -7969 0
7968 -7966 7969 0
-7968 7966 7969 0
-7968 -7966 7970 0
7968 -7970 0
7966 -7970 0
-7749 -7967 7971 0
7749 -7971 0
7967 -7971 0
7970 7971 -7972 0
-7970 7972 0
-7971 7972 0
-282 -7759 7973 0
282 -7973 0
7759 -7973 0
-7755 -7973 -7974 0
7755 7973 -7974 0
7755 -7973 7974 0
-7755 7973 7974 0
-7974 -7972 -7975 0
7974 7972 -7975 0
7974 -7972 7975 0
-7974 7972 7975 0
-7974 -7972 7976 0
7974 -7976 0
7972 -7976 0
-7755 -7973 7977 0
7755 -7977 0
7973 -7977 0
7976 7977 -7978 0
-7976 7978 0
-7977 7978 0
-290 -7759 7979 0
290 -7979 0
7759 -7979 0
-7758 -7979 -7980 0
7758 7979 -7980 0
7758 -7979 7980 0
-7758 7979 7980 0
-7980 -7978 -7981 0
7980 7978 -7981 0
7980 -7978 7981 0
-7980 7978 7981 0
-7980 -7978 7982 0
7980 -7982 0
7978 -7982 0
-7758 -7979 7983 0
7758 -7983 0
7979 -7983 0
7982 7983 -7984 0
-7982 7984 0
-7983 7984 0
-1 -7985 7986 0
1 -7986 0
7985 -7986 0
-7765 -7986 -7987 0
7765 7986 -7987 0
7765 -7986 7987 0
-7765 7986 7987 0
-7765 -7986 7988 0
7765 -7988 0
7986 -7988 0
-4 -7985 7989 0
4 -7989 0
7985 -7989 0
-7771 -7989 -7990 0
7771 7989 -7990 0
7771 -7989 7990 0
-7771 7989 7990 0
-7990 -7988 -7991 0
7990 7988 -7991 0
7990 -7988 7991 0
-7990 7988 7991 0
-7990 -7988 7992 0
7990 -7992 0
7988 -7992 0
-7771 -7989 7993 0
7771 -7993 0
7989 -7993 0
7992 7993 -7994 0
-7992 7994 0
-7993 7994 0
-10 -7985 7995 0
10 -7995 0
7985 -7995 0
-7777 -7995 -7996 0
7777 7995 -7996 0
7777 -7995 7996 0
-7777 7995 7996 0
-7996 -7994 -7997 0
7996 7994 -7997 0
7996 -7994 7997 0
-7996 7994 7997 0
-7996 -7994 7998 0
7996 -7998 0
7994 -7998 0
-7777 -7995 7999 0
7777 -7999 0
7995 -7999 0
7998 7999 -8000 0
-7998 8000 0
-7999 8000 0
-18 -7985 8001 0
18 -8001 0
7985 -8001 0
-7783 -8001 -8002 0
7783 8001 -8002 0
7783 -8001 8002 0
-7783 8001 8002 0
-8002 -8000 -8003 0
8002 8000 -8003 0
8002 -8000 8003 0
-8002 8000 8003 0
-8002 -8000 8004 0
8002 -8004 0
8000 -8004 0
-7783 -8001 8005 0
7783 -8005 0
8001 -8005 0
8004 8005 -8006 0
-8004 8006 0
-8005 8006 0
-26 -7985 8007 0
26 -8007 0
7985 -8007 0
-7789 -8007 -8008 0
7789 8007 -8008 0
7789 -8007 8008 0
-7789 8007 8008 0
-8008 -8006 -8009 0
8008 8006 -8009 0
8008 -8006 8009 0
-8008 8006 8009 0
-8008 -8006 8010 0
8008 -8010 0
8006 -8010 0
-7789 -8007 8011 0
7789 -8011 0
8007 -8011 0
8010 8011 -8012 0
-8010 8012 0
-8011 8012 0
-34 -7985 8013 0
34 -8013 0
7985 -8013 0
-7795 -8013 -8014 0
7795 8013 -8014 0
7795 -8013 8014 0
-7795 8013 8014 0
-8014 -8012 -8015 0
8014 8012 -8015 0
8014 -8012 8015 0
-8014 8012 8015 0
-8014 -8012 8016 0
8014 -8016 0
8012 -8016 0
-7795 -8013 8017 0
7795 -8017 0
8013 -8017 0
8016 8017 -8018 0
-8016 8018 0
-8017 8018 0
-42 -7985 8019 0
42 -8019 0
7985 -8019 0
-7801 -8019 -8020 0
7801 8019 -8020 0
7801 -8019 8020 0
-7801 8019 8020 0
-8020 -8018 -8021 0
8020 8018 -8021 0
8020 -8018 8021 0
-8020 8018 8021 0
-8020 -8018 8022 0
8020 -8022 0
8018 -8022 0
-7801 -8019 8023 0
7801 -8023 0
8019 -8023 0
8022 8023 -8024 0
-8022 8024 0
-8023 8024 0
-50 -7985 8025 0
50 -8025 0
7985 -8025 0
-7807 -8025 -8026 0
7807 8025 -8026 0
7807 -8025 8026 0
-7807 8025 8026 0
-8026 -8024 -8027 0
8026 8024 -8027 0
8026 -8024 8027 0
-8026 8024 8027 0
-8026 -8024 8028 0
8026 -8028 0
8024 -8028 0
-7807 -8025 8029 0
7807 -8029 0
8025 -8029 0
8028 8029 -8030 0
-8028 8030 0
-8029 8030 0
-58 -7985 8031 0
58 -8031 0
7985 -8031 0
-7813 -8031 -8032 0
7813 8031 -8032 0
7813 -8031 8032 0
-7813 8031 8032 0
-8032 -8030 -8033 0
8032 8030 -8033 0
8032 -8030 8033 0
-8032 8030 8033 0
-8032 -8030 8034 0
8032 -8034 0
8030 -8034 0
-7813 -8031 8035 0
7813 -8035 0
8031 -8035 0
8034 8035 -8036 0
-8034 8036 0
-8035 8036 0
-66 -7985 8037 0
66 -8037 0
7985 -8037 0
-7819 -8037 -8038 0
7819 8037 -8038 0
7819 -8037 8038 0
-7819 8037 8038 0
-8038 -8036 -8039 0
8038 8036 -8039 0
8038 -8036 8039 0
-8038 8036 8039 0
-8038 -8036 8040 0
8038 -8040 0
8036 -8040 0
-7819 -8037 8041 0
7819 -8041 0
8037 -8041 0
8040 8041 -8042 0
-8040 8042 0
-8041 8042 0
-74 -7985 8043 0
74 -8043 0
7985 -8043 0
-7825 -8043 -8044 0
7825 8043 -8044 0
7825 -8043 8044 0
-7825 8043 8044 0
-8044 -8042 -8045 0
8044 8042 -8045 0
8044 -8042 8045 0
-8044 8042 8045 0
-8044 -8042 8046 0
8044 -8046 0
8042 -8046 0
-7825 -8043 8047 0
7825 -8047 0
8043 -8047 0
8046 8047 -8048 0
-8046 8048 0
-8047 8048 0
-82 -7985 8049 0
82 -8049 0
7985 -8049 0
-7831 -8049 -8050 0
7831 8049 -8050 0
7831 -8049 8050 0
-7831 8049 8050 0
-8050 -8048 -8051 0
8050 8048 -8051 0
8050 -8048 8051 0
-8050 8048 8051 0
-8050 -8048 8052 0
8050 -8052 0
8048 -8052 0
-7831 -8049 8053 0
7831 -8053 0
8049 -8053 0
8052 8053 -8054 0
-8052 8054 0
-8053 8054 0
-90 -7985 8055 0
90 -8055 0
7985 -8055 0
-7837 -8055 -8056 0
7837 8055 -8056 0
7837 -8055 8056 0
-7837 8055 8056 0
-8056 -8054 -8057 0
8056 8054 -8057 0
8056 -8054 8057 0
-8056 8054 8057 0
-8056 -8054 8058 0
8056 -8058 0
8054 -8058 0
-7837 -8055 8059 0
7837 -8059 0
8055 -8059 0
8058 8059 -8060 0
-8058 8060 0
-8059 8060 0
-98 -7985 8061 0
98 -8061 0
7985 -8061 0
-7843 -8061 -8062 0
7843 8061 -8062 0
7843 -8061 8062 0
-7843 8061 8062 0
-8062 -8060 -8063 0
8062 8060 -8063 0
8062 -8060 8063 0
-8062 8060 8063 0
-8062 -8060 8064 0
8062 -8064 0
8060 -8064 0
-7843 -8061 8065 0
7843 -8065 0
8061 -8065 0
8064 8065 -8066 0
-8064 8066 0
-8065 8066 0
-106 -7985 8067 0
106 -8067 0
7985 -8067 0
-7849 -8067 -8068 0
7849 8067 -8068 0
7849 -8067 8068 0
-7849 8067 8068 0
-8068 -8066 -8069 0
8068 8066 -8069 0
8068 -8066 8069 0
-8068 8066 8069 0
-8068 -8066 8070 0
8068 -8070 0
8066 -8070 0
-7849 -8067 8071 0
7849 -8071 0
8067 -8071 0
8070 8071 -8072 0
-8070 8072 0
-8071 8072 0
-114 -7985 8073 0
114 -8073 0
7985 -8073 0
-7855 -8073 -8074 0
7855 8073 -8074 0
7855 -8073 8074 0
-7855 8073 8074 0
-8074 -8072 -8075 0
8074 8072 -8075 0
8074 -8072 8075 0
-8074 8072 8075 0
-8074 -8072 8076 0
8074 -8076 0
8072 -8076 0
-7855 -8073 8077 0
7855 -8077 0
8073 -8077 0
8076 8077 -8078 0
-8076 8078 0
-8077 8078 0
-122 -7985 8079 0
122 -8079 0
7985 -8079 0
-7861 -8079 -8080 0
7861 8079 -8080 0
7861 -8079 8080 0
-7861 8079 8080 0
-8080 -8078 -8081 0
8080 8078 -8081 0
8080 -8078 8081 0
-8080 8078 8081 0
-8080 -8078 8082 0
8080 -8082 0
8078 -8082 0
-7861 -8079 8083 0
7861 -8083 0
8079 -8083 0
8082 8083 -8084 0
-8082 8084 0
-8083 8084 0
-130 -7985 8085 0
130 -8085 0
7985 -8085 0
-7867 -8085 -8086 0
7867 8085 -8086 0
7867 -8085 8086 0
-7867 8085 8086 0
-8086 -8084 -8087 0
8086 8084 -8087 0
8086 -8084 8087 0
-8086 8084 8087 0
-8086 -8084 8088 0
8086 -8088 0
8084 -8088 0
-7867 -8085 8089 0
7867 -8089 0
8085 -8089 0
8088 8089 -8090 0
-8088 8090 0
-8089 8090 0
-138 -7985 8091 0
138 -8091 0
7985 -8091 0
-7873 -8091 -8092 0
7873 8091 -8092 0
7873 -8091 8092 0
-7873 8091 8092 0
-8092 -8090 -8093 0
8092 8090 -8093 0
8092 -8090 8093 0
-8092 8090 8093 0
-8092 -8090 8094 0
8092 -8094 0
8090 -8094 0
-7873 -8091 8095 0
7873 -8095 0
8091 -8095 0
8094 8095 -8096 0
-8094 8096 0
-8095 8096 0
-146 -7985 8097 0
146 -8097 0
7985 -8097 0
-7879 -8097 -8098 0
7879 8097 -8098 0
7879 -8097 8098 0
-7879 8097 8098 0
-8098 -8096 -8099 0
8098 8096 -8099 0
8098 -8096 8099 0
-8098 8096 8099 0
-8098 -8096 8100 0
8098 -8100 0
8096 -8100 0
-7879 -8097 8101 0
7879 -8101 0
8097 -8101 0
8100 8101 -8102 0
-8100 8102 0
-8101 8102 0
-154 -7985 8103 0
154 -8103 0
7985 -8103 0
-7885 -8103 -8104 0
7885 8103 -8104 0
7885 -8103 8104 0
-7885 8103 8104 0
-8104 -8102 -8105 0
8104 8102 -8105 0
8104 -8102 8105 0
-8104 8102 8105 0
-8104 -8102 8106 0
8104 -8106 0
8102 -8106 0
-7885 -8103 8107 0
7885 -8107 0
8103 -8107 0
8106 8107 -8108 0
-8106 8108 0
-8107 8108 0
-162 -7985 8109 0
162 -8109 0
7985 -8109 0
-7891 -8109 -8110 0
7891 8109 -8110 0
7891 -8109 8110 0
-7891 8109 8110 0
-8110 -8108 -8111 0
8110 8108 -8111 0
8110 -8108 8111 0
-8110 8108 8111 0
-8110 -8108 8112 0
8110 -8112 0
8108 -8112 0
-7891 -8109 8113 0
7891 -8113 0
8109 -8113 0
8112 8113 -8114 0
-8112 8114 0
-8113 8114 0
-170 -7985 8115 0
170 -8115 0
7985 -8115 0
-7897 -8115 -8116 0
7897 8115 -8116 0
7897 -8115 8116 0
-7897 8115 8116 0
-8116 -8114 -8117 0
8116 8114 -8117 0
8116 -8114 8117 0
-8116 8114 8117 0
-8116 -8114 8118 0
8116 -8118 0
8114 -8118 0
-7897 -8115 8119 0
7897 -8119 0
8115 -8119 0
8118 8119 -8120 0
-8118 8120 0
-8119 8120 0
-178 -7985 8121 0
178 -8121 0
7985 -8121 0
-7903 -8121 -8122 0
7903 8121 -8122 0
7903 -8121 8122 0
-7903 8121 8122 0
-8122 -8120 -8123 0
8122 8120 -8123 0
8122 -8120 8123 0
-8122 8120 8123 0
-8122 -8120 8124 0
8122 -8124 0
8120 -8124 0
-7903 -8121 8125 0
7903 -8125 0
8121 -8125 0
8124 8125 -8126 0
-8124 8126 0
-8125 8126 0
-186 -7985 8127 0
186 -8127 0
7985 -8127 0
-7909 -8127 -8128 0
7909 8127 -8128 0
7909 -8127 8128 0
-7909 8127 8128 0
-8128 -8126 -8129 0
8128 8126 -8129 0
8128 -8126 8129 0
-8128 8126 8129 0
-8128 -8126 8130 0
8128 -8130 0
8126 -8130 0
-7909 -8127 8131 0
7909 -8131 0
8127 -8131 0
8130 8131 -8132 0
-8130 8132 0
-8131 8132 0
-194 -7985 8133 0
194 -8133 0
7985 -8133 0
-7915 -8133 -8134 0
7915 8133 -8134 0
7915 -8133 8134 0
-7915 8133 8134 0
-8134 -8132 -8135 0
8134 8132 -8135 0
8134 -8132 8135 0
-8134 8132 8135 0
-8134 -8132 8136 0
8134 -8136 0
8132 -8136 0
-7915 -8133 8137 0
7915 -8137 0
8133 -8137 0
8136 8137 -8138 0
-8136 8138 0
-8137 8138 0
-202 -7985 8139 0
202 -8139 0
7985 -8139 0
-7921 -8139 -8140 0
7921 8139 -8140 0
7921 -8139 8140 0
-7921 8139 8140 0
-8140 -8138 -8141 0
8140 8138 -8141 0
8140 -8138 8141 0
-8140 8138 8141 0
-8140 -8138 8142 0
8140 -8142 0
8138 -8142 0
-7921 -8139 8143 0
7921 -8143 0
8139 -8143 0
8142 8143 -8144 0
-8142 8144 0
-8143 8144 0
-210 -7985 8145 0
210 -8145 0
7985 -8145 0
-7927 -8145 -8146 0
7927 8145 -8146 0
7927 -8145 8146 0
-7927 8145 8146 0
-8146 -8144 -8147 0
8146 8144 -8147 0
8146 -8144 8147 0
-8146 8144 8147 0
-8146 -8144 8148 0
8146 -8148 0
8144 -8148 0
-7927 -8145 8149 0
7927 -8149 0
8145 -8149 0
8148 8149 -8150 0
-8148 8150 0
-8149 8150 0
-218 -7985 8151 0
218 -8151 0
7985 -8151 0
-7933 -8151 -8152 0
7933 8151 -8152 0
7933 -8151 8152 0
-7933 8151 8152 0
-8152 -8150 -8153 0
8152 8150 -8153 0
8152 -8150 8153 0
-8152 8150 8153 0
-8152 -8150 8154 0
8152 -8154 0
8150 -8154 0
-7933 -8151 8155 0
7933 -8155 0
8151 -8155 0
8154 8155 -8156 0
-8154 8156 0
-8155 8156 0
-226 -7985 8157 0
226 -8157 0
7985 -8157 0
-7939 -8157 -8158 0
7939 8157 -8158 0
7939 -8157 8158 0
-7939 8157 8158 0
-8158 -8156 -8159 0
8158 8156 -8159 0
8158 -8156 8159 0
-8158 8156 8159 0
-8158 -8156 8160 0
8158 -8160 0
8156 -8160 0
-7939 -8157 8161 0
7939 -8161 0
8157 -8161 0
8160 8161 -8162 0
-8160 8162 0
-8161 8162 0
-234 -7985 8163 0
234 -8163 0
7985 -8163 0
-7945 -8163 -8164 0
7945 8163 -8164 0
7945 -8163 8164 0
-7945 8163 8164 0
-8164 -8162 -8165 0
8164 8162 -8165 0
8164 -8162 8165 0
-8164 8162 8165 0
-8164 -8162 8166 0
8164 -8166 0
8162 -8166 0
-7945 -8163 8167 0
7945 -8167 0
8163 -8167 0
8166 8167 -8168 0
-8166 8168 0
-8167 8168 0
-242 -7985 8169 0
242 -8169 0
7985 -8169 0
-7951 -8169 -8170 0
7951 8169 -8170 0
7951 -8169 8170 0
-7951 8169 8170 0
-8170 -8168 -8171 0
8170 8168 -8171 0
8170 -8168 8171 0
-8170 8168 8171 0
-8170 -8168 8172 0
8170 -8172 0
8168 -8172 0
-7951 -8169 8173 0
7951 -8173 0
8169 -8173 0
8172 8173 -8174 0
-8172 8174 0
-8173 8174 0
-250 -7985 8175 0
250 -8175 0
7985 -8175 0
-7957 -8175 -8176 0
7957 8175 -8176 0
7957 -8175 8176 0
-7957 8175 8176 0
-8176 -8174 -8177 0
8176 8174 -8177 0
8176 -8174 8177 0
-8176 8174 8177 0
-8176 -8174 8178 0
8176 -8178 0
8174 -8178 0
-7957 -8175 8179 0
7957 -8179 0
8175 -8179 0
8178 8179 -8180 0
-8178 8180 0
-8179 8180 0
-258 -7985 8181 0
258 -8181 0
7985 -8181 0
-7963 -8181 -8182 0
7963 8181 -8182 0
7963 -8181 8182 0
-7963 8181 8182 0
-8182 -8180 -8183 0
8182 8180 -8183 0
8182 -8180 8183 0
-8182 8180 8183 0
-8182 -8180 8184 0
8182 -8184 0
8180 -8184 0
-7963 -8181 8185 0
7963 -8185 0
8181 -8185 0
8184 8185 -8186 0
-8184 8186 0
-8185 8186 0
-266 -7985 8187 0
266 -8187 0
7985 -8187 0
-7969 -8187 -8188 0
7969 8187 -8188 0
7969 -8187 8188 0
-7969 8187 8188 0
-8188 -8186 -8189 0
8188 8186 -8189 0
8188 -8186 8189 0
-8188 8186 8189 0
-8188 -8186 8190 0
8188 -8190 0
8186 -8190 0
-7969 -8187 8191 0
7969 -8191 0
8187 -8191 0
8190 8191 -8192 0
-8190 8192 0
-8191 8192 0
-274 -7985 8193 0
274 -8193 0
7985 -8193 0
-7975 -8193 -8194 0
7975 8193 -8194 0
7975 -8193 8194 0
-7975 8193 8194 0
-8194 -8192 -8195 0
8194 8192 -8195 0
8194 -8192 8195 0
-8194 8192 8195 0
-8194 -8192 8196 0
8194 -8196 0
8192 -8196 0
-7975 -8193 8197 0
7975 -8197 0
8193 -8197 0
8196 8197 -8198 0
-8196 8198 0
-8197 8198 0
-282 -7985 8199 0
282 -8199 0
7985 -8199 0
-7981 -8199 -8200 0
7981 8199 -8200 0
7981 -8199 8200 0
-7981 8199 8200 0
-8200 -8198 -8201 0
8200 8198 -8201 0
8200 -8198 8201 0
-8200 8198 8201 0
-8200 -8198 8202 0
8200 -8202 0
8198 -8202 0
-7981 -8199 8203 0
7981 -8203 0
8199 -8203 0
8202 8203 -8204 0
-8202 8204 0
-8203 8204 0
-290 -7985 8205 0
290 -8205 0
7985 -8205 0
-7984 -8205 -8206 0
7984 8205 -8206 0
7984 -8205 8206 0
-7984 8205 8206 0
-8206 -8204 -8207 0
8206 8204 -8207 0
8206 -8204 8207 0
-8206 8204 8207 0
-8206 -8204 8208 0
8206 -8208 0
8204 -8208 0
-7984 -8205 8209 0
7984 -8209 0
8205 -8209 0
8208 8209 -8210 0
-8208 8210 0
-8209 8210 0
-1 -8211 8212 0
1 -8212 0
8211 -8212 0
-7991 -8212 -8213 0
7991 8212 -8213 0
7991 -8212 8213 0
-7991 8212 8213 0
-7991 -8212 8214 0
7991 -8214 0
8212 -8214 0
-4 -8211 8215 0
4 -8215 0
8211 -8215 0
-7997 -8215 -8216 0
7997 8215 -8216 0
7997 -8215 8216 0
-7997 8215 8216 0
-8216 -8214 -8217 0
8216 8214 -8217 0
8216 -8214 8217 0
-8216 8214 8217 0
-8216 -8214 8218 0
8216 -8218 0
8214 -8218 0
-7997 -8215 8219 0
7997 -8219 0
8215 -8219 0
8218 8219 -8220 0
-8218 8220 0
-8219 8220 0
-10 -8211 8221 0
10 -8221 0
8211 -8221 0
-8003 -8221 -8222 0
8003 8221 -8222 0
8003 -8221 8222 0
-8003 8221 8222 0
-8222 -8220 -8223 0
8222 8220 -8223 0
8222 -8220 8223 0
-8222 8220 8223 0
-8222 -8220 8224 0
8222 -8224 0
8220 -8224 0
-8003 -8221 8225 0
8003 -8225 0
8221 -8225 0
8224 8225 -8226 0
-8224 8226 0
-8225 8226 0
-18 -8211 8227 0
18 -8227 0
8211 -8227 0
-8009 -8227 -8228 0
8009 8227 -8228 0
8009 -8227 8228 0
-8009 8227 8228 0
-8228 -8226 -8229 0
8228 8226 -8229 0
8228 -8226 8229 0
-8228 8226 8229 0
-8228 -8226 8230 0
8228 -8230 0
8226 -8230 0
-8009 -8227 8231 0
8009 -8231 0
8227 -8231 0
8230 8231 -8232 0
-8230 8232 0
-8231 8232 0
-26 -8211 8233 0
26 -8233 0
8211 -8233 0
-8015 -8233 -8234 0
8015 8233 -8234 0
8015 -8233 8234 0
-8015 8233 8234 0
-8234 -8232 -8235 0
8234 8232 -8235 0
8234 -8232 8235 0
-8234 8232 8235 0
-8234 -8232 8236 0
8234 -8236 0
8232 -8236 0
-8015 -8233 8237 0
8015 -8237 0
8233 -8237 0
8236 8237 -8238 0
-8236 8238 0
-8237 8238 0
-34 -8211 8239 0
34 -8239 0
8211 -8239 0
-8021 -8239 -8240 0
8021 8239 -8240 0
8021 -8239 8240 0
-8021 8239 8240 0
-8240 -8238 -8241 0
8240 8238 -8241 0
8240 -8238 8241 0
-8240 8238 8241 0
-8240 -8238 8242 0
8240 -8242 0
8238 -8242 0
-8021 -8239 8243 0
8021 -8243 0
8239 -8243 0
8242 8243 -8244 0
-8242 8244 0
-8243 8244 0
-42 -8211 8245 0
42 -8245 0
8211 -8245 0
-8027 -8245 -8246 0
8027 8245 -8246 0
8027 -8245 8246 0
-8027 8245 8246 0
-8246 -8244 -8247 0
8246 8244 -8247 0
8246 -8244 8247 0
-8246 8244 8247 0
-8246 -8244 8248 0
8246 -8248 0
8244 -8248 0
-8027 -8245 8249 0
8027 -8249 0
8245 -8249 0
8248 8249 -8250 0
-8248 8250 0
-8249 8250 0
-50 -8211 8251 0
50 -8251 0
8211 -8251 0
-8033 -8251 -8252 0
8033 8251 -8252 0
8033 -8251 8252 0
-8033 8251 8252 0
-8252 -8250 -8253 0
8252 8250 -8253 0
8252 -8250 8253 0
-8252 8250 8253 0
-8252 -8250 8254 0
8252 -8254 0
8250 -8254 0
-8033 -8251 8255 0
8033 -8255 0
8251 -8255 0
8254 8255 -8256 0
-8254 8256 0
-8255 8256 0
-58 -8211 8257 0
58 -8257 0
8211 -8257 0
-8039 -8257 -8258 0
8039 8257 -8258 0
8039 -8257 8258 0
-8039 8257 8258 0
-8258 -8256 -8259 0
8258 8256 -8259 0
8258 -8256 8259 0
-8258 8256 8259 0
-8258 -8256 8260 0
8258 -8260 0
8256 -8260 0
-8039 -8257 8261 0
8039 -8261 0
8257 -8261 0
8260 8261 -8262 0
-8260 8262 0
-8261 8262 0
-66 -8211 8263 0
66 -8263 0
8211 -8263 0
-8045 -8263 -8264 0
8045 8263 -8264 0
8045 -8263 8264 0
-8045 8263 8264 0
-8264 -8262 -8265 0
8264 8262 -8265 0
8264 -8262 8265 0
-8264 8262 8265 0
-8264 -8262 8266 0
8264 -8266 0
8262 -8266 0
-8045 -8263 8267 0
8045 -8267 0
8263 -8267 0
8266 8267 -8268 0
-8266 8268 0
-8267 8268 0
-74 -8211 8269 0
74 -8269 0
8211 -8269 0
-8051 -8269 -8270 0
8051 8269 -8270 0
8051 -8269 8270 0
-8051 8269 8270 0
-8270 -8268 -8271 0
8270 8268 -8271 0
8270 -8268 8271 0
-8270 8268 8271 0
-8270 -8268 8272 0
8270 -8272 0
8268 -8272 0
-8051 -8269 8273 0
8051 -8273 0
8269 -8273 0
8272 8273 -8274 0
-8272 8274 0
-8273 8274 0
-82 -8211 8275 0
82 -8275 0
8211 -8275 0
-8057 -8275 -8276 0
8057 8275 -8276 0
8057 -8275 8276 0
-8057 8275 8276 0
-8276 -8274 -8277 0
8276 8274 -8277 0
8276 -8274 8277 0
-8276 8274 8277 0
-8276 -8274 8278 0
8276 -8278 0
8274 -8278 0
-8057 -8275 8279 0
8057 -8279 0
8275 -8279 0
8278 8279 -8280 0
-8278 8280 0
-8279 8280 0
-90 -8211 8281 0
90 -8281 0
8211 -8281 0
-8063 -8281 -8282 0
8063 8281 -8282 0
8063 -8281 8282 0
-8063 8281 8282 0
-8282 -8280 -8283 0
8282 8280 -8283 0
8282 -8280 8283 0
-8282 8280 8283 0
-8282 -8280 8284 0
8282 -8284 0
8280 -8284 0
-8063 -8281 8285 0
8063 -8285 0
8281 -8285 0
8284 8285 -8286 0
-8284 8286 0
-8285 8286 0
-98 -8211 8287 0
98 -8287 0
8211 -8287 0
-8069 -8287 -8288 0
8069 8287 -8288 0
8069 -8287 8288 0
-8069 8287 8288 0
-8288 -8286 -8289 0
8288 8286 -8289 0
8288 -8286 8289 0
-8288 8286 8289 0
-8288 -8286 8290 0
8288 -8290 0
8286 -8290 0
-8069 -8287 8291 0
8069 -8291 0
8287 -8291 0
8290 8291 -8292 0
-8290 8292 0
-8291 8292 0
-106 -8211 8293 0
106 -8293 0
8211 -8293 0
-8075 -8293 -8294 0
8075 8293 -8294 0
8075 -8293 8294 0
-8075 8293 8294 0
-8294 -8292 -8295 0
8294 8292 -8295 0
8294 -8292 8295 0
-8294 8292 8295 0
-8294 -8292 8296 0
8294 -8296 0
8292 -8296 0
-8075 -8293 8297 0
8075 -8297 0
8293 -8297 0
8296 8297 -8298 0
-8296 8298 0
-8297 8298 0
-114 -8211 8299 0
114 -8299 0
8211 -8299 0
-8081 -8299 -8300 0
8081 8299 -8300 0
8081 -8299 8300 0
-8081 8299 8300 0
-8300 -8298 -8301 0
8300 8298 -8301 0
8300 -8298 8301 0
-8300 8298 8301 0
-8300 -8298 8302 0
8300 -8302 0
8298 -8302 0
-8081 -8299 8303 0
8081 -8303 0
8299 -8303 0
8302 8303 -8304 0
-8302 8304 0
-8303 8304 0
-122 -8211 8305 0
122 -8305 0
8211 -8305 0
-8087 -8305 -8306 0
8087 8305 -8306 0
8087 -8305 8306 0
-8087 8305 8306 0
-8306 -8304 -8307 0
8306 8304 -8307 0
8306 -8304 8307 0
-8306 8304 8307 0
-8306 -8304 8308 0
8306 -8308 0
8304 -8308 0
-8087 -8305 8309 0
8087 -8309 0
8305 -8309 0
8308 8309 -8310 0
-8308 8310 0
-8309 8310 0
-130 -8211 8311 0
130 -8311 0
8211 -8311 0
-8093 -8311 -8312 0
8093 8311 -8312 0
8093 -8311 8312 0
-8093 8311 8312 0
-8312 -8310 -8313 0
8312 8310 -8313 0
8312 -8310 8313 0
-8312 8310 8313 0
-8312 -8310 8314 0
8312 -8314 0
8310 -8314 0
-8093 -8311 8315 0
8093 -8315 0
8311 -8315 0
8314 8315 -8316 0
-8314 8316 0
-8315 8316 0
-138 -8211 8317 0
138 -8317 0
8211 -8317 0
-8099 -8317 -8318 0
8099 8317 -8318 0
8099 -8317 8318 0
-8099 8317 8318 0
-8318 -8316 -8319 0
8318 8316 -8319 0
8318 -8316 8319 0
-8318 8316 8319 0
-8318 -8316 8320 0
8318 -8320 0
8316 -8320 0
-8099 -8317 8321 0
8099 -8321 0
8317 -8321 0
8320 8321 -8322 0
-8320 8322 0
-8321 8322 0
-146 -8211 8323 0
146 -8323 0
8211 -8323 0
-8105 -8323 -8324 0
8105 8323 -8324 0
8105 -8323 8324 0
-8105 8323 8324 0
-8324 -8322 -8325 0
8324 8322 -8325 0
8324 -8322 8325 0
-8324 8322 8325 0
-8324 -8322 8326 0
8324 -8326 0
8322 -8326 0
-8105 -8323 8327 0
8105 -8327 0
8323 -8327 0
8326 8327 -8328 0
-8326 8328 0
-8327 8328 0
-154 -8211 8329 0
154 -8329 0
8211 -8329 0
-8111 -8329 -8330 0
8111 8329 -8330 0
8111 -8329 8330 0
-8111 8329 8330 0
-8330 -8328 -8331 0
8330 8328 -8331 0
8330 -8328 8331 0
-8330 8328 8331 0
-8330 -8328 8332 0
8330 -8332 0
8328 -8332 0
-8111 -8329 8333 0
8111 -8333 0
8329 -8333 0
8332 8333 -8334 0
-8332 8334 0
-8333 8334 0
-162 -8211 8335 0
162 -8335 0
8211 -8335 0
-8117 -8335 -8336 0
8117 8335 -8336 0
8117 -8335 8336 0
-8117 8335 8336 0
-8336 -8334 -8337 0
8336 8334 -8337 0
8336 -8334 8337 0
-8336 8334 8337 0
-8336 -8334 8338 0
8336 -8338 0
8334 -8338 0
-8117 -8335 8339 0
8117 -8339 0
8335 -8339 0
8338 8339 -8340 0
-8338 8340 0
-8339 8340 0
-170 -8211 8341 0
170 -8341 0
8211 -8341 0
-8123 -8341 -8342 0
8123 8341 -8342 0
8123 -8341 8342 0
-8123 8341 8342 0
-8342 -8340 -8343 0
8342 8340 -8343 0
8342 -8340 8343 0
-8342 8340 8343 0
-8342 -8340 8344 0
8342 -8344 0
8340 -8344 0
-8123 -8341 8345 0
8123 -8345 0
8341 -8345 0
8344 8345 -8346 0
-8344 8346 0
-8345 8346 0
-178 -8211 8347 0
178 -8347 0
8211 -8347 0
-8129 -8347 -8348 0
8129 8347 -8348 0
8129 -8347 8348 0
-8129 8347 8348 0
-8348 -8346 -8349 0
8348 8346 -8349 0
8348 -8346 8349 0
-8348 8346 8349 0
-8348 -8346 8350 0
8348 -8350 0
8346 -8350 0
-8129 -8347 8351 0
8129 -8351 0
8347 -8351 0
8350 8351 -8352 0
-8350 8352 0
-8351 8352 0
-186 -8211 8353 0
186 -8353 0
8211 -8353 0
-8135 -8353 -8354 0
8135 8353 -8354 0
8135 -8353 8354 0
-8135 8353 8354 0
-8354 -8352 -8355 0
8354 8352 -8355 0
8354 -8352 8355 0
-8354 8352 8355 0
-8354 -8352 8356 0
8354 -8356 0
8352 -8356 0
-8135 -8353 8357 0
8135 -8357 0
8353 -8357 0
8356 8357 -8358 0
-8356 8358 0
-8357 8358 0
-194 -8211 8359 0
194 -8359 0
8211 -8359 0
-8141 -8359 -8360 0
8141 8359 -8360 0
8141 -8359 8360 0
-8141 8359 8360 0
-8360 -8358 -8361 0
8360 8358 -8361 0
8360 -8358 8361 0
-8360 8358 8361 0
-8360 -8358 8362 0
8360 -8362 0
8358 -8362 0
-8141 -8359 8363 0
8141 -8363 0
8359 -8363 0
8362 8363 -8364 0
-8362 8364 0
-8363 8364 0
-202 -8211 8365 0
202 -8365 0
8211 -8365 0
-8147 -8365 -8366 0
8147 8365 -8366 0
8147 -8365 8366 0
-8147 8365 8366 0
-8366 -8364 -8367 0
8366 8364 -8367 0
8366 -8364 8367 0
-8366 8364 8367 0
-8366 -8364 8368 0
8366 -8368 0
8364 -8368 0
-8147 -8365 8369 0
8147 -8369 0
8365 -8369 0
8368 8369 -8370 0
-8368 8370 0
-8369 8370 0
-210 -8211 8371 0
210 -8371 0
8211 -8371 0
-8153 -8371 -8372 0
8153 8371 -8372 0
8153 -8371 8372 0
-8153 8371 8372 0
-8372 -8370 -8373 0
8372 8370 -8373 0
8372 -8370 8373 0
-8372 8370 8373 0
-8372 -8370 8374 0
8372 -8374 0
8370 -8374 0
-8153 -8371 8375 0
8153 -8375 0
8371 -8375 0
8374 8375 -8376 0
-8374 8376 0
-8375 8376 0
-218 -8211 8377 0
218 -8377 0
8211 -8377 0
-8159 -8377 -8378 0
8159 8377 -8378 0
8159 -8377 8378 0
-8159 8377 8378 0
-8378 -8376 -8379 0
8378 8376 -8379 0
8378 -8376 8379 0
-8378 8376 8379 0
-8378 -8376 8380 0
8378 -8380 0
8376 -8380 0
-8159 -8377 8381 0
8159 -8381 0
8377 -8381 0
8380 8381 -8382 0
-8380 8382 0
-8381 8382 0
-226 -8211 8383 0
226 -8383 0
8211 -8383 0
-8165 -8383 -8384 0
8165 8383 -8384 0
8165 -8383 8384 0
-8165 8383 8384 0
-8384 -8382 -8385 0
8384 8382 -8385 0
8384 -8382 8385 0
-8384 8382 8385 0
-8384 -8382 8386 0
8384 -8386 0
8382 -8386 0
-8165 -8383 8387 0
8165 -8387 0
8383 -8387 0
8386 8387 -8388 0
-8386 8388 0
-8387 8388 0
-234 -8211 8389 0
234 -8389 0
8211 -8389 0
-8171 -8389 -8390 0
8171 8389 -8390 0
8171 -8389 8390 0
-8171 8389 8390 0
-8390 -8388 -8391 0
8390 8388 -8391 0
8390 -8388 8391 0
-8390 8388 8391 0
-8390 -8388 8392 0
8390 -8392 0
8388 -8392 0
-8171 -8389 8393 0
8171 -8393 0
8389 -8393 0
8392 8393 -8394 0
-8392 8394 0
-8393 8394 0
-242 -8211 8395 0
242 -8395 0
8211 -8395 0
-8177 -8395 -8396 0
8177 8395 -8396 0
8177 -8395 8396 0
-8177 8395 8396 0
-8396 -8394 -8397 0
8396 8394 -8397 0
8396 -8394 8397 0
-8396 8394 8397 0
-8396 -8394 8398 0
8396 -8398 0
8394 -8398 0
-8177 -8395 8399 0
8177 -8399 0
8395 -8399 0
8398 8399 -8400 0
-8398 8400 0
-8399 8400 0
-250 -8211 8401 0
250 -8401 0
8211 -8401 0
-8183 -8401 -8402 0
8183 8401 -8402 0
8183 -8401 8402 0
-8183 8401 8402 0
-8402 -8400 -8403 0
8402 8400 -8403 0
8402 -8400 8403 0
-8402 8400 8403 0
-8402 -8400 8404 0
8402 -8404 0
8400 -8404 0
-8183 -8401 8405 0
8183 -8405 0
8401 -8405 0
8404 8405 -8406 0
-8404 8406 0
-8405 8406 0
-258 -8211 8407 0
258 -8407 0
8211 -8407 0
-8189 -8407 -8408 0
8189 8407 -8408 0
8189 -8407 8408 0
-8189 8407 8408 0
-8408 -8406 -8409 0
8408 8406 -8409 0
8408 -8406 8409 0
-8408 8406 8409 0
-8408 -8406 8410 0
8408 -8410 0
8406 -8410 0
-8189 -8407 8411 0
8189 -8411 0
8407 -8411 0
8410 8411 -8412 0
-8410 8412 0
-8411 8412 0
-266 -8211 8413 0
266 -8413 0
8211 -8413 0
-8195 -8413 -8414 0
8195 8413 -8414 0
8195 -8413 8414 0
-8195 8413 8414 0
-8414 -8412 -8415 0
8414 8412 -8415 0
8414 -8412 8415 0
-8414 8412 8415 0
-8414 -8412 8416 0
8414 -8416 0
8412 -8416 0
-8195 -8413 8417 0
8195 -8417 0
8413 -8417 0
8416 8417 -8418 0
-8416 8418 0
-8417 8418 0
-274 -8211 8419 0
274 -8419 0
8211 -8419 0
-8201 -8419 -8420 0
8201 8419 -8420 0
8201 -8419 8420 0
-8201 8419 8420 0
-8420 -8418 -8421 0
8420 8418 -8421 0
8420 -8418 8421 0
-8420 8418 8421 0
-8420 -8418 8422 0
8420 -8422 0
8418 -8422 0
-8201 -8419 8423 0
8201 -8423 0
8419 -8423 0
8422 8423 -8424 0
-8422 8424 0
-8423 8424 0
-282 -8211 8425 0
282 -8425 0
8211 -8425 0
-8207 -8425 -8426 0
8207 8425 -8426 0
8207 -8425 8426 0
-8207 8425 8426 0
-8426 -8424 -8427 0
8426 8424 -8427 0
8426 -8424 8427 0
-8426 8424 8427 0
-8426 -8424 8428 0
8426 -8428 0
8424 -8428 0
-8207 -8425 8429 0
8207 -8429 0
8425 -8429 0
8428 8429 -8430 0
-8428 8430 0
-8429 8430 0
-290 -8211 8431 0
290 -8431 0
8211 -8431 0
-8210 -8431 -8432 0
8210 8431 -8432 0
8210 -8431 8432 0
-8210 8431 8432 0
-8432 -8430 -8433 0
8432 8430 -8433 0
8432 -8430 8433 0
-8432 8430 8433 0
-8432 -8430 8434 0
8432 -8434 0
8430 -8434 0
-8210 -8431 8435 0
8210 -8435 0
8431 -8435 0
8434 8435 -8436 0
-8434 8436 0
-8435 8436 0
3 0
-8 0
303 0
-529 0
755 0
-981 0
-1207 0
-1433 0
-1659 0
-1885 0
-2111 0
-2337 0
-2563 0
-2789 0
-3015 0
-3241 0
-3467 0
-3693 0
-3919 0
4145 0
-4371 0
4597 0
-4823 0
-5049 0
-5275 0
-5501 0
-5727 0
-5953 0
-6179 0
-6405 0
-6631 0
-6857 0
-7083 0
-7309 0
-7535 0
-7761 0
7987 0
-8213 0
-8217 0
-8223 0
-8229 0
-8235 0
-8241 0
-8247 0
-8253 0
-8259 0
-8265 0
-8271 0
-8277 0
-8283 0
-8289 0
-8295 0
-8301 0
-8307 0
-8313 0
-8319 0
-8325 0
-8331 0
-8337 0
-8343 0
-8349 0
-8355 0
-8361 0
-8367 0
-8373 0
-8379 0
-8385 0
-8391 0
-8397 0
-8403 0
-8409 0
-8415 0
-8421 0
-8427 0
-8433 0
-8436 0
