p cnf 11352 37620
-1 -2 3 0
1 -3 0
2 -3 0
-4 -2 5 0
4 -5 0
2 -5 0
-1 -6 7 0
1 -7 0
6 -7 0
-5 -7 -8 0
5 7 -8 0
5 -7 8 0
-5 7 8 0
-5 -7 9 0
5 -9 0
7 -9 0
-10 -2 11 0
10 -11 0
2 -11 0
-4 -6 12 0
4 -12 0
6 -12 0
-11 -12 -13 0
11 12 -13 0
11 -12 13 0
-11 12 13 0
-13 -9 -14 0
13 9 -14 0
13 -9 14 0
-13 9 14 0
-13 -9 15 0
13 -15 0
9 -15 0
-11 -12 16 0
11 -16 0
12 -16 0
15 16 -17 0
-15 17 0
-16 17 0
-18 -2 19 0
18 -19 0
2 -19 0
-10 -6 20 0
10 -20 0
6 -20 0
-19 -20 -21 0
19 20 -21 0
19 -20 21 0
-19 20 21 0
-21 -17 -22 0
21 17 -22 0
21 -17 22 0
-21 17 22 0
-21 -17 23 0
21 -23 0
17 -23 0
-19 -20 24 0
19 -24 0
20 -24 0
23 24 -25 0
-23 25 0
-24 25 0
-26 -2 27 0
26 -27 0
2 -27 0
-18 -6 28 0
18 -28 0
6 -28 0
-27 -28 -29 0
27 28 -29 0
27 -28 29 0
-27 28 29 0
-29 -25 -30 0
29 25 -30 0
29 -25 30 0
-29 25 30 0
-29 -25 31 0
29 -31 0
25 -31 0
-27 -28 32 0
27 -32 0
28 -32 0
31 32 -33 0
-31 33 0
-32 33 0
-34 -2 35 0
34 -35 0
2 -35 0
-26 -6 36 0
26 -36 0
6 -36 0
-35 -36 -37 0
35 36 -37 0
35 -36 37 0
-35 36 37 0
-37 -33 -38 0
37 33 -38 0
37 -33 38 0
-37 33 38 0
-37 -33 39 0
37 -39 0
33 -39 0
-35 -36 40 0
35 -40 0
36 -40 0
39 40 -41 0
-39 41 0
-40 41 0
-42 -2 43 0
42 -43 0
2 -43 0
-34 -6 44 0
34 -44 0
6 -44 0
-43 -44 -45 0
43 44 -45 0
43 -44 45 0
-43 44 45 0
-45 -41 -46 0
45 41 -46 0
45 -41 46 0
-45 41 46 0
-45 -41 47 0
45 -47 0
41 -47 0
-43 -44 48 0
43 -48 0
44 -48 0
47 48 -49 0
-47 49 0
-48 49 0
-50 -2 51 0
50 -51 0
2 -51 0
-42 -6 52 0
42 -52 0
6 -52 0
-51 -52 -53 0
51 52 -53 0
51 -52 53 0
-51 52 53 0
-53 -49 -54 0
53 49 -54 0
53 -49 54 0
-53 49 54 0
-53 -49 55 0
53 -55 0
49 -55 0
-51 -52 56 0
51 -56 0
52 -56 0
55 56 -57 0
-55 57 0
-56 57 0
-58 -2 59 0
58 -59 0
2 -59 0
-50 -6 60 0
50 -60 0
6 -60 0
-59 -60 -61 0
59 60 -61 0
59 -60 61 0
-59 60 61 0
-61 -57 -62 0
61 57 -62 0
61 -57 62 0
-61 57 62 0
-61 -57 63 0
61 -63 0
57 -63 0
-59 -60 64 0
59 -64 0
60 -64 0
63 64 -65 0
-63 65 0
-64 65 0
-66 -2 67 0
66 -67 0
2 -67 0
-58 -6 68 0
58 -68 0
6 -68 0
-67 -68 -69 0
67 68 -69 0
67 -68 69 0
-67 68 69 0
-69 -65 -70 0
69 65 -70 0
69 -65 70 0
-69 65 70 0
-69 -65 71 0
69 -71 0
65 -71 0
-67 -68 72 0
67 -72 0
68 -72 0
71 72 -73 0
-71 73 0
-72 73 0
-74 -2 75 0
74 -75 0
2 -75 0
-66 -6 76 0
66 -76 0
6 -76 0
-75 -76 -77 0
75 76 -77 0
75 -76 77 0
-75 76 77 0
-77 -73 -78 0
77 73 -78 0
77 -73 78 0
-77 73 78 0
-77 -73 79 0
77 -79 0
73 -79 0
-75 -76 80 0
75 -80 0
76 -80 0
79 80 -81 0
-79 81 0
-80 81 0
-82 -2 83 0
82 -83 0
2 -83 0
-74 -6 84 0
74 -84 0
6 -84 0
-83 -84 -85 0
83 84 -85 0
83 -84 85 0
-83 84 85 0
-85 -81 -86 0
85 81 -86 0
85 -81 86 0
-85 81 86 0
-85 -81 87 0
85 -87 0
81 -87 0
-83 -84 88 0
83 -88 0
84 -88 0
87 88 -89 0
-87 89 0
-88 89 0
-90 -2 91 0
90 -91 0
2 -91 0
-82 -6 92 0
82 -92 0
6 -92 0
-91 -92 -93 0
91 92 -93 0
91 -92 93 0
-91 92 93 0
-93 -89 -94 0
93 89 -94 0
93 -89 94 0
-93 89 94 0
-93 -89 95 0
93 -95 0
89 -95 0
-91 -92 96 0
91 -96 0
92 -96 0
95 96 -97 0
-95 97 0
-96 97 0
-98 -2 99 0
98 -99 0
2 -99 0
-90 -6 100 0
90 -100 0
6 -100 0
-99 -100 -101 0
99 100 -101 0
99 -100 101 0
-99 100 101 0
-101 -97 -102 0
101 97 -102 0
101 -97 102 0
-101 97 102 0
-101 -97 103 0
101 -103 0
97 -103 0
-99 -100 104 0
99 -104 0
100 -104 0
103 104 -105 0
-103 105 0
-104 105 0
-106 -2 107 0
106 -107 0
2 -107 0
-98 -6 108 0
98 -108 0
6 -108 0
-107 -108 -109 0
107 108 -109 0
107 -108 109 0
-107 108 109 0
-109 -105 -110 0
109 105 -110 0
109 -105 110 0
-109 105 110 0
-109 -105 111 0
109 -111 0
105 -111 0
-107 -108 112 0
107 -112 0
108 -112 0
111 112 -113 0
-111 113 0
-112 113 0
-114 -2 115 0
114 -115 0
2 -115 0
-106 -6 116 0
106 -116 0
6 -116 0
-115 -116 -117 0
115 116 -117 0
115 -116 117 0
-115 116 117 0
-117 -113 -118 0
117 113 -118 0
117 -113 118 0
-117 113 118 0
-117 -113 119 0
117 -119 0
113 -119 0
-115 -116 120 0
115 -120 0
116 -120 0
119 120 -121 0
-119 121 0
-120 121 0
-122 -2 123 0
122 -123 0
2 -123 0
-114 -6 124 0
114 -124 0
6 -124 0
-123 -124 -125 0
123 124 -125 0
123 -124 125 0
-123 124 125 0
-125 -121 -126 0
125 121 -126 0
125 -121 126 0
-125 121 126 0
-125 -121 127 0
125 -127 0
121 -127 0
-123 -124 128 0
123 -128 0
124 -128 0
127 128 -129 0
-127 129 0
-128 129 0
-130 -2 131 0
130 -131 0
2 -131 0
-122 -6 132 0
122 -132 0
6 -132 0
-131 -132 -133 0
131 132 -133 0
131 -132 133 0
-131 132 133 0
-133 -129 -134 0
133 129 -134 0
133 -129 134 0
-133 129 134 0
-133 -129 135 0
133 -135 0
129 -135 0
-131 -132 136 0
131 -136 0
132 -136 0
135 136 -137 0
-135 137 0
-136 137 0
-138 -2 139 0
138 -139 0
2 -139 0
-130 -6 140 0
130 -140 0
6 -140 0
-139 -140 -141 0
139 140 -141 0
139 -140 141 0
-139 140 141 0
-141 -137 -142 0
141 137 -142 0
141 -137 142 0
-141 137 142 0
-141 -137 143 0
141 -143 0
137 -143 0
-139 -140 144 0
139 -144 0
140 -144 0
143 144 -145 0
-143 145 0
-144 145 0
-146 -2 147 0
146 -147 0
2 -147 0
-138 -6 148 0
138 -148 0
6 -148 0
-147 -148 -149 0
147 148 -149 0
147 -148 149 0
-147 148 149 0
-149 -145 -150 0
149 145 -150 0
149 -145 150 0
-149 145 150 0
-149 -145 151 0
149 -151 0
145 -151 0
-147 -148 152 0
147 -152 0
148 -152 0
151 152 -153 0
-151 153 0
-152 153 0
-154 -2 155 0
154 -155 0
2 -155 0
-146 -6 156 0
146 -156 0
6 -156 0
-155 -156 -157 0
155 156 -157 0
155 -156 157 0
-155 156 157 0
-157 -153 -158 0
157 153 -158 0
157 -153 158 0
-157 153 158 0
-157 -153 159 0
157 -159 0
153 -159 0
-155 -156 160 0
155 -160 0
156 -160 0
159 160 -161 0
-159 161 0
-160 161 0
-162 -2 163 0
162 -163 0
2 -163 0
-154 -6 164 0
154 -164 0
6 -164 0
-163 -164 -165 0
163 164 -165 0
163 -164 165 0
-163 164 165 0
-165 -161 -166 0
165 161 -166 0
165 -161 166 0
-165 161 166 0
-165 -161 167 0
165 -167 0
161 -167 0
-163 -164 168 0
163 -168 0
164 -168 0
167 168 -169 0
-167 169 0
-168 169 0
-170 -2 171 0
170 -171 0
2 -171 0
-162 -6 172 0
162 -172 0
6 -172 0
-171 -172 -173 0
171 172 -173 0
171 -172 173 0
-171 172 173 0
-173 -169 -174 0
173 169 -174 0
173 -169 174 0
-173 169 174 0
-173 -169 175 0
173 -175 0
169 -175 0
-171 -172 176 0
171 -176 0
172 -176 0
175 176 -177 0
-175 177 0
-176 177 0
-178 -2 179 0
178 -179 0
2 -179 0
-170 -6 180 0
170 -180 0
6 -180 0
-179 -180 -181 0
179 180 -181 0
179 -180 181 0
-179 180 181 0
-181 -177 -182 0
181 177 -182 0
181 -177 182 0
-181 177 182 0
-181 -177 183 0
181 -183 0
177 -183 0
-179 -180 184 0
179 -184 0
180 -184 0
183 184 -185 0
-183 185 0
-184 185 0
-186 -2 187 0
186 -187 0
2 -187 0
-178 -6 188 0
178 -188 0
6 -188 0
-187 -188 -189 0
187 188 -189 0
187 -188 189 0
-187 188 189 0
-189 -185 -190 0
189 185 -190 0
189 -185 190 0
-189 185 190 0
-189 -185 191 0
189 -191 0
185 -191 0
-187 -188 192 0
187 -192 0
188 -192 0
191 192 -193 0
-191 193 0
-192 193 0
-194 -2 195 0
194 -195 0
2 -195 0
-186 -6 196 0
186 -196 0
6 -196 0
-195 -196 -197 0
195 196 -197 0
195 -196 197 0
-195 196 197 0
-197 -193 -198 0
197 193 -198 0
197 -193 198 0
-197 193 198 0
-197 -193 199 0
197 -199 0
193 -199 0
-195 -196 200 0
195 -200 0
196 -200 0
199 200 -201 0
-199 201 0
-200 201 0
-202 -2 203 0
202 -203 0
2 -203 0
-194 -6 204 0
194 -204 0
6 -204 0
-203 -204 -205 0
203 204 -205 0
203 -204 205 0
-203 204 205 0
-205 -201 -206 0
205 201 -206 0
205 -201 206 0
-205 201 206 0
-205 -201 207 0
205 -207 0
201 -207 0
-203 -204 208 0
203 -208 0
204 -208 0
207 208 -209 0
-207 209 0
-208 209 0
-210 -2 211 0
210 -211 0
2 -211 0
-202 -6 212 0
202 -212 0
6 -212 0
-211 -212 -213 0
211 212 -213 0
211 -212 213 0
-211 212 213 0
-213 -209 -214 0
213 209 -214 0
213 -209 214 0
-213 209 214 0
-213 -209 215 0
213 -215 0
209 -215 0
-211 -212 216 0
211 -216 0
212 -216 0
215 216 -217 0
-215 217 0
-216 217 0
-218 -2 219 0
218 -219 0
2 -219 0
-210 -6 220 0
210 -220 0
6 -220 0
-219 -220 -221 0
219 220 -221 0
219 -220 221 0
-219 220 221 0
-221 -217 -222 0
221 217 -222 0
221 -217 222 0
-221 217 222 0
-221 -217 223 0
221 -223 0
217 -223 0
-219 -220 224 0
219 -224 0
220 -224 0
223 224 -225 0
-223 225 0
-224 225 0
-226 -2 227 0
226 -227 0
2 -227 0
-218 -6 228 0
218 -228 0
6 -228 0
-227 -228 -229 0
227 228 -229 0
227 -228 229 0
-227 228 229 0
-229 -225 -230 0
229 225 -230 0
229 -225 230 0
-229 225 230 0
-229 -225 231 0
229 -231 0
225 -231 0
-227 -228 232 0
227 -232 0
228 -232 0
231 232 -233 0
-231 233 0
-232 233 0
-234 -2 235 0
234 -235 0
2 -235 0
-226 -6 236 0
226 -236 0
6 -236 0
-235 -236 -237 0
235 236 -237 0
235 -236 237 0
-235 236 237 0
-237 -233 -238 0
237 233 -238 0
237 -233 238 0
-237 233 238 0
-237 -233 239 0
237 -239 0
233 -239 0
-235 -236 240 0
235 -240 0
236 -240 0
239 240 -241 0
-239 241 0
-240 241 0
-242 -2 243 0
242 -243 0
2 -243 0
-234 -6 244 0
234 -244 0
6 -244 0
-243 -244 -245 0
243 244 -245 0
243 -244 245 0
-243 244 245 0
-245 -241 -246 0
245 241 -246 0
245 -241 246 0
-245 241 246 0
-245 -241 247 0
245 -247 0
241 -247 0
-243 -244 248 0
243 -248 0
244 -248 0
247 248 -249 0
-247 249 0
-248 249 0
-250 -2 251 0
250 -251 0
2 -251 0
-242 -6 252 0
242 -252 0
6 -252 0
-251 -252 -253 0
251 252 -253 0
251 -252 253 0
-251 252 253 0
-253 -249 -254 0
253 249 -254 0
253 -249 254 0
-253 249 254 0
-253 -249 255 0
253 -255 0
249 -255 0
-251 -252 256 0
251 -256 0
252 -256 0
255 256 -257 0
-255 257 0
-256 257 0
-258 -2 259 0
258 -259 0
2 -259 0
-250 -6 260 0
250 -260 0
6 -260 0
-259 -260 -261 0
259 260 -261 0
259 -260 261 0
-259 260 261 0
-261 -257 -262 0
261 257 -262 0
261 -257 262 0
-261 257 262 0
-261 -257 263 0
261 -263 0
257 -263 0
-259 -260 264 0
259 -264 0
260 -264 0
263 264 -265 0
-263 265 0
-264 265 0
-266 -2 267 0
266 -267 0
2 -267 0
-258 -6 268 0
258 -268 0
6 -268 0
-267 -268 -269 0
267 268 -269 0
267 -268 269 0
-267 268 269 0
-269 -265 -270 0
269 265 -270 0
269 -265 270 0
-269 265 270 0
-269 -265 271 0
269 -271 0
265 -271 0
-267 -268 272 0
267 -272 0
268 -272 0
271 272 -273 0
-271 273 0
-272 273 0
-274 -2 275 0
274 -275 0
2 -275 0
-266 -6 276 0
266 -276 0
6 -276 0
-275 -276 -277 0
275 276 -277 0
275 -276 277 0
-275 276 277 0
-277 -273 -278 0
277 273 -278 0
277 -273 278 0
-277 273 278 0
-277 -273 279 0
277 -279 0
273 -279 0
-275 -276 280 0
275 -280 0
276 -280 0
279 280 -281 0
-279 281 0
-280 281 0
-282 -2 283 0
282 -283 0
2 -283 0
-274 -6 284 0
274 -284 0
6 -284 0
-283 -284 -285 0
283 284 -285 0
283 -284 285 0
-283 284 285 0
-285 -281 -286 0
285 281 -286 0
285 -281 286 0
-285 281 286 0
-285 -281 287 0
285 -287 0
281 -287 0
-283 -284 288 0
283 -288 0
284 -288 0
287 288 -289 0
-287 289 0
-288 289 0
-290 -2 291 0
290 -291 0
2 -291 0
-282 -6 292 0
282 -292 0
6 -292 0
-291 -292 -293 0
291 292 -293 0
291 -292 293 0
-291 292 293 0
-293 -289 -294 0
293 289 -294 0
293 -289 294 0
-293 289 294 0
-293 -289 295 0
293 -295 0
289 -295 0
-291 -292 296 0
291 -296 0
292 -296 0
295 296 -297 0
-295 297 0
-296 297 0
-298 -2 299 0
298 -299 0
2 -299 0
-290 -6 300 0
290 -300 0
6 -300 0
-299 -300 -301 0
299 300 -301 0
299 -300 301 0
-299 300 301 0
-301 -297 -302 0
301 297 -302 0
301 -297 302 0
-301 297 302 0
-301 -297 303 0
301 -303 0
297 -303 0
-299 -300 304 0
299 -304 0
300 -304 0
303 304 -305 0
-303 305 0
-304 305 0
-306 -2 307 0
306 -307 0
2 -307 0
-298 -6 308 0
298 -308 0
6 -308 0
-307 -308 -309 0
307 308 -309 0
307 -308 309 0
-307 308 309 0
-309 -305 -310 0
309 305 -310 0
309 -305 310 0
-309 305 310 0
-309 -305 311 0
309 -311 0
305 -311 0
-307 -308 312 0
307 -312 0
308 -312 0
311 312 -313 0
-311 313 0
-312 313 0
-314 -2 315 0
314 -315 0
2 -315 0
-306 -6 316 0
306 -316 0
6 -316 0
-315 -316 -317 0
315 316 -317 0
315 -316 317 0
-315 316 317 0
-317 -313 -318 0
317 313 -318 0
317 -313 318 0
-317 313 318 0
-317 -313 319 0
317 -319 0
313 -319 0
-315 -316 320 0
315 -320 0
316 -320 0
319 320 -321 0
-319 321 0
-320 321 0
-322 -2 323 0
322 -323 0
2 -323 0
-314 -6 324 0
314 -324 0
6 -324 0
-323 -324 -325 0
323 324 -325 0
323 -324 325 0
-323 324 325 0
-325 -321 -326 0
325 321 -326 0
325 -321 326 0
-325 321 326 0
-325 -321 327 0
325 -327 0
321 -327 0
-323 -324 328 0
323 -328 0
324 -328 0
327 328 -329 0
-327 329 0
-328 329 0
-330 -2 331 0
330 -331 0
2 -331 0
-322 -6 332 0
322 -332 0
6 -332 0
-331 -332 -333 0
331 332 -333 0
331 -332 333 0
-331 332 333 0
-333 -329 -334 0
333 329 -334 0
333 -329 334 0
-333 329 334 0
-333 -329 335 0
333 -335 0
329 -335 0
-331 -332 336 0
331 -336 0
332 -336 0
335 336 -337 0
-335 337 0
-336 337 0
-338 -2 339 0
338 -339 0
2 -339 0
-330 -6 340 0
330 -340 0
6 -340 0
-339 -340 -341 0
339 340 -341 0
339 -340 341 0
-339 340 341 0
-341 -337 -342 0
341 337 -342 0
341 -337 342 0
-341 337 342 0
-341 -337 343 0
341 -343 0
337 -343 0
-339 -340 344 0
339 -344 0
340 -344 0
343 344 -345 0
-343 345 0
-344 345 0
-338 -6 346 0
338 -346 0
6 -346 0
-345 -346 -347 0
345 346 -347 0
345 -346 347 0
-345 346 347 0
-345 -346 348 0
345 -348 0
346 -348 0
-1 -349 350 0
1 -350 0
349 -350 0
-14 -350 -351 0
14 350 -351 0
14 -350 351 0
-14 350 351 0
-14 -350 352 0
14 -352 0
350 -352 0
-4 -349 353 0
4 -353 0
349 -353 0
-22 -353 -354 0
22 353 -354 0
22 -353 354 0
-22 353 354 0
-354 -352 -355 0
354 352 -355 0
354 -352 355 0
-354 352 355 0
-354 -352 356 0
354 -356 0
352 -356 0
-22 -353 357 0
22 -357 0
353 -357 0
356 357 -358 0
-356 358 0
-357 358 0
-10 -349 359 0
10 -359 0
349 -359 0
-30 -359 -360 0
30 359 -360 0
30 -359 360 0
-30 359 360 0
-360 -358 -361 0
360 358 -361 0
360 -358 361 0
-360 358 361 0
-360 -358 362 0
360 -362 0
358 -362 0
-30 -359 363 0
30 -363 0
359 -363 0
362 363 -364 0
-362 364 0
-363 364 0
-18 -349 365 0
18 -365 0
349 -365 0
-38 -365 -366 0
38 365 -366 0
38 -365 366 0
-38 365 366 0
-366 -364 -367 0
366 364 -367 0
366 -364 367 0
-366 364 367 0
-366 -364 368 0
366 -368 0
364 -368 0
-38 -365 369 0
38 -369 0
365 -369 0
368 369 -370 0
-368 370 0
-369 370 0
-26 -349 371 0
26 -371 0
349 -371 0
-46 -371 -372 0
46 371 -372 0
46 -371 372 0
-46 371 372 0
-372 -370 -373 0
372 370 -373 0
372 -370 373 0
-372 370 373 0
-372 -370 374 0
372 -374 0
370 -374 0
-46 -371 375 0
46 -375 0
371 -375 0
374 375 -376 0
-374 376 0
-375 376 0
-34 -349 377 0
34 -377 0
349 -377 0
-54 -377 -378 0
54 377 -378 0
54 -377 378 0
-54 377 378 0
-378 -376 -379 0
378 376 -379 0
378 -376 379 0
-378 376 379 0
-378 -376 380 0
378 -380 0
376 -380 0
-54 -377 381 0
54 -381 0
377 -381 0
380 381 -382 0
-380 382 0
-381 382 0
-42 -349 383 0
42 -383 0
349 -383 0
-62 -383 -384 0
62 383 -384 0
62 -383 384 0
-62 383 384 0
-384 -382 -385 0
384 382 -385 0
384 -382 385 0
-384 382 385 0
-384 -382 386 0
384 -386 0
382 -386 0
-62 -383 387 0
62 -387 0
383 -387 0
386 387 -388 0
-386 388 0
-387 388 0
-50 -349 389 0
50 -389 0
349 -389 0
-70 -389 -390 0
70 389 -390 0
70 -389 390 0
-70 389 390 0
-390 -388 -391 0
390 388 -391 0
390 -388 391 0
-390 388 391 0
-390 -388 392 0
390 -392 0
388 -392 0
-70 -389 393 0
70 -393 0
389 -393 0
392 393 -394 0
-392 394 0
-393 394 0
-58 -349 395 0
58 -395 0
349 -395 0
-78 -395 -396 0
78 395 -396 0
78 -395 396 0
-78 395 396 0
-396 -394 -397 0
396 394 -397 0
396 -394 397 0
-396 394 397 0
-396 -394 398 0
396 -398 0
394 -398 0
-78 -395 399 0
78 -399 0
395 -399 0
398 399 -400 0
-398 400 0
-399 400 0
-66 -349 401 0
66 -401 0
349 -401 0
-86 -401 -402 0
86 401 -402 0
86 -401 402 0
-86 401 402 0
-402 -400 -403 0
402 400 -403 0
402 -400 403 0
-402 400 403 0
-402 -400 404 0
402 -404 0
400 -404 0
-86 -401 405 0
86 -405 0
401 -405 0
404 405 -406 0
-404 406 0
-405 406 0
-74 -349 407 0
74 -407 0
349 -407 0
-94 -407 -408 0
94 407 -408 0
94 -407 408 0
-94 407 408 0
-408 -406 -409 0
408 406 -409 0
408 -406 409 0
-408 406 409 0
-408 -406 410 0
408 -410 0
406 -410 0
-94 -407 411 0
94 -411 0
407 -411 0
410 411 -412 0
-410 412 0
-411 412 0
-82 -349 413 0
82 -413 0
349 -413 0
-102 -413 -414 0
102 413 -414 0
102 -413 414 0
-102 413 414 0
-414 -412 -415 0
414 412 -415 0
414 -412 415 0
-414 412 415 0
-414 -412 416 0
414 -416 0
412 -416 0
-102 -413 417 0
102 -417 0
413 -417 0
416 417 -418 0
-416 418 0
-417 418 0
-90 -349 419 0
90 -419 0
349 -419 0
-110 -419 -420 0
110 419 -420 0
110 -419 420 0
-110 419 420 0
-420 -418 -421 0
420 418 -421 0
420 -418 421 0
-420 418 421 0
-420 -418 422 0
420 -422 0
418 -422 0
-110 -419 423 0
110 -423 0
419 -423 0
422 423 -424 0
-422 424 0
-423 424 0
-98 -349 425 0
98 -425 0
349 -425 0
-118 -425 -426 0
118 425 -426 0
118 -425 426 0
-118 425 426 0
-426 -424 -427 0
426 424 -427 0
426 -424 427 0
-426 424 427 0
-426 -424 428 0
426 -428 0
424 -428 0
-118 -425 429 0
118 -429 0
425 -429 0
428 429 -430 0
-428 430 0
-429 430 0
-106 -349 431 0
106 -431 0
349 -431 0
-126 -431 -432 0
126 431 -432 0
126 -431 432 0
-126 431 432 0
-432 -430 -433 0
432 430 -433 0
432 -430 433 0
-432 430 433 0
-432 -430 434 0
432 -434 0
430 -434 0
-126 -431 435 0
126 -435 0
431 -435 0
434 435 -436 0
-434 436 0
-435 436 0
-114 -349 437 0
114 -437 0
349 -437 0
-134 -437 -438 0
134 437 -438 0
134 -437 438 0
-134 437 438 0
-438 -436 -439 0
438 436 -439 0
438 -436 439 0
-438 436 439 0
-438 -436 440 0
438 -440 0
436 -440 0
-134 -437 441 0
134 -441 0
437 -441 0
440 441 -442 0
-440 442 0
-441 442 0
-122 -349 443 0
122 -443 0
349 -443 0
-142 -443 -444 0
142 443 -444 0
142 -443 444 0
-142 443 444 0
-444 -442 -445 0
444 442 -445 0
444 -442 445 0
-444 442 445 0
-444 -442 446 0
444 -446 0
442 -446 0
-142 -443 447 0
142 -447 0
443 -447 0
446 447 -448 0
-446 448 0
-447 448 0
-130 -349 449 0
130 -449 0
349 -449 0
-150 -449 -450 0
150 449 -450 0
150 -449 450 0
-150 449 450 0
-450 -448 -451 0
450 448 -451 0
450 -448 451 0
-450 448 451 0
-450 -448 452 0
450 -452 0
448 -452 0
-150 -449 453 0
150 -453 0
449 -453 0
452 453 -454 0
-452 454 0
-453 454 0
-138 -349 455 0
138 -455 0
349 -455 0
-158 -455 -456 0
158 455 -456 0
158 -455 456 0
-158 455 456 0
-456 -454 -457 0
456 454 -457 0
456 -454 457 0
-456 454 457 0
-456 -454 458 0
456 -458 0
454 -458 0
-158 -455 459 0
158 -459 0
455 -459 0
458 459 -460 0
-458 460 0
-459 460 0
-146 -349 461 0
146 -461 0
349 -461 0
-166 -461 -462 0
166 461 -462 0
166 -461 462 0
-166 461 462 0
-462 -460 -463 0
462 460 -463 0
462 -460 463 0
-462 460 463 0
-462 -460 464 0
462 -464 0
460 -464 0
-166 -461 465 0
166 -465 0
461 -465 0
464 465 -466 0
-464 466 0
-465 466 0
-154 -349 467 0
154 -467 0
349 -467 0
-174 -467 -468 0
174 467 -468 0
174 -467 468 0
-174 467 468 0
-468 -466 -469 0
468 466 -469 0
468 -466 469 0
-468 466 469 0
-468 -466 470 0
468 -470 0
466 -470 0
-174 -467 471 0
174 -471 0
467 -471 0
470 471 -472 0
-470 472 0
-471 472 0
-162 -349 473 0
162 -473 0
349 -473 0
-182 -473 -474 0
182 473 -474 0
182 -473 474 0
-182 473 474 0
-474 -472 -475 0
474 472 -475 0
474 -472 475 0
-474 472 475 0
-474 -472 476 0
474 -476 0
472 -476 0
-182 -473 477 0
182 -477 0
473 -477 0
476 477 -478 0
-476 478 0
-477 478 0
-170 -349 479 0
170 -479 0
349 -479 0
-190 -479 -480 0
190 479 -480 0
190 -479 480 0
-190 479 480 0
-480 -478 -481 0
480 478 -481 0
480 -478 481 0
-480 478 481 0
-480 -478 482 0
480 -482 0
478 -482 0
-190 -479 483 0
190 -483 0
479 -483 0
482 483 -484 0
-482 484 0
-483 484 0
-178 -349 485 0
178 -485 0
349 -485 0
-198 -485 -486 0
198 485 -486 0
198 -485 486 0
-198 485 486 0
-486 -484 -487 0
486 484 -487 0
486 -484 487 0
-486 484 487 0
-486 -484 488 0
486 -488 0
484 -488 0
-198 -485 489 0
198 -489 0
485 -489 0
488 489 -490 0
-488 490 0
-489 490 0
-186 -349 491 0
186 -491 0
349 -491 0
-206 -491 -492 0
206 491 -492 0
206 -491 492 0
-206 491 492 0
-492 -490 -493 0
492 490 -493 0
492 -490 493 0
-492 490 493 0
-492 -490 494 0
492 -494 0
490 -494 0
-206 -491 495 0
206 -495 0
491 -495 0
494 495 -496 0
-494 496 0
-495 496 0
-194 -349 497 0
194 -497 0
349 -497 0
-214 -497 -498 0
214 497 -498 0
214 -497 498 0
-214 497 498 0
-498 -496 -499 0
498 496 -499 0
498 -496 499 0
-498 496 499 0
-498 -496 500 0
498 -500 0
496 -500 0
-214 -497 501 0
214 -501 0
497 -501 0
500 501 -502 0
-500 502 0
-501 502 0
-202 -349 503 0
202 -503 0
349 -503 0
-222 -503 -504 0
222 503 -504 0
222 -503 504 0
-222 503 504 0
-504 -502 -505 0
504 502 -505 0
504 -502 505 0
-504 502 505 0
-504 -502 506 0
504 -506 0
502 -506 0
-222 -503 507 0
222 -507 0
503 -507 0
506 507 -508 0
-506 508 0
-507 508 0
-210 -349 509 0
210 -509 0
349 -509 0
-230 -509 -510 0
230 509 -510 0
230 -509 510 0
-230 509 510 0
-510 -508 -511 0
510 508 -511 0
510 -508 511 0
-510 508 511 0
-510 -508 512 0
510 -512 0
508 -512 0
-230 -509 513 0
230 -513 0
509 -513 0
512 513 -514 0
-512 514 0
-513 514 0
-218 -349 515 0
218 -515 0
349 -515 0
-238 -515 -516 0
238 515 -516 0
238 -515 516 0
-238 515 516 0
-516 -514 -517 0
516 514 -517 0
516 -514 517 0
-516 514 517 0
-516 -514 518 0
516 -518 0
514 -518 0
-238 -515 519 0
238 -519 0
515 -519 0
518 519 -520 0
-518 520 0
-519 520 0
-226 -349 521 0
226 -521 0
349 -521 0
-246 -521 -522 0
246 521 -522 0
246 -521 522 0
-246 521 522 0
-522 -520 -523 0
522 520 -523 0
522 -520 523 0
-522 520 523 0
-522 -520 524 0
522 -524 0
520 -524 0
-246 -521 525 0
246 -525 0
521 -525 0
524 525 -526 0
-524 526 0
-525 526 0
-234 -349 527 0
234 -527 0
349 -527 0
-254 -527 -528 0
254 527 -528 0
254 -527 528 0
-254 527 528 0
-528 -526 -529 0
528 526 -529 0
528 -526 529 0
-528 526 529 0
-528 -526 530 0
528 -530 0
526 -530 0
-254 -527 531 0
254 -531 0
527 -531 0
530 531 -532 0
-530 532 0
-531 532 0
-242 -349 533 0
242 -533 0
349 -533 0
-262 -533 -534 0
262 533 -534 0
262 -533 534 0
-262 533 534 0
-534 -532 -535 0
534 532 -535 0
534 -532 535 0
-534 532 535 0
-534 -532 536 0
534 -536 0
532 -536 0
-262 -533 537 0
262 -537 0
533 -537 0
536 537 -538 0
-536 538 0
-537 538 0
-250 -349 539 0
250 -539 0
349 -539 0
-270 -539 -540 0
270 539 -540 0
270 -539 540 0
-270 539 540 0
-540 -538 -541 0
540 538 -541 0
540 -538 541 0
-540 538 541 0
-540 -538 542 0
540 -542 0
538 -542 0
-270 -539 543 0
270 -543 0
539 -543 0
542 543 -544 0
-542 544 0
-543 544 0
-258 -349 545 0
258 -545 0
349 -545 0
-278 -545 -546 0
278 545 -546 0
278 -545 546 0
-278 545 546 0
-546 -544 -547 0
546 544 -547 0
546 -544 547 0
-546 544 547 0
-546 -544 548 0
546 -548 0
544 -548 0
-278 -545 549 0
278 -549 0
545 -549 0
548 549 -550 0
-548 550 0
-549 550 0
-266 -349 551 0
266 -551 0
349 -551 0
-286 -551 -552 0
286 551 -552 0
286 -551 552 0
-286 551 552 0
-552 -550 -553 0
552 550 -553 0
552 -550 553 0
-552 550 553 0
-552 -550 554 0
552 -554 0
550 -554 0
-286 -551 555 0
286 -555 0
551 -555 0
554 555 -556 0
-554 556 0
-555 556 0
-274 -349 557 0
274 -557 0
349 -557 0
-294 -557 -558 0
294 557 -558 0
294 -557 558 0
-294 557 558 0
-558 -556 -559 0
558 556 -559 0
558 -556 559 0
-558 556 559 0
-558 -556 560 0
558 -560 0
556 -560 0
-294 -557 561 0
294 -561 0
557 -561 0
560 561 -562 0
-560 562 0
-561 562 0
-282 -349 563 0
282 -563 0
349 -563 0
-302 -563 -564 0
302 563 -564 0
302 -563 564 0
-302 563 564 0
-564 -562 -565 0
564 562 -565 0
564 -562 565 0
-564 562 565 0
-564 -562 566 0
564 -566 0
562 -566 0
-302 -563 567 0
302 -567 0
563 -567 0
566 567 -568 0
-566 568 0
-567 568 0
-290 -349 569 0
290 -569 0
349 -569 0
-310 -569 -570 0
310 569 -570 0
310 -569 570 0
-310 569 570 0
-570 -568 -571 0
570 568 -571 0
570 -568 571 0
-570 568 571 0
-570 -568 572 0
570 -572 0
568 -572 0
-310 -569 573 0
310 -573 0
569 -573 0
572 573 -574 0
-572 574 0
-573 574 0
-298 -349 575 0
298 -575 0
349 -575 0
-318 -575 -576 0
318 575 -576 0
318 -575 576 0
-318 575 576 0
-576 -574 -577 0
576 574 -577 0
576 -574 577 0
-576 574 577 0
-576 -574 578 0
576 -578 0
574 -578 0
-318 -575 579 0
318 -579 0
575 -579 0
578 579 -580 0
-578 580 0
-579 580 0
-306 -349 581 0
306 -581 0
349 -581 0
-326 -581 -582 0
326 581 -582 0
326 -581 582 0
-326 581 582 0
-582 -580 -583 0
582 580 -583 0
582 -580 583 0
-582 580 583 0
-582 -580 584 0
582 -584 0
580 -584 0
-326 -581 585 0
326 -585 0
581 -585 0
584 585 -586 0
-584 586 0
-585 586 0
-314 -349 587 0
314 -587 0
349 -587 0
-334 -587 -588 0
334 587 -588 0
334 -587 588 0
-334 587 588 0
-588 -586 -589 0
588 586 -589 0
588 -586 589 0
-588 586 589 0
-588 -586 590 0
588 -590 0
586 -590 0
-334 -587 591 0
334 -591 0
587 -591 0
590 591 -592 0
-590 592 0
-591 592 0
-322 -349 593 0
322 -593 0
349 -593 0
-342 -593 -594 0
342 593 -594 0
342 -593 594 0
-342 593 594 0
-594 -592 -595 0
594 592 -595 0
594 -592 595 0
-594 592 595 0
-594 -592 596 0
594 -596 0
592 -596 0
-342 -593 597 0
342 -597 0
593 -597 0
596 597 -598 0
-596 598 0
-597 598 0
-330 -349 599 0
330 -599 0
349 -599 0
-347 -599 -600 0
347 599 -600 0
347 -599 600 0
-347 599 600 0
-600 -598 -601 0
600 598 -601 0
600 -598 601 0
-600 598 601 0
-600 -598 602 0
600 -602 0
598 -602 0
-347 -599 603 0
347 -603 0
599 -603 0
602 603 -604 0
-602 604 0
-603 604 0
-338 -349 605 0
338 -605 0
349 -605 0
-348 -605 -606 0
348 605 -606 0
348 -605 606 0
-348 605 606 0
-606 -604 -607 0
606 604 -607 0
606 -604 607 0
-606 604 607 0
-606 -604 608 0
606 -608 0
604 -608 0
-348 -605 609 0
348 -609 0
605 -609 0
608 609 -610 0
-608 610 0
-609 610 0
-1 -611 612 0
1 -612 0
611 -612 0
-355 -612 -613 0
355 612 -613 0
355 -612 613 0
-355 612 613 0
-355 -612 614 0
355 -614 0
612 -614 0
-4 -611 615 0
4 -615 0
611 -615 0
-361 -615 -616 0
361 615 -616 0
361 -615 616 0
-361 615 616 0
-616 -614 -617 0
616 614 -617 0
616 -614 617 0
-616 614 617 0
-616 -614 618 0
616 -618 0
614 -618 0
-361 -615 619 0
361 -619 0
615 -619 0
618 619 -620 0
-618 620 0
-619 620 0
-10 -611 621 0
10 -621 0
611 -621 0
-367 -621 -622 0
367 621 -622 0
367 -621 622 0
-367 621 622 0
-622 -620 -623 0
622 620 -623 0
622 -620 623 0
-622 620 623 0
-622 -620 624 0
622 -624 0
620 -624 0
-367 -621 625 0
367 -625 0
621 -625 0
624 625 -626 0
-624 626 0
-625 626 0
-18 -611 627 0
18 -627 0
611 -627 0
-373 -627 -628 0
373 627 -628 0
373 -627 628 0
-373 627 628 0
-628 -626 -629 0
628 626 -629 0
628 -626 629 0
-628 626 629 0
-628 -626 630 0
628 -630 0
626 -630 0
-373 -627 631 0
373 -631 0
627 -631 0
630 631 -632 0
-630 632 0
-631 632 0
-26 -611 633 0
26 -633 0
611 -633 0
-379 -633 -634 0
379 633 -634 0
379 -633 634 0
-379 633 634 0
-634 -632 -635 0
634 632 -635 0
634 -632 635 0
-634 632 635 0
-634 -632 636 0
634 -636 0
632 -636 0
-379 -633 637 0
379 -637 0
633 -637 0
636 637 -638 0
-636 638 0
-637 638 0
-34 -611 639 0
34 -639 0
611 -639 0
-385 -639 -640 0
385 639 -640 0
385 -639 640 0
-385 639 640 0
-640 -638 -641 0
640 638 -641 0
640 -638 641 0
-640 638 641 0
-640 -638 642 0
640 -642 0
638 -642 0
-385 -639 643 0
385 -643 0
639 -643 0
642 643 -644 0
-642 644 0
-643 644 0
-42 -611 645 0
42 -645 0
611 -645 0
-391 -645 -646 0
391 645 -646 0
391 -645 646 0
-391 645 646 0
-646 -644 -647 0
646 644 -647 0
646 -644 647 0
-646 644 647 0
-646 -644 648 0
646 -648 0
644 -648 0
-391 -645 649 0
391 -649 0
645 -649 0
648 649 -650 0
-648 650 0
-649 650 0
-50 -611 651 0
50 -651 0
611 -651 0
-397 -651 -652 0
397 651 -652 0
397 -651 652 0
-397 651 652 0
-652 -650 -653 0
652 650 -653 0
652 -650 653 0
-652 650 653 0
-652 -650 654 0
652 -654 0
650 -654 0
-397 -651 655 0
397 -655 0
651 -655 0
654 655 -656 0
-654 656 0
-655 656 0
-58 -611 657 0
58 -657 0
611 -657 0
-403 -657 -658 0
403 657 -658 0
403 -657 658 0
-403 657 658 0
-658 -656 -659 0
658 656 -659 0
658 -656 659 0
-658 656 659 0
-658 -656 660 0
658 -660 0
656 -660 0
-403 -657 661 0
403 -661 0
657 -661 0
660 661 -662 0
-660 662 0
-661 662 0
-66 -611 663 0
66 -663 0
611 -663 0
-409 -663 -664 0
409 663 -664 0
409 -663 664 0
-409 663 664 0
-664 -662 -665 0
664 662 -665 0
664 -662 665 0
-664 662 665 0
-664 -662 666 0
664 -666 0
662 -666 0
-409 -663 667 0
409 -667 0
663 -667 0
666 667 -668 0
-666 668 0
-667 668 0
-74 -611 669 0
74 -669 0
611 -669 0
-415 -669 -670 0
415 669 -670 0
415 -669 670 0
-415 669 670 0
-670 -668 -671 0
670 668 -671 0
670 -668 671 0
-670 668 671 0
-670 -668 672 0
670 -672 0
668 -672 0
-415 -669 673 0
415 -673 0
669 -673 0
672 673 -674 0
-672 674 0
-673 674 0
-82 -611 675 0
82 -675 0
611 -675 0
-421 -675 -676 0
421 675 -676 0
421 -675 676 0
-421 675 676 0
-676 -674 -677 0
676 674 -677 0
676 -674 677 0
-676 674 677 0
-676 -674 678 0
676 -678 0
674 -678 0
-421 -675 679 0
421 -679 0
675 -679 0
678 679 -680 0
-678 680 0
-679 680 0
-90 -611 681 0
90 -681 0
611 -681 0
-427 -681 -682 0
427 681 -682 0
427 -681 682 0
-427 681 682 0
-682 -680 -683 0
682 680 -683 0
682 -680 683 0
-682 680 683 0
-682 -680 684 0
682 -684 0
680 -684 0
-427 -681 685 0
427 -685 0
681 -685 0
684 685 -686 0
-684 686 0
-685 686 0
-98 -611 687 0
98 -687 0
611 -687 0
-433 -687 -688 0
433 687 -688 0
433 -687 688 0
-433 687 688 0
-688 -686 -689 0
688 686 -689 0
688 -686 689 0
-688 686 689 0
-688 -686 690 0
688 -690 0
686 -690 0
-433 -687 691 0
433 -691 0
687 -691 0
690 691 -692 0
-690 692 0
-691 692 0
-106 -611 693 0
106 -693 0
611 -693 0
-439 -693 -694 0
439 693 -694 0
439 -693 694 0
-439 693 694 0
-694 -692 -695 0
694 692 -695 0
694 -692 695 0
-694 692 695 0
-694 -692 696 0
694 -696 0
692 -696 0
-439 -693 697 0
439 -697 0
693 -697 0
696 697 -698 0
-696 698 0
-697 698 0
-114 -611 699 0
114 -699 0
611 -699 0
-445 -699 -700 0
445 699 -700 0
445 -699 700 0
-445 699 700 0
-700 -698 -701 0
700 698 -701 0
700 -698 701 0
-700 698 701 0
-700 -698 702 0
700 -702 0
698 -702 0
-445 -699 703 0
445 -703 0
699 -703 0
702 703 -704 0
-702 704 0
-703 704 0
-122 -611 705 0
122 -705 0
611 -705 0
-451 -705 -706 0
451 705 -706 0
451 -705 706 0
-451 705 706 0
-706 -704 -707 0
706 704 -707 0
706 -704 707 0
-706 704 707 0
-706 -704 708 0
706 -708 0
704 -708 0
-451 -705 709 0
451 -709 0
705 -709 0
708 709 -710 0
-708 710 0
-709 710 0
-130 -611 711 0
130 -711 0
611 -711 0
-457 -711 -712 0
457 711 -712 0
457 -711 712 0
-457 711 712 0
-712 -710 -713 0
712 710 -713 0
712 -710 713 0
-712 710 713 0
-712 -710 714 0
712 -714 0
710 -714 0
-457 -711 715 0
457 -715 0
711 -715 0
714 715 -716 0
-714 716 0
-715 716 0
-138 -611 717 0
138 -717 0
611 -717 0
-463 -717 -718 0
463 717 -718 0
463 -717 718 0
-463 717 718 0
-718 -716 -719 0
718 716 -719 0
718 -716 719 0
-718 716 719 0
-718 -716 720 0
718 -720 0
716 -720 0
-463 -717 721 0
463 -721 0
717 -721 0
720 721 -722 0
-720 722 0
-721 722 0
-146 -611 723 0
146 -723 0
611 -723 0
-469 -723 -724 0
469 723 -724 0
469 -723 724 0
-469 723 724 0
-724 -722 -725 0
724 722 -725 0
724 -722 725 0
-724 722 725 0
-724 -722 726 0
724 -726 0
722 -726 0
-469 -723 727 0
469 -727 0
723 -727 0
726 727 -728 0
-726 728 0
-727 728 0
-154 -611 729 0
154 -729 0
611 -729 0
-475 -729 -730 0
475 729 -730 0
475 -729 730 0
-475 729 730 0
-730 -728 -731 0
730 728 -731 0
730 -728 731 0
-730 728 731 0
-730 -728 732 0
730 -732 0
728 -732 0
-475 -729 733 0
475 -733 0
729 -733 0
732 733 -734 0
-732 734 0
-733 734 0
-162 -611 735 0
162 -735 0
611 -735 0
-481 -735 -736 0
481 735 -736 0
481 -735 736 0
-481 735 736 0
-736 -734 -737 0
736 734 -737 0
736 -734 737 0
-736 734 737 0
-736 -734 738 0
736 -738 0
734 -738 0
-481 -735 739 0
481 -739 0
735 -739 0
738 739 -740 0
-738 740 0
-739 740 0
-170 -611 741 0
170 -741 0
611 -741 0
-487 -741 -742 0
487 741 -742 0
487 -741 742 0
-487 741 742 0
-742 -740 -743 0
742 740 -743 0
742 -740 743 0
-742 740 743 0
-742 -740 744 0
742 -744 0
740 -744 0
-487 -741 745 0
487 -745 0
741 -745 0
744 745 -746 0
-744 746 0
-745 746 0
-178 -611 747 0
178 -747 0
611 -747 0
-493 -747 -748 0
493 747 -748 0
493 -747 748 0
-493 747 748 0
-748 -746 -749 0
748 746 -749 0
748 -746 749 0
-748 746 749 0
-748 -746 750 0
748 -750 0
746 -750 0
-493 -747 751 0
493 -751 0
747 -751 0
750 751 -752 0
-750 752 0
-751 752 0
-186 -611 753 0
186 -753 0
611 -753 0
-499 -753 -754 0
499 753 -754 0
499 -753 754 0
-499 753 754 0
-754 -752 -755 0
754 752 -755 0
754 -752 755 0
-754 752 755 0
-754 -752 756 0
754 -756 0
752 -756 0
-499 -753 757 0
499 -757 0
753 -757 0
756 757 -758 0
-756 758 0
-757 758 0
-194 -611 759 0
194 -759 0
611 -759 0
-505 -759 -760 0
505 759 -760 0
505 -759 760 0
-505 759 760 0
-760 -758 -761 0
760 758 -761 0
760 -758 761 0
-760 758 761 0
-760 -758 762 0
760 -762 0
758 -762 0
-505 -759 763 0
505 -763 0
759 -763 0
762 763 -764 0
-762 764 0
-763 764 0
-202 -611 765 0
202 -765 0
611 -765 0
-511 -765 -766 0
511 765 -766 0
511 -765 766 0
-511 765 766 0
-766 -764 -767 0
766 764 -767 0
766 -764 767 0
-766 764 767 0
-766 -764 768 0
766 -768 0
764 -768 0
-511 -765 769 0
511 -769 0
765 -769 0
768 769 -770 0
-768 770 0
-769 770 0
-210 -611 771 0
210 -771 0
611 -771 0
-517 -771 -772 0
517 771 -772 0
517 -771 772 0
-517 771 772 0
-772 -770 -773 0
772 770 -773 0
772 -770 773 0
-772 770 773 0
-772 -770 774 0
772 -774 0
770 -774 0
-517 -771 775 0
517 -775 0
771 -775 0
774 775 -776 0
-774 776 0
-775 776 0
-218 -611 777 0
218 -777 0
611 -777 0
-523 -777 -778 0
523 777 -778 0
523 -777 778 0
-523 777 778 0
-778 -776 -779 0
778 776 -779 0
778 -776 779 0
-778 776 779 0
-778 -776 780 0
778 -780 0
776 -780 0
-523 -777 781 0
523 -781 0
777 -781 0
780 781 -782 0
-780 782 0
-781 782 0
-226 -611 783 0
226 -783 0
611 -783 0
-529 -783 -784 0
529 783 -784 0
529 -783 784 0
-529 783 784 0
-784 -782 -785 0
784 782 -785 0
784 -782 785 0
-784 782 785 0
-784 -782 786 0
784 -786 0
782 -786 0
-529 -783 787 0
529 -787 0
783 -787 0
786 787 -788 0
-786 788 0
-787 788 0
-234 -611 789 0
234 -789 0
611 -789 0
-535 -789 -790 0
535 789 -790 0
535 -789 790 0
-535 789 790 0
-790 -788 -791 0
790 788 -791 0
790 -788 791 0
-790 788 791 0
-790 -788 792 0
790 -792 0
788 -792 0
-535 -789 793 0
535 -793 0
789 -793 0
792 793 -794 0
-792 794 0
-793 794 0
-242 -611 795 0
242 -795 0
611 -795 0
-541 -795 -796 0
541 795 -796 0
541 -795 796 0
-541 795 796 0
-796 -794 -797 0
796 794 -797 0
796 -794 797 0
-796 794 797 0
-796 -794 798 0
796 -798 0
794 -798 0
-541 -795 799 0
541 -799 0
795 -799 0
798 799 -800 0
-798 800 0
-799 800 0
-250 -611 801 0
250 -801 0
611 -801 0
-547 -801 -802 0
547 801 -802 0
547 -801 802 0
-547 801 802 0
-802 -800 -803 0
802 800 -803 0
802 -800 803 0
-802 800 803 0
-802 -800 804 0
802 -804 0
800 -804 0
-547 -801 805 0
547 -805 0
801 -805 0
804 805 -806 0
-804 806 0
-805 806 0
-258 -611 807 0
258 -807 0
611 -807 0
-553 -807 -808 0
553 807 -808 0
553 -807 808 0
-553 807 808 0
-808 -806 -809 0
808 806 -809 0
808 -806 809 0
-808 806 809 0
-808 -806 810 0
808 -810 0
806 -810 0
-553 -807 811 0
553 -811 0
807 -811 0
810 811 -812 0
-810 812 0
-811 812 0
-266 -611 813 0
266 -813 0
611 -813 0
-559 -813 -814 0
559 813 -814 0
559 -813 814 0
-559 813 814 0
-814 -812 -815 0
814 812 -815 0
814 -812 815 0
-814 812 815 0
-814 -812 816 0
814 -816 0
812 -816 0
-559 -813 817 0
559 -817 0
813 -817 0
816 817 -818 0
-816 818 0
-817 818 0
-274 -611 819 0
274 -819 0
611 -819 0
-565 -819 -820 0
565 819 -820 0
565 -819 820 0
-565 819 820 0
-820 -818 -821 0
820 818 -821 0
820 -818 821 0
-820 818 821 0
-820 -818 822 0
820 -822 0
818 -822 0
-565 -819 823 0
565 -823 0
819 -823 0
822 823 -824 0
-822 824 0
-823 824 0
-282 -611 825 0
282 -825 0
611 -825 0
-571 -825 -826 0
571 825 -826 0
571 -825 826 0
-571 825 826 0
-826 -824 -827 0
826 824 -827 0
826 -824 827 0
-826 824 827 0
-826 -824 828 0
826 -828 0
824 -828 0
-571 -825 829 0
571 -829 0
825 -829 0
828 829 -830 0
-828 830 0
-829 830 0
-290 -611 831 0
290 -831 0
611 -831 0
-577 -831 -832 0
577 831 -832 0
577 -831 832 0
-577 831 832 0
-832 -830 -833 0
832 830 -833 0
832 -830 833 0
-832 830 833 0
-832 -830 834 0
832 -834 0
830 -834 0
-577 -831 835 0
577 -835 0
831 -835 0
834 835 -836 0
-834 836 0
-835 836 0
-298 -611 837 0
298 -837 0
611 -837 0
-583 -837 -838 0
583 837 -838 0
583 -837 838 0
-583 837 838 0
-838 -836 -839 0
838 836 -839 0
838 -836 839 0
-838 836 839 0
-838 -836 840 0
838 -840 0
836 -840 0
-583 -837 841 0
583 -841 0
837 -841 0
840 841 -842 0
-840 842 0
-841 842 0
-306 -611 843 0
306 -843 0
611 -843 0
-589 -843 -844 0
589 843 -844 0
589 -843 844 0
-589 843 844 0
-844 -842 -845 0
844 842 -845 0
844 -842 845 0
-844 842 845 0
-844 -842 846 0
844 -846 0
842 -846 0
-589 -843 847 0
589 -847 0
843 -847 0
846 847 -848 0
-846 848 0
-847 848 0
-314 -611 849 0
314 -849 0
611 -849 0
-595 -849 -850 0
595 849 -850 0
595 -849 850 0
-595 849 850 0
-850 -848 -851 0
850 848 -851 0
850 -848 851 0
-850 848 851 0
-850 -848 852 0
850 -852 0
848 -852 0
-595 -849 853 0
595 -853 0
849 -853 0
852 853 -854 0
-852 854 0
-853 854 0
-322 -611 855 0
322 -855 0
611 -855 0
-601 -855 -856 0
601 855 -856 0
601 -855 856 0
-601 855 856 0
-856 -854 -857 0
856 854 -857 0
856 -854 857 0
-856 854 857 0
-856 -854 858 0
856 -858 0
854 -858 0
-601 -855 859 0
601 -859 0
855 -859 0
858 859 -860 0
-858 860 0
-859 860 0
-330 -611 861 0
330 -861 0
611 -861 0
-607 -861 -862 0
607 861 -862 0
607 -861 862 0
-607 861 862 0
-862 -860 -863 0
862 860 -863 0
862 -860 863 0
-862 860 863 0
-862 -860 864 0
862 -864 0
860 -864 0
-607 -861 865 0
607 -865 0
861 -865 0
864 865 -866 0
-864 866 0
-865 866 0
-338 -611 867 0
338 -867 0
611 -867 0
-610 -867 -868 0
610 867 -868 0
610 -867 868 0
-610 867 868 0
-868 -866 -869 0
868 866 -869 0
868 -866 869 0
-868 866 869 0
-868 -866 870 0
868 -870 0
866 -870 0
-610 -867 871 0
610 -871 0
867 -871 0
870 871 -872 0
-870 872 0
-871 872 0
-1 -873 874 0
1 -874 0
873 -874 0
-617 -874 -875 0
617 874 -875 0
617 -874 875 0
-617 874 875 0
-617 -874 876 0
617 -876 0
874 -876 0
-4 -873 877 0
4 -877 0
873 -877 0
-623 -877 -878 0
623 877 -878 0
623 -877 878 0
-623 877 878 0
-878 -876 -879 0
878 876 -879 0
878 -876 879 0
-878 876 879 0
-878 -876 880 0
878 -880 0
876 -880 0
-623 -877 881 0
623 -881 0
877 -881 0
880 881 -882 0
-880 882 0
-881 882 0
-10 -873 883 0
10 -883 0
873 -883 0
-629 -883 -884 0
629 883 -884 0
629 -883 884 0
-629 883 884 0
-884 -882 -885 0
884 882 -885 0
884 -882 885 0
-884 882 885 0
-884 -882 886 0
884 -886 0
882 -886 0
-629 -883 887 0
629 -887 0
883 -887 0
886 887 -888 0
-886 888 0
-887 888 0
-18 -873 889 0
18 -889 0
873 -889 0
-635 -889 -890 0
635 889 -890 0
635 -889 890 0
-635 889 890 0
-890 -888 -891 0
890 888 -891 0
890 -888 891 0
-890 888 891 0
-890 -888 892 0
890 -892 0
888 -892 0
-635 -889 893 0
635 -893 0
889 -893 0
892 893 -894 0
-892 894 0
-893 894 0
-26 -873 895 0
26 -895 0
873 -895 0
-641 -895 -896 0
641 895 -896 0
641 -895 896 0
-641 895 896 0
-896 -894 -897 0
896 894 -897 0
896 -894 897 0
-896 894 897 0
-896 -894 898 0
896 -898 0
894 -898 0
-641 -895 899 0
641 -899 0
895 -899 0
898 899 -900 0
-898 900 0
-899 900 0
-34 -873 901 0
34 -901 0
873 -901 0
-647 -901 -902 0
647 901 -902 0
647 -901 902 0
-647 901 902 0
-902 -900 -903 0
902 900 -903 0
902 -900 903 0
-902 900 903 0
-902 -900 904 0
902 -904 0
900 -904 0
-647 -901 905 0
647 -905 0
901 -905 0
904 905 -906 0
-904 906 0
-905 906 0
-42 -873 907 0
42 -907 0
873 -907 0
-653 -907 -908 0
653 907 -908 0
653 -907 908 0
-653 907 908 0
-908 -906 -909 0
908 906 -909 0
908 -906 909 0
-908 906 909 0
-908 -906 910 0
908 -910 0
906 -910 0
-653 -907 911 0
653 -911 0
907 -911 0
910 911 -912 0
-910 912 0
-911 912 0
-50 -873 913 0
50 -913 0
873 -913 0
-659 -913 -914 0
659 913 -914 0
659 -913 914 0
-659 913 914 0
-914 -912 -915 0
914 912 -915 0
914 -912 915 0
-914 912 915 0
-914 -912 916 0
914 -916 0
912 -916 0
-659 -913 917 0
659 -917 0
913 -917 0
916 917 -918 0
-916 918 0
-917 918 0
-58 -873 919 0
58 -919 0
873 -919 0
-665 -919 -920 0
665 919 -920 0
665 -919 920 0
-665 919 920 0
-920 -918 -921 0
920 918 -921 0
920 -918 921 0
-920 918 921 0
-920 -918 922 0
920 -922 0
918 -922 0
-665 -919 923 0
665 -923 0
919 -923 0
922 923 -924 0
-922 924 0
-923 924 0
-66 -873 925 0
66 -925 0
873 -925 0
-671 -925 -926 0
671 925 -926 0
671 -925 926 0
-671 925 926 0
-926 -924 -927 0
926 924 -927 0
926 -924 927 0
-926 924 927 0
-926 -924 928 0
926 -928 0
924 -928 0
-671 -925 929 0
671 -929 0
925 -929 0
928 929 -930 0
-928 930 0
-929 930 0
-74 -873 931 0
74 -931 0
873 -931 0
-677 -931 -932 0
677 931 -932 0
677 -931 932 0
-677 931 932 0
-932 -930 -933 0
932 930 -933 0
932 -930 933 0
-932 930 933 0
-932 -930 934 0
932 -934 0
930 -934 0
-677 -931 935 0
677 -935 0
931 -935 0
934 935 -936 0
-934 936 0
-935 936 0
-82 -873 937 0
82 -937 0
873 -937 0
-683 -937 -938 0
683 937 -938 0
683 -937 938 0
-683 937 938 0
-938 -936 -939 0
938 936 -939 0
938 -936 939 0
-938 936 939 0
-938 -936 940 0
938 -940 0
936 -940 0
-683 -937 941 0
683 -941 0
937 -941 0
940 941 -942 0
-940 942 0
-941 942 0
-90 -873 943 0
90 -943 0
873 -943 0
-689 -943 -944 0
689 943 -944 0
689 -943 944 0
-689 943 944 0
-944 -942 -945 0
944 942 -945 0
944 -942 945 0
-944 942 945 0
-944 -942 946 0
944 -946 0
942 -946 0
-689 -943 947 0
689 -947 0
943 -947 0
946 947 -948 0
-946 948 0
-947 948 0
-98 -873 949 0
98 -949 0
873 -949 0
-695 -949 -950 0
695 949 -950 0
695 -949 950 0
-695 949 950 0
-950 -948 -951 0
950 948 -951 0
950 -948 951 0
-950 948 951 0
-950 -948 952 0
950 -952 0
948 -952 0
-695 -949 953 0
695 -953 0
949 -953 0
952 953 -954 0
-952 954 0
-953 954 0
-106 -873 955 0
106 -955 0
873 -955 0
-701 -955 -956 0
701 955 -956 0
701 -955 956 0
-701 955 956 0
-956 -954 -957 0
956 954 -957 0
956 -954 957 0
-956 954 957 0
-956 -954 958 0
956 -958 0
954 -958 0
-701 -955 959 0
701 -959 0
955 -959 0
958 959 -960 0
-958 960 0
-959 960 0
-114 -873 961 0
114 -961 0
873 -961 0
-707 -961 -962 0
707 961 -962 0
707 -961 962 0
-707 961 962 0
-962 -960 -963 0
962 960 -963 0
962 -960 963 0
-962 960 963 0
-962 -960 964 0
962 -964 0
960 -964 0
-707 -961 965 0
707 -965 0
961 -965 0
964 965 -966 0
-964 966 0
-965 966 0
-122 -873 967 0
122 -967 0
873 -967 0
-713 -967 -968 0
713 967 -968 0
713 -967 968 0
-713 967 968 0
-968 -966 -969 0
968 966 -969 0
968 -966 969 0
-968 966 969 0
-968 -966 970 0
968 -970 0
966 -970 0
-713 -967 971 0
713 -971 0
967 -971 0
970 971 -972 0
-970 972 0
-971 972 0
-130 -873 973 0
130 -973 0
873 -973 0
-719 -973 -974 0
719 973 -974 0
719 -973 974 0
-719 973 974 0
-974 -972 -975 0
974 972 -975 0
974 -972 975 0
-974 972 975 0
-974 -972 976 0
974 -976 0
972 -976 0
-719 -973 977 0
719 -977 0
973 -977 0
976 977 -978 0
-976 978 0
-977 978 0
-138 -873 979 0
138 -979 0
873 -979 0
-725 -979 -980 0
725 979 -980 0
725 -979 980 0
-725 979 980 0
-980 -978 -981 0
980 978 -981 0
980 -978 981 0
-980 978 981 0
-980 -978 982 0
980 -982 0
978 -982 0
-725 -979 983 0
725 -983 0
979 -983 0
982 983 -984 0
-982 984 0
-983 984 0
-146 -873 985 0
146 -985 0
873 -985 0
-731 -985 -986 0
731 985 -986 0
731 -985 986 0
-731 985 986 0
-986 -984 -987 0
986 984 -987 0
986 -984 987 0
-986 984 987 0
-986 -984 988 0
986 -988 0
984 -988 0
-731 -985 989 0
731 -989 0
985 -989 0
988 989 -990 0
-988 990 0
-989 990 0
-154 -873 991 0
154 -991 0
873 -991 0
-737 -991 -992 0
737 991 -992 0
737 -991 992 0
-737 991 992 0
-992 -990 -993 0
992 990 -993 0
992 -990 993 0
-992 990 993 0
-992 -990 994 0
992 -994 0
990 -994 0
-737 -991 995 0
737 -995 0
991 -995 0
994 995 -996 0
-994 996 0
-995 996 0
-162 -873 997 0
162 -997 0
873 -997 0
-743 -997 -998 0
743 997 -998 0
743 -997 998 0
-743 997 998 0
-998 -996 -999 0
998 996 -999 0
998 -996 999 0
-998 996 999 0
-998 -996 1000 0
998 -1000 0
996 -1000 0
-743 -997 1001 0
743 -1001 0
997 -1001 0
1000 1001 -1002 0
-1000 1002 0
-1001 1002 0
-170 -873 1003 0
170 -1003 0
873 -1003 0
-749 -1003 -1004 0
749 1003 -1004 0
749 -1003 1004 0
-749 1003 1004 0
-1004 -1002 -1005 0
1004 1002 -1005 0
1004 -1002 1005 0
-1004 1002 1005 0
-1004 -1002 1006 0
1004 -1006 0
1002 -1006 0
-749 -1003 1007 0
749 -1007 0
1003 -1007 0
1006 1007 -1008 0
-1006 1008 0
-1007 1008 0
-178 -873 1009 0
178 -1009 0
873 -1009 0
-755 -1009 -1010 0
755 1009 -1010 0
755 -1009 1010 0
-755 1009 1010 0
-1010 -1008 -1011 0
1010 1008 -1011 0
1010 -1008 1011 0
-1010 1008 1011 0
-1010 -1008 1012 0
1010 -1012 0
1008 -1012 0
-755 -1009 1013 0
755 -1013 0
1009 -1013 0
1012 1013 -1014 0
-1012 1014 0
-1013 1014 0
-186 -873 1015 0
186 -1015 0
873 -1015 0
-761 -1015 -1016 0
761 1015 -1016 0
761 -1015 1016 0
-761 1015 1016 0
-1016 -1014 -1017 0
1016 1014 -1017 0
1016 -1014 1017 0
-1016 1014 1017 0
-1016 -1014 1018 0
1016 -1018 0
1014 -1018 0
-761 -1015 1019 0
761 -1019 0
1015 -1019 0
1018 1019 -1020 0
-1018 1020 0
-1019 1020 0
-194 -873 1021 0
194 -1021 0
873 -1021 0
-767 -1021 -1022 0
767 1021 -1022 0
767 -1021 1022 0
-767 1021 1022 0
-1022 -1020 -1023 0
1022 1020 -1023 0
1022 -1020 1023 0
-1022 1020 1023 0
-1022 -1020 1024 0
1022 -1024 0
1020 -1024 0
-767 -1021 1025 0
767 -1025 0
1021 -1025 0
1024 1025 -1026 0
-1024 1026 0
-1025 1026 0
-202 -873 1027 0
202 -1027 0
873 -1027 0
-773 -1027 -1028 0
773 1027 -1028 0
773 -1027 1028 0
-773 1027 1028 0
-1028 -1026 -1029 0
1028 1026 -1029 0
1028 -1026 1029 0
-1028 1026 1029 0
-1028 -1026 1030 0
1028 -1030 0
1026 -1030 0
-773 -1027 1031 0
773 -1031 0
1027 -1031 0
1030 1031 -1032 0
-1030 1032 0
-1031 1032 0
-210 -873 1033 0
210 -1033 0
873 -1033 0
-779 -1033 -1034 0
779 1033 -1034 0
779 -1033 1034 0
-779 1033 1034 0
-1034 -1032 -1035 0
1034 1032 -1035 0
1034 -1032 1035 0
-1034 1032 1035 0
-1034 -1032 1036 0
1034 -1036 0
1032 -1036 0
-779 -1033 1037 0
779 -1037 0
1033 -1037 0
1036 1037 -1038 0
-1036 1038 0
-1037 1038 0
-218 -873 1039 0
218 -1039 0
873 -1039 0
-785 -1039 -1040 0
785 1039 -1040 0
785 -1039 1040 0
-785 1039 1040 0
-1040 -1038 -1041 0
1040 1038 -1041 0
1040 -1038 1041 0
-1040 1038 1041 0
-1040 -1038 1042 0
1040 -1042 0
1038 -1042 0
-785 -1039 1043 0
785 -1043 0
1039 -1043 0
1042 1043 -1044 0
-1042 1044 0
-1043 1044 0
-226 -873 1045 0
226 -1045 0
873 -1045 0
-791 -1045 -1046 0
791 1045 -1046 0
791 -1045 1046 0
-791 1045 1046 0
-1046 -1044 -1047 0
1046 1044 -1047 0
1046 -1044 1047 0
-1046 1044 1047 0
-1046 -1044 1048 0
1046 -1048 0
1044 -1048 0
-791 -1045 1049 0
791 -1049 0
1045 -1049 0
1048 1049 -1050 0
-1048 1050 0
-1049 1050 0
-234 -873 1051 0
234 -1051 0
873 -1051 0
-797 -1051 -1052 0
797 1051 -1052 0
797 -1051 1052 0
-797 1051 1052 0
-1052 -1050 -1053 0
1052 1050 -1053 0
1052 -1050 1053 0
-1052 1050 1053 0
-1052 -1050 1054 0
1052 -1054 0
1050 -1054 0
-797 -1051 1055 0
797 -1055 0
1051 -1055 0
1054 1055 -1056 0
-1054 1056 0
-1055 1056 0
-242 -873 1057 0
242 -1057 0
873 -1057 0
-803 -1057 -1058 0
803 1057 -1058 0
803 -1057 1058 0
-803 1057 1058 0
-1058 -1056 -1059 0
1058 1056 -1059 0
1058 -1056 1059 0
-1058 1056 1059 0
-1058 -1056 1060 0
1058 -1060 0
1056 -1060 0
-803 -1057 1061 0
803 -1061 0
1057 -1061 0
1060 1061 -1062 0
-1060 1062 0
-1061 1062 0
-250 -873 1063 0
250 -1063 0
873 -1063 0
-809 -1063 -1064 0
809 1063 -1064 0
809 -1063 1064 0
-809 1063 1064 0
-1064 -1062 -1065 0
1064 1062 -1065 0
1064 -1062 1065 0
-1064 1062 1065 0
-1064 -1062 1066 0
1064 -1066 0
1062 -1066 0
-809 -1063 1067 0
809 -1067 0
1063 -1067 0
1066 1067 -1068 0
-1066 1068 0
-1067 1068 0
-258 -873 1069 0
258 -1069 0
873 -1069 0
-815 -1069 -1070 0
815 1069 -1070 0
815 -1069 1070 0
-815 1069 1070 0
-1070 -1068 -1071 0
1070 1068 -1071 0
1070 -1068 1071 0
-1070 1068 1071 0
-1070 -1068 1072 0
1070 -1072 0
1068 -1072 0
-815 -1069 1073 0
815 -1073 0
1069 -1073 0
1072 1073 -1074 0
-1072 1074 0
-1073 1074 0
-266 -873 1075 0
266 -1075 0
873 -1075 0
-821 -1075 -1076 0
821 1075 -1076 0
821 -1075 1076 0
-821 1075 1076 0
-1076 -1074 -1077 0
1076 1074 -1077 0
1076 -1074 1077 0
-1076 1074 1077 0
-1076 -1074 1078 0
1076 -1078 0
1074 -1078 0
-821 -1075 1079 0
821 -1079 0
1075 -1079 0
1078 1079 -1080 0
-1078 1080 0
-1079 1080 0
-274 -873 1081 0
274 -1081 0
873 -1081 0
-827 -1081 -1082 0
827 1081 -1082 0
827 -1081 1082 0
-827 1081 1082 0
-1082 -1080 -1083 0
1082 1080 -1083 0
1082 -1080 1083 0
-1082 1080 1083 0
-1082 -1080 1084 0
1082 -1084 0
1080 -1084 0
-827 -1081 1085 0
827 -1085 0
1081 -1085 0
1084 1085 -1086 0
-1084 1086 0
-1085 1086 0
-282 -873 1087 0
282 -1087 0
873 -1087 0
-833 -1087 -1088 0
833 1087 -1088 0
833 -1087 1088 0
-833 1087 1088 0
-1088 -1086 -1089 0
1088 1086 -1089 0
1088 -1086 1089 0
-1088 1086 1089 0
-1088 -1086 1090 0
1088 -1090 0
1086 -1090 0
-833 -1087 1091 0
833 -1091 0
1087 -1091 0
1090 1091 -1092 0
-1090 1092 0
-1091 1092 0
-290 -873 1093 0
290 -1093 0
873 -1093 0
-839 -1093 -1094 0
839 1093 -1094 0
839 -1093 1094 0
-839 1093 1094 0
-1094 -1092 -1095 0
1094 1092 -1095 0
1094 -1092 1095 0
-1094 1092 1095 0
-1094 -1092 1096 0
1094 -1096 0
1092 -1096 0
-839 -1093 1097 0
839 -1097 0
1093 -1097 0
1096 1097 -1098 0
-1096 1098 0
-1097 1098 0
-298 -873 1099 0
298 -1099 0
873 -1099 0
-845 -1099 -1100 0
845 1099 -1100 0
845 -1099 1100 0
-845 1099 1100 0
-1100 -1098 -1101 0
1100 1098 -1101 0
1100 -1098 1101 0
-1100 1098 1101 0
-1100 -1098 1102 0
1100 -1102 0
1098 -1102 0
-845 -1099 1103 0
845 -1103 0
1099 -1103 0
1102 1103 -1104 0
-1102 1104 0
-1103 1104 0
-306 -873 1105 0
306 -1105 0
873 -1105 0
-851 -1105 -1106 0
851 1105 -1106 0
851 -1105 1106 0
-851 1105 1106 0
-1106 -1104 -1107 0
1106 1104 -1107 0
1106 -1104 1107 0
-1106 1104 1107 0
-1106 -1104 1108 0
1106 -1108 0
1104 -1108 0
-851 -1105 1109 0
851 -1109 0
1105 -1109 0
1108 1109 -1110 0
-1108 1110 0
-1109 1110 0
-314 -873 1111 0
314 -1111 0
873 -1111 0
-857 -1111 -1112 0
857 1111 -1112 0
857 -1111 1112 0
-857 1111 1112 0
-1112 -1110 -1113 0
1112 1110 -1113 0
1112 -1110 1113 0
-1112 1110 1113 0
-1112 -1110 1114 0
1112 -1114 0
1110 -1114 0
-857 -1111 1115 0
857 -1115 0
1111 -1115 0
1114 1115 -1116 0
-1114 1116 0
-1115 1116 0
-322 -873 1117 0
322 -1117 0
873 -1117 0
-863 -1117 -1118 0
863 1117 -1118 0
863 -1117 1118 0
-863 1117 1118 0
-1118 -1116 -1119 0
1118 1116 -1119 0
1118 -1116 1119 0
-1118 1116 1119 0
-1118 -1116 1120 0
1118 -1120 0
1116 -1120 0
-863 -1117 1121 0
863 -1121 0
1117 -1121 0
1120 1121 -1122 0
-1120 1122 0
-1121 1122 0
-330 -873 1123 0
330 -1123 0
873 -1123 0
-869 -1123 -1124 0
869 1123 -1124 0
869 -1123 1124 0
-869 1123 1124 0
-1124 -1122 -1125 0
1124 1122 -1125 0
1124 -1122 1125 0
-1124 1122 1125 0
-1124 -1122 1126 0
1124 -1126 0
1122 -1126 0
-869 -1123 1127 0
869 -1127 0
1123 -1127 0
1126 1127 -1128 0
-1126 1128 0
-1127 1128 0
-338 -873 1129 0
338 -1129 0
873 -1129 0
-872 -1129 -1130 0
872 1129 -1130 0
872 -1129 1130 0
-872 1129 1130 0
-1130 -1128 -1131 0
1130 1128 -1131 0
1130 -1128 1131 0
-1130 1128 1131 0
-1130 -1128 1132 0
1130 -1132 0
1128 -1132 0
-872 -1129 1133 0
872 -1133 0
1129 -1133 0
1132 1133 -1134 0
-1132 1134 0
-1133 1134 0
-1 -1135 1136 0
1 -1136 0
1135 -1136 0
-879 -1136 -1137 0
879 1136 -1137 0
879 -1136 1137 0
-879 1136 1137 0
-879 -1136 1138 0
879 -1138 0
1136 -1138 0
-4 -1135 1139 0
4 -1139 0
1135 -1139 0
-885 -1139 -1140 0
885 1139 -1140 0
885 -1139 1140 0
-885 1139 1140 0
-1140 -1138 -1141 0
1140 1138 -1141 0
1140 -1138 1141 0
-1140 1138 1141 0
-1140 -1138 1142 0
1140 -1142 0
1138 -1142 0
-885 -1139 1143 0
885 -1143 0
1139 -1143 0
1142 1143 -1144 0
-1142 1144 0
-1143 1144 0
-10 -1135 1145 0
10 -1145 0
1135 -1145 0
-891 -1145 -1146 0
891 1145 -1146 0
891 -1145 1146 0
-891 1145 1146 0
-1146 -1144 -1147 0
1146 1144 -1147 0
1146 -1144 1147 0
-1146 1144 1147 0
-1146 -1144 1148 0
1146 -1148 0
1144 -1148 0
-891 -1145 1149 0
891 -1149 0
1145 -1149 0
1148 1149 -1150 0
-1148 1150 0
-1149 1150 0
-18 -1135 1151 0
18 -1151 0
1135 -1151 0
-897 -1151 -1152 0
897 1151 -1152 0
897 -1151 1152 0
-897 1151 1152 0
-1152 -1150 -1153 0
1152 1150 -1153 0
1152 -1150 1153 0
-1152 1150 1153 0
-1152 -1150 1154 0
1152 -1154 0
1150 -1154 0
-897 -1151 1155 0
897 -1155 0
1151 -1155 0
1154 1155 -1156 0
-1154 1156 0
-1155 1156 0
-26 -1135 1157 0
26 -1157 0
1135 -1157 0
-903 -1157 -1158 0
903 1157 -1158 0
903 -1157 1158 0
-903 1157 1158 0
-1158 -1156 -1159 0
1158 1156 -1159 0
1158 -1156 1159 0
-1158 1156 1159 0
-1158 -1156 1160 0
1158 -1160 0
1156 -1160 0
-903 -1157 1161 0
903 -1161 0
1157 -1161 0
1160 1161 -1162 0
-1160 1162 0
-1161 1162 0
-34 -1135 1163 0
34 -1163 0
1135 -1163 0
-909 -1163 -1164 0
909 1163 -1164 0
909 -1163 1164 0
-909 1163 1164 0
-1164 -1162 -1165 0
1164 1162 -1165 0
1164 -1162 1165 0
-1164 1162 1165 0
-1164 -1162 1166 0
1164 -1166 0
1162 -1166 0
-909 -1163 1167 0
909 -1167 0
1163 -1167 0
1166 1167 -1168 0
-1166 1168 0
-1167 1168 0
-42 -1135 1169 0
42 -1169 0
1135 -1169 0
-915 -1169 -1170 0
915 1169 -1170 0
915 -1169 1170 0
-915 1169 1170 0
-1170 -1168 -1171 0
1170 1168 -1171 0
1170 -1168 1171 0
-1170 1168 1171 0
-1170 -1168 1172 0
1170 -1172 0
1168 -1172 0
-915 -1169 1173 0
915 -1173 0
1169 -1173 0
1172 1173 -1174 0
-1172 1174 0
-1173 1174 0
-50 -1135 1175 0
50 -1175 0
1135 -1175 0
-921 -1175 -1176 0
921 1175 -1176 0
921 -1175 1176 0
-921 1175 1176 0
-1176 -1174 -1177 0
1176 1174 -1177 0
1176 -1174 1177 0
-1176 1174 1177 0
-1176 -1174 1178 0
1176 -1178 0
1174 -1178 0
-921 -1175 1179 0
921 -1179 0
1175 -1179 0
1178 1179 -1180 0
-1178 1180 0
-1179 1180 0
-58 -1135 1181 0
58 -1181 0
1135 -1181 0
-927 -1181 -1182 0
927 1181 -1182 0
927 -1181 1182 0
-927 1181 1182 0
-1182 -1180 -1183 0
1182 1180 -1183 0
1182 -1180 1183 0
-1182 1180 1183 0
-1182 -1180 1184 0
1182 -1184 0
1180 -1184 0
-927 -1181 1185 0
927 -1185 0
1181 -1185 0
1184 1185 -1186 0
-1184 1186 0
-1185 1186 0
-66 -1135 1187 0
66 -1187 0
1135 -1187 0
-933 -1187 -1188 0
933 1187 -1188 0
933 -1187 1188 0
-933 1187 1188 0
-1188 -1186 -1189 0
1188 1186 -1189 0
1188 -1186 1189 0
-1188 1186 1189 0
-1188 -1186 1190 0
1188 -1190 0
1186 -1190 0
-933 -1187 1191 0
933 -1191 0
1187 -1191 0
1190 1191 -1192 0
-1190 1192 0
-1191 1192 0
-74 -1135 1193 0
74 -1193 0
1135 -1193 0
-939 -1193 -1194 0
939 1193 -1194 0
939 -1193 1194 0
-939 1193 1194 0
-1194 -1192 -1195 0
1194 1192 -1195 0
1194 -1192 1195 0
-1194 1192 1195 0
-1194 -1192 1196 0
1194 -1196 0
1192 -1196 0
-939 -1193 1197 0
939 -1197 0
1193 -1197 0
1196 1197 -1198 0
-1196 1198 0
-1197 1198 0
-82 -1135 1199 0
82 -1199 0
1135 -1199 0
-945 -1199 -1200 0
945 1199 -1200 0
945 -1199 1200 0
-945 1199 1200 0
-1200 -1198 -1201 0
1200 1198 -1201 0
1200 -1198 1201 0
-1200 1198 1201 0
-1200 -1198 1202 0
1200 -1202 0
1198 -1202 0
-945 -1199 1203 0
945 -1203 0
1199 -1203 0
1202 1203 -1204 0
-1202 1204 0
-1203 1204 0
-90 -1135 1205 0
90 -1205 0
1135 -1205 0
-951 -1205 -1206 0
951 1205 -1206 0
951 -1205 1206 0
-951 1205 1206 0
-1206 -1204 -1207 0
1206 1204 -1207 0
1206 -1204 1207 0
-1206 1204 1207 0
-1206 -1204 1208 0
1206 -1208 0
1204 -1208 0
-951 -1205 1209 0
951 -1209 0
1205 -1209 0
1208 1209 -1210 0
-1208 1210 0
-1209 1210 0
-98 -1135 1211 0
98 -1211 0
1135 -1211 0
-957 -1211 -1212 0
957 1211 -1212 0
957 -1211 1212 0
-957 1211 1212 0
-1212 -1210 -1213 0
1212 1210 -1213 0
1212 -1210 1213 0
-1212 1210 1213 0
-1212 -1210 1214 0
1212 -1214 0
1210 -1214 0
-957 -1211 1215 0
957 -1215 0
1211 -1215 0
1214 1215 -1216 0
-1214 1216 0
-1215 1216 0
-106 -1135 1217 0
106 -1217 0
1135 -1217 0
-963 -1217 -1218 0
963 1217 -1218 0
963 -1217 1218 0
-963 1217 1218 0
-1218 -1216 -1219 0
1218 1216 -1219 0
1218 -1216 1219 0
-1218 1216 1219 0
-1218 -1216 1220 0
1218 -1220 0
1216 -1220 0
-963 -1217 1221 0
963 -1221 0
1217 -1221 0
1220 1221 -1222 0
-1220 1222 0
-1221 1222 0
-114 -1135 1223 0
114 -1223 0
1135 -1223 0
-969 -1223 -1224 0
969 1223 -1224 0
969 -1223 1224 0
-969 1223 1224 0
-1224 -1222 -1225 0
1224 1222 -1225 0
1224 -1222 1225 0
-1224 1222 1225 0
-1224 -1222 1226 0
1224 -1226 0
1222 -1226 0
-969 -1223 1227 0
969 -1227 0
1223 -1227 0
1226 1227 -1228 0
-1226 1228 0
-1227 1228 0
-122 -1135 1229 0
122 -1229 0
1135 -1229 0
-975 -1229 -1230 0
975 1229 -1230 0
975 -1229 1230 0
-975 1229 1230 0
-1230 -1228 -1231 0
1230 1228 -1231 0
1230 -1228 1231 0
-1230 1228 1231 0
-1230 -1228 1232 0
1230 -1232 0
1228 -1232 0
-975 -1229 1233 0
975 -1233 0
1229 -1233 0
1232 1233 -1234 0
-1232 1234 0
-1233 1234 0
-130 -1135 1235 0
130 -1235 0
1135 -1235 0
-981 -1235 -1236 0
981 1235 -1236 0
981 -1235 1236 0
-981 1235 1236 0
-1236 -1234 -1237 0
1236 1234 -1237 0
1236 -1234 1237 0
-1236 1234 1237 0
-1236 -1234 1238 0
1236 -1238 0
1234 -1238 0
-981 -1235 1239 0
981 -1239 0
1235 -1239 0
1238 1239 -1240 0
-1238 1240 0
-1239 1240 0
-138 -1135 1241 0
138 -1241 0
1135 -1241 0
-987 -1241 -1242 0
987 1241 -1242 0
987 -1241 1242 0
-987 1241 1242 0
-1242 -1240 -1243 0
1242 1240 -1243 0
1242 -1240 1243 0
-1242 1240 1243 0
-1242 -1240 1244 0
1242 -1244 0
1240 -1244 0
-987 -1241 1245 0
987 -1245 0
1241 -1245 0
1244 1245 -1246 0
-1244 1246 0
-1245 1246 0
-146 -1135 1247 0
146 -1247 0
1135 -1247 0
-993 -1247 -1248 0
993 1247 -1248 0
993 -1247 1248 0
-993 1247 1248 0
-1248 -1246 -1249 0
1248 1246 -1249 0
1248 -1246 1249 0
-1248 1246 1249 0
-1248 -1246 1250 0
1248 -1250 0
1246 -1250 0
-993 -1247 1251 0
993 -1251 0
1247 -1251 0
1250 1251 -1252 0
-1250 1252 0
-1251 1252 0
-154 -1135 1253 0
154 -1253 0
1135 -1253 0
-999 -1253 -1254 0
999 1253 -1254 0
999 -1253 1254 0
-999 1253 1254 0
-1254 -1252 -1255 0
1254 1252 -1255 0
1254 -1252 1255 0
-1254 1252 1255 0
-1254 -1252 1256 0
1254 -1256 0
1252 -1256 0
-999 -1253 1257 0
999 -1257 0
1253 -1257 0
1256 1257 -1258 0
-1256 1258 0
-1257 1258 0
-162 -1135 1259 0
162 -1259 0
1135 -1259 0
-1005 -1259 -1260 0
1005 1259 -1260 0
1005 -1259 1260 0
-1005 1259 1260 0
-1260 -1258 -1261 0
1260 1258 -1261 0
1260 -1258 1261 0
-1260 1258 1261 0
-1260 -1258 1262 0
1260 -1262 0
1258 -1262 0
-1005 -1259 1263 0
1005 -1263 0
1259 -1263 0
1262 1263 -1264 0
-1262 1264 0
-1263 1264 0
-170 -1135 1265 0
170 -1265 0
1135 -1265 0
-1011 -1265 -1266 0
1011 1265 -1266 0
1011 -1265 1266 0
-1011 1265 1266 0
-1266 -1264 -1267 0
1266 1264 -1267 0
1266 -1264 1267 0
-1266 1264 1267 0
-1266 -1264 1268 0
1266 -1268 0
1264 -1268 0
-1011 -1265 1269 0
1011 -1269 0
1265 -1269 0
1268 1269 -1270 0
-1268 1270 0
-1269 1270 0
-178 -1135 1271 0
178 -1271 0
1135 -1271 0
-1017 -1271 -1272 0
1017 1271 -1272 0
1017 -1271 1272 0
-1017 1271 1272 0
-1272 -1270 -1273 0
1272 1270 -1273 0
1272 -1270 1273 0
-1272 1270 1273 0
-1272 -1270 1274 0
1272 -1274 0
1270 -1274 0
-1017 -1271 1275 0
1017 -1275 0
1271 -1275 0
1274 1275 -1276 0
-1274 1276 0
-1275 1276 0
-186 -1135 1277 0
186 -1277 0
1135 -1277 0
-1023 -1277 -1278 0
1023 1277 -1278 0
1023 -1277 1278 0
-1023 1277 1278 0
-1278 -1276 -1279 0
1278 1276 -1279 0
1278 -1276 1279 0
-1278 1276 1279 0
-1278 -1276 1280 0
1278 -1280 0
1276 -1280 0
-1023 -1277 1281 0
1023 -1281 0
1277 -1281 0
1280 1281 -1282 0
-1280 1282 0
-1281 1282 0
-194 -1135 1283 0
194 -1283 0
1135 -1283 0
-1029 -1283 -1284 0
1029 1283 -1284 0
1029 -1283 1284 0
-1029 1283 1284 0
-1284 -1282 -1285 0
1284 1282 -1285 0
1284 -1282 1285 0
-1284 1282 1285 0
-1284 -1282 1286 0
1284 -1286 0
1282 -1286 0
-1029 -1283 1287 0
1029 -1287 0
1283 -1287 0
1286 1287 -1288 0
-1286 1288 0
-1287 1288 0
-202 -1135 1289 0
202 -1289 0
1135 -1289 0
-1035 -1289 -1290 0
1035 1289 -1290 0
1035 -1289 1290 0
-1035 1289 1290 0
-1290 -1288 -1291 0
1290 1288 -1291 0
1290 -1288 1291 0
-1290 1288 1291 0
-1290 -1288 1292 0
1290 -1292 0
1288 -1292 0
-1035 -1289 1293 0
1035 -1293 0
1289 -1293 0
1292 1293 -1294 0
-1292 1294 0
-1293 1294 0
-210 -1135 1295 0
210 -1295 0
1135 -1295 0
-1041 -1295 -1296 0
1041 1295 -1296 0
1041 -1295 1296 0
-1041 1295 1296 0
-1296 -1294 -1297 0
1296 1294 -1297 0
1296 -1294 1297 0
-1296 1294 1297 0
-1296 -1294 1298 0
1296 -1298 0
1294 -1298 0
-1041 -1295 1299 0
1041 -1299 0
1295 -1299 0
1298 1299 -1300 0
-1298 1300 0
-1299 1300 0
-218 -1135 1301 0
218 -1301 0
1135 -1301 0
-1047 -1301 -1302 0
1047 1301 -1302 0
1047 -1301 1302 0
-1047 1301 1302 0
-1302 -1300 -1303 0
1302 1300 -1303 0
1302 -1300 1303 0
-1302 1300 1303 0
-1302 -1300 1304 0
1302 -1304 0
1300 -1304 0
-1047 -1301 1305 0
1047 -1305 0
1301 -1305 0
1304 1305 -1306 0
-1304 1306 0
-1305 1306 0
-226 -1135 1307 0
226 -1307 0
1135 -1307 0
-1053 -1307 -1308 0
1053 1307 -1308 0
1053 -1307 1308 0
-1053 1307 1308 0
-1308 -1306 -1309 0
1308 1306 -1309 0
1308 -1306 1309 0
-1308 1306 1309 0
-1308 -1306 1310 0
1308 -1310 0
1306 -1310 0
-1053 -1307 1311 0
1053 -1311 0
1307 -1311 0
1310 1311 -1312 0
-1310 1312 0
-1311 1312 0
-234 -1135 1313 0
234 -1313 0
1135 -1313 0
-1059 -1313 -1314 0
1059 1313 -1314 0
1059 -1313 1314 0
-1059 1313 1314 0
-1314 -1312 -1315 0
1314 1312 -1315 0
1314 -1312 1315 0
-1314 1312 1315 0
-1314 -1312 1316 0
1314 -1316 0
1312 -1316 0
-1059 -1313 1317 0
1059 -1317 0
1313 -1317 0
1316 1317 -1318 0
-1316 1318 0
-1317 1318 0
-242 -1135 1319 0
242 -1319 0
1135 -1319 0
-1065 -1319 -1320 0
1065 1319 -1320 0
1065 -1319 1320 0
-1065 1319 1320 0
-1320 -1318 -1321 0
1320 1318 -1321 0
1320 -1318 1321 0
-1320 1318 1321 0
-1320 -1318 1322 0
1320 -1322 0
1318 -1322 0
-1065 -1319 1323 0
1065 -1323 0
1319 -1323 0
1322 1323 -1324 0
-1322 1324 0
-1323 1324 0
-250 -1135 1325 0
250 -1325 0
1135 -1325 0
-1071 -1325 -1326 0
1071 1325 -1326 0
1071 -1325 1326 0
-1071 1325 1326 0
-1326 -1324 -1327 0
1326 1324 -1327 0
1326 -1324 1327 0
-1326 1324 1327 0
-1326 -1324 1328 0
1326 -1328 0
1324 -1328 0
-1071 -1325 1329 0
1071 -1329 0
1325 -1329 0
1328 1329 -1330 0
-1328 1330 0
-1329 1330 0
-258 -1135 1331 0
258 -1331 0
1135 -1331 0
-1077 -1331 -1332 0
1077 1331 -1332 0
1077 -1331 1332 0
-1077 1331 1332 0
-1332 -1330 -1333 0
1332 1330 -1333 0
1332 -1330 1333 0
-1332 1330 1333 0
-1332 -1330 1334 0
1332 -1334 0
1330 -1334 0
-1077 -1331 1335 0
1077 -1335 0
1331 -1335 0
1334 1335 -1336 0
-1334 1336 0
-1335 1336 0
-266 -1135 1337 0
266 -1337 0
1135 -1337 0
-1083 -1337 -1338 0
1083 1337 -1338 0
1083 -1337 1338 0
-1083 1337 1338 0
-1338 -1336 -1339 0
1338 1336 -1339 0
1338 -1336 1339 0
-1338 1336 1339 0
-1338 -1336 1340 0
1338 -1340 0
1336 -1340 0
-1083 -1337 1341 0
1083 -1341 0
1337 -1341 0
1340 1341 -1342 0
-1340 1342 0
-1341 1342 0
-274 -1135 1343 0
274 -1343 0
1135 -1343 0
-1089 -1343 -1344 0
1089 1343 -1344 0
1089 -1343 1344 0
-1089 1343 1344 0
-1344 -1342 -1345 0
1344 1342 -1345 0
1344 -1342 1345 0
-1344 1342 1345 0
-1344 -1342 1346 0
1344 -1346 0
1342 -1346 0
-1089 -1343 1347 0
1089 -1347 0
1343 -1347 0
1346 1347 -1348 0
-1346 1348 0
-1347 1348 0
-282 -1135 1349 0
282 -1349 0
1135 -1349 0
-1095 -1349 -1350 0
1095 1349 -1350 0
1095 -1349 1350 0
-1095 1349 1350 0
-1350 -1348 -1351 0
1350 1348 -1351 0
1350 -1348 1351 0
-1350 1348 1351 0
-1350 -1348 1352 0
1350 -1352 0
1348 -1352 0
-1095 -1349 1353 0
1095 -1353 0
1349 -1353 0
1352 1353 -1354 0
-1352 1354 0
-1353 1354 0
-290 -1135 1355 0
290 -1355 0
1135 -1355 0
-1101 -1355 -1356 0
1101 1355 -1356 0
1101 -1355 1356 0
-1101 1355 1356 0
-1356 -1354 -1357 0
1356 1354 -1357 0
1356 -1354 1357 0
-1356 1354 1357 0
-1356 -1354 1358 0
1356 -1358 0
1354 -1358 0
-1101 -1355 1359 0
1101 -1359 0
1355 -1359 0
1358 1359 -1360 0
-1358 1360 0
-1359 1360 0
-298 -1135 1361 0
298 -1361 0
1135 -1361 0
-1107 -1361 -1362 0
1107 1361 -1362 0
1107 -1361 1362 0
-1107 1361 1362 0
-1362 -1360 -1363 0
1362 1360 -1363 0
1362 -1360 1363 0
-1362 1360 1363 0
-1362 -1360 1364 0
1362 -1364 0
1360 -1364 0
-1107 -1361 1365 0
1107 -1365 0
1361 -1365 0
1364 1365 -1366 0
-1364 1366 0
-1365 1366 0
-306 -1135 1367 0
306 -1367 0
1135 -1367 0
-1113 -1367 -1368 0
1113 1367 -1368 0
1113 -1367 1368 0
-1113 1367 1368 0
-1368 -1366 -1369 0
1368 1366 -1369 0
1368 -1366 1369 0
-1368 1366 1369 0
-1368 -1366 1370 0
1368 -1370 0
1366 -1370 0
-1113 -1367 1371 0
1113 -1371 0
1367 -1371 0
1370 1371 -1372 0
-1370 1372 0
-1371 1372 0
-314 -1135 1373 0
314 -1373 0
1135 -1373 0
-1119 -1373 -1374 0
1119 1373 -1374 0
1119 -1373 1374 0
-1119 1373 1374 0
-1374 -1372 -1375 0
1374 1372 -1375 0
1374 -1372 1375 0
-1374 1372 1375 0
-1374 -1372 1376 0
1374 -1376 0
1372 -1376 0
-1119 -1373 1377 0
1119 -1377 0
1373 -1377 0
1376 1377 -1378 0
-1376 1378 0
-1377 1378 0
-322 -1135 1379 0
322 -1379 0
1135 -1379 0
-1125 -1379 -1380 0
1125 1379 -1380 0
1125 -1379 1380 0
-1125 1379 1380 0
-1380 -1378 -1381 0
1380 1378 -1381 0
1380 -1378 1381 0
-1380 1378 1381 0
-1380 -1378 1382 0
1380 -1382 0
1378 -1382 0
-1125 -1379 1383 0
1125 -1383 0
1379 -1383 0
1382 1383 -1384 0
-1382 1384 0
-1383 1384 0
-330 -1135 1385 0
330 -1385 0
1135 -1385 0
-1131 -1385 -1386 0
1131 1385 -1386 0
1131 -1385 1386 0
-1131 1385 1386 0
-1386 -1384 -1387 0
1386 1384 -1387 0
1386 -1384 1387 0
-1386 1384 1387 0
-1386 -1384 1388 0
1386 -1388 0
1384 -1388 0
-1131 -1385 1389 0
1131 -1389 0
1385 -1389 0
1388 1389 -1390 0
-1388 1390 0
-1389 1390 0
-338 -1135 1391 0
338 -1391 0
1135 -1391 0
-1134 -1391 -1392 0
1134 1391 -1392 0
1134 -1391 1392 0
-1134 1391 1392 0
-1392 -1390 -1393 0
1392 1390 -1393 0
1392 -1390 1393 0
-1392 1390 1393 0
-1392 -1390 1394 0
1392 -1394 0
1390 -1394 0
-1134 -1391 1395 0
1134 -1395 0
1391 -1395 0
1394 1395 -1396 0
-1394 1396 0
-1395 1396 0
-1 -1397 1398 0
1 -1398 0
1397 -1398 0
-1141 -1398 -1399 0
1141 1398 -1399 0
1141 -1398 1399 0
-1141 1398 1399 0
-1141 -1398 1400 0
1141 -1400 0
1398 -1400 0
-4 -1397 1401 0
4 -1401 0
1397 -1401 0
-1147 -1401 -1402 0
1147 1401 -1402 0
1147 -1401 1402 0
-1147 1401 1402 0
-1402 -1400 -1403 0
1402 1400 -1403 0
1402 -1400 1403 0
-1402 1400 1403 0
-1402 -1400 1404 0
1402 -1404 0
1400 -1404 0
-1147 -1401 1405 0
1147 -1405 0
1401 -1405 0
1404 1405 -1406 0
-1404 1406 0
-1405 1406 0
-10 -1397 1407 0
10 -1407 0
1397 -1407 0
-1153 -1407 -1408 0
1153 1407 -1408 0
1153 -1407 1408 0
-1153 1407 1408 0
-1408 -1406 -1409 0
1408 1406 -1409 0
1408 -1406 1409 0
-1408 1406 1409 0
-1408 -1406 1410 0
1408 -1410 0
1406 -1410 0
-1153 -1407 1411 0
1153 -1411 0
1407 -1411 0
1410 1411 -1412 0
-1410 1412 0
-1411 1412 0
-18 -1397 1413 0
18 -1413 0
1397 -1413 0
-1159 -1413 -1414 0
1159 1413 -1414 0
1159 -1413 1414 0
-1159 1413 1414 0
-1414 -1412 -1415 0
1414 1412 -1415 0
1414 -1412 1415 0
-1414 1412 1415 0
-1414 -1412 1416 0
1414 -1416 0
1412 -1416 0
-1159 -1413 1417 0
1159 -1417 0
1413 -1417 0
1416 1417 -1418 0
-1416 1418 0
-1417 1418 0
-26 -1397 1419 0
26 -1419 0
1397 -1419 0
-1165 -1419 -1420 0
1165 1419 -1420 0
1165 -1419 1420 0
-1165 1419 1420 0
-1420 -1418 -1421 0
1420 1418 -1421 0
1420 -1418 1421 0
-1420 1418 1421 0
-1420 -1418 1422 0
1420 -1422 0
1418 -1422 0
-1165 -1419 1423 0
1165 -1423 0
1419 -1423 0
1422 1423 -1424 0
-1422 1424 0
-1423 1424 0
-34 -1397 1425 0
34 -1425 0
1397 -1425 0
-1171 -1425 -1426 0
1171 1425 -1426 0
1171 -1425 1426 0
-1171 1425 1426 0
-1426 -1424 -1427 0
1426 1424 -1427 0
1426 -1424 1427 0
-1426 1424 1427 0
-1426 -1424 1428 0
1426 -1428 0
1424 -1428 0
-1171 -1425 1429 0
1171 -1429 0
1425 -1429 0
1428 1429 -1430 0
-1428 1430 0
-1429 1430 0
-42 -1397 1431 0
42 -1431 0
1397 -1431 0
-1177 -1431 -1432 0
1177 1431 -1432 0
1177 -1431 1432 0
-1177 1431 1432 0
-1432 -1430 -1433 0
1432 1430 -1433 0
1432 -1430 1433 0
-1432 1430 1433 0
-1432 -1430 1434 0
1432 -1434 0
1430 -1434 0
-1177 -1431 1435 0
1177 -1435 0
1431 -1435 0
1434 1435 -1436 0
-1434 1436 0
-1435 1436 0
-50 -1397 1437 0
50 -1437 0
1397 -1437 0
-1183 -1437 -1438 0
1183 1437 -1438 0
1183 -1437 1438 0
-1183 1437 1438 0
-1438 -1436 -1439 0
1438 1436 -1439 0
1438 -1436 1439 0
-1438 1436 1439 0
-1438 -1436 1440 0
1438 -1440 0
1436 -1440 0
-1183 -1437 1441 0
1183 -1441 0
1437 -1441 0
1440 1441 -1442 0
-1440 1442 0
-1441 1442 0
-58 -1397 1443 0
58 -1443 0
1397 -1443 0
-1189 -1443 -1444 0
1189 1443 -1444 0
1189 -1443 1444 0
-1189 1443 1444 0
-1444 -1442 -1445 0
1444 1442 -1445 0
1444 -1442 1445 0
-1444 1442 1445 0
-1444 -1442 1446 0
1444 -1446 0
1442 -1446 0
-1189 -1443 1447 0
1189 -1447 0
1443 -1447 0
1446 1447 -1448 0
-1446 1448 0
-1447 1448 0
-66 -1397 1449 0
66 -1449 0
1397 -1449 0
-1195 -1449 -1450 0
1195 1449 -1450 0
1195 -1449 1450 0
-1195 1449 1450 0
-1450 -1448 -1451 0
1450 1448 -1451 0
1450 -1448 1451 0
-1450 1448 1451 0
-1450 -1448 1452 0
1450 -1452 0
1448 -1452 0
-1195 -1449 1453 0
1195 -1453 0
1449 -1453 0
1452 1453 -1454 0
-1452 1454 0
-1453 1454 0
-74 -1397 1455 0
74 -1455 0
1397 -1455 0
-1201 -1455 -1456 0
1201 1455 -1456 0
1201 -1455 1456 0
-1201 1455 1456 0
-1456 -1454 -1457 0
1456 1454 -1457 0
1456 -1454 1457 0
-1456 1454 1457 0
-1456 -1454 1458 0
1456 -1458 0
1454 -1458 0
-1201 -1455 1459 0
1201 -1459 0
1455 -1459 0
1458 1459 -1460 0
-1458 1460 0
-1459 1460 0
-82 -1397 1461 0
82 -1461 0
1397 -1461 0
-1207 -1461 -1462 0
1207 1461 -1462 0
1207 -1461 1462 0
-1207 1461 1462 0
-1462 -1460 -1463 0
1462 1460 -1463 0
1462 -1460 1463 0
-1462 1460 1463 0
-1462 -1460 1464 0
1462 -1464 0
1460 -1464 0
-1207 -1461 1465 0
1207 -1465 0
1461 -1465 0
1464 1465 -1466 0
-1464 1466 0
-1465 1466 0
-90 -1397 1467 0
90 -1467 0
1397 -1467 0
-1213 -1467 -1468 0
1213 1467 -1468 0
1213 -1467 1468 0
-1213 1467 1468 0
-1468 -1466 -1469 0
1468 1466 -1469 0
1468 -1466 1469 0
-1468 1466 1469 0
-1468 -1466 1470 0
1468 -1470 0
1466 -1470 0
-1213 -1467 1471 0
1213 -1471 0
1467 -1471 0
1470 1471 -1472 0
-1470 1472 0
-1471 1472 0
-98 -1397 1473 0
98 -1473 0
1397 -1473 0
-1219 -1473 -1474 0
1219 1473 -1474 0
1219 -1473 1474 0
-1219 1473 1474 0
-1474 -1472 -1475 0
1474 1472 -1475 0
1474 -1472 1475 0
-1474 1472 1475 0
-1474 -1472 1476 0
1474 -1476 0
1472 -1476 0
-1219 -1473 1477 0
1219 -1477 0
1473 -1477 0
1476 1477 -1478 0
-1476 1478 0
-1477 1478 0
-106 -1397 1479 0
106 -1479 0
1397 -1479 0
-1225 -1479 -1480 0
1225 1479 -1480 0
1225 -1479 1480 0
-1225 1479 1480 0
-1480 -1478 -1481 0
1480 1478 -1481 0
1480 -1478 1481 0
-1480 1478 1481 0
-1480 -1478 1482 0
1480 -1482 0
1478 -1482 0
-1225 -1479 1483 0
1225 -1483 0
1479 -1483 0
1482 1483 -1484 0
-1482 1484 0
-1483 1484 0
-114 -1397 1485 0
114 -1485 0
1397 -1485 0
-1231 -1485 -1486 0
1231 1485 -1486 0
1231 -1485 1486 0
-1231 1485 1486 0
-1486 -1484 -1487 0
1486 1484 -1487 0
1486 -1484 1487 0
-1486 1484 1487 0
-1486 -1484 1488 0
1486 -1488 0
1484 -1488 0
-1231 -1485 1489 0
1231 -1489 0
1485 -1489 0
1488 1489 -1490 0
-1488 1490 0
-1489 1490 0
-122 -1397 1491 0
122 -1491 0
1397 -1491 0
-1237 -1491 -1492 0
1237 1491 -1492 0
1237 -1491 1492 0
-1237 1491 1492 0
-1492 -1490 -1493 0
1492 1490 -1493 0
1492 -1490 1493 0
-1492 1490 1493 0
-1492 -1490 1494 0
1492 -1494 0
1490 -1494 0
-1237 -1491 1495 0
1237 -1495 0
1491 -1495 0
1494 1495 -1496 0
-1494 1496 0
-1495 1496 0
-130 -1397 1497 0
130 -1497 0
1397 -1497 0
-1243 -1497 -1498 0
1243 1497 -1498 0
1243 -1497 1498 0
-1243 1497 1498 0
-1498 -1496 -1499 0
1498 1496 -1499 0
1498 -1496 1499 0
-1498 1496 1499 0
-1498 -1496 1500 0
1498 -1500 0
1496 -1500 0
-1243 -1497 1501 0
1243 -1501 0
1497 -1501 0
1500 1501 -1502 0
-1500 1502 0
-1501 1502 0
-138 -1397 1503 0
138 -1503 0
1397 -1503 0
-1249 -1503 -1504 0
1249 1503 -1504 0
1249 -1503 1504 0
-1249 1503 1504 0
-1504 -1502 -1505 0
1504 1502 -1505 0
1504 -1502 1505 0
-1504 1502 1505 0
-1504 -1502 1506 0
1504 -1506 0
1502 -1506 0
-1249 -1503 1507 0
1249 -1507 0
1503 -1507 0
1506 1507 -1508 0
-1506 1508 0
-1507 1508 0
-146 -1397 1509 0
146 -1509 0
1397 -1509 0
-1255 -1509 -1510 0
1255 1509 -1510 0
1255 -1509 1510 0
-1255 1509 1510 0
-1510 -1508 -1511 0
1510 1508 -1511 0
1510 -1508 1511 0
-1510 1508 1511 0
-1510 -1508 1512 0
1510 -1512 0
1508 -1512 0
-1255 -1509 1513 0
1255 -1513 0
1509 -1513 0
1512 1513 -1514 0
-1512 1514 0
-1513 1514 0
-154 -1397 1515 0
154 -1515 0
1397 -1515 0
-1261 -1515 -1516 0
1261 1515 -1516 0
1261 -1515 1516 0
-1261 1515 1516 0
-1516 -1514 -1517 0
1516 1514 -1517 0
1516 -1514 1517 0
-1516 1514 1517 0
-1516 -1514 1518 0
1516 -1518 0
1514 -1518 0
-1261 -1515 1519 0
1261 -1519 0
1515 -1519 0
1518 1519 -1520 0
-1518 1520 0
-1519 1520 0
-162 -1397 1521 0
162 -1521 0
1397 -1521 0
-1267 -1521 -1522 0
1267 1521 -1522 0
1267 -1521 1522 0
-1267 1521 1522 0
-1522 -1520 -1523 0
1522 1520 -1523 0
1522 -1520 1523 0
-1522 1520 1523 0
-1522 -1520 1524 0
1522 -1524 0
1520 -1524 0
-1267 -1521 1525 0
1267 -1525 0
1521 -1525 0
1524 1525 -1526 0
-1524 1526 0
-1525 1526 0
-170 -1397 1527 0
170 -1527 0
1397 -1527 0
-1273 -1527 -1528 0
1273 1527 -1528 0
1273 -1527 1528 0
-1273 1527 1528 0
-1528 -1526 -1529 0
1528 1526 -1529 0
1528 -1526 1529 0
-1528 1526 1529 0
-1528 -1526 1530 0
1528 -1530 0
1526 -1530 0
-1273 -1527 1531 0
1273 -1531 0
1527 -1531 0
1530 1531 -1532 0
-1530 1532 0
-1531 1532 0
-178 -1397 1533 0
178 -1533 0
1397 -1533 0
-1279 -1533 -1534 0
1279 1533 -1534 0
1279 -1533 1534 0
-1279 1533 1534 0
-1534 -1532 -1535 0
1534 1532 -1535 0
1534 -1532 1535 0
-1534 1532 1535 0
-1534 -1532 1536 0
1534 -1536 0
1532 -1536 0
-1279 -1533 1537 0
1279 -1537 0
1533 -1537 0
1536 1537 -1538 0
-1536 1538 0
-1537 1538 0
-186 -1397 1539 0
186 -1539 0
1397 -1539 0
-1285 -1539 -1540 0
1285 1539 -1540 0
1285 -1539 1540 0
-1285 1539 1540 0
-1540 -1538 -1541 0
1540 1538 -1541 0
1540 -1538 1541 0
-1540 1538 1541 0
-1540 -1538 1542 0
1540 -1542 0
1538 -1542 0
-1285 -1539 1543 0
1285 -1543 0
1539 -1543 0
1542 1543 -1544 0
-1542 1544 0
-1543 1544 0
-194 -1397 1545 0
194 -1545 0
1397 -1545 0
-1291 -1545 -1546 0
1291 1545 -1546 0
1291 -1545 1546 0
-1291 1545 1546 0
-1546 -1544 -1547 0
1546 1544 -1547 0
1546 -1544 1547 0
-1546 1544 1547 0
-1546 -1544 1548 0
1546 -1548 0
1544 -1548 0
-1291 -1545 1549 0
1291 -1549 0
1545 -1549 0
1548 1549 -1550 0
-1548 1550 0
-1549 1550 0
-202 -1397 1551 0
202 -1551 0
1397 -1551 0
-1297 -1551 -1552 0
1297 1551 -1552 0
1297 -1551 1552 0
-1297 1551 1552 0
-1552 -1550 -1553 0
1552 1550 -1553 0
1552 -1550 1553 0
-1552 1550 1553 0
-1552 -1550 1554 0
1552 -1554 0
1550 -1554 0
-1297 -1551 1555 0
1297 -1555 0
1551 -1555 0
1554 1555 -1556 0
-1554 1556 0
-1555 1556 0
-210 -1397 1557 0
210 -1557 0
1397 -1557 0
-1303 -1557 -1558 0
1303 1557 -1558 0
1303 -1557 1558 0
-1303 1557 1558 0
-1558 -1556 -1559 0
1558 1556 -1559 0
1558 -1556 1559 0
-1558 1556 1559 0
-1558 -1556 1560 0
1558 -1560 0
1556 -1560 0
-1303 -1557 1561 0
1303 -1561 0
1557 -1561 0
1560 1561 -1562 0
-1560 1562 0
-1561 1562 0
-218 -1397 1563 0
218 -1563 0
1397 -1563 0
-1309 -1563 -1564 0
1309 1563 -1564 0
1309 -1563 1564 0
-1309 1563 1564 0
-1564 -1562 -1565 0
1564 1562 -1565 0
1564 -1562 1565 0
-1564 1562 1565 0
-1564 -1562 1566 0
1564 -1566 0
1562 -1566 0
-1309 -1563 1567 0
1309 -1567 0
1563 -1567 0
1566 1567 -1568 0
-1566 1568 0
-1567 1568 0
-226 -1397 1569 0
226 -1569 0
1397 -1569 0
-1315 -1569 -1570 0
1315 1569 -1570 0
1315 -1569 1570 0
-1315 1569 1570 0
-1570 -1568 -1571 0
1570 1568 -1571 0
1570 -1568 1571 0
-1570 1568 1571 0
-1570 -1568 1572 0
1570 -1572 0
1568 -1572 0
-1315 -1569 1573 0
1315 -1573 0
1569 -1573 0
1572 1573 -1574 0
-1572 1574 0
-1573 1574 0
-234 -1397 1575 0
234 -1575 0
1397 -1575 0
-1321 -1575 -1576 0
1321 1575 -1576 0
1321 -1575 1576 0
-1321 1575 1576 0
-1576 -1574 -1577 0
1576 1574 -1577 0
1576 -1574 1577 0
-1576 1574 1577 0
-1576 -1574 1578 0
1576 -1578 0
1574 -1578 0
-1321 -1575 1579 0
1321 -1579 0
1575 -1579 0
1578 1579 -1580 0
-1578 1580 0
-1579 1580 0
-242 -1397 1581 0
242 -1581 0
1397 -1581 0
-1327 -1581 -1582 0
1327 1581 -1582 0
1327 -1581 1582 0
-1327 1581 1582 0
-1582 -1580 -1583 0
1582 1580 -1583 0
1582 -1580 1583 0
-1582 1580 1583 0
-1582 -1580 1584 0
1582 -1584 0
1580 -1584 0
-1327 -1581 1585 0
1327 -1585 0
1581 -1585 0
1584 1585 -1586 0
-1584 1586 0
-1585 1586 0
-250 -1397 1587 0
250 -1587 0
1397 -1587 0
-1333 -1587 -1588 0
1333 1587 -1588 0
1333 -1587 1588 0
-1333 1587 1588 0
-1588 -1586 -1589 0
1588 1586 -1589 0
1588 -1586 1589 0
-1588 1586 1589 0
-1588 -1586 1590 0
1588 -1590 0
1586 -1590 0
-1333 -1587 1591 0
1333 -1591 0
1587 -1591 0
1590 1591 -1592 0
-1590 1592 0
-1591 1592 0
-258 -1397 1593 0
258 -1593 0
1397 -1593 0
-1339 -1593 -1594 0
1339 1593 -1594 0
1339 -1593 1594 0
-1339 1593 1594 0
-1594 -1592 -1595 0
1594 1592 -1595 0
1594 -1592 1595 0
-1594 1592 1595 0
-1594 -1592 1596 0
1594 -1596 0
1592 -1596 0
-1339 -1593 1597 0
1339 -1597 0
1593 -1597 0
1596 1597 -1598 0
-1596 1598 0
-1597 1598 0
-266 -1397 1599 0
266 -1599 0
1397 -1599 0
-1345 -1599 -1600 0
1345 1599 -1600 0
1345 -1599 1600 0
-1345 1599 1600 0
-1600 -1598 -1601 0
1600 1598 -1601 0
1600 -1598 1601 0
-1600 1598 1601 0
-1600 -1598 1602 0
1600 -1602 0
1598 -1602 0
-1345 -1599 1603 0
1345 -1603 0
1599 -1603 0
1602 1603 -1604 0
-1602 1604 0
-1603 1604 0
-274 -1397 1605 0
274 -1605 0
1397 -1605 0
-1351 -1605 -1606 0
1351 1605 -1606 0
1351 -1605 1606 0
-1351 1605 1606 0
-1606 -1604 -1607 0
1606 1604 -1607 0
1606 -1604 1607 0
-1606 1604 1607 0
-1606 -1604 1608 0
1606 -1608 0
1604 -1608 0
-1351 -1605 1609 0
1351 -1609 0
1605 -1609 0
1608 1609 -1610 0
-1608 1610 0
-1609 1610 0
-282 -1397 1611 0
282 -1611 0
1397 -1611 0
-1357 -1611 -1612 0
1357 1611 -1612 0
1357 -1611 1612 0
-1357 1611 1612 0
-1612 -1610 -1613 0
1612 1610 -1613 0
1612 -1610 1613 0
-1612 1610 1613 0
-1612 -1610 1614 0
1612 -1614 0
1610 -1614 0
-1357 -1611 1615 0
1357 -1615 0
1611 -1615 0
1614 1615 -1616 0
-1614 1616 0
-1615 1616 0
-290 -1397 1617 0
290 -1617 0
1397 -1617 0
-1363 -1617 -1618 0
1363 1617 -1618 0
1363 -1617 1618 0
-1363 1617 1618 0
-1618 -1616 -1619 0
1618 1616 -1619 0
1618 -1616 1619 0
-1618 1616 1619 0
-1618 -1616 1620 0
1618 -1620 0
1616 -1620 0
-1363 -1617 1621 0
1363 -1621 0
1617 -1621 0
1620 1621 -1622 0
-1620 1622 0
-1621 1622 0
-298 -1397 1623 0
298 -1623 0
1397 -1623 0
-1369 -1623 -1624 0
1369 1623 -1624 0
1369 -1623 1624 0
-1369 1623 1624 0
-1624 -1622 -1625 0
1624 1622 -1625 0
1624 -1622 1625 0
-1624 1622 1625 0
-1624 -1622 1626 0
1624 -1626 0
1622 -1626 0
-1369 -1623 1627 0
1369 -1627 0
1623 -1627 0
1626 1627 -1628 0
-1626 1628 0
-1627 1628 0
-306 -1397 1629 0
306 -1629 0
1397 -1629 0
-1375 -1629 -1630 0
1375 1629 -1630 0
1375 -1629 1630 0
-1375 1629 1630 0
-1630 -1628 -1631 0
1630 1628 -1631 0
1630 -1628 1631 0
-1630 1628 1631 0
-1630 -1628 1632 0
1630 -1632 0
1628 -1632 0
-1375 -1629 1633 0
1375 -1633 0
1629 -1633 0
1632 1633 -1634 0
-1632 1634 0
-1633 1634 0
-314 -1397 1635 0
314 -1635 0
1397 -1635 0
-1381 -1635 -1636 0
1381 1635 -1636 0
1381 -1635 1636 0
-1381 1635 1636 0
-1636 -1634 -1637 0
1636 1634 -1637 0
1636 -1634 1637 0
-1636 1634 1637 0
-1636 -1634 1638 0
1636 -1638 0
1634 -1638 0
-1381 -1635 1639 0
1381 -1639 0
1635 -1639 0
1638 1639 -1640 0
-1638 1640 0
-1639 1640 0
-322 -1397 1641 0
322 -1641 0
1397 -1641 0
-1387 -1641 -1642 0
1387 1641 -1642 0
1387 -1641 1642 0
-1387 1641 1642 0
-1642 -1640 -1643 0
1642 1640 -1643 0
1642 -1640 1643 0
-1642 1640 1643 0
-1642 -1640 1644 0
1642 -1644 0
1640 -1644 0
-1387 -1641 1645 0
1387 -1645 0
1641 -1645 0
1644 1645 -1646 0
-1644 1646 0
-1645 1646 0
-330 -1397 1647 0
330 -1647 0
1397 -1647 0
-1393 -1647 -1648 0
1393 1647 -1648 0
1393 -1647 1648 0
-1393 1647 1648 0
-1648 -1646 -1649 0
1648 1646 -1649 0
1648 -1646 1649 0
-1648 1646 1649 0
-1648 -1646 1650 0
1648 -1650 0
1646 -1650 0
-1393 -1647 1651 0
1393 -1651 0
1647 -1651 0
1650 1651 -1652 0
-1650 1652 0
-1651 1652 0
-338 -1397 1653 0
338 -1653 0
1397 -1653 0
-1396 -1653 -1654 0
1396 1653 -1654 0
1396 -1653 1654 0
-1396 1653 1654 0
-1654 -1652 -1655 0
1654 1652 -1655 0
1654 -1652 1655 0
-1654 1652 1655 0
-1654 -1652 1656 0
1654 -1656 0
1652 -1656 0
-1396 -1653 1657 0
1396 -1657 0
1653 -1657 0
1656 1657 -1658 0
-1656 1658 0
-1657 1658 0
-1 -1659 1660 0
1 -1660 0
1659 -1660 0
-1403 -1660 -1661 0
1403 1660 -1661 0
1403 -1660 1661 0
-1403 1660 1661 0
-1403 -1660 1662 0
1403 -1662 0
1660 -1662 0
-4 -1659 1663 0
4 -1663 0
1659 -1663 0
-1409 -1663 -1664 0
1409 1663 -1664 0
1409 -1663 1664 0
-1409 1663 1664 0
-1664 -1662 -1665 0
1664 1662 -1665 0
1664 -1662 1665 0
-1664 1662 1665 0
-1664 -1662 1666 0
1664 -1666 0
1662 -1666 0
-1409 -1663 1667 0
1409 -1667 0
1663 -1667 0
1666 1667 -1668 0
-1666 1668 0
-1667 1668 0
-10 -1659 1669 0
10 -1669 0
1659 -1669 0
-1415 -1669 -1670 0
1415 1669 -1670 0
1415 -1669 1670 0
-1415 1669 1670 0
-1670 -1668 -1671 0
1670 1668 -1671 0
1670 -1668 1671 0
-1670 1668 1671 0
-1670 -1668 1672 0
1670 -1672 0
1668 -1672 0
-1415 -1669 1673 0
1415 -1673 0
1669 -1673 0
1672 1673 -1674 0
-1672 1674 0
-1673 1674 0
-18 -1659 1675 0
18 -1675 0
1659 -1675 0
-1421 -1675 -1676 0
1421 1675 -1676 0
1421 -1675 1676 0
-1421 1675 1676 0
-1676 -1674 -1677 0
1676 1674 -1677 0
1676 -1674 1677 0
-1676 1674 1677 0
-1676 -1674 1678 0
1676 -1678 0
1674 -1678 0
-1421 -1675 1679 0
1421 -1679 0
1675 -1679 0
1678 1679 -1680 0
-1678 1680 0
-1679 1680 0
-26 -1659 1681 0
26 -1681 0
1659 -1681 0
-1427 -1681 -1682 0
1427 1681 -1682 0
1427 -1681 1682 0
-1427 1681 1682 0
-1682 -1680 -1683 0
1682 1680 -1683 0
1682 -1680 1683 0
-1682 1680 1683 0
-1682 -1680 1684 0
1682 -1684 0
1680 -1684 0
-1427 -1681 1685 0
1427 -1685 0
1681 -1685 0
1684 1685 -1686 0
-1684 1686 0
-1685 1686 0
-34 -1659 1687 0
34 -1687 0
1659 -1687 0
-1433 -1687 -1688 0
1433 1687 -1688 0
1433 -1687 1688 0
-1433 1687 1688 0
-1688 -1686 -1689 0
1688 1686 -1689 0
1688 -1686 1689 0
-1688 1686 1689 0
-1688 -1686 1690 0
1688 -1690 0
1686 -1690 0
-1433 -1687 1691 0
1433 -1691 0
1687 -1691 0
1690 1691 -1692 0
-1690 1692 0
-1691 1692 0
-42 -1659 1693 0
42 -1693 0
1659 -1693 0
-1439 -1693 -1694 0
1439 1693 -1694 0
1439 -1693 1694 0
-1439 1693 1694 0
-1694 -1692 -1695 0
1694 1692 -1695 0
1694 -1692 1695 0
-1694 1692 1695 0
-1694 -1692 1696 0
1694 -1696 0
1692 -1696 0
-1439 -1693 1697 0
1439 -1697 0
1693 -1697 0
1696 1697 -1698 0
-1696 1698 0
-1697 1698 0
-50 -1659 1699 0
50 -1699 0
1659 -1699 0
-1445 -1699 -1700 0
1445 1699 -1700 0
1445 -1699 1700 0
-1445 1699 1700 0
-1700 -1698 -1701 0
1700 1698 -1701 0
1700 -1698 1701 0
-1700 1698 1701 0
-1700 -1698 1702 0
1700 -1702 0
1698 -1702 0
-1445 -1699 1703 0
1445 -1703 0
1699 -1703 0
1702 1703 -1704 0
-1702 1704 0
-1703 1704 0
-58 -1659 1705 0
58 -1705 0
1659 -1705 0
-1451 -1705 -1706 0
1451 1705 -1706 0
1451 -1705 1706 0
-1451 1705 1706 0
-1706 -1704 -1707 0
1706 1704 -1707 0
1706 -1704 1707 0
-1706 1704 1707 0
-1706 -1704 1708 0
1706 -1708 0
1704 -1708 0
-1451 -1705 1709 0
1451 -1709 0
1705 -1709 0
1708 1709 -1710 0
-1708 1710 0
-1709 1710 0
-66 -1659 1711 0
66 -1711 0
1659 -1711 0
-1457 -1711 -1712 0
1457 1711 -1712 0
1457 -1711 1712 0
-1457 1711 1712 0
-1712 -1710 -1713 0
1712 1710 -1713 0
1712 -1710 1713 0
-1712 1710 1713 0
-1712 -1710 1714 0
1712 -1714 0
1710 -1714 0
-1457 -1711 1715 0
1457 -1715 0
1711 -1715 0
1714 1715 -1716 0
-1714 1716 0
-1715 1716 0
-74 -1659 1717 0
74 -1717 0
1659 -1717 0
-1463 -1717 -1718 0
1463 1717 -1718 0
1463 -1717 1718 0
-1463 1717 1718 0
-1718 -1716 -1719 0
1718 1716 -1719 0
1718 -1716 1719 0
-1718 1716 1719 0
-1718 -1716 1720 0
1718 -1720 0
1716 -1720 0
-1463 -1717 1721 0
1463 -1721 0
1717 -1721 0
1720 1721 -1722 0
-1720 1722 0
-1721 1722 0
-82 -1659 1723 0
82 -1723 0
1659 -1723 0
-1469 -1723 -1724 0
1469 1723 -1724 0
1469 -1723 1724 0
-1469 1723 1724 0
-1724 -1722 -1725 0
1724 1722 -1725 0
1724 -1722 1725 0
-1724 1722 1725 0
-1724 -1722 1726 0
1724 -1726 0
1722 -1726 0
-1469 -1723 1727 0
1469 -1727 0
1723 -1727 0
1726 1727 -1728 0
-1726 1728 0
-1727 1728 0
-90 -1659 1729 0
90 -1729 0
1659 -1729 0
-1475 -1729 -1730 0
1475 1729 -1730 0
1475 -1729 1730 0
-1475 1729 1730 0
-1730 -1728 -1731 0
1730 1728 -1731 0
1730 -1728 1731 0
-1730 1728 1731 0
-1730 -1728 1732 0
1730 -1732 0
1728 -1732 0
-1475 -1729 1733 0
1475 -1733 0
1729 -1733 0
1732 1733 -1734 0
-1732 1734 0
-1733 1734 0
-98 -1659 1735 0
98 -1735 0
1659 -1735 0
-1481 -1735 -1736 0
1481 1735 -1736 0
1481 -1735 1736 0
-1481 1735 1736 0
-1736 -1734 -1737 0
1736 1734 -1737 0
1736 -1734 1737 0
-1736 1734 1737 0
-1736 -1734 1738 0
1736 -1738 0
1734 -1738 0
-1481 -1735 1739 0
1481 -1739 0
1735 -1739 0
1738 1739 -1740 0
-1738 1740 0
-1739 1740 0
-106 -1659 1741 0
106 -1741 0
1659 -1741 0
-1487 -1741 -1742 0
1487 1741 -1742 0
1487 -1741 1742 0
-1487 1741 1742 0
-1742 -1740 -1743 0
1742 1740 -1743 0
1742 -1740 1743 0
-1742 1740 1743 0
-1742 -1740 1744 0
1742 -1744 0
1740 -1744 0
-1487 -1741 1745 0
1487 -1745 0
1741 -1745 0
1744 1745 -1746 0
-1744 1746 0
-1745 1746 0
-114 -1659 1747 0
114 -1747 0
1659 -1747 0
-1493 -1747 -1748 0
1493 1747 -1748 0
1493 -1747 1748 0
-1493 1747 1748 0
-1748 -1746 -1749 0
1748 1746 -1749 0
1748 -1746 1749 0
-1748 1746 1749 0
-1748 -1746 1750 0
1748 -1750 0
1746 -1750 0
-1493 -1747 1751 0
1493 -1751 0
1747 -1751 0
1750 1751 -1752 0
-1750 1752 0
-1751 1752 0
-122 -1659 1753 0
122 -1753 0
1659 -1753 0
-1499 -1753 -1754 0
1499 1753 -1754 0
1499 -1753 1754 0
-1499 1753 1754 0
-1754 -1752 -1755 0
1754 1752 -1755 0
1754 -1752 1755 0
-1754 1752 1755 0
-1754 -1752 1756 0
1754 -1756 0
1752 -1756 0
-1499 -1753 1757 0
1499 -1757 0
1753 -1757 0
1756 1757 -1758 0
-1756 1758 0
-1757 1758 0
-130 -1659 1759 0
130 -1759 0
1659 -1759 0
-1505 -1759 -1760 0
1505 1759 -1760 0
1505 -1759 1760 0
-1505 1759 1760 0
-1760 -1758 -1761 0
1760 1758 -1761 0
1760 -1758 1761 0
-1760 1758 1761 0
-1760 -1758 1762 0
1760 -1762 0
1758 -1762 0
-1505 -1759 1763 0
1505 -1763 0
1759 -1763 0
1762 1763 -1764 0
-1762 1764 0
-1763 1764 0
-138 -1659 1765 0
138 -1765 0
1659 -1765 0
-1511 -1765 -1766 0
1511 1765 -1766 0
1511 -1765 1766 0
-1511 1765 1766 0
-1766 -1764 -1767 0
1766 1764 -1767 0
1766 -1764 1767 0
-1766 1764 1767 0
-1766 -1764 1768 0
1766 -1768 0
1764 -1768 0
-1511 -1765 1769 0
1511 -1769 0
1765 -1769 0
1768 1769 -1770 0
-1768 1770 0
-1769 1770 0
-146 -1659 1771 0
146 -1771 0
1659 -1771 0
-1517 -1771 -1772 0
1517 1771 -1772 0
1517 -1771 1772 0
-1517 1771 1772 0
-1772 -1770 -1773 0
1772 1770 -1773 0
1772 -1770 1773 0
-1772 1770 1773 0
-1772 -1770 1774 0
1772 -1774 0
1770 -1774 0
-1517 -1771 1775 0
1517 -1775 0
1771 -1775 0
1774 1775 -1776 0
-1774 1776 0
-1775 1776 0
-154 -1659 1777 0
154 -1777 0
1659 -1777 0
-1523 -1777 -1778 0
1523 1777 -1778 0
1523 -1777 1778 0
-1523 1777 1778 0
-1778 -1776 -1779 0
1778 1776 -1779 0
1778 -1776 1779 0
-1778 1776 1779 0
-1778 -1776 1780 0
1778 -1780 0
1776 -1780 0
-1523 -1777 1781 0
1523 -1781 0
1777 -1781 0
1780 1781 -1782 0
-1780 1782 0
-1781 1782 0
-162 -1659 1783 0
162 -1783 0
1659 -1783 0
-1529 -1783 -1784 0
1529 1783 -1784 0
1529 -1783 1784 0
-1529 1783 1784 0
-1784 -1782 -1785 0
1784 1782 -1785 0
1784 -1782 1785 0
-1784 1782 1785 0
-1784 -1782 1786 0
1784 -1786 0
1782 -1786 0
-1529 -1783 1787 0
1529 -1787 0
1783 -1787 0
1786 1787 -1788 0
-1786 1788 0
-1787 1788 0
-170 -1659 1789 0
170 -1789 0
1659 -1789 0
-1535 -1789 -1790 0
1535 1789 -1790 0
1535 -1789 1790 0
-1535 1789 1790 0
-1790 -1788 -1791 0
1790 1788 -1791 0
1790 -1788 1791 0
-1790 1788 1791 0
-1790 -1788 1792 0
1790 -1792 0
1788 -1792 0
-1535 -1789 1793 0
1535 -1793 0
1789 -1793 0
1792 1793 -1794 0
-1792 1794 0
-1793 1794 0
-178 -1659 1795 0
178 -1795 0
1659 -1795 0
-1541 -1795 -1796 0
1541 1795 -1796 0
1541 -1795 1796 0
-1541 1795 1796 0
-1796 -1794 -1797 0
1796 1794 -1797 0
1796 -1794 1797 0
-1796 1794 1797 0
-1796 -1794 1798 0
1796 -1798 0
1794 -1798 0
-1541 -1795 1799 0
1541 -1799 0
1795 -1799 0
1798 1799 -1800 0
-1798 1800 0
-1799 1800 0
-186 -1659 1801 0
186 -1801 0
1659 -1801 0
-1547 -1801 -1802 0
1547 1801 -1802 0
1547 -1801 1802 0
-1547 1801 1802 0
-1802 -1800 -1803 0
1802 1800 -1803 0
1802 -1800 1803 0
-1802 1800 1803 0
-1802 -1800 1804 0
1802 -1804 0
1800 -1804 0
-1547 -1801 1805 0
1547 -1805 0
1801 -1805 0
1804 1805 -1806 0
-1804 1806 0
-1805 1806 0
-194 -1659 1807 0
194 -1807 0
1659 -1807 0
-1553 -1807 -1808 0
1553 1807 -1808 0
1553 -1807 1808 0
-1553 1807 1808 0
-1808 -1806 -1809 0
1808 1806 -1809 0
1808 -1806 1809 0
-1808 1806 1809 0
-1808 -1806 1810 0
1808 -1810 0
1806 -1810 0
-1553 -1807 1811 0
1553 -1811 0
1807 -1811 0
1810 1811 -1812 0
-1810 1812 0
-1811 1812 0
-202 -1659 1813 0
202 -1813 0
1659 -1813 0
-1559 -1813 -1814 0
1559 1813 -1814 0
1559 -1813 1814 0
-1559 1813 1814 0
-1814 -1812 -1815 0
1814 1812 -1815 0
1814 -1812 1815 0
-1814 1812 1815 0
-1814 -1812 1816 0
1814 -1816 0
1812 -1816 0
-1559 -1813 1817 0
1559 -1817 0
1813 -1817 0
1816 1817 -1818 0
-1816 1818 0
-1817 1818 0
-210 -1659 1819 0
210 -1819 0
1659 -1819 0
-1565 -1819 -1820 0
1565 1819 -1820 0
1565 -1819 1820 0
-1565 1819 1820 0
-1820 -1818 -1821 0
1820 1818 -1821 0
1820 -1818 1821 0
-1820 1818 1821 0
-1820 -1818 1822 0
1820 -1822 0
1818 -1822 0
-1565 -1819 1823 0
1565 -1823 0
1819 -1823 0
1822 1823 -1824 0
-1822 1824 0
-1823 1824 0
-218 -1659 1825 0
218 -1825 0
1659 -1825 0
-1571 -1825 -1826 0
1571 1825 -1826 0
1571 -1825 1826 0
-1571 1825 1826 0
-1826 -1824 -1827 0
1826 1824 -1827 0
1826 -1824 1827 0
-1826 1824 1827 0
-1826 -1824 1828 0
1826 -1828 0
1824 -1828 0
-1571 -1825 1829 0
1571 -1829 0
1825 -1829 0
1828 1829 -1830 0
-1828 1830 0
-1829 1830 0
-226 -1659 1831 0
226 -1831 0
1659 -1831 0
-1577 -1831 -1832 0
1577 1831 -1832 0
1577 -1831 1832 0
-1577 1831 1832 0
-1832 -1830 -1833 0
1832 1830 -1833 0
1832 -1830 1833 0
-1832 1830 1833 0
-1832 -1830 1834 0
1832 -1834 0
1830 -1834 0
-1577 -1831 1835 0
1577 -1835 0
1831 -1835 0
1834 1835 -1836 0
-1834 1836 0
-1835 1836 0
-234 -1659 1837 0
234 -1837 0
1659 -1837 0
-1583 -1837 -1838 0
1583 1837 -1838 0
1583 -1837 1838 0
-1583 1837 1838 0
-1838 -1836 -1839 0
1838 1836 -1839 0
1838 -1836 1839 0
-1838 1836 1839 0
-1838 -1836 1840 0
1838 -1840 0
1836 -1840 0
-1583 -1837 1841 0
1583 -1841 0
1837 -1841 0
1840 1841 -1842 0
-1840 1842 0
-1841 1842 0
-242 -1659 1843 0
242 -1843 0
1659 -1843 0
-1589 -1843 -1844 0
1589 1843 -1844 0
1589 -1843 1844 0
-1589 1843 1844 0
-1844 -1842 -1845 0
1844 1842 -1845 0
1844 -1842 1845 0
-1844 1842 1845 0
-1844 -1842 1846 0
1844 -1846 0
1842 -1846 0
-1589 -1843 1847 0
1589 -1847 0
1843 -1847 0
1846 1847 -1848 0
-1846 1848 0
-1847 1848 0
-250 -1659 1849 0
250 -1849 0
1659 -1849 0
-1595 -1849 -1850 0
1595 1849 -1850 0
1595 -1849 1850 0
-1595 1849 1850 0
-1850 -1848 -1851 0
1850 1848 -1851 0
1850 -1848 1851 0
-1850 1848 1851 0
-1850 -1848 1852 0
1850 -1852 0
1848 -1852 0
-1595 -1849 1853 0
1595 -1853 0
1849 -1853 0
1852 1853 -1854 0
-1852 1854 0
-1853 1854 0
-258 -1659 1855 0
258 -1855 0
1659 -1855 0
-1601 -1855 -1856 0
1601 1855 -1856 0
1601 -1855 1856 0
-1601 1855 1856 0
-1856 -1854 -1857 0
1856 1854 -1857 0
1856 -1854 1857 0
-1856 1854 1857 0
-1856 -1854 1858 0
1856 -1858 0
1854 -1858 0
-1601 -1855 1859 0
1601 -1859 0
1855 -1859 0
1858 1859 -1860 0
-1858 1860 0
-1859 1860 0
-266 -1659 1861 0
266 -1861 0
1659 -1861 0
-1607 -1861 -1862 0
1607 1861 -1862 0
1607 -1861 1862 0
-1607 1861 1862 0
-1862 -1860 -1863 0
1862 1860 -1863 0
1862 -1860 1863 0
-1862 1860 1863 0
-1862 -1860 1864 0
1862 -1864 0
1860 -1864 0
-1607 -1861 1865 0
1607 -1865 0
1861 -1865 0
1864 1865 -1866 0
-1864 1866 0
-1865 1866 0
-274 -1659 1867 0
274 -1867 0
1659 -1867 0
-1613 -1867 -1868 0
1613 1867 -1868 0
1613 -1867 1868 0
-1613 1867 1868 0
-1868 -1866 -1869 0
1868 1866 -1869 0
1868 -1866 1869 0
-1868 1866 1869 0
-1868 -1866 1870 0
1868 -1870 0
1866 -1870 0
-1613 -1867 1871 0
1613 -1871 0
1867 -1871 0
1870 1871 -1872 0
-1870 1872 0
-1871 1872 0
-282 -1659 1873 0
282 -1873 0
1659 -1873 0
-1619 -1873 -1874 0
1619 1873 -1874 0
1619 -1873 1874 0
-1619 1873 1874 0
-1874 -1872 -1875 0
1874 1872 -1875 0
1874 -1872 1875 0
-1874 1872 1875 0
-1874 -1872 1876 0
1874 -1876 0
1872 -1876 0
-1619 -1873 1877 0
1619 -1877 0
1873 -1877 0
1876 1877 -1878 0
-1876 1878 0
-1877 1878 0
-290 -1659 1879 0
290 -1879 0
1659 -1879 0
-1625 -1879 -1880 0
1625 1879 -1880 0
1625 -1879 1880 0
-1625 1879 1880 0
-1880 -1878 -1881 0
1880 1878 -1881 0
1880 -1878 1881 0
-1880 1878 1881 0
-1880 -1878 1882 0
1880 -1882 0
1878 -1882 0
-1625 -1879 1883 0
1625 -1883 0
1879 -1883 0
1882 1883 -1884 0
-1882 1884 0
-1883 1884 0
-298 -1659 1885 0
298 -1885 0
1659 -1885 0
-1631 -1885 -1886 0
1631 1885 -1886 0
1631 -1885 1886 0
-1631 1885 1886 0
-1886 -1884 -1887 0
1886 1884 -1887 0
1886 -1884 1887 0
-1886 1884 1887 0
-1886 -1884 1888 0
1886 -1888 0
1884 -1888 0
-1631 -1885 1889 0
1631 -1889 0
1885 -1889 0
1888 1889 -1890 0
-1888 1890 0
-1889 1890 0
-306 -1659 1891 0
306 -1891 0
1659 -1891 0
-1637 -1891 -1892 0
1637 1891 -1892 0
1637 -1891 1892 0
-1637 1891 1892 0
-1892 -1890 -1893 0
1892 1890 -1893 0
1892 -1890 1893 0
-1892 1890 1893 0
-1892 -1890 1894 0
1892 -1894 0
1890 -1894 0
-1637 -1891 1895 0
1637 -1895 0
1891 -1895 0
1894 1895 -1896 0
-1894 1896 0
-1895 1896 0
-314 -1659 1897 0
314 -1897 0
1659 -1897 0
-1643 -1897 -1898 0
1643 1897 -1898 0
1643 -1897 1898 0
-1643 1897 1898 0
-1898 -1896 -1899 0
1898 1896 -1899 0
1898 -1896 1899 0
-1898 1896 1899 0
-1898 -1896 1900 0
1898 -1900 0
1896 -1900 0
-1643 -1897 1901 0
1643 -1901 0
1897 -1901 0
1900 1901 -1902 0
-1900 1902 0
-1901 1902 0
-322 -1659 1903 0
322 -1903 0
1659 -1903 0
-1649 -1903 -1904 0
1649 1903 -1904 0
1649 -1903 1904 0
-1649 1903 1904 0
-1904 -1902 -1905 0
1904 1902 -1905 0
1904 -1902 1905 0
-1904 1902 1905 0
-1904 -1902 1906 0
1904 -1906 0
1902 -1906 0
-1649 -1903 1907 0
1649 -1907 0
1903 -1907 0
1906 1907 -1908 0
-1906 1908 0
-1907 1908 0
-330 -1659 1909 0
330 -1909 0
1659 -1909 0
-1655 -1909 -1910 0
1655 1909 -1910 0
1655 -1909 1910 0
-1655 1909 1910 0
-1910 -1908 -1911 0
1910 1908 -1911 0
1910 -1908 1911 0
-1910 1908 1911 0
-1910 -1908 1912 0
1910 -1912 0
1908 -1912 0
-1655 -1909 1913 0
1655 -1913 0
1909 -1913 0
1912 1913 -1914 0
-1912 1914 0
-1913 1914 0
-338 -1659 1915 0
338 -1915 0
1659 -1915 0
-1658 -1915 -1916 0
1658 1915 -1916 0
1658 -1915 1916 0
-1658 1915 1916 0
-1916 -1914 -1917 0
1916 1914 -1917 0
1916 -1914 1917 0
-1916 1914 1917 0
-1916 -1914 1918 0
1916 -1918 0
1914 -1918 0
-1658 -1915 1919 0
1658 -1919 0
1915 -1919 0
1918 1919 -1920 0
-1918 1920 0
-1919 1920 0
-1 -1921 1922 0
1 -1922 0
1921 -1922 0
-1665 -1922 -1923 0
1665 1922 -1923 0
1665 -1922 1923 0
-1665 1922 1923 0
-1665 -1922 1924 0
1665 -1924 0
1922 -1924 0
-4 -1921 1925 0
4 -1925 0
1921 -1925 0
-1671 -1925 -1926 0
1671 1925 -1926 0
1671 -1925 1926 0
-1671 1925 1926 0
-1926 -1924 -1927 0
1926 1924 -1927 0
1926 -1924 1927 0
-1926 1924 1927 0
-1926 -1924 1928 0
1926 -1928 0
1924 -1928 0
-1671 -1925 1929 0
1671 -1929 0
1925 -1929 0
1928 1929 -1930 0
-1928 1930 0
-1929 1930 0
-10 -1921 1931 0
10 -1931 0
1921 -1931 0
-1677 -1931 -1932 0
1677 1931 -1932 0
1677 -1931 1932 0
-1677 1931 1932 0
-1932 -1930 -1933 0
1932 1930 -1933 0
1932 -1930 1933 0
-1932 1930 1933 0
-1932 -1930 1934 0
1932 -1934 0
1930 -1934 0
-1677 -1931 1935 0
1677 -1935 0
1931 -1935 0
1934 1935 -1936 0
-1934 1936 0
-1935 1936 0
-18 -1921 1937 0
18 -1937 0
1921 -1937 0
-1683 -1937 -1938 0
1683 1937 -1938 0
1683 -1937 1938 0
-1683 1937 1938 0
-1938 -1936 -1939 0
1938 1936 -1939 0
1938 -1936 1939 0
-1938 1936 1939 0
-1938 -1936 1940 0
1938 -1940 0
1936 -1940 0
-1683 -1937 1941 0
1683 -1941 0
1937 -1941 0
1940 1941 -1942 0
-1940 1942 0
-1941 1942 0
-26 -1921 1943 0
26 -1943 0
1921 -1943 0
-1689 -1943 -1944 0
1689 1943 -1944 0
1689 -1943 1944 0
-1689 1943 1944 0
-1944 -1942 -1945 0
1944 1942 -1945 0
1944 -1942 1945 0
-1944 1942 1945 0
-1944 -1942 1946 0
1944 -1946 0
1942 -1946 0
-1689 -1943 1947 0
1689 -1947 0
1943 -1947 0
1946 1947 -1948 0
-1946 1948 0
-1947 1948 0
-34 -1921 1949 0
34 -1949 0
1921 -1949 0
-1695 -1949 -1950 0
1695 1949 -1950 0
1695 -1949 1950 0
-1695 1949 1950 0
-1950 -1948 -1951 0
1950 1948 -1951 0
1950 -1948 1951 0
-1950 1948 1951 0
-1950 -1948 1952 0
1950 -1952 0
1948 -1952 0
-1695 -1949 1953 0
1695 -1953 0
1949 -1953 0
1952 1953 -1954 0
-1952 1954 0
-1953 1954 0
-42 -1921 1955 0
42 -1955 0
1921 -1955 0
-1701 -1955 -1956 0
1701 1955 -1956 0
1701 -1955 1956 0
-1701 1955 1956 0
-1956 -1954 -1957 0
1956 1954 -1957 0
1956 -1954 1957 0
-1956 1954 1957 0
-1956 -1954 1958 0
1956 -1958 0
1954 -1958 0
-1701 -1955 1959 0
1701 -1959 0
1955 -1959 0
1958 1959 -1960 0
-1958 1960 0
-1959 1960 0
-50 -1921 1961 0
50 -1961 0
1921 -1961 0
-1707 -1961 -1962 0
1707 1961 -1962 0
1707 -1961 1962 0
-1707 1961 1962 0
-1962 -1960 -1963 0
1962 1960 -1963 0
1962 -1960 1963 0
-1962 1960 1963 0
-1962 -1960 1964 0
1962 -1964 0
1960 -1964 0
-1707 -1961 1965 0
1707 -1965 0
1961 -1965 0
1964 1965 -1966 0
-1964 1966 0
-1965 1966 0
-58 -1921 1967 0
58 -1967 0
1921 -1967 0
-1713 -1967 -1968 0
1713 1967 -1968 0
1713 -1967 1968 0
-1713 1967 1968 0
-1968 -1966 -1969 0
1968 1966 -1969 0
1968 -1966 1969 0
-1968 1966 1969 0
-1968 -1966 1970 0
1968 -1970 0
1966 -1970 0
-1713 -1967 1971 0
1713 -1971 0
1967 -1971 0
1970 1971 -1972 0
-1970 1972 0
-1971 1972 0
-66 -1921 1973 0
66 -1973 0
1921 -1973 0
-1719 -1973 -1974 0
1719 1973 -1974 0
1719 -1973 1974 0
-1719 1973 1974 0
-1974 -1972 -1975 0
1974 1972 -1975 0
1974 -1972 1975 0
-1974 1972 1975 0
-1974 -1972 1976 0
1974 -1976 0
1972 -1976 0
-1719 -1973 1977 0
1719 -1977 0
1973 -1977 0
1976 1977 -1978 0
-1976 1978 0
-1977 1978 0
-74 -1921 1979 0
74 -1979 0
1921 -1979 0
-1725 -1979 -1980 0
1725 1979 -1980 0
1725 -1979 1980 0
-1725 1979 1980 0
-1980 -1978 -1981 0
1980 1978 -1981 0
1980 -1978 1981 0
-1980 1978 1981 0
-1980 -1978 1982 0
1980 -1982 0
1978 -1982 0
-1725 -1979 1983 0
1725 -1983 0
1979 -1983 0
1982 1983 -1984 0
-1982 1984 0
-1983 1984 0
-82 -1921 1985 0
82 -1985 0
1921 -1985 0
-1731 -1985 -1986 0
1731 1985 -1986 0
1731 -1985 1986 0
-1731 1985 1986 0
-1986 -1984 -1987 0
1986 1984 -1987 0
1986 -1984 1987 0
-1986 1984 1987 0
-1986 -1984 1988 0
1986 -1988 0
1984 -1988 0
-1731 -1985 1989 0
1731 -1989 0
1985 -1989 0
1988 1989 -1990 0
-1988 1990 0
-1989 1990 0
-90 -1921 1991 0
90 -1991 0
1921 -1991 0
-1737 -1991 -1992 0
1737 1991 -1992 0
1737 -1991 1992 0
-1737 1991 1992 0
-1992 -1990 -1993 0
1992 1990 -1993 0
1992 -1990 1993 0
-1992 1990 1993 0
-1992 -1990 1994 0
1992 -1994 0
1990 -1994 0
-1737 -1991 1995 0
1737 -1995 0
1991 -1995 0
1994 1995 -1996 0
-1994 1996 0
-1995 1996 0
-98 -1921 1997 0
98 -1997 0
1921 -1997 0
-1743 -1997 -1998 0
1743 1997 -1998 0
1743 -1997 1998 0
-1743 1997 1998 0
-1998 -1996 -1999 0
1998 1996 -1999 0
1998 -1996 1999 0
-1998 1996 1999 0
-1998 -1996 2000 0
1998 -2000 0
1996 -2000 0
-1743 -1997 2001 0
1743 -2001 0
1997 -2001 0
2000 2001 -2002 0
-2000 2002 0
-2001 2002 0
-106 -1921 2003 0
106 -2003 0
1921 -2003 0
-1749 -2003 -2004 0
1749 2003 -2004 0
1749 -2003 2004 0
-1749 2003 2004 0
-2004 -2002 -2005 0
2004 2002 -2005 0
2004 -2002 2005 0
-2004 2002 2005 0
-2004 -2002 2006 0
2004 -2006 0
2002 -2006 0
-1749 -2003 2007 0
1749 -2007 0
2003 -2007 0
2006 2007 -2008 0
-2006 2008 0
-2007 2008 0
-114 -1921 2009 0
114 -2009 0
1921 -2009 0
-1755 -2009 -2010 0
1755 2009 -2010 0
1755 -2009 2010 0
-1755 2009 2010 0
-2010 -2008 -2011 0
2010 2008 -2011 0
2010 -2008 2011 0
-2010 2008 2011 0
-2010 -2008 2012 0
2010 -2012 0
2008 -2012 0
-1755 -2009 2013 0
1755 -2013 0
2009 -2013 0
2012 2013 -2014 0
-2012 2014 0
-2013 2014 0
-122 -1921 2015 0
122 -2015 0
1921 -2015 0
-1761 -2015 -2016 0
1761 2015 -2016 0
1761 -2015 2016 0
-1761 2015 2016 0
-2016 -2014 -2017 0
2016 2014 -2017 0
2016 -2014 2017 0
-2016 2014 2017 0
-2016 -2014 2018 0
2016 -2018 0
2014 -2018 0
-1761 -2015 2019 0
1761 -2019 0
2015 -2019 0
2018 2019 -2020 0
-2018 2020 0
-2019 2020 0
-130 -1921 2021 0
130 -2021 0
1921 -2021 0
-1767 -2021 -2022 0
1767 2021 -2022 0
1767 -2021 2022 0
-1767 2021 2022 0
-2022 -2020 -2023 0
2022 2020 -2023 0
2022 -2020 2023 0
-2022 2020 2023 0
-2022 -2020 2024 0
2022 -2024 0
2020 -2024 0
-1767 -2021 2025 0
1767 -2025 0
2021 -2025 0
2024 2025 -2026 0
-2024 2026 0
-2025 2026 0
-138 -1921 2027 0
138 -2027 0
1921 -2027 0
-1773 -2027 -2028 0
1773 2027 -2028 0
1773 -2027 2028 0
-1773 2027 2028 0
-2028 -2026 -2029 0
2028 2026 -2029 0
2028 -2026 2029 0
-2028 2026 2029 0
-2028 -2026 2030 0
2028 -2030 0
2026 -2030 0
-1773 -2027 2031 0
1773 -2031 0
2027 -2031 0
2030 2031 -2032 0
-2030 2032 0
-2031 2032 0
-146 -1921 2033 0
146 -2033 0
1921 -2033 0
-1779 -2033 -2034 0
1779 2033 -2034 0
1779 -2033 2034 0
-1779 2033 2034 0
-2034 -2032 -2035 0
2034 2032 -2035 0
2034 -2032 2035 0
-2034 2032 2035 0
-2034 -2032 2036 0
2034 -2036 0
2032 -2036 0
-1779 -2033 2037 0
1779 -2037 0
2033 -2037 0
2036 2037 -2038 0
-2036 2038 0
-2037 2038 0
-154 -1921 2039 0
154 -2039 0
1921 -2039 0
-1785 -2039 -2040 0
1785 2039 -2040 0
1785 -2039 2040 0
-1785 2039 2040 0
-2040 -2038 -2041 0
2040 2038 -2041 0
2040 -2038 2041 0
-2040 2038 2041 0
-2040 -2038 2042 0
2040 -2042 0
2038 -2042 0
-1785 -2039 2043 0
1785 -2043 0
2039 -2043 0
2042 2043 -2044 0
-2042 2044 0
-2043 2044 0
-162 -1921 2045 0
162 -2045 0
1921 -2045 0
-1791 -2045 -2046 0
1791 2045 -2046 0
1791 -2045 2046 0
-1791 2045 2046 0
-2046 -2044 -2047 0
2046 2044 -2047 0
2046 -2044 2047 0
-2046 2044 2047 0
-2046 -2044 2048 0
2046 -2048 0
2044 -2048 0
-1791 -2045 2049 0
1791 -2049 0
2045 -2049 0
2048 2049 -2050 0
-2048 2050 0
-2049 2050 0
-170 -1921 2051 0
170 -2051 0
1921 -2051 0
-1797 -2051 -2052 0
1797 2051 -2052 0
1797 -2051 2052 0
-1797 2051 2052 0
-2052 -2050 -2053 0
2052 2050 -2053 0
2052 -2050 2053 0
-2052 2050 2053 0
-2052 -2050 2054 0
2052 -2054 0
2050 -2054 0
-1797 -2051 2055 0
1797 -2055 0
2051 -2055 0
2054 2055 -2056 0
-2054 2056 0
-2055 2056 0
-178 -1921 2057 0
178 -2057 0
1921 -2057 0
-1803 -2057 -2058 0
1803 2057 -2058 0
1803 -2057 2058 0
-1803 2057 2058 0
-2058 -2056 -2059 0
2058 2056 -2059 0
2058 -2056 2059 0
-2058 2056 2059 0
-2058 -2056 2060 0
2058 -2060 0
2056 -2060 0
-1803 -2057 2061 0
1803 -2061 0
2057 -2061 0
2060 2061 -2062 0
-2060 2062 0
-2061 2062 0
-186 -1921 2063 0
186 -2063 0
1921 -2063 0
-1809 -2063 -2064 0
1809 2063 -2064 0
1809 -2063 2064 0
-1809 2063 2064 0
-2064 -2062 -2065 0
2064 2062 -2065 0
2064 -2062 2065 0
-2064 2062 2065 0
-2064 -2062 2066 0
2064 -2066 0
2062 -2066 0
-1809 -2063 2067 0
1809 -2067 0
2063 -2067 0
2066 2067 -2068 0
-2066 2068 0
-2067 2068 0
-194 -1921 2069 0
194 -2069 0
1921 -2069 0
-1815 -2069 -2070 0
1815 2069 -2070 0
1815 -2069 2070 0
-1815 2069 2070 0
-2070 -2068 -2071 0
2070 2068 -2071 0
2070 -2068 2071 0
-2070 2068 2071 0
-2070 -2068 2072 0
2070 -2072 0
2068 -2072 0
-1815 -2069 2073 0
1815 -2073 0
2069 -2073 0
2072 2073 -2074 0
-2072 2074 0
-2073 2074 0
-202 -1921 2075 0
202 -2075 0
1921 -2075 0
-1821 -2075 -2076 0
1821 2075 -2076 0
1821 -2075 2076 0
-1821 2075 2076 0
-2076 -2074 -2077 0
2076 2074 -2077 0
2076 -2074 2077 0
-2076 2074 2077 0
-2076 -2074 2078 0
2076 -2078 0
2074 -2078 0
-1821 -2075 2079 0
1821 -2079 0
2075 -2079 0
2078 2079 -2080 0
-2078 2080 0
-2079 2080 0
-210 -1921 2081 0
210 -2081 0
1921 -2081 0
-1827 -2081 -2082 0
1827 2081 -2082 0
1827 -2081 2082 0
-1827 2081 2082 0
-2082 -2080 -2083 0
2082 2080 -2083 0
2082 -2080 2083 0
-2082 2080 2083 0
-2082 -2080 2084 0
2082 -2084 0
2080 -2084 0
-1827 -2081 2085 0
1827 -2085 0
2081 -2085 0
2084 2085 -2086 0
-2084 2086 0
-2085 2086 0
-218 -1921 2087 0
218 -2087 0
1921 -2087 0
-1833 -2087 -2088 0
1833 2087 -2088 0
1833 -2087 2088 0
-1833 2087 2088 0
-2088 -2086 -2089 0
2088 2086 -2089 0
2088 -2086 2089 0
-2088 2086 2089 0
-2088 -2086 2090 0
2088 -2090 0
2086 -2090 0
-1833 -2087 2091 0
1833 -2091 0
2087 -2091 0
2090 2091 -2092 0
-2090 2092 0
-2091 2092 0
-226 -1921 2093 0
226 -2093 0
1921 -2093 0
-1839 -2093 -2094 0
1839 2093 -2094 0
1839 -2093 2094 0
-1839 2093 2094 0
-2094 -2092 -2095 0
2094 2092 -2095 0
2094 -2092 2095 0
-2094 2092 2095 0
-2094 -2092 2096 0
2094 -2096 0
2092 -2096 0
-1839 -2093 2097 0
1839 -2097 0
2093 -2097 0
2096 2097 -2098 0
-2096 2098 0
-2097 2098 0
-234 -1921 2099 0
234 -2099 0
1921 -2099 0
-1845 -2099 -2100 0
1845 2099 -2100 0
1845 -2099 2100 0
-1845 2099 2100 0
-2100 -2098 -2101 0
2100 2098 -2101 0
2100 -2098 2101 0
-2100 2098 2101 0
-2100 -2098 2102 0
2100 -2102 0
2098 -2102 0
-1845 -2099 2103 0
1845 -2103 0
2099 -2103 0
2102 2103 -2104 0
-2102 2104 0
-2103 2104 0
-242 -1921 2105 0
242 -2105 0
1921 -2105 0
-1851 -2105 -2106 0
1851 2105 -2106 0
1851 -2105 2106 0
-1851 2105 2106 0
-2106 -2104 -2107 0
2106 2104 -2107 0
2106 -2104 2107 0
-2106 2104 2107 0
-2106 -2104 2108 0
2106 -2108 0
2104 -2108 0
-1851 -2105 2109 0
1851 -2109 0
2105 -2109 0
2108 2109 -2110 0
-2108 2110 0
-2109 2110 0
-250 -1921 2111 0
250 -2111 0
1921 -2111 0
-1857 -2111 -2112 0
1857 2111 -2112 0
1857 -2111 2112 0
-1857 2111 2112 0
-2112 -2110 -2113 0
2112 2110 -2113 0
2112 -2110 2113 0
-2112 2110 2113 0
-2112 -2110 2114 0
2112 -2114 0
2110 -2114 0
-1857 -2111 2115 0
1857 -2115 0
2111 -2115 0
2114 2115 -2116 0
-2114 2116 0
-2115 2116 0
-258 -1921 2117 0
258 -2117 0
1921 -2117 0
-1863 -2117 -2118 0
1863 2117 -2118 0
1863 -2117 2118 0
-1863 2117 2118 0
-2118 -2116 -2119 0
2118 2116 -2119 0
2118 -2116 2119 0
-2118 2116 2119 0
-2118 -2116 2120 0
2118 -2120 0
2116 -2120 0
-1863 -2117 2121 0
1863 -2121 0
2117 -2121 0
2120 2121 -2122 0
-2120 2122 0
-2121 2122 0
-266 -1921 2123 0
266 -2123 0
1921 -2123 0
-1869 -2123 -2124 0
1869 2123 -2124 0
1869 -2123 2124 0
-1869 2123 2124 0
-2124 -2122 -2125 0
2124 2122 -2125 0
2124 -2122 2125 0
-2124 2122 2125 0
-2124 -2122 2126 0
2124 -2126 0
2122 -2126 0
-1869 -2123 2127 0
1869 -2127 0
2123 -2127 0
2126 2127 -2128 0
-2126 2128 0
-2127 2128 0
-274 -1921 2129 0
274 -2129 0
1921 -2129 0
-1875 -2129 -2130 0
1875 2129 -2130 0
1875 -2129 2130 0
-1875 2129 2130 0
-2130 -2128 -2131 0
2130 2128 -2131 0
2130 -2128 2131 0
-2130 2128 2131 0
-2130 -2128 2132 0
2130 -2132 0
2128 -2132 0
-1875 -2129 2133 0
1875 -2133 0
2129 -2133 0
2132 2133 -2134 0
-2132 2134 0
-2133 2134 0
-282 -1921 2135 0
282 -2135 0
1921 -2135 0
-1881 -2135 -2136 0
1881 2135 -2136 0
1881 -2135 2136 0
-1881 2135 2136 0
-2136 -2134 -2137 0
2136 2134 -2137 0
2136 -2134 2137 0
-2136 2134 2137 0
-2136 -2134 2138 0
2136 -2138 0
2134 -2138 0
-1881 -2135 2139 0
1881 -2139 0
2135 -2139 0
2138 2139 -2140 0
-2138 2140 0
-2139 2140 0
-290 -1921 2141 0
290 -2141 0
1921 -2141 0
-1887 -2141 -2142 0
1887 2141 -2142 0
1887 -2141 2142 0
-1887 2141 2142 0
-2142 -2140 -2143 0
2142 2140 -2143 0
2142 -2140 2143 0
-2142 2140 2143 0
-2142 -2140 2144 0
2142 -2144 0
2140 -2144 0
-1887 -2141 2145 0
1887 -2145 0
2141 -2145 0
2144 2145 -2146 0
-2144 2146 0
-2145 2146 0
-298 -1921 2147 0
298 -2147 0
1921 -2147 0
-1893 -2147 -2148 0
1893 2147 -2148 0
1893 -2147 2148 0
-1893 2147 2148 0
-2148 -2146 -2149 0
2148 2146 -2149 0
2148 -2146 2149 0
-2148 2146 2149 0
-2148 -2146 2150 0
2148 -2150 0
2146 -2150 0
-1893 -2147 2151 0
1893 -2151 0
2147 -2151 0
2150 2151 -2152 0
-2150 2152 0
-2151 2152 0
-306 -1921 2153 0
306 -2153 0
1921 -2153 0
-1899 -2153 -2154 0
1899 2153 -2154 0
1899 -2153 2154 0
-1899 2153 2154 0
-2154 -2152 -2155 0
2154 2152 -2155 0
2154 -2152 2155 0
-2154 2152 2155 0
-2154 -2152 2156 0
2154 -2156 0
2152 -2156 0
-1899 -2153 2157 0
1899 -2157 0
2153 -2157 0
2156 2157 -2158 0
-2156 2158 0
-2157 2158 0
-314 -1921 2159 0
314 -2159 0
1921 -2159 0
-1905 -2159 -2160 0
1905 2159 -2160 0
1905 -2159 2160 0
-1905 2159 2160 0
-2160 -2158 -2161 0
2160 2158 -2161 0
2160 -2158 2161 0
-2160 2158 2161 0
-2160 -2158 2162 0
2160 -2162 0
2158 -2162 0
-1905 -2159 2163 0
1905 -2163 0
2159 -2163 0
2162 2163 -2164 0
-2162 2164 0
-2163 2164 0
-322 -1921 2165 0
322 -2165 0
1921 -2165 0
-1911 -2165 -2166 0
1911 2165 -2166 0
1911 -2165 2166 0
-1911 2165 2166 0
-2166 -2164 -2167 0
2166 2164 -2167 0
2166 -2164 2167 0
-2166 2164 2167 0
-2166 -2164 2168 0
2166 -2168 0
2164 -2168 0
-1911 -2165 2169 0
1911 -2169 0
2165 -2169 0
2168 2169 -2170 0
-2168 2170 0
-2169 2170 0
-330 -1921 2171 0
330 -2171 0
1921 -2171 0
-1917 -2171 -2172 0
1917 2171 -2172 0
1917 -2171 2172 0
-1917 2171 2172 0
-2172 -2170 -2173 0
2172 2170 -2173 0
2172 -2170 2173 0
-2172 2170 2173 0
-2172 -2170 2174 0
2172 -2174 0
2170 -2174 0
-1917 -2171 2175 0
1917 -2175 0
2171 -2175 0
2174 2175 -2176 0
-2174 2176 0
-2175 2176 0
-338 -1921 2177 0
338 -2177 0
1921 -2177 0
-1920 -2177 -2178 0
1920 2177 -2178 0
1920 -2177 2178 0
-1920 2177 2178 0
-2178 -2176 -2179 0
2178 2176 -2179 0
2178 -2176 2179 0
-2178 2176 2179 0
-2178 -2176 2180 0
2178 -2180 0
2176 -2180 0
-1920 -2177 2181 0
1920 -2181 0
2177 -2181 0
2180 2181 -2182 0
-2180 2182 0
-2181 2182 0
-1 -2183 2184 0
1 -2184 0
2183 -2184 0
-1927 -2184 -2185 0
1927 2184 -2185 0
1927 -2184 2185 0
-1927 2184 2185 0
-1927 -2184 2186 0
1927 -2186 0
2184 -2186 0
-4 -2183 2187 0
4 -2187 0
2183 -2187 0
-1933 -2187 -2188 0
1933 2187 -2188 0
1933 -2187 2188 0
-1933 2187 2188 0
-2188 -2186 -2189 0
2188 2186 -2189 0
2188 -2186 2189 0
-2188 2186 2189 0
-2188 -2186 2190 0
2188 -2190 0
2186 -2190 0
-1933 -2187 2191 0
1933 -2191 0
2187 -2191 0
2190 2191 -2192 0
-2190 2192 0
-2191 2192 0
-10 -2183 2193 0
10 -2193 0
2183 -2193 0
-1939 -2193 -2194 0
1939 2193 -2194 0
1939 -2193 2194 0
-1939 2193 2194 0
-2194 -2192 -2195 0
2194 2192 -2195 0
2194 -2192 2195 0
-2194 2192 2195 0
-2194 -2192 2196 0
2194 -2196 0
2192 -2196 0
-1939 -2193 2197 0
1939 -2197 0
2193 -2197 0
2196 2197 -2198 0
-2196 2198 0
-2197 2198 0
-18 -2183 2199 0
18 -2199 0
2183 -2199 0
-1945 -2199 -2200 0
1945 2199 -2200 0
1945 -2199 2200 0
-1945 2199 2200 0
-2200 -2198 -2201 0
2200 2198 -2201 0
2200 -2198 2201 0
-2200 2198 2201 0
-2200 -2198 2202 0
2200 -2202 0
2198 -2202 0
-1945 -2199 2203 0
1945 -2203 0
2199 -2203 0
2202 2203 -2204 0
-2202 2204 0
-2203 2204 0
-26 -2183 2205 0
26 -2205 0
2183 -2205 0
-1951 -2205 -2206 0
1951 2205 -2206 0
1951 -2205 2206 0
-1951 2205 2206 0
-2206 -2204 -2207 0
2206 2204 -2207 0
2206 -2204 2207 0
-2206 2204 2207 0
-2206 -2204 2208 0
2206 -2208 0
2204 -2208 0
-1951 -2205 2209 0
1951 -2209 0
2205 -2209 0
2208 2209 -2210 0
-2208 2210 0
-2209 2210 0
-34 -2183 2211 0
34 -2211 0
2183 -2211 0
-1957 -2211 -2212 0
1957 2211 -2212 0
1957 -2211 2212 0
-1957 2211 2212 0
-2212 -2210 -2213 0
2212 2210 -2213 0
2212 -2210 2213 0
-2212 2210 2213 0
-2212 -2210 2214 0
2212 -2214 0
2210 -2214 0
-1957 -2211 2215 0
1957 -2215 0
2211 -2215 0
2214 2215 -2216 0
-2214 2216 0
-2215 2216 0
-42 -2183 2217 0
42 -2217 0
2183 -2217 0
-1963 -2217 -2218 0
1963 2217 -2218 0
1963 -2217 2218 0
-1963 2217 2218 0
-2218 -2216 -2219 0
2218 2216 -2219 0
2218 -2216 2219 0
-2218 2216 2219 0
-2218 -2216 2220 0
2218 -2220 0
2216 -2220 0
-1963 -2217 2221 0
1963 -2221 0
2217 -2221 0
2220 2221 -2222 0
-2220 2222 0
-2221 2222 0
-50 -2183 2223 0
50 -2223 0
2183 -2223 0
-1969 -2223 -2224 0
1969 2223 -2224 0
1969 -2223 2224 0
-1969 2223 2224 0
-2224 -2222 -2225 0
2224 2222 -2225 0
2224 -2222 2225 0
-2224 2222 2225 0
-2224 -2222 2226 0
2224 -2226 0
2222 -2226 0
-1969 -2223 2227 0
1969 -2227 0
2223 -2227 0
2226 2227 -2228 0
-2226 2228 0
-2227 2228 0
-58 -2183 2229 0
58 -2229 0
2183 -2229 0
-1975 -2229 -2230 0
1975 2229 -2230 0
1975 -2229 2230 0
-1975 2229 2230 0
-2230 -2228 -2231 0
2230 2228 -2231 0
2230 -2228 2231 0
-2230 2228 2231 0
-2230 -2228 2232 0
2230 -2232 0
2228 -2232 0
-1975 -2229 2233 0
1975 -2233 0
2229 -2233 0
2232 2233 -2234 0
-2232 2234 0
-2233 2234 0
-66 -2183 2235 0
66 -2235 0
2183 -2235 0
-1981 -2235 -2236 0
1981 2235 -2236 0
1981 -2235 2236 0
-1981 2235 2236 0
-2236 -2234 -2237 0
2236 2234 -2237 0
2236 -2234 2237 0
-2236 2234 2237 0
-2236 -2234 2238 0
2236 -2238 0
2234 -2238 0
-1981 -2235 2239 0
1981 -2239 0
2235 -2239 0
2238 2239 -2240 0
-2238 2240 0
-2239 2240 0
-74 -2183 2241 0
74 -2241 0
2183 -2241 0
-1987 -2241 -2242 0
1987 2241 -2242 0
1987 -2241 2242 0
-1987 2241 2242 0
-2242 -2240 -2243 0
2242 2240 -2243 0
2242 -2240 2243 0
-2242 2240 2243 0
-2242 -2240 2244 0
2242 -2244 0
2240 -2244 0
-1987 -2241 2245 0
1987 -2245 0
2241 -2245 0
2244 2245 -2246 0
-2244 2246 0
-2245 2246 0
-82 -2183 2247 0
82 -2247 0
2183 -2247 0
-1993 -2247 -2248 0
1993 2247 -2248 0
1993 -2247 2248 0
-1993 2247 2248 0
-2248 -2246 -2249 0
2248 2246 -2249 0
2248 -2246 2249 0
-2248 2246 2249 0
-2248 -2246 2250 0
2248 -2250 0
2246 -2250 0
-1993 -2247 2251 0
1993 -2251 0
2247 -2251 0
2250 2251 -2252 0
-2250 2252 0
-2251 2252 0
-90 -2183 2253 0
90 -2253 0
2183 -2253 0
-1999 -2253 -2254 0
1999 2253 -2254 0
1999 -2253 2254 0
-1999 2253 2254 0
-2254 -2252 -2255 0
2254 2252 -2255 0
2254 -2252 2255 0
-2254 2252 2255 0
-2254 -2252 2256 0
2254 -2256 0
2252 -2256 0
-1999 -2253 2257 0
1999 -2257 0
2253 -2257 0
2256 2257 -2258 0
-2256 2258 0
-2257 2258 0
-98 -2183 2259 0
98 -2259 0
2183 -2259 0
-2005 -2259 -2260 0
2005 2259 -2260 0
2005 -2259 2260 0
-2005 2259 2260 0
-2260 -2258 -2261 0
2260 2258 -2261 0
2260 -2258 2261 0
-2260 2258 2261 0
-2260 -2258 2262 0
2260 -2262 0
2258 -2262 0
-2005 -2259 2263 0
2005 -2263 0
2259 -2263 0
2262 2263 -2264 0
-2262 2264 0
-2263 2264 0
-106 -2183 2265 0
106 -2265 0
2183 -2265 0
-2011 -2265 -2266 0
2011 2265 -2266 0
2011 -2265 2266 0
-2011 2265 2266 0
-2266 -2264 -2267 0
2266 2264 -2267 0
2266 -2264 2267 0
-2266 2264 2267 0
-2266 -2264 2268 0
2266 -2268 0
2264 -2268 0
-2011 -2265 2269 0
2011 -2269 0
2265 -2269 0
2268 2269 -2270 0
-2268 2270 0
-2269 2270 0
-114 -2183 2271 0
114 -2271 0
2183 -2271 0
-2017 -2271 -2272 0
2017 2271 -2272 0
2017 -2271 2272 0
-2017 2271 2272 0
-2272 -2270 -2273 0
2272 2270 -2273 0
2272 -2270 2273 0
-2272 2270 2273 0
-2272 -2270 2274 0
2272 -2274 0
2270 -2274 0
-2017 -2271 2275 0
2017 -2275 0
2271 -2275 0
2274 2275 -2276 0
-2274 2276 0
-2275 2276 0
-122 -2183 2277 0
122 -2277 0
2183 -2277 0
-2023 -2277 -2278 0
2023 2277 -2278 0
2023 -2277 2278 0
-2023 2277 2278 0
-2278 -2276 -2279 0
2278 2276 -2279 0
2278 -2276 2279 0
-2278 2276 2279 0
-2278 -2276 2280 0
2278 -2280 0
2276 -2280 0
-2023 -2277 2281 0
2023 -2281 0
2277 -2281 0
2280 2281 -2282 0
-2280 2282 0
-2281 2282 0
-130 -2183 2283 0
130 -2283 0
2183 -2283 0
-2029 -2283 -2284 0
2029 2283 -2284 0
2029 -2283 2284 0
-2029 2283 2284 0
-2284 -2282 -2285 0
2284 2282 -2285 0
2284 -2282 2285 0
-2284 2282 2285 0
-2284 -2282 2286 0
2284 -2286 0
2282 -2286 0
-2029 -2283 2287 0
2029 -2287 0
2283 -2287 0
2286 2287 -2288 0
-2286 2288 0
-2287 2288 0
-138 -2183 2289 0
138 -2289 0
2183 -2289 0
-2035 -2289 -2290 0
2035 2289 -2290 0
2035 -2289 2290 0
-2035 2289 2290 0
-2290 -2288 -2291 0
2290 2288 -2291 0
2290 -2288 2291 0
-2290 2288 2291 0
-2290 -2288 2292 0
2290 -2292 0
2288 -2292 0
-2035 -2289 2293 0
2035 -2293 0
2289 -2293 0
2292 2293 -2294 0
-2292 2294 0
-2293 2294 0
-146 -2183 2295 0
146 -2295 0
2183 -2295 0
-2041 -2295 -2296 0
2041 2295 -2296 0
2041 -2295 2296 0
-2041 2295 2296 0
-2296 -2294 -2297 0
2296 2294 -2297 0
2296 -2294 2297 0
-2296 2294 2297 0
-2296 -2294 2298 0
2296 -2298 0
2294 -2298 0
-2041 -2295 2299 0
2041 -2299 0
2295 -2299 0
2298 2299 -2300 0
-2298 2300 0
-2299 2300 0
-154 -2183 2301 0
154 -2301 0
2183 -2301 0
-2047 -2301 -2302 0
2047 2301 -2302 0
2047 -2301 2302 0
-2047 2301 2302 0
-2302 -2300 -2303 0
2302 2300 -2303 0
2302 -2300 2303 0
-2302 2300 2303 0
-2302 -2300 2304 0
2302 -2304 0
2300 -2304 0
-2047 -2301 2305 0
2047 -2305 0
2301 -2305 0
2304 2305 -2306 0
-2304 2306 0
-2305 2306 0
-162 -2183 2307 0
162 -2307 0
2183 -2307 0
-2053 -2307 -2308 0
2053 2307 -2308 0
2053 -2307 2308 0
-2053 2307 2308 0
-2308 -2306 -2309 0
2308 2306 -2309 0
2308 -2306 2309 0
-2308 2306 2309 0
-2308 -2306 2310 0
2308 -2310 0
2306 -2310 0
-2053 -2307 2311 0
2053 -2311 0
2307 -2311 0
2310 2311 -2312 0
-2310 2312 0
-2311 2312 0
-170 -2183 2313 0
170 -2313 0
2183 -2313 0
-2059 -2313 -2314 0
2059 2313 -2314 0
2059 -2313 2314 0
-2059 2313 2314 0
-2314 -2312 -2315 0
2314 2312 -2315 0
2314 -2312 2315 0
-2314 2312 2315 0
-2314 -2312 2316 0
2314 -2316 0
2312 -2316 0
-2059 -2313 2317 0
2059 -2317 0
2313 -2317 0
2316 2317 -2318 0
-2316 2318 0
-2317 2318 0
-178 -2183 2319 0
178 -2319 0
2183 -2319 0
-2065 -2319 -2320 0
2065 2319 -2320 0
2065 -2319 2320 0
-2065 2319 2320 0
-2320 -2318 -2321 0
2320 2318 -2321 0
2320 -2318 2321 0
-2320 2318 2321 0
-2320 -2318 2322 0
2320 -2322 0
2318 -2322 0
-2065 -2319 2323 0
2065 -2323 0
2319 -2323 0
2322 2323 -2324 0
-2322 2324 0
-2323 2324 0
-186 -2183 2325 0
186 -2325 0
2183 -2325 0
-2071 -2325 -2326 0
2071 2325 -2326 0
2071 -2325 2326 0
-2071 2325 2326 0
-2326 -2324 -2327 0
2326 2324 -2327 0
2326 -2324 2327 0
-2326 2324 2327 0
-2326 -2324 2328 0
2326 -2328 0
2324 -2328 0
-2071 -2325 2329 0
2071 -2329 0
2325 -2329 0
2328 2329 -2330 0
-2328 2330 0
-2329 2330 0
-194 -2183 2331 0
194 -2331 0
2183 -2331 0
-2077 -2331 -2332 0
2077 2331 -2332 0
2077 -2331 2332 0
-2077 2331 2332 0
-2332 -2330 -2333 0
2332 2330 -2333 0
2332 -2330 2333 0
-2332 2330 2333 0
-2332 -2330 2334 0
2332 -2334 0
2330 -2334 0
-2077 -2331 2335 0
2077 -2335 0
2331 -2335 0
2334 2335 -2336 0
-2334 2336 0
-2335 2336 0
-202 -2183 2337 0
202 -2337 0
2183 -2337 0
-2083 -2337 -2338 0
2083 2337 -2338 0
2083 -2337 2338 0
-2083 2337 2338 0
-2338 -2336 -2339 0
2338 2336 -2339 0
2338 -2336 2339 0
-2338 2336 2339 0
-2338 -2336 2340 0
2338 -2340 0
2336 -2340 0
-2083 -2337 2341 0
2083 -2341 0
2337 -2341 0
2340 2341 -2342 0
-2340 2342 0
-2341 2342 0
-210 -2183 2343 0
210 -2343 0
2183 -2343 0
-2089 -2343 -2344 0
2089 2343 -2344 0
2089 -2343 2344 0
-2089 2343 2344 0
-2344 -2342 -2345 0
2344 2342 -2345 0
2344 -2342 2345 0
-2344 2342 2345 0
-2344 -2342 2346 0
2344 -2346 0
2342 -2346 0
-2089 -2343 2347 0
2089 -2347 0
2343 -2347 0
2346 2347 -2348 0
-2346 2348 0
-2347 2348 0
-218 -2183 2349 0
218 -2349 0
2183 -2349 0
-2095 -2349 -2350 0
2095 2349 -2350 0
2095 -2349 2350 0
-2095 2349 2350 0
-2350 -2348 -2351 0
2350 2348 -2351 0
2350 -2348 2351 0
-2350 2348 2351 0
-2350 -2348 2352 0
2350 -2352 0
2348 -2352 0
-2095 -2349 2353 0
2095 -2353 0
2349 -2353 0
2352 2353 -2354 0
-2352 2354 0
-2353 2354 0
-226 -2183 2355 0
226 -2355 0
2183 -2355 0
-2101 -2355 -2356 0
2101 2355 -2356 0
2101 -2355 2356 0
-2101 2355 2356 0
-2356 -2354 -2357 0
2356 2354 -2357 0
2356 -2354 2357 0
-2356 2354 2357 0
-2356 -2354 2358 0
2356 -2358 0
2354 -2358 0
-2101 -2355 2359 0
2101 -2359 0
2355 -2359 0
2358 2359 -2360 0
-2358 2360 0
-2359 2360 0
-234 -2183 2361 0
234 -2361 0
2183 -2361 0
-2107 -2361 -2362 0
2107 2361 -2362 0
2107 -2361 2362 0
-2107 2361 2362 0
-2362 -2360 -2363 0
2362 2360 -2363 0
2362 -2360 2363 0
-2362 2360 2363 0
-2362 -2360 2364 0
2362 -2364 0
2360 -2364 0
-2107 -2361 2365 0
2107 -2365 0
2361 -2365 0
2364 2365 -2366 0
-2364 2366 0
-2365 2366 0
-242 -2183 2367 0
242 -2367 0
2183 -2367 0
-2113 -2367 -2368 0
2113 2367 -2368 0
2113 -2367 2368 0
-2113 2367 2368 0
-2368 -2366 -2369 0
2368 2366 -2369 0
2368 -2366 2369 0
-2368 2366 2369 0
-2368 -2366 2370 0
2368 -2370 0
2366 -2370 0
-2113 -2367 2371 0
2113 -2371 0
2367 -2371 0
2370 2371 -2372 0
-2370 2372 0
-2371 2372 0
-250 -2183 2373 0
250 -2373 0
2183 -2373 0
-2119 -2373 -2374 0
2119 2373 -2374 0
2119 -2373 2374 0
-2119 2373 2374 0
-2374 -2372 -2375 0
2374 2372 -2375 0
2374 -2372 2375 0
-2374 2372 2375 0
-2374 -2372 2376 0
2374 -2376 0
2372 -2376 0
-2119 -2373 2377 0
2119 -2377 0
2373 -2377 0
2376 2377 -2378 0
-2376 2378 0
-2377 2378 0
-258 -2183 2379 0
258 -2379 0
2183 -2379 0
-2125 -2379 -2380 0
2125 2379 -2380 0
2125 -2379 2380 0
-2125 2379 2380 0
-2380 -2378 -2381 0
2380 2378 -2381 0
2380 -2378 2381 0
-2380 2378 2381 0
-2380 -2378 2382 0
2380 -2382 0
2378 -2382 0
-2125 -2379 2383 0
2125 -2383 0
2379 -2383 0
2382 2383 -2384 0
-2382 2384 0
-2383 2384 0
-266 -2183 2385 0
266 -2385 0
2183 -2385 0
-2131 -2385 -2386 0
2131 2385 -2386 0
2131 -2385 2386 0
-2131 2385 2386 0
-2386 -2384 -2387 0
2386 2384 -2387 0
2386 -2384 2387 0
-2386 2384 2387 0
-2386 -2384 2388 0
2386 -2388 0
2384 -2388 0
-2131 -2385 2389 0
2131 -2389 0
2385 -2389 0
2388 2389 -2390 0
-2388 2390 0
-2389 2390 0
-274 -2183 2391 0
274 -2391 0
2183 -2391 0
-2137 -2391 -2392 0
2137 2391 -2392 0
2137 -2391 2392 0
-2137 2391 2392 0
-2392 -2390 -2393 0
2392 2390 -2393 0
2392 -2390 2393 0
-2392 2390 2393 0
-2392 -2390 2394 0
2392 -2394 0
2390 -2394 0
-2137 -2391 2395 0
2137 -2395 0
2391 -2395 0
2394 2395 -2396 0
-2394 2396 0
-2395 2396 0
-282 -2183 2397 0
282 -2397 0
2183 -2397 0
-2143 -2397 -2398 0
2143 2397 -2398 0
2143 -2397 2398 0
-2143 2397 2398 0
-2398 -2396 -2399 0
2398 2396 -2399 0
2398 -2396 2399 0
-2398 2396 2399 0
-2398 -2396 2400 0
2398 -2400 0
2396 -2400 0
-2143 -2397 2401 0
2143 -2401 0
2397 -2401 0
2400 2401 -2402 0
-2400 2402 0
-2401 2402 0
-290 -2183 2403 0
290 -2403 0
2183 -2403 0
-2149 -2403 -2404 0
2149 2403 -2404 0
2149 -2403 2404 0
-2149 2403 2404 0
-2404 -2402 -2405 0
2404 2402 -2405 0
2404 -2402 2405 0
-2404 2402 2405 0
-2404 -2402 2406 0
2404 -2406 0
2402 -2406 0
-2149 -2403 2407 0
2149 -2407 0
2403 -2407 0
2406 2407 -2408 0
-2406 2408 0
-2407 2408 0
-298 -2183 2409 0
298 -2409 0
2183 -2409 0
-2155 -2409 -2410 0
2155 2409 -2410 0
2155 -2409 2410 0
-2155 2409 2410 0
-2410 -2408 -2411 0
2410 2408 -2411 0
2410 -2408 2411 0
-2410 2408 2411 0
-2410 -2408 2412 0
2410 -2412 0
2408 -2412 0
-2155 -2409 2413 0
2155 -2413 0
2409 -2413 0
2412 2413 -2414 0
-2412 2414 0
-2413 2414 0
-306 -2183 2415 0
306 -2415 0
2183 -2415 0
-2161 -2415 -2416 0
2161 2415 -2416 0
2161 -2415 2416 0
-2161 2415 2416 0
-2416 -2414 -2417 0
2416 2414 -2417 0
2416 -2414 2417 0
-2416 2414 2417 0
-2416 -2414 2418 0
2416 -2418 0
2414 -2418 0
-2161 -2415 2419 0
2161 -2419 0
2415 -2419 0
2418 2419 -2420 0
-2418 2420 0
-2419 2420 0
-314 -2183 2421 0
314 -2421 0
2183 -2421 0
-2167 -2421 -2422 0
2167 2421 -2422 0
2167 -2421 2422 0
-2167 2421 2422 0
-2422 -2420 -2423 0
2422 2420 -2423 0
2422 -2420 2423 0
-2422 2420 2423 0
-2422 -2420 2424 0
2422 -2424 0
2420 -2424 0
-2167 -2421 2425 0
2167 -2425 0
2421 -2425 0
2424 2425 -2426 0
-2424 2426 0
-2425 2426 0
-322 -2183 2427 0
322 -2427 0
2183 -2427 0
-2173 -2427 -2428 0
2173 2427 -2428 0
2173 -2427 2428 0
-2173 2427 2428 0
-2428 -2426 -2429 0
2428 2426 -2429 0
2428 -2426 2429 0
-2428 2426 2429 0
-2428 -2426 2430 0
2428 -2430 0
2426 -2430 0
-2173 -2427 2431 0
2173 -2431 0
2427 -2431 0
2430 2431 -2432 0
-2430 2432 0
-2431 2432 0
-330 -2183 2433 0
330 -2433 0
2183 -2433 0
-2179 -2433 -2434 0
2179 2433 -2434 0
2179 -2433 2434 0
-2179 2433 2434 0
-2434 -2432 -2435 0
2434 2432 -2435 0
2434 -2432 2435 0
-2434 2432 2435 0
-2434 -2432 2436 0
2434 -2436 0
2432 -2436 0
-2179 -2433 2437 0
2179 -2437 0
2433 -2437 0
2436 2437 -2438 0
-2436 2438 0
-2437 2438 0
-338 -2183 2439 0
338 -2439 0
2183 -2439 0
-2182 -2439 -2440 0
2182 2439 -2440 0
2182 -2439 2440 0
-2182 2439 2440 0
-2440 -2438 -2441 0
2440 2438 -2441 0
2440 -2438 2441 0
-2440 2438 2441 0
-2440 -2438 2442 0
2440 -2442 0
2438 -2442 0
-2182 -2439 2443 0
2182 -2443 0
2439 -2443 0
2442 2443 -2444 0
-2442 2444 0
-2443 2444 0
-1 -2445 2446 0
1 -2446 0
2445 -2446 0
-2189 -2446 -2447 0
2189 2446 -2447 0
2189 -2446 2447 0
-2189 2446 2447 0
-2189 -2446 2448 0
2189 -2448 0
2446 -2448 0
-4 -2445 2449 0
4 -2449 0
2445 -2449 0
-2195 -2449 -2450 0
2195 2449 -2450 0
2195 -2449 2450 0
-2195 2449 2450 0
-2450 -2448 -2451 0
2450 2448 -2451 0
2450 -2448 2451 0
-2450 2448 2451 0
-2450 -2448 2452 0
2450 -2452 0
2448 -2452 0
-2195 -2449 2453 0
2195 -2453 0
2449 -2453 0
2452 2453 -2454 0
-2452 2454 0
-2453 2454 0
-10 -2445 2455 0
10 -2455 0
2445 -2455 0
-2201 -2455 -2456 0
2201 2455 -2456 0
2201 -2455 2456 0
-2201 2455 2456 0
-2456 -2454 -2457 0
2456 2454 -2457 0
2456 -2454 2457 0
-2456 2454 2457 0
-2456 -2454 2458 0
2456 -2458 0
2454 -2458 0
-2201 -2455 2459 0
2201 -2459 0
2455 -2459 0
2458 2459 -2460 0
-2458 2460 0
-2459 2460 0
-18 -2445 2461 0
18 -2461 0
2445 -2461 0
-2207 -2461 -2462 0
2207 2461 -2462 0
2207 -2461 2462 0
-2207 2461 2462 0
-2462 -2460 -2463 0
2462 2460 -2463 0
2462 -2460 2463 0
-2462 2460 2463 0
-2462 -2460 2464 0
2462 -2464 0
2460 -2464 0
-2207 -2461 2465 0
2207 -2465 0
2461 -2465 0
2464 2465 -2466 0
-2464 2466 0
-2465 2466 0
-26 -2445 2467 0
26 -2467 0
2445 -2467 0
-2213 -2467 -2468 0
2213 2467 -2468 0
2213 -2467 2468 0
-2213 2467 2468 0
-2468 -2466 -2469 0
2468 2466 -2469 0
2468 -2466 2469 0
-2468 2466 2469 0
-2468 -2466 2470 0
2468 -2470 0
2466 -2470 0
-2213 -2467 2471 0
2213 -2471 0
2467 -2471 0
2470 2471 -2472 0
-2470 2472 0
-2471 2472 0
-34 -2445 2473 0
34 -2473 0
2445 -2473 0
-2219 -2473 -2474 0
2219 2473 -2474 0
2219 -2473 2474 0
-2219 2473 2474 0
-2474 -2472 -2475 0
2474 2472 -2475 0
2474 -2472 2475 0
-2474 2472 2475 0
-2474 -2472 2476 0
2474 -2476 0
2472 -2476 0
-2219 -2473 2477 0
2219 -2477 0
2473 -2477 0
2476 2477 -2478 0
-2476 2478 0
-2477 2478 0
-42 -2445 2479 0
42 -2479 0
2445 -2479 0
-2225 -2479 -2480 0
2225 2479 -2480 0
2225 -2479 2480 0
-2225 2479 2480 0
-2480 -2478 -2481 0
2480 2478 -2481 0
2480 -2478 2481 0
-2480 2478 2481 0
-2480 -2478 2482 0
2480 -2482 0
2478 -2482 0
-2225 -2479 2483 0
2225 -2483 0
2479 -2483 0
2482 2483 -2484 0
-2482 2484 0
-2483 2484 0
-50 -2445 2485 0
50 -2485 0
2445 -2485 0
-2231 -2485 -2486 0
2231 2485 -2486 0
2231 -2485 2486 0
-2231 2485 2486 0
-2486 -2484 -2487 0
2486 2484 -2487 0
2486 -2484 2487 0
-2486 2484 2487 0
-2486 -2484 2488 0
2486 -2488 0
2484 -2488 0
-2231 -2485 2489 0
2231 -2489 0
2485 -2489 0
2488 2489 -2490 0
-2488 2490 0
-2489 2490 0
-58 -2445 2491 0
58 -2491 0
2445 -2491 0
-2237 -2491 -2492 0
2237 2491 -2492 0
2237 -2491 2492 0
-2237 2491 2492 0
-2492 -2490 -2493 0
2492 2490 -2493 0
2492 -2490 2493 0
-2492 2490 2493 0
-2492 -2490 2494 0
2492 -2494 0
2490 -2494 0
-2237 -2491 2495 0
2237 -2495 0
2491 -2495 0
2494 2495 -2496 0
-2494 2496 0
-2495 2496 0
-66 -2445 2497 0
66 -2497 0
2445 -2497 0
-2243 -2497 -2498 0
2243 2497 -2498 0
2243 -2497 2498 0
-2243 2497 2498 0
-2498 -2496 -2499 0
2498 2496 -2499 0
2498 -2496 2499 0
-2498 2496 2499 0
-2498 -2496 2500 0
2498 -2500 0
2496 -2500 0
-2243 -2497 2501 0
2243 -2501 0
2497 -2501 0
2500 2501 -2502 0
-2500 2502 0
-2501 2502 0
-74 -2445 2503 0
74 -2503 0
2445 -2503 0
-2249 -2503 -2504 0
2249 2503 -2504 0
2249 -2503 2504 0
-2249 2503 2504 0
-2504 -2502 -2505 0
2504 2502 -2505 0
2504 -2502 2505 0
-2504 2502 2505 0
-2504 -2502 2506 0
2504 -2506 0
2502 -2506 0
-2249 -2503 2507 0
2249 -2507 0
2503 -2507 0
2506 2507 -2508 0
-2506 2508 0
-2507 2508 0
-82 -2445 2509 0
82 -2509 0
2445 -2509 0
-2255 -2509 -2510 0
2255 2509 -2510 0
2255 -2509 2510 0
-2255 2509 2510 0
-2510 -2508 -2511 0
2510 2508 -2511 0
2510 -2508 2511 0
-2510 2508 2511 0
-2510 -2508 2512 0
2510 -2512 0
2508 -2512 0
-2255 -2509 2513 0
2255 -2513 0
2509 -2513 0
2512 2513 -2514 0
-2512 2514 0
-2513 2514 0
-90 -2445 2515 0
90 -2515 0
2445 -2515 0
-2261 -2515 -2516 0
2261 2515 -2516 0
2261 -2515 2516 0
-2261 2515 2516 0
-2516 -2514 -2517 0
2516 2514 -2517 0
2516 -2514 2517 0
-2516 2514 2517 0
-2516 -2514 2518 0
2516 -2518 0
2514 -2518 0
-2261 -2515 2519 0
2261 -2519 0
2515 -2519 0
2518 2519 -2520 0
-2518 2520 0
-2519 2520 0
-98 -2445 2521 0
98 -2521 0
2445 -2521 0
-2267 -2521 -2522 0
2267 2521 -2522 0
2267 -2521 2522 0
-2267 2521 2522 0
-2522 -2520 -2523 0
2522 2520 -2523 0
2522 -2520 2523 0
-2522 2520 2523 0
-2522 -2520 2524 0
2522 -2524 0
2520 -2524 0
-2267 -2521 2525 0
2267 -2525 0
2521 -2525 0
2524 2525 -2526 0
-2524 2526 0
-2525 2526 0
-106 -2445 2527 0
106 -2527 0
2445 -2527 0
-2273 -2527 -2528 0
2273 2527 -2528 0
2273 -2527 2528 0
-2273 2527 2528 0
-2528 -2526 -2529 0
2528 2526 -2529 0
2528 -2526 2529 0
-2528 2526 2529 0
-2528 -2526 2530 0
2528 -2530 0
2526 -2530 0
-2273 -2527 2531 0
2273 -2531 0
2527 -2531 0
2530 2531 -2532 0
-2530 2532 0
-2531 2532 0
-114 -2445 2533 0
114 -2533 0
2445 -2533 0
-2279 -2533 -2534 0
2279 2533 -2534 0
2279 -2533 2534 0
-2279 2533 2534 0
-2534 -2532 -2535 0
2534 2532 -2535 0
2534 -2532 2535 0
-2534 2532 2535 0
-2534 -2532 2536 0
2534 -2536 0
2532 -2536 0
-2279 -2533 2537 0
2279 -2537 0
2533 -2537 0
2536 2537 -2538 0
-2536 2538 0
-2537 2538 0
-122 -2445 2539 0
122 -2539 0
2445 -2539 0
-2285 -2539 -2540 0
2285 2539 -2540 0
2285 -2539 2540 0
-2285 2539 2540 0
-2540 -2538 -2541 0
2540 2538 -2541 0
2540 -2538 2541 0
-2540 2538 2541 0
-2540 -2538 2542 0
2540 -2542 0
2538 -2542 0
-2285 -2539 2543 0
2285 -2543 0
2539 -2543 0
2542 2543 -2544 0
-2542 2544 0
-2543 2544 0
-130 -2445 2545 0
130 -2545 0
2445 -2545 0
-2291 -2545 -2546 0
2291 2545 -2546 0
2291 -2545 2546 0
-2291 2545 2546 0
-2546 -2544 -2547 0
2546 2544 -2547 0
2546 -2544 2547 0
-2546 2544 2547 0
-2546 -2544 2548 0
2546 -2548 0
2544 -2548 0
-2291 -2545 2549 0
2291 -2549 0
2545 -2549 0
2548 2549 -2550 0
-2548 2550 0
-2549 2550 0
-138 -2445 2551 0
138 -2551 0
2445 -2551 0
-2297 -2551 -2552 0
2297 2551 -2552 0
2297 -2551 2552 0
-2297 2551 2552 0
-2552 -2550 -2553 0
2552 2550 -2553 0
2552 -2550 2553 0
-2552 2550 2553 0
-2552 -2550 2554 0
2552 -2554 0
2550 -2554 0
-2297 -2551 2555 0
2297 -2555 0
2551 -2555 0
2554 2555 -2556 0
-2554 2556 0
-2555 2556 0
-146 -2445 2557 0
146 -2557 0
2445 -2557 0
-2303 -2557 -2558 0
2303 2557 -2558 0
2303 -2557 2558 0
-2303 2557 2558 0
-2558 -2556 -2559 0
2558 2556 -2559 0
2558 -2556 2559 0
-2558 2556 2559 0
-2558 -2556 2560 0
2558 -2560 0
2556 -2560 0
-2303 -2557 2561 0
2303 -2561 0
2557 -2561 0
2560 2561 -2562 0
-2560 2562 0
-2561 2562 0
-154 -2445 2563 0
154 -2563 0
2445 -2563 0
-2309 -2563 -2564 0
2309 2563 -2564 0
2309 -2563 2564 0
-2309 2563 2564 0
-2564 -2562 -2565 0
2564 2562 -2565 0
2564 -2562 2565 0
-2564 2562 2565 0
-2564 -2562 2566 0
2564 -2566 0
2562 -2566 0
-2309 -2563 2567 0
2309 -2567 0
2563 -2567 0
2566 2567 -2568 0
-2566 2568 0
-2567 2568 0
-162 -2445 2569 0
162 -2569 0
2445 -2569 0
-2315 -2569 -2570 0
2315 2569 -2570 0
2315 -2569 2570 0
-2315 2569 2570 0
-2570 -2568 -2571 0
2570 2568 -2571 0
2570 -2568 2571 0
-2570 2568 2571 0
-2570 -2568 2572 0
2570 -2572 0
2568 -2572 0
-2315 -2569 2573 0
2315 -2573 0
2569 -2573 0
2572 2573 -2574 0
-2572 2574 0
-2573 2574 0
-170 -2445 2575 0
170 -2575 0
2445 -2575 0
-2321 -2575 -2576 0
2321 2575 -2576 0
2321 -2575 2576 0
-2321 2575 2576 0
-2576 -2574 -2577 0
2576 2574 -2577 0
2576 -2574 2577 0
-2576 2574 2577 0
-2576 -2574 2578 0
2576 -2578 0
2574 -2578 0
-2321 -2575 2579 0
2321 -2579 0
2575 -2579 0
2578 2579 -2580 0
-2578 2580 0
-2579 2580 0
-178 -2445 2581 0
178 -2581 0
2445 -2581 0
-2327 -2581 -2582 0
2327 2581 -2582 0
2327 -2581 2582 0
-2327 2581 2582 0
-2582 -2580 -2583 0
2582 2580 -2583 0
2582 -2580 2583 0
-2582 2580 2583 0
-2582 -2580 2584 0
2582 -2584 0
2580 -2584 0
-2327 -2581 2585 0
2327 -2585 0
2581 -2585 0
2584 2585 -2586 0
-2584 2586 0
-2585 2586 0
-186 -2445 2587 0
186 -2587 0
2445 -2587 0
-2333 -2587 -2588 0
2333 2587 -2588 0
2333 -2587 2588 0
-2333 2587 2588 0
-2588 -2586 -2589 0
2588 2586 -2589 0
2588 -2586 2589 0
-2588 2586 2589 0
-2588 -2586 2590 0
2588 -2590 0
2586 -2590 0
-2333 -2587 2591 0
2333 -2591 0
2587 -2591 0
2590 2591 -2592 0
-2590 2592 0
-2591 2592 0
-194 -2445 2593 0
194 -2593 0
2445 -2593 0
-2339 -2593 -2594 0
2339 2593 -2594 0
2339 -2593 2594 0
-2339 2593 2594 0
-2594 -2592 -2595 0
2594 2592 -2595 0
2594 -2592 2595 0
-2594 2592 2595 0
-2594 -2592 2596 0
2594 -2596 0
2592 -2596 0
-2339 -2593 2597 0
2339 -2597 0
2593 -2597 0
2596 2597 -2598 0
-2596 2598 0
-2597 2598 0
-202 -2445 2599 0
202 -2599 0
2445 -2599 0
-2345 -2599 -2600 0
2345 2599 -2600 0
2345 -2599 2600 0
-2345 2599 2600 0
-2600 -2598 -2601 0
2600 2598 -2601 0
2600 -2598 2601 0
-2600 2598 2601 0
-2600 -2598 2602 0
2600 -2602 0
2598 -2602 0
-2345 -2599 2603 0
2345 -2603 0
2599 -2603 0
2602 2603 -2604 0
-2602 2604 0
-2603 2604 0
-210 -2445 2605 0
210 -2605 0
2445 -2605 0
-2351 -2605 -2606 0
2351 2605 -2606 0
2351 -2605 2606 0
-2351 2605 2606 0
-2606 -2604 -2607 0
2606 2604 -2607 0
2606 -2604 2607 0
-2606 2604 2607 0
-2606 -2604 2608 0
2606 -2608 0
2604 -2608 0
-2351 -2605 2609 0
2351 -2609 0
2605 -2609 0
2608 2609 -2610 0
-2608 2610 0
-2609 2610 0
-218 -2445 2611 0
218 -2611 0
2445 -2611 0
-2357 -2611 -2612 0
2357 2611 -2612 0
2357 -2611 2612 0
-2357 2611 2612 0
-2612 -2610 -2613 0
2612 2610 -2613 0
2612 -2610 2613 0
-2612 2610 2613 0
-2612 -2610 2614 0
2612 -2614 0
2610 -2614 0
-2357 -2611 2615 0
2357 -2615 0
2611 -2615 0
2614 2615 -2616 0
-2614 2616 0
-2615 2616 0
-226 -2445 2617 0
226 -2617 0
2445 -2617 0
-2363 -2617 -2618 0
2363 2617 -2618 0
2363 -2617 2618 0
-2363 2617 2618 0
-2618 -2616 -2619 0
2618 2616 -2619 0
2618 -2616 2619 0
-2618 2616 2619 0
-2618 -2616 2620 0
2618 -2620 0
2616 -2620 0
-2363 -2617 2621 0
2363 -2621 0
2617 -2621 0
2620 2621 -2622 0
-2620 2622 0
-2621 2622 0
-234 -2445 2623 0
234 -2623 0
2445 -2623 0
-2369 -2623 -2624 0
2369 2623 -2624 0
2369 -2623 2624 0
-2369 2623 2624 0
-2624 -2622 -2625 0
2624 2622 -2625 0
2624 -2622 2625 0
-2624 2622 2625 0
-2624 -2622 2626 0
2624 -2626 0
2622 -2626 0
-2369 -2623 2627 0
2369 -2627 0
2623 -2627 0
2626 2627 -2628 0
-2626 2628 0
-2627 2628 0
-242 -2445 2629 0
242 -2629 0
2445 -2629 0
-2375 -2629 -2630 0
2375 2629 -2630 0
2375 -2629 2630 0
-2375 2629 2630 0
-2630 -2628 -2631 0
2630 2628 -2631 0
2630 -2628 2631 0
-2630 2628 2631 0
-2630 -2628 2632 0
2630 -2632 0
2628 -2632 0
-2375 -2629 2633 0
2375 -2633 0
2629 -2633 0
2632 2633 -2634 0
-2632 2634 0
-2633 2634 0
-250 -2445 2635 0
250 -2635 0
2445 -2635 0
-2381 -2635 -2636 0
2381 2635 -2636 0
2381 -2635 2636 0
-2381 2635 2636 0
-2636 -2634 -2637 0
2636 2634 -2637 0
2636 -2634 2637 0
-2636 2634 2637 0
-2636 -2634 2638 0
2636 -2638 0
2634 -2638 0
-2381 -2635 2639 0
2381 -2639 0
2635 -2639 0
2638 2639 -2640 0
-2638 2640 0
-2639 2640 0
-258 -2445 2641 0
258 -2641 0
2445 -2641 0
-2387 -2641 -2642 0
2387 2641 -2642 0
2387 -2641 2642 0
-2387 2641 2642 0
-2642 -2640 -2643 0
2642 2640 -2643 0
2642 -2640 2643 0
-2642 2640 2643 0
-2642 -2640 2644 0
2642 -2644 0
2640 -2644 0
-2387 -2641 2645 0
2387 -2645 0
2641 -2645 0
2644 2645 -2646 0
-2644 2646 0
-2645 2646 0
-266 -2445 2647 0
266 -2647 0
2445 -2647 0
-2393 -2647 -2648 0
2393 2647 -2648 0
2393 -2647 2648 0
-2393 2647 2648 0
-2648 -2646 -2649 0
2648 2646 -2649 0
2648 -2646 2649 0
-2648 2646 2649 0
-2648 -2646 2650 0
2648 -2650 0
2646 -2650 0
-2393 -2647 2651 0
2393 -2651 0
2647 -2651 0
2650 2651 -2652 0
-2650 2652 0
-2651 2652 0
-274 -2445 2653 0
274 -2653 0
2445 -2653 0
-2399 -2653 -2654 0
2399 2653 -2654 0
2399 -2653 2654 0
-2399 2653 2654 0
-2654 -2652 -2655 0
2654 2652 -2655 0
2654 -2652 2655 0
-2654 2652 2655 0
-2654 -2652 2656 0
2654 -2656 0
2652 -2656 0
-2399 -2653 2657 0
2399 -2657 0
2653 -2657 0
2656 2657 -2658 0
-2656 2658 0
-2657 2658 0
-282 -2445 2659 0
282 -2659 0
2445 -2659 0
-2405 -2659 -2660 0
2405 2659 -2660 0
2405 -2659 2660 0
-2405 2659 2660 0
-2660 -2658 -2661 0
2660 2658 -2661 0
2660 -2658 2661 0
-2660 2658 2661 0
-2660 -2658 2662 0
2660 -2662 0
2658 -2662 0
-2405 -2659 2663 0
2405 -2663 0
2659 -2663 0
2662 2663 -2664 0
-2662 2664 0
-2663 2664 0
-290 -2445 2665 0
290 -2665 0
2445 -2665 0
-2411 -2665 -2666 0
2411 2665 -2666 0
2411 -2665 2666 0
-2411 2665 2666 0
-2666 -2664 -2667 0
2666 2664 -2667 0
2666 -2664 2667 0
-2666 2664 2667 0
-2666 -2664 2668 0
2666 -2668 0
2664 -2668 0
-2411 -2665 2669 0
2411 -2669 0
2665 -2669 0
2668 2669 -2670 0
-2668 2670 0
-2669 2670 0
-298 -2445 2671 0
298 -2671 0
2445 -2671 0
-2417 -2671 -2672 0
2417 2671 -2672 0
2417 -2671 2672 0
-2417 2671 2672 0
-2672 -2670 -2673 0
2672 2670 -2673 0
2672 -2670 2673 0
-2672 2670 2673 0
-2672 -2670 2674 0
2672 -2674 0
2670 -2674 0
-2417 -2671 2675 0
2417 -2675 0
2671 -2675 0
2674 2675 -2676 0
-2674 2676 0
-2675 2676 0
-306 -2445 2677 0
306 -2677 0
2445 -2677 0
-2423 -2677 -2678 0
2423 2677 -2678 0
2423 -2677 2678 0
-2423 2677 2678 0
-2678 -2676 -2679 0
2678 2676 -2679 0
2678 -2676 2679 0
-2678 2676 2679 0
-2678 -2676 2680 0
2678 -2680 0
2676 -2680 0
-2423 -2677 2681 0
2423 -2681 0
2677 -2681 0
2680 2681 -2682 0
-2680 2682 0
-2681 2682 0
-314 -2445 2683 0
314 -2683 0
2445 -2683 0
-2429 -2683 -2684 0
2429 2683 -2684 0
2429 -2683 2684 0
-2429 2683 2684 0
-2684 -2682 -2685 0
2684 2682 -2685 0
2684 -2682 2685 0
-2684 2682 2685 0
-2684 -2682 2686 0
2684 -2686 0
2682 -2686 0
-2429 -2683 2687 0
2429 -2687 0
2683 -2687 0
2686 2687 -2688 0
-2686 2688 0
-2687 2688 0
-322 -2445 2689 0
322 -2689 0
2445 -2689 0
-2435 -2689 -2690 0
2435 2689 -2690 0
2435 -2689 2690 0
-2435 2689 2690 0
-2690 -2688 -2691 0
2690 2688 -2691 0
2690 -2688 2691 0
-2690 2688 2691 0
-2690 -2688 2692 0
2690 -2692 0
2688 -2692 0
-2435 -2689 2693 0
2435 -2693 0
2689 -2693 0
2692 2693 -2694 0
-2692 2694 0
-2693 2694 0
-330 -2445 2695 0
330 -2695 0
2445 -2695 0
-2441 -2695 -2696 0
2441 2695 -2696 0
2441 -2695 2696 0
-2441 2695 2696 0
-2696 -2694 -2697 0
2696 2694 -2697 0
2696 -2694 2697 0
-2696 2694 2697 0
-2696 -2694 2698 0
2696 -2698 0
2694 -2698 0
-2441 -2695 2699 0
2441 -2699 0
2695 -2699 0
2698 2699 -2700 0
-2698 2700 0
-2699 2700 0
-338 -2445 2701 0
338 -2701 0
2445 -2701 0
-2444 -2701 -2702 0
2444 2701 -2702 0
2444 -2701 2702 0
-2444 2701 2702 0
-2702 -2700 -2703 0
2702 2700 -2703 0
2702 -2700 2703 0
-2702 2700 2703 0
-2702 -2700 2704 0
2702 -2704 0
2700 -2704 0
-2444 -2701 2705 0
2444 -2705 0
2701 -2705 0
2704 2705 -2706 0
-2704 2706 0
-2705 2706 0
-1 -2707 2708 0
1 -2708 0
2707 -2708 0
-2451 -2708 -2709 0
2451 2708 -2709 0
2451 -2708 2709 0
-2451 2708 2709 0
-2451 -2708 2710 0
2451 -2710 0
2708 -2710 0
-4 -2707 2711 0
4 -2711 0
2707 -2711 0
-2457 -2711 -2712 0
2457 2711 -2712 0
2457 -2711 2712 0
-2457 2711 2712 0
-2712 -2710 -2713 0
2712 2710 -2713 0
2712 -2710 2713 0
-2712 2710 2713 0
-2712 -2710 2714 0
2712 -2714 0
2710 -2714 0
-2457 -2711 2715 0
2457 -2715 0
2711 -2715 0
2714 2715 -2716 0
-2714 2716 0
-2715 2716 0
-10 -2707 2717 0
10 -2717 0
2707 -2717 0
-2463 -2717 -2718 0
2463 2717 -2718 0
2463 -2717 2718 0
-2463 2717 2718 0
-2718 -2716 -2719 0
2718 2716 -2719 0
2718 -2716 2719 0
-2718 2716 2719 0
-2718 -2716 2720 0
2718 -2720 0
2716 -2720 0
-2463 -2717 2721 0
2463 -2721 0
2717 -2721 0
2720 2721 -2722 0
-2720 2722 0
-2721 2722 0
-18 -2707 2723 0
18 -2723 0
2707 -2723 0
-2469 -2723 -2724 0
2469 2723 -2724 0
2469 -2723 2724 0
-2469 2723 2724 0
-2724 -2722 -2725 0
2724 2722 -2725 0
2724 -2722 2725 0
-2724 2722 2725 0
-2724 -2722 2726 0
2724 -2726 0
2722 -2726 0
-2469 -2723 2727 0
2469 -2727 0
2723 -2727 0
2726 2727 -2728 0
-2726 2728 0
-2727 2728 0
-26 -2707 2729 0
26 -2729 0
2707 -2729 0
-2475 -2729 -2730 0
2475 2729 -2730 0
2475 -2729 2730 0
-2475 2729 2730 0
-2730 -2728 -2731 0
2730 2728 -2731 0
2730 -2728 2731 0
-2730 2728 2731 0
-2730 -2728 2732 0
2730 -2732 0
2728 -2732 0
-2475 -2729 2733 0
2475 -2733 0
2729 -2733 0
2732 2733 -2734 0
-2732 2734 0
-2733 2734 0
-34 -2707 2735 0
34 -2735 0
2707 -2735 0
-2481 -2735 -2736 0
2481 2735 -2736 0
2481 -2735 2736 0
-2481 2735 2736 0
-2736 -2734 -2737 0
2736 2734 -2737 0
2736 -2734 2737 0
-2736 2734 2737 0
-2736 -2734 2738 0
2736 -2738 0
2734 -2738 0
-2481 -2735 2739 0
2481 -2739 0
2735 -2739 0
2738 2739 -2740 0
-2738 2740 0
-2739 2740 0
-42 -2707 2741 0
42 -2741 0
2707 -2741 0
-2487 -2741 -2742 0
2487 2741 -2742 0
2487 -2741 2742 0
-2487 2741 2742 0
-2742 -2740 -2743 0
2742 2740 -2743 0
2742 -2740 2743 0
-2742 2740 2743 0
-2742 -2740 2744 0
2742 -2744 0
2740 -2744 0
-2487 -2741 2745 0
2487 -2745 0
2741 -2745 0
2744 2745 -2746 0
-2744 2746 0
-2745 2746 0
-50 -2707 2747 0
50 -2747 0
2707 -2747 0
-2493 -2747 -2748 0
2493 2747 -2748 0
2493 -2747 2748 0
-2493 2747 2748 0
-2748 -2746 -2749 0
2748 2746 -2749 0
2748 -2746 2749 0
-2748 2746 2749 0
-2748 -2746 2750 0
2748 -2750 0
2746 -2750 0
-2493 -2747 2751 0
2493 -2751 0
2747 -2751 0
2750 2751 -2752 0
-2750 2752 0
-2751 2752 0
-58 -2707 2753 0
58 -2753 0
2707 -2753 0
-2499 -2753 -2754 0
2499 2753 -2754 0
2499 -2753 2754 0
-2499 2753 2754 0
-2754 -2752 -2755 0
2754 2752 -2755 0
2754 -2752 2755 0
-2754 2752 2755 0
-2754 -2752 2756 0
2754 -2756 0
2752 -2756 0
-2499 -2753 2757 0
2499 -2757 0
2753 -2757 0
2756 2757 -2758 0
-2756 2758 0
-2757 2758 0
-66 -2707 2759 0
66 -2759 0
2707 -2759 0
-2505 -2759 -2760 0
2505 2759 -2760 0
2505 -2759 2760 0
-2505 2759 2760 0
-2760 -2758 -2761 0
2760 2758 -2761 0
2760 -2758 2761 0
-2760 2758 2761 0
-2760 -2758 2762 0
2760 -2762 0
2758 -2762 0
-2505 -2759 2763 0
2505 -2763 0
2759 -2763 0
2762 2763 -2764 0
-2762 2764 0
-2763 2764 0
-74 -2707 2765 0
74 -2765 0
2707 -2765 0
-2511 -2765 -2766 0
2511 2765 -2766 0
2511 -2765 2766 0
-2511 2765 2766 0
-2766 -2764 -2767 0
2766 2764 -2767 0
2766 -2764 2767 0
-2766 2764 2767 0
-2766 -2764 2768 0
2766 -2768 0
2764 -2768 0
-2511 -2765 2769 0
2511 -2769 0
2765 -2769 0
2768 2769 -2770 0
-2768 2770 0
-2769 2770 0
-82 -2707 2771 0
82 -2771 0
2707 -2771 0
-2517 -2771 -2772 0
2517 2771 -2772 0
2517 -2771 2772 0
-2517 2771 2772 0
-2772 -2770 -2773 0
2772 2770 -2773 0
2772 -2770 2773 0
-2772 2770 2773 0
-2772 -2770 2774 0
2772 -2774 0
2770 -2774 0
-2517 -2771 2775 0
2517 -2775 0
2771 -2775 0
2774 2775 -2776 0
-2774 2776 0
-2775 2776 0
-90 -2707 2777 0
90 -2777 0
2707 -2777 0
-2523 -2777 -2778 0
2523 2777 -2778 0
2523 -2777 2778 0
-2523 2777 2778 0
-2778 -2776 -2779 0
2778 2776 -2779 0
2778 -2776 2779 0
-2778 2776 2779 0
-2778 -2776 2780 0
2778 -2780 0
2776 -2780 0
-2523 -2777 2781 0
2523 -2781 0
2777 -2781 0
2780 2781 -2782 0
-2780 2782 0
-2781 2782 0
-98 -2707 2783 0
98 -2783 0
2707 -2783 0
-2529 -2783 -2784 0
2529 2783 -2784 0
2529 -2783 2784 0
-2529 2783 2784 0
-2784 -2782 -2785 0
2784 2782 -2785 0
2784 -2782 2785 0
-2784 2782 2785 0
-2784 -2782 2786 0
2784 -2786 0
2782 -2786 0
-2529 -2783 2787 0
2529 -2787 0
2783 -2787 0
2786 2787 -2788 0
-2786 2788 0
-2787 2788 0
-106 -2707 2789 0
106 -2789 0
2707 -2789 0
-2535 -2789 -2790 0
2535 2789 -2790 0
2535 -2789 2790 0
-2535 2789 2790 0
-2790 -2788 -2791 0
2790 2788 -2791 0
2790 -2788 2791 0
-2790 2788 2791 0
-2790 -2788 2792 0
2790 -2792 0
2788 -2792 0
-2535 -2789 2793 0
2535 -2793 0
2789 -2793 0
2792 2793 -2794 0
-2792 2794 0
-2793 2794 0
-114 -2707 2795 0
114 -2795 0
2707 -2795 0
-2541 -2795 -2796 0
2541 2795 -2796 0
2541 -2795 2796 0
-2541 2795 2796 0
-2796 -2794 -2797 0
2796 2794 -2797 0
2796 -2794 2797 0
-2796 2794 2797 0
-2796 -2794 2798 0
2796 -2798 0
2794 -2798 0
-2541 -2795 2799 0
2541 -2799 0
2795 -2799 0
2798 2799 -2800 0
-2798 2800 0
-2799 2800 0
-122 -2707 2801 0
122 -2801 0
2707 -2801 0
-2547 -2801 -2802 0
2547 2801 -2802 0
2547 -2801 2802 0
-2547 2801 2802 0
-2802 -2800 -2803 0
2802 2800 -2803 0
2802 -2800 2803 0
-2802 2800 2803 0
-2802 -2800 2804 0
2802 -2804 0
2800 -2804 0
-2547 -2801 2805 0
2547 -2805 0
2801 -2805 0
2804 2805 -2806 0
-2804 2806 0
-2805 2806 0
-130 -2707 2807 0
130 -2807 0
2707 -2807 0
-2553 -2807 -2808 0
2553 2807 -2808 0
2553 -2807 2808 0
-2553 2807 2808 0
-2808 -2806 -2809 0
2808 2806 -2809 0
2808 -2806 2809 0
-2808 2806 2809 0
-2808 -2806 2810 0
2808 -2810 0
2806 -2810 0
-2553 -2807 2811 0
2553 -2811 0
2807 -2811 0
2810 2811 -2812 0
-2810 2812 0
-2811 2812 0
-138 -2707 2813 0
138 -2813 0
2707 -2813 0
-2559 -2813 -2814 0
2559 2813 -2814 0
2559 -2813 2814 0
-2559 2813 2814 0
-2814 -2812 -2815 0
2814 2812 -2815 0
2814 -2812 2815 0
-2814 2812 2815 0
-2814 -2812 2816 0
2814 -2816 0
2812 -2816 0
-2559 -2813 2817 0
2559 -2817 0
2813 -2817 0
2816 2817 -2818 0
-2816 2818 0
-2817 2818 0
-146 -2707 2819 0
146 -2819 0
2707 -2819 0
-2565 -2819 -2820 0
2565 2819 -2820 0
2565 -2819 2820 0
-2565 2819 2820 0
-2820 -2818 -2821 0
2820 2818 -2821 0
2820 -2818 2821 0
-2820 2818 2821 0
-2820 -2818 2822 0
2820 -2822 0
2818 -2822 0
-2565 -2819 2823 0
2565 -2823 0
2819 -2823 0
2822 2823 -2824 0
-2822 2824 0
-2823 2824 0
-154 -2707 2825 0
154 -2825 0
2707 -2825 0
-2571 -2825 -2826 0
2571 2825 -2826 0
2571 -2825 2826 0
-2571 2825 2826 0
-2826 -2824 -2827 0
2826 2824 -2827 0
2826 -2824 2827 0
-2826 2824 2827 0
-2826 -2824 2828 0
2826 -2828 0
2824 -2828 0
-2571 -2825 2829 0
2571 -2829 0
2825 -2829 0
2828 2829 -2830 0
-2828 2830 0
-2829 2830 0
-162 -2707 2831 0
162 -2831 0
2707 -2831 0
-2577 -2831 -2832 0
2577 2831 -2832 0
2577 -2831 2832 0
-2577 2831 2832 0
-2832 -2830 -2833 0
2832 2830 -2833 0
2832 -2830 2833 0
-2832 2830 2833 0
-2832 -2830 2834 0
2832 -2834 0
2830 -2834 0
-2577 -2831 2835 0
2577 -2835 0
2831 -2835 0
2834 2835 -2836 0
-2834 2836 0
-2835 2836 0
-170 -2707 2837 0
170 -2837 0
2707 -2837 0
-2583 -2837 -2838 0
2583 2837 -2838 0
2583 -2837 2838 0
-2583 2837 2838 0
-2838 -2836 -2839 0
2838 2836 -2839 0
2838 -2836 2839 0
-2838 2836 2839 0
-2838 -2836 2840 0
2838 -2840 0
2836 -2840 0
-2583 -2837 2841 0
2583 -2841 0
2837 -2841 0
2840 2841 -2842 0
-2840 2842 0
-2841 2842 0
-178 -2707 2843 0
178 -2843 0
2707 -2843 0
-2589 -2843 -2844 0
2589 2843 -2844 0
2589 -2843 2844 0
-2589 2843 2844 0
-2844 -2842 -2845 0
2844 2842 -2845 0
2844 -2842 2845 0
-2844 2842 2845 0
-2844 -2842 2846 0
2844 -2846 0
2842 -2846 0
-2589 -2843 2847 0
2589 -2847 0
2843 -2847 0
2846 2847 -2848 0
-2846 2848 0
-2847 2848 0
-186 -2707 2849 0
186 -2849 0
2707 -2849 0
-2595 -2849 -2850 0
2595 2849 -2850 0
2595 -2849 2850 0
-2595 2849 2850 0
-2850 -2848 -2851 0
2850 2848 -2851 0
2850 -2848 2851 0
-2850 2848 2851 0
-2850 -2848 2852 0
2850 -2852 0
2848 -2852 0
-2595 -2849 2853 0
2595 -2853 0
2849 -2853 0
2852 2853 -2854 0
-2852 2854 0
-2853 2854 0
-194 -2707 2855 0
194 -2855 0
2707 -2855 0
-2601 -2855 -2856 0
2601 2855 -2856 0
2601 -2855 2856 0
-2601 2855 2856 0
-2856 -2854 -2857 0
2856 2854 -2857 0
2856 -2854 2857 0
-2856 2854 2857 0
-2856 -2854 2858 0
2856 -2858 0
2854 -2858 0
-2601 -2855 2859 0
2601 -2859 0
2855 -2859 0
2858 2859 -2860 0
-2858 2860 0
-2859 2860 0
-202 -2707 2861 0
202 -2861 0
2707 -2861 0
-2607 -2861 -2862 0
2607 2861 -2862 0
2607 -2861 2862 0
-2607 2861 2862 0
-2862 -2860 -2863 0
2862 2860 -2863 0
2862 -2860 2863 0
-2862 2860 2863 0
-2862 -2860 2864 0
2862 -2864 0
2860 -2864 0
-2607 -2861 2865 0
2607 -2865 0
2861 -2865 0
2864 2865 -2866 0
-2864 2866 0
-2865 2866 0
-210 -2707 2867 0
210 -2867 0
2707 -2867 0
-2613 -2867 -2868 0
2613 2867 -2868 0
2613 -2867 2868 0
-2613 2867 2868 0
-2868 -2866 -2869 0
2868 2866 -2869 0
2868 -2866 2869 0
-2868 2866 2869 0
-2868 -2866 2870 0
2868 -2870 0
2866 -2870 0
-2613 -2867 2871 0
2613 -2871 0
2867 -2871 0
2870 2871 -2872 0
-2870 2872 0
-2871 2872 0
-218 -2707 2873 0
218 -2873 0
2707 -2873 0
-2619 -2873 -2874 0
2619 2873 -2874 0
2619 -2873 2874 0
-2619 2873 2874 0
-2874 -2872 -2875 0
2874 2872 -2875 0
2874 -2872 2875 0
-2874 2872 2875 0
-2874 -2872 2876 0
2874 -2876 0
2872 -2876 0
-2619 -2873 2877 0
2619 -2877 0
2873 -2877 0
2876 2877 -2878 0
-2876 2878 0
-2877 2878 0
-226 -2707 2879 0
226 -2879 0
2707 -2879 0
-2625 -2879 -2880 0
2625 2879 -2880 0
2625 -2879 2880 0
-2625 2879 2880 0
-2880 -2878 -2881 0
2880 2878 -2881 0
2880 -2878 2881 0
-2880 2878 2881 0
-2880 -2878 2882 0
2880 -2882 0
2878 -2882 0
-2625 -2879 2883 0
2625 -2883 0
2879 -2883 0
2882 2883 -2884 0
-2882 2884 0
-2883 2884 0
-234 -2707 2885 0
234 -2885 0
2707 -2885 0
-2631 -2885 -2886 0
2631 2885 -2886 0
2631 -2885 2886 0
-2631 2885 2886 0
-2886 -2884 -2887 0
2886 2884 -2887 0
2886 -2884 2887 0
-2886 2884 2887 0
-2886 -2884 2888 0
2886 -2888 0
2884 -2888 0
-2631 -2885 2889 0
2631 -2889 0
2885 -2889 0
2888 2889 -2890 0
-2888 2890 0
-2889 2890 0
-242 -2707 2891 0
242 -2891 0
2707 -2891 0
-2637 -2891 -2892 0
2637 2891 -2892 0
2637 -2891 2892 0
-2637 2891 2892 0
-2892 -2890 -2893 0
2892 2890 -2893 0
2892 -2890 2893 0
-2892 2890 2893 0
-2892 -2890 2894 0
2892 -2894 0
2890 -2894 0
-2637 -2891 2895 0
2637 -2895 0
2891 -2895 0
2894 2895 -2896 0
-2894 2896 0
-2895 2896 0
-250 -2707 2897 0
250 -2897 0
2707 -2897 0
-2643 -2897 -2898 0
2643 2897 -2898 0
2643 -2897 2898 0
-2643 2897 2898 0
-2898 -2896 -2899 0
2898 2896 -2899 0
2898 -2896 2899 0
-2898 2896 2899 0
-2898 -2896 2900 0
2898 -2900 0
2896 -2900 0
-2643 -2897 2901 0
2643 -2901 0
2897 -2901 0
2900 2901 -2902 0
-2900 2902 0
-2901 2902 0
-258 -2707 2903 0
258 -2903 0
2707 -2903 0
-2649 -2903 -2904 0
2649 2903 -2904 0
2649 -2903 2904 0
-2649 2903 2904 0
-2904 -2902 -2905 0
2904 2902 -2905 0
2904 -2902 2905 0
-2904 2902 2905 0
-2904 -2902 2906 0
2904 -2906 0
2902 -2906 0
-2649 -2903 2907 0
2649 -2907 0
2903 -2907 0
2906 2907 -2908 0
-2906 2908 0
-2907 2908 0
-266 -2707 2909 0
266 -2909 0
2707 -2909 0
-2655 -2909 -2910 0
2655 2909 -2910 0
2655 -2909 2910 0
-2655 2909 2910 0
-2910 -2908 -2911 0
2910 2908 -2911 0
2910 -2908 2911 0
-2910 2908 2911 0
-2910 -2908 2912 0
2910 -2912 0
2908 -2912 0
-2655 -2909 2913 0
2655 -2913 0
2909 -2913 0
2912 2913 -2914 0
-2912 2914 0
-2913 2914 0
-274 -2707 2915 0
274 -2915 0
2707 -2915 0
-2661 -2915 -2916 0
2661 2915 -2916 0
2661 -2915 2916 0
-2661 2915 2916 0
-2916 -2914 -2917 0
2916 2914 -2917 0
2916 -2914 2917 0
-2916 2914 2917 0
-2916 -2914 2918 0
2916 -2918 0
2914 -2918 0
-2661 -2915 2919 0
2661 -2919 0
2915 -2919 0
2918 2919 -2920 0
-2918 2920 0
-2919 2920 0
-282 -2707 2921 0
282 -2921 0
2707 -2921 0
-2667 -2921 -2922 0
2667 2921 -2922 0
2667 -2921 2922 0
-2667 2921 2922 0
-2922 -2920 -2923 0
2922 2920 -2923 0
2922 -2920 2923 0
-2922 2920 2923 0
-2922 -2920 2924 0
2922 -2924 0
2920 -2924 0
-2667 -2921 2925 0
2667 -2925 0
2921 -2925 0
2924 2925 -2926 0
-2924 2926 0
-2925 2926 0
-290 -2707 2927 0
290 -2927 0
2707 -2927 0
-2673 -2927 -2928 0
2673 2927 -2928 0
2673 -2927 2928 0
-2673 2927 2928 0
-2928 -2926 -2929 0
2928 2926 -2929 0
2928 -2926 2929 0
-2928 2926 2929 0
-2928 -2926 2930 0
2928 -2930 0
2926 -2930 0
-2673 -2927 2931 0
2673 -2931 0
2927 -2931 0
2930 2931 -2932 0
-2930 2932 0
-2931 2932 0
-298 -2707 2933 0
298 -2933 0
2707 -2933 0
-2679 -2933 -2934 0
2679 2933 -2934 0
2679 -2933 2934 0
-2679 2933 2934 0
-2934 -2932 -2935 0
2934 2932 -2935 0
2934 -2932 2935 0
-2934 2932 2935 0
-2934 -2932 2936 0
2934 -2936 0
2932 -2936 0
-2679 -2933 2937 0
2679 -2937 0
2933 -2937 0
2936 2937 -2938 0
-2936 2938 0
-2937 2938 0
-306 -2707 2939 0
306 -2939 0
2707 -2939 0
-2685 -2939 -2940 0
2685 2939 -2940 0
2685 -2939 2940 0
-2685 2939 2940 0
-2940 -2938 -2941 0
2940 2938 -2941 0
2940 -2938 2941 0
-2940 2938 2941 0
-2940 -2938 2942 0
2940 -2942 0
2938 -2942 0
-2685 -2939 2943 0
2685 -2943 0
2939 -2943 0
2942 2943 -2944 0
-2942 2944 0
-2943 2944 0
-314 -2707 2945 0
314 -2945 0
2707 -2945 0
-2691 -2945 -2946 0
2691 2945 -2946 0
2691 -2945 2946 0
-2691 2945 2946 0
-2946 -2944 -2947 0
2946 2944 -2947 0
2946 -2944 2947 0
-2946 2944 2947 0
-2946 -2944 2948 0
2946 -2948 0
2944 -2948 0
-2691 -2945 2949 0
2691 -2949 0
2945 -2949 0
2948 2949 -2950 0
-2948 2950 0
-2949 2950 0
-322 -2707 2951 0
322 -2951 0
2707 -2951 0
-2697 -2951 -2952 0
2697 2951 -2952 0
2697 -2951 2952 0
-2697 2951 2952 0
-2952 -2950 -2953 0
2952 2950 -2953 0
2952 -2950 2953 0
-2952 2950 2953 0
-2952 -2950 2954 0
2952 -2954 0
2950 -2954 0
-2697 -2951 2955 0
2697 -2955 0
2951 -2955 0
2954 2955 -2956 0
-2954 2956 0
-2955 2956 0
-330 -2707 2957 0
330 -2957 0
2707 -2957 0
-2703 -2957 -2958 0
2703 2957 -2958 0
2703 -2957 2958 0
-2703 2957 2958 0
-2958 -2956 -2959 0
2958 2956 -2959 0
2958 -2956 2959 0
-2958 2956 2959 0
-2958 -2956 2960 0
2958 -2960 0
2956 -2960 0
-2703 -2957 2961 0
2703 -2961 0
2957 -2961 0
2960 2961 -2962 0
-2960 2962 0
-2961 2962 0
-338 -2707 2963 0
338 -2963 0
2707 -2963 0
-2706 -2963 -2964 0
2706 2963 -2964 0
2706 -2963 2964 0
-2706 2963 2964 0
-2964 -2962 -2965 0
2964 2962 -2965 0
2964 -2962 2965 0
-2964 2962 2965 0
-2964 -2962 2966 0
2964 -2966 0
2962 -2966 0
-2706 -2963 2967 0
2706 -2967 0
2963 -2967 0
2966 2967 -2968 0
-2966 2968 0
-2967 2968 0
-1 -2969 2970 0
1 -2970 0
2969 -2970 0
-2713 -2970 -2971 0
2713 2970 -2971 0
2713 -2970 2971 0
-2713 2970 2971 0
-2713 -2970 2972 0
2713 -2972 0
2970 -2972 0
-4 -2969 2973 0
4 -2973 0
2969 -2973 0
-2719 -2973 -2974 0
2719 2973 -2974 0
2719 -2973 2974 0
-2719 2973 2974 0
-2974 -2972 -2975 0
2974 2972 -2975 0
2974 -2972 2975 0
-2974 2972 2975 0
-2974 -2972 2976 0
2974 -2976 0
2972 -2976 0
-2719 -2973 2977 0
2719 -2977 0
2973 -2977 0
2976 2977 -2978 0
-2976 2978 0
-2977 2978 0
-10 -2969 2979 0
10 -2979 0
2969 -2979 0
-2725 -2979 -2980 0
2725 2979 -2980 0
2725 -2979 2980 0
-2725 2979 2980 0
-2980 -2978 -2981 0
2980 2978 -2981 0
2980 -2978 2981 0
-2980 2978 2981 0
-2980 -2978 2982 0
2980 -2982 0
2978 -2982 0
-2725 -2979 2983 0
2725 -2983 0
2979 -2983 0
2982 2983 -2984 0
-2982 2984 0
-2983 2984 0
-18 -2969 2985 0
18 -2985 0
2969 -2985 0
-2731 -2985 -2986 0
2731 2985 -2986 0
2731 -2985 2986 0
-2731 2985 2986 0
-2986 -2984 -2987 0
2986 2984 -2987 0
2986 -2984 2987 0
-2986 2984 2987 0
-2986 -2984 2988 0
2986 -2988 0
2984 -2988 0
-2731 -2985 2989 0
2731 -2989 0
2985 -2989 0
2988 2989 -2990 0
-2988 2990 0
-2989 2990 0
-26 -2969 2991 0
26 -2991 0
2969 -2991 0
-2737 -2991 -2992 0
2737 2991 -2992 0
2737 -2991 2992 0
-2737 2991 2992 0
-2992 -2990 -2993 0
2992 2990 -2993 0
2992 -2990 2993 0
-2992 2990 2993 0
-2992 -2990 2994 0
2992 -2994 0
2990 -2994 0
-2737 -2991 2995 0
2737 -2995 0
2991 -2995 0
2994 2995 -2996 0
-2994 2996 0
-2995 2996 0
-34 -2969 2997 0
34 -2997 0
2969 -2997 0
-2743 -2997 -2998 0
2743 2997 -2998 0
2743 -2997 2998 0
-2743 2997 2998 0
-2998 -2996 -2999 0
2998 2996 -2999 0
2998 -2996 2999 0
-2998 2996 2999 0
-2998 -2996 3000 0
2998 -3000 0
2996 -3000 0
-2743 -2997 3001 0
2743 -3001 0
2997 -3001 0
3000 3001 -3002 0
-3000 3002 0
-3001 3002 0
-42 -2969 3003 0
42 -3003 0
2969 -3003 0
-2749 -3003 -3004 0
2749 3003 -3004 0
2749 -3003 3004 0
-2749 3003 3004 0
-3004 -3002 -3005 0
3004 3002 -3005 0
3004 -3002 3005 0
-3004 3002 3005 0
-3004 -3002 3006 0
3004 -3006 0
3002 -3006 0
-2749 -3003 3007 0
2749 -3007 0
3003 -3007 0
3006 3007 -3008 0
-3006 3008 0
-3007 3008 0
-50 -2969 3009 0
50 -3009 0
2969 -3009 0
-2755 -3009 -3010 0
2755 3009 -3010 0
2755 -3009 3010 0
-2755 3009 3010 0
-3010 -3008 -3011 0
3010 3008 -3011 0
3010 -3008 3011 0
-3010 3008 3011 0
-3010 -3008 3012 0
3010 -3012 0
3008 -3012 0
-2755 -3009 3013 0
2755 -3013 0
3009 -3013 0
3012 3013 -3014 0
-3012 3014 0
-3013 3014 0
-58 -2969 3015 0
58 -3015 0
2969 -3015 0
-2761 -3015 -3016 0
2761 3015 -3016 0
2761 -3015 3016 0
-2761 3015 3016 0
-3016 -3014 -3017 0
3016 3014 -3017 0
3016 -3014 3017 0
-3016 3014 3017 0
-3016 -3014 3018 0
3016 -3018 0
3014 -3018 0
-2761 -3015 3019 0
2761 -3019 0
3015 -3019 0
3018 3019 -3020 0
-3018 3020 0
-3019 3020 0
-66 -2969 3021 0
66 -3021 0
2969 -3021 0
-2767 -3021 -3022 0
2767 3021 -3022 0
2767 -3021 3022 0
-2767 3021 3022 0
-3022 -3020 -3023 0
3022 3020 -3023 0
3022 -3020 3023 0
-3022 3020 3023 0
-3022 -3020 3024 0
3022 -3024 0
3020 -3024 0
-2767 -3021 3025 0
2767 -3025 0
3021 -3025 0
3024 3025 -3026 0
-3024 3026 0
-3025 3026 0
-74 -2969 3027 0
74 -3027 0
2969 -3027 0
-2773 -3027 -3028 0
2773 3027 -3028 0
2773 -3027 3028 0
-2773 3027 3028 0
-3028 -3026 -3029 0
3028 3026 -3029 0
3028 -3026 3029 0
-3028 3026 3029 0
-3028 -3026 3030 0
3028 -3030 0
3026 -3030 0
-2773 -3027 3031 0
2773 -3031 0
3027 -3031 0
3030 3031 -3032 0
-3030 3032 0
-3031 3032 0
-82 -2969 3033 0
82 -3033 0
2969 -3033 0
-2779 -3033 -3034 0
2779 3033 -3034 0
2779 -3033 3034 0
-2779 3033 3034 0
-3034 -3032 -3035 0
3034 3032 -3035 0
3034 -3032 3035 0
-3034 3032 3035 0
-3034 -3032 3036 0
3034 -3036 0
3032 -3036 0
-2779 -3033 3037 0
2779 -3037 0
3033 -3037 0
3036 3037 -3038 0
-3036 3038 0
-3037 3038 0
-90 -2969 3039 0
90 -3039 0
2969 -3039 0
-2785 -3039 -3040 0
2785 3039 -3040 0
2785 -3039 3040 0
-2785 3039 3040 0
-3040 -3038 -3041 0
3040 3038 -3041 0
3040 -3038 3041 0
-3040 3038 3041 0
-3040 -3038 3042 0
3040 -3042 0
3038 -3042 0
-2785 -3039 3043 0
2785 -3043 0
3039 -3043 0
3042 3043 -3044 0
-3042 3044 0
-3043 3044 0
-98 -2969 3045 0
98 -3045 0
2969 -3045 0
-2791 -3045 -3046 0
2791 3045 -3046 0
2791 -3045 3046 0
-2791 3045 3046 0
-3046 -3044 -3047 0
3046 3044 -3047 0
3046 -3044 3047 0
-3046 3044 3047 0
-3046 -3044 3048 0
3046 -3048 0
3044 -3048 0
-2791 -3045 3049 0
2791 -3049 0
3045 -3049 0
3048 3049 -3050 0
-3048 3050 0
-3049 3050 0
-106 -2969 3051 0
106 -3051 0
2969 -3051 0
-2797 -3051 -3052 0
2797 3051 -3052 0
2797 -3051 3052 0
-2797 3051 3052 0
-3052 -3050 -3053 0
3052 3050 -3053 0
3052 -3050 3053 0
-3052 3050 3053 0
-3052 -3050 3054 0
3052 -3054 0
3050 -3054 0
-2797 -3051 3055 0
2797 -3055 0
3051 -3055 0
3054 3055 -3056 0
-3054 3056 0
-3055 3056 0
-114 -2969 3057 0
114 -3057 0
2969 -3057 0
-2803 -3057 -3058 0
2803 3057 -3058 0
2803 -3057 3058 0
-2803 3057 3058 0
-3058 -3056 -3059 0
3058 3056 -3059 0
3058 -3056 3059 0
-3058 3056 3059 0
-3058 -3056 3060 0
3058 -3060 0
3056 -3060 0
-2803 -3057 3061 0
2803 -3061 0
3057 -3061 0
3060 3061 -3062 0
-3060 3062 0
-3061 3062 0
-122 -2969 3063 0
122 -3063 0
2969 -3063 0
-2809 -3063 -3064 0
2809 3063 -3064 0
2809 -3063 3064 0
-2809 3063 3064 0
-3064 -3062 -3065 0
3064 3062 -3065 0
3064 -3062 3065 0
-3064 3062 3065 0
-3064 -3062 3066 0
3064 -3066 0
3062 -3066 0
-2809 -3063 3067 0
2809 -3067 0
3063 -3067 0
3066 3067 -3068 0
-3066 3068 0
-3067 3068 0
-130 -2969 3069 0
130 -3069 0
2969 -3069 0
-2815 -3069 -3070 0
2815 3069 -3070 0
2815 -3069 3070 0
-2815 3069 3070 0
-3070 -3068 -3071 0
3070 3068 -3071 0
3070 -3068 3071 0
-3070 3068 3071 0
-3070 -3068 3072 0
3070 -3072 0
3068 -3072 0
-2815 -3069 3073 0
2815 -3073 0
3069 -3073 0
3072 3073 -3074 0
-3072 3074 0
-3073 3074 0
-138 -2969 3075 0
138 -3075 0
2969 -3075 0
-2821 -3075 -3076 0
2821 3075 -3076 0
2821 -3075 3076 0
-2821 3075 3076 0
-3076 -3074 -3077 0
3076 3074 -3077 0
3076 -3074 3077 0
-3076 3074 3077 0
-3076 -3074 3078 0
3076 -3078 0
3074 -3078 0
-2821 -3075 3079 0
2821 -3079 0
3075 -3079 0
3078 3079 -3080 0
-3078 3080 0
-3079 3080 0
-146 -2969 3081 0
146 -3081 0
2969 -3081 0
-2827 -3081 -3082 0
2827 3081 -3082 0
2827 -3081 3082 0
-2827 3081 3082 0
-3082 -3080 -3083 0
3082 3080 -3083 0
3082 -3080 3083 0
-3082 3080 3083 0
-3082 -3080 3084 0
3082 -3084 0
3080 -3084 0
-2827 -3081 3085 0
2827 -3085 0
3081 -3085 0
3084 3085 -3086 0
-3084 3086 0
-3085 3086 0
-154 -2969 3087 0
154 -3087 0
2969 -3087 0
-2833 -3087 -3088 0
2833 3087 -3088 0
2833 -3087 3088 0
-2833 3087 3088 0
-3088 -3086 -3089 0
3088 3086 -3089 0
3088 -3086 3089 0
-3088 3086 3089 0
-3088 -3086 3090 0
3088 -3090 0
3086 -3090 0
-2833 -3087 3091 0
2833 -3091 0
3087 -3091 0
3090 3091 -3092 0
-3090 3092 0
-3091 3092 0
-162 -2969 3093 0
162 -3093 0
2969 -3093 0
-2839 -3093 -3094 0
2839 3093 -3094 0
2839 -3093 3094 0
-2839 3093 3094 0
-3094 -3092 -3095 0
3094 3092 -3095 0
3094 -3092 3095 0
-3094 3092 3095 0
-3094 -3092 3096 0
3094 -3096 0
3092 -3096 0
-2839 -3093 3097 0
2839 -3097 0
3093 -3097 0
3096 3097 -3098 0
-3096 3098 0
-3097 3098 0
-170 -2969 3099 0
170 -3099 0
2969 -3099 0
-2845 -3099 -3100 0
2845 3099 -3100 0
2845 -3099 3100 0
-2845 3099 3100 0
-3100 -3098 -3101 0
3100 3098 -3101 0
3100 -3098 3101 0
-3100 3098 3101 0
-3100 -3098 3102 0
3100 -3102 0
3098 -3102 0
-2845 -3099 3103 0
2845 -3103 0
3099 -3103 0
3102 3103 -3104 0
-3102 3104 0
-3103 3104 0
-178 -2969 3105 0
178 -3105 0
2969 -3105 0
-2851 -3105 -3106 0
2851 3105 -3106 0
2851 -3105 3106 0
-2851 3105 3106 0
-3106 -3104 -3107 0
3106 3104 -3107 0
3106 -3104 3107 0
-3106 3104 3107 0
-3106 -3104 3108 0
3106 -3108 0
3104 -3108 0
-2851 -3105 3109 0
2851 -3109 0
3105 -3109 0
3108 3109 -3110 0
-3108 3110 0
-3109 3110 0
-186 -2969 3111 0
186 -3111 0
2969 -3111 0
-2857 -3111 -3112 0
2857 3111 -3112 0
2857 -3111 3112 0
-2857 3111 3112 0
-3112 -3110 -3113 0
3112 3110 -3113 0
3112 -3110 3113 0
-3112 3110 3113 0
-3112 -3110 3114 0
3112 -3114 0
3110 -3114 0
-2857 -3111 3115 0
2857 -3115 0
3111 -3115 0
3114 3115 -3116 0
-3114 3116 0
-3115 3116 0
-194 -2969 3117 0
194 -3117 0
2969 -3117 0
-2863 -3117 -3118 0
2863 3117 -3118 0
2863 -3117 3118 0
-2863 3117 3118 0
-3118 -3116 -3119 0
3118 3116 -3119 0
3118 -3116 3119 0
-3118 3116 3119 0
-3118 -3116 3120 0
3118 -3120 0
3116 -3120 0
-2863 -3117 3121 0
2863 -3121 0
3117 -3121 0
3120 3121 -3122 0
-3120 3122 0
-3121 3122 0
-202 -2969 3123 0
202 -3123 0
2969 -3123 0
-2869 -3123 -3124 0
2869 3123 -3124 0
2869 -3123 3124 0
-2869 3123 3124 0
-3124 -3122 -3125 0
3124 3122 -3125 0
3124 -3122 3125 0
-3124 3122 3125 0
-3124 -3122 3126 0
3124 -3126 0
3122 -3126 0
-2869 -3123 3127 0
2869 -3127 0
3123 -3127 0
3126 3127 -3128 0
-3126 3128 0
-3127 3128 0
-210 -2969 3129 0
210 -3129 0
2969 -3129 0
-2875 -3129 -3130 0
2875 3129 -3130 0
2875 -3129 3130 0
-2875 3129 3130 0
-3130 -3128 -3131 0
3130 3128 -3131 0
3130 -3128 3131 0
-3130 3128 3131 0
-3130 -3128 3132 0
3130 -3132 0
3128 -3132 0
-2875 -3129 3133 0
2875 -3133 0
3129 -3133 0
3132 3133 -3134 0
-3132 3134 0
-3133 3134 0
-218 -2969 3135 0
218 -3135 0
2969 -3135 0
-2881 -3135 -3136 0
2881 3135 -3136 0
2881 -3135 3136 0
-2881 3135 3136 0
-3136 -3134 -3137 0
3136 3134 -3137 0
3136 -3134 3137 0
-3136 3134 3137 0
-3136 -3134 3138 0
3136 -3138 0
3134 -3138 0
-2881 -3135 3139 0
2881 -3139 0
3135 -3139 0
3138 3139 -3140 0
-3138 3140 0
-3139 3140 0
-226 -2969 3141 0
226 -3141 0
2969 -3141 0
-2887 -3141 -3142 0
2887 3141 -3142 0
2887 -3141 3142 0
-2887 3141 3142 0
-3142 -3140 -3143 0
3142 3140 -3143 0
3142 -3140 3143 0
-3142 3140 3143 0
-3142 -3140 3144 0
3142 -3144 0
3140 -3144 0
-2887 -3141 3145 0
2887 -3145 0
3141 -3145 0
3144 3145 -3146 0
-3144 3146 0
-3145 3146 0
-234 -2969 3147 0
234 -3147 0
2969 -3147 0
-2893 -3147 -3148 0
2893 3147 -3148 0
2893 -3147 3148 0
-2893 3147 3148 0
-3148 -3146 -3149 0
3148 3146 -3149 0
3148 -3146 3149 0
-3148 3146 3149 0
-3148 -3146 3150 0
3148 -3150 0
3146 -3150 0
-2893 -3147 3151 0
2893 -3151 0
3147 -3151 0
3150 3151 -3152 0
-3150 3152 0
-3151 3152 0
-242 -2969 3153 0
242 -3153 0
2969 -3153 0
-2899 -3153 -3154 0
2899 3153 -3154 0
2899 -3153 3154 0
-2899 3153 3154 0
-3154 -3152 -3155 0
3154 3152 -3155 0
3154 -3152 3155 0
-3154 3152 3155 0
-3154 -3152 3156 0
3154 -3156 0
3152 -3156 0
-2899 -3153 3157 0
2899 -3157 0
3153 -3157 0
3156 3157 -3158 0
-3156 3158 0
-3157 3158 0
-250 -2969 3159 0
250 -3159 0
2969 -3159 0
-2905 -3159 -3160 0
2905 3159 -3160 0
2905 -3159 3160 0
-2905 3159 3160 0
-3160 -3158 -3161 0
3160 3158 -3161 0
3160 -3158 3161 0
-3160 3158 3161 0
-3160 -3158 3162 0
3160 -3162 0
3158 -3162 0
-2905 -3159 3163 0
2905 -3163 0
3159 -3163 0
3162 3163 -3164 0
-3162 3164 0
-3163 3164 0
-258 -2969 3165 0
258 -3165 0
2969 -3165 0
-2911 -3165 -3166 0
2911 3165 -3166 0
2911 -3165 3166 0
-2911 3165 3166 0
-3166 -3164 -3167 0
3166 3164 -3167 0
3166 -3164 3167 0
-3166 3164 3167 0
-3166 -3164 3168 0
3166 -3168 0
3164 -3168 0
-2911 -3165 3169 0
2911 -3169 0
3165 -3169 0
3168 3169 -3170 0
-3168 3170 0
-3169 3170 0
-266 -2969 3171 0
266 -3171 0
2969 -3171 0
-2917 -3171 -3172 0
2917 3171 -3172 0
2917 -3171 3172 0
-2917 3171 3172 0
-3172 -3170 -3173 0
3172 3170 -3173 0
3172 -3170 3173 0
-3172 3170 3173 0
-3172 -3170 3174 0
3172 -3174 0
3170 -3174 0
-2917 -3171 3175 0
2917 -3175 0
3171 -3175 0
3174 3175 -3176 0
-3174 3176 0
-3175 3176 0
-274 -2969 3177 0
274 -3177 0
2969 -3177 0
-2923 -3177 -3178 0
2923 3177 -3178 0
2923 -3177 3178 0
-2923 3177 3178 0
-3178 -3176 -3179 0
3178 3176 -3179 0
3178 -3176 3179 0
-3178 3176 3179 0
-3178 -3176 3180 0
3178 -3180 0
3176 -3180 0
-2923 -3177 3181 0
2923 -3181 0
3177 -3181 0
3180 3181 -3182 0
-3180 3182 0
-3181 3182 0
-282 -2969 3183 0
282 -3183 0
2969 -3183 0
-2929 -3183 -3184 0
2929 3183 -3184 0
2929 -3183 3184 0
-2929 3183 3184 0
-3184 -3182 -3185 0
3184 3182 -3185 0
3184 -3182 3185 0
-3184 3182 3185 0
-3184 -3182 3186 0
3184 -3186 0
3182 -3186 0
-2929 -3183 3187 0
2929 -3187 0
3183 -3187 0
3186 3187 -3188 0
-3186 3188 0
-3187 3188 0
-290 -2969 3189 0
290 -3189 0
2969 -3189 0
-2935 -3189 -3190 0
2935 3189 -3190 0
2935 -3189 3190 0
-2935 3189 3190 0
-3190 -3188 -3191 0
3190 3188 -3191 0
3190 -3188 3191 0
-3190 3188 3191 0
-3190 -3188 3192 0
3190 -3192 0
3188 -3192 0
-2935 -3189 3193 0
2935 -3193 0
3189 -3193 0
3192 3193 -3194 0
-3192 3194 0
-3193 3194 0
-298 -2969 3195 0
298 -3195 0
2969 -3195 0
-2941 -3195 -3196 0
2941 3195 -3196 0
2941 -3195 3196 0
-2941 3195 3196 0
-3196 -3194 -3197 0
3196 3194 -3197 0
3196 -3194 3197 0
-3196 3194 3197 0
-3196 -3194 3198 0
3196 -3198 0
3194 -3198 0
-2941 -3195 3199 0
2941 -3199 0
3195 -3199 0
3198 3199 -3200 0
-3198 3200 0
-3199 3200 0
-306 -2969 3201 0
306 -3201 0
2969 -3201 0
-2947 -3201 -3202 0
2947 3201 -3202 0
2947 -3201 3202 0
-2947 3201 3202 0
-3202 -3200 -3203 0
3202 3200 -3203 0
3202 -3200 3203 0
-3202 3200 3203 0
-3202 -3200 3204 0
3202 -3204 0
3200 -3204 0
-2947 -3201 3205 0
2947 -3205 0
3201 -3205 0
3204 3205 -3206 0
-3204 3206 0
-3205 3206 0
-314 -2969 3207 0
314 -3207 0
2969 -3207 0
-2953 -3207 -3208 0
2953 3207 -3208 0
2953 -3207 3208 0
-2953 3207 3208 0
-3208 -3206 -3209 0
3208 3206 -3209 0
3208 -3206 3209 0
-3208 3206 3209 0
-3208 -3206 3210 0
3208 -3210 0
3206 -3210 0
-2953 -3207 3211 0
2953 -3211 0
3207 -3211 0
3210 3211 -3212 0
-3210 3212 0
-3211 3212 0
-322 -2969 3213 0
322 -3213 0
2969 -3213 0
-2959 -3213 -3214 0
2959 3213 -3214 0
2959 -3213 3214 0
-2959 3213 3214 0
-3214 -3212 -3215 0
3214 3212 -3215 0
3214 -3212 3215 0
-3214 3212 3215 0
-3214 -3212 3216 0
3214 -3216 0
3212 -3216 0
-2959 -3213 3217 0
2959 -3217 0
3213 -3217 0
3216 3217 -3218 0
-3216 3218 0
-3217 3218 0
-330 -2969 3219 0
330 -3219 0
2969 -3219 0
-2965 -3219 -3220 0
2965 3219 -3220 0
2965 -3219 3220 0
-2965 3219 3220 0
-3220 -3218 -3221 0
3220 3218 -3221 0
3220 -3218 3221 0
-3220 3218 3221 0
-3220 -3218 3222 0
3220 -3222 0
3218 -3222 0
-2965 -3219 3223 0
2965 -3223 0
3219 -3223 0
3222 3223 -3224 0
-3222 3224 0
-3223 3224 0
-338 -2969 3225 0
338 -3225 0
2969 -3225 0
-2968 -3225 -3226 0
2968 3225 -3226 0
2968 -3225 3226 0
-2968 3225 3226 0
-3226 -3224 -3227 0
3226 3224 -3227 0
3226 -3224 3227 0
-3226 3224 3227 0
-3226 -3224 3228 0
3226 -3228 0
3224 -3228 0
-2968 -3225 3229 0
2968 -3229 0
3225 -3229 0
3228 3229 -3230 0
-3228 3230 0
-3229 3230 0
-1 -3231 3232 0
1 -3232 0
3231 -3232 0
-2975 -3232 -3233 0
2975 3232 -3233 0
2975 -3232 3233 0
-2975 3232 3233 0
-2975 -3232 3234 0
2975 -3234 0
3232 -3234 0
-4 -3231 3235 0
4 -3235 0
3231 -3235 0
-2981 -3235 -3236 0
2981 3235 -3236 0
2981 -3235 3236 0
-2981 3235 3236 0
-3236 -3234 -3237 0
3236 3234 -3237 0
3236 -3234 3237 0
-3236 3234 3237 0
-3236 -3234 3238 0
3236 -3238 0
3234 -3238 0
-2981 -3235 3239 0
2981 -3239 0
3235 -3239 0
3238 3239 -3240 0
-3238 3240 0
-3239 3240 0
-10 -3231 3241 0
10 -3241 0
3231 -3241 0
-2987 -3241 -3242 0
2987 3241 -3242 0
2987 -3241 3242 0
-2987 3241 3242 0
-3242 -3240 -3243 0
3242 3240 -3243 0
3242 -3240 3243 0
-3242 3240 3243 0
-3242 -3240 3244 0
3242 -3244 0
3240 -3244 0
-2987 -3241 3245 0
2987 -3245 0
3241 -3245 0
3244 3245 -3246 0
-3244 3246 0
-3245 3246 0
-18 -3231 3247 0
18 -3247 0
3231 -3247 0
-2993 -3247 -3248 0
2993 3247 -3248 0
2993 -3247 3248 0
-2993 3247 3248 0
-3248 -3246 -3249 0
3248 3246 -3249 0
3248 -3246 3249 0
-3248 3246 3249 0
-3248 -3246 3250 0
3248 -3250 0
3246 -3250 0
-2993 -3247 3251 0
2993 -3251 0
3247 -3251 0
3250 3251 -3252 0
-3250 3252 0
-3251 3252 0
-26 -3231 3253 0
26 -3253 0
3231 -3253 0
-2999 -3253 -3254 0
2999 3253 -3254 0
2999 -3253 3254 0
-2999 3253 3254 0
-3254 -3252 -3255 0
3254 3252 -3255 0
3254 -3252 3255 0
-3254 3252 3255 0
-3254 -3252 3256 0
3254 -3256 0
3252 -3256 0
-2999 -3253 3257 0
2999 -3257 0
3253 -3257 0
3256 3257 -3258 0
-3256 3258 0
-3257 3258 0
-34 -3231 3259 0
34 -3259 0
3231 -3259 0
-3005 -3259 -3260 0
3005 3259 -3260 0
3005 -3259 3260 0
-3005 3259 3260 0
-3260 -3258 -3261 0
3260 3258 -3261 0
3260 -3258 3261 0
-3260 3258 3261 0
-3260 -3258 3262 0
3260 -3262 0
3258 -3262 0
-3005 -3259 3263 0
3005 -3263 0
3259 -3263 0
3262 3263 -3264 0
-3262 3264 0
-3263 3264 0
-42 -3231 3265 0
42 -3265 0
3231 -3265 0
-3011 -3265 -3266 0
3011 3265 -3266 0
3011 -3265 3266 0
-3011 3265 3266 0
-3266 -3264 -3267 0
3266 3264 -3267 0
3266 -3264 3267 0
-3266 3264 3267 0
-3266 -3264 3268 0
3266 -3268 0
3264 -3268 0
-3011 -3265 3269 0
3011 -3269 0
3265 -3269 0
3268 3269 -3270 0
-3268 3270 0
-3269 3270 0
-50 -3231 3271 0
50 -3271 0
3231 -3271 0
-3017 -3271 -3272 0
3017 3271 -3272 0
3017 -3271 3272 0
-3017 3271 3272 0
-3272 -3270 -3273 0
3272 3270 -3273 0
3272 -3270 3273 0
-3272 3270 3273 0
-3272 -3270 3274 0
3272 -3274 0
3270 -3274 0
-3017 -3271 3275 0
3017 -3275 0
3271 -3275 0
3274 3275 -3276 0
-3274 3276 0
-3275 3276 0
-58 -3231 3277 0
58 -3277 0
3231 -3277 0
-3023 -3277 -3278 0
3023 3277 -3278 0
3023 -3277 3278 0
-3023 3277 3278 0
-3278 -3276 -3279 0
3278 3276 -3279 0
3278 -3276 3279 0
-3278 3276 3279 0
-3278 -3276 3280 0
3278 -3280 0
3276 -3280 0
-3023 -3277 3281 0
3023 -3281 0
3277 -3281 0
3280 3281 -3282 0
-3280 3282 0
-3281 3282 0
-66 -3231 3283 0
66 -3283 0
3231 -3283 0
-3029 -3283 -3284 0
3029 3283 -3284 0
3029 -3283 3284 0
-3029 3283 3284 0
-3284 -3282 -3285 0
3284 3282 -3285 0
3284 -3282 3285 0
-3284 3282 3285 0
-3284 -3282 3286 0
3284 -3286 0
3282 -3286 0
-3029 -3283 3287 0
3029 -3287 0
3283 -3287 0
3286 3287 -3288 0
-3286 3288 0
-3287 3288 0
-74 -3231 3289 0
74 -3289 0
3231 -3289 0
-3035 -3289 -3290 0
3035 3289 -3290 0
3035 -3289 3290 0
-3035 3289 3290 0
-3290 -3288 -3291 0
3290 3288 -3291 0
3290 -3288 3291 0
-3290 3288 3291 0
-3290 -3288 3292 0
3290 -3292 0
3288 -3292 0
-3035 -3289 3293 0
3035 -3293 0
3289 -3293 0
3292 3293 -3294 0
-3292 3294 0
-3293 3294 0
-82 -3231 3295 0
82 -3295 0
3231 -3295 0
-3041 -3295 -3296 0
3041 3295 -3296 0
3041 -3295 3296 0
-3041 3295 3296 0
-3296 -3294 -3297 0
3296 3294 -3297 0
3296 -3294 3297 0
-3296 3294 3297 0
-3296 -3294 3298 0
3296 -3298 0
3294 -3298 0
-3041 -3295 3299 0
3041 -3299 0
3295 -3299 0
3298 3299 -3300 0
-3298 3300 0
-3299 3300 0
-90 -3231 3301 0
90 -3301 0
3231 -3301 0
-3047 -3301 -3302 0
3047 3301 -3302 0
3047 -3301 3302 0
-3047 3301 3302 0
-3302 -3300 -3303 0
3302 3300 -3303 0
3302 -3300 3303 0
-3302 3300 3303 0
-3302 -3300 3304 0
3302 -3304 0
3300 -3304 0
-3047 -3301 3305 0
3047 -3305 0
3301 -3305 0
3304 3305 -3306 0
-3304 3306 0
-3305 3306 0
-98 -3231 3307 0
98 -3307 0
3231 -3307 0
-3053 -3307 -3308 0
3053 3307 -3308 0
3053 -3307 3308 0
-3053 3307 3308 0
-3308 -3306 -3309 0
3308 3306 -3309 0
3308 -3306 3309 0
-3308 3306 3309 0
-3308 -3306 3310 0
3308 -3310 0
3306 -3310 0
-3053 -3307 3311 0
3053 -3311 0
3307 -3311 0
3310 3311 -3312 0
-3310 3312 0
-3311 3312 0
-106 -3231 3313 0
106 -3313 0
3231 -3313 0
-3059 -3313 -3314 0
3059 3313 -3314 0
3059 -3313 3314 0
-3059 3313 3314 0
-3314 -3312 -3315 0
3314 3312 -3315 0
3314 -3312 3315 0
-3314 3312 3315 0
-3314 -3312 3316 0
3314 -3316 0
3312 -3316 0
-3059 -3313 3317 0
3059 -3317 0
3313 -3317 0
3316 3317 -3318 0
-3316 3318 0
-3317 3318 0
-114 -3231 3319 0
114 -3319 0
3231 -3319 0
-3065 -3319 -3320 0
3065 3319 -3320 0
3065 -3319 3320 0
-3065 3319 3320 0
-3320 -3318 -3321 0
3320 3318 -3321 0
3320 -3318 3321 0
-3320 3318 3321 0
-3320 -3318 3322 0
3320 -3322 0
3318 -3322 0
-3065 -3319 3323 0
3065 -3323 0
3319 -3323 0
3322 3323 -3324 0
-3322 3324 0
-3323 3324 0
-122 -3231 3325 0
122 -3325 0
3231 -3325 0
-3071 -3325 -3326 0
3071 3325 -3326 0
3071 -3325 3326 0
-3071 3325 3326 0
-3326 -3324 -3327 0
3326 3324 -3327 0
3326 -3324 3327 0
-3326 3324 3327 0
-3326 -3324 3328 0
3326 -3328 0
3324 -3328 0
-3071 -3325 3329 0
3071 -3329 0
3325 -3329 0
3328 3329 -3330 0
-3328 3330 0
-3329 3330 0
-130 -3231 3331 0
130 -3331 0
3231 -3331 0
-3077 -3331 -3332 0
3077 3331 -3332 0
3077 -3331 3332 0
-3077 3331 3332 0
-3332 -3330 -3333 0
3332 3330 -3333 0
3332 -3330 3333 0
-3332 3330 3333 0
-3332 -3330 3334 0
3332 -3334 0
3330 -3334 0
-3077 -3331 3335 0
3077 -3335 0
3331 -3335 0
3334 3335 -3336 0
-3334 3336 0
-3335 3336 0
-138 -3231 3337 0
138 -3337 0
3231 -3337 0
-3083 -3337 -3338 0
3083 3337 -3338 0
3083 -3337 3338 0
-3083 3337 3338 0
-3338 -3336 -3339 0
3338 3336 -3339 0
3338 -3336 3339 0
-3338 3336 3339 0
-3338 -3336 3340 0
3338 -3340 0
3336 -3340 0
-3083 -3337 3341 0
3083 -3341 0
3337 -3341 0
3340 3341 -3342 0
-3340 3342 0
-3341 3342 0
-146 -3231 3343 0
146 -3343 0
3231 -3343 0
-3089 -3343 -3344 0
3089 3343 -3344 0
3089 -3343 3344 0
-3089 3343 3344 0
-3344 -3342 -3345 0
3344 3342 -3345 0
3344 -3342 3345 0
-3344 3342 3345 0
-3344 -3342 3346 0
3344 -3346 0
3342 -3346 0
-3089 -3343 3347 0
3089 -3347 0
3343 -3347 0
3346 3347 -3348 0
-3346 3348 0
-3347 3348 0
-154 -3231 3349 0
154 -3349 0
3231 -3349 0
-3095 -3349 -3350 0
3095 3349 -3350 0
3095 -3349 3350 0
-3095 3349 3350 0
-3350 -3348 -3351 0
3350 3348 -3351 0
3350 -3348 3351 0
-3350 3348 3351 0
-3350 -3348 3352 0
3350 -3352 0
3348 -3352 0
-3095 -3349 3353 0
3095 -3353 0
3349 -3353 0
3352 3353 -3354 0
-3352 3354 0
-3353 3354 0
-162 -3231 3355 0
162 -3355 0
3231 -3355 0
-3101 -3355 -3356 0
3101 3355 -3356 0
3101 -3355 3356 0
-3101 3355 3356 0
-3356 -3354 -3357 0
3356 3354 -3357 0
3356 -3354 3357 0
-3356 3354 3357 0
-3356 -3354 3358 0
3356 -3358 0
3354 -3358 0
-3101 -3355 3359 0
3101 -3359 0
3355 -3359 0
3358 3359 -3360 0
-3358 3360 0
-3359 3360 0
-170 -3231 3361 0
170 -3361 0
3231 -3361 0
-3107 -3361 -3362 0
3107 3361 -3362 0
3107 -3361 3362 0
-3107 3361 3362 0
-3362 -3360 -3363 0
3362 3360 -3363 0
3362 -3360 3363 0
-3362 3360 3363 0
-3362 -3360 3364 0
3362 -3364 0
3360 -3364 0
-3107 -3361 3365 0
3107 -3365 0
3361 -3365 0
3364 3365 -3366 0
-3364 3366 0
-3365 3366 0
-178 -3231 3367 0
178 -3367 0
3231 -3367 0
-3113 -3367 -3368 0
3113 3367 -3368 0
3113 -3367 3368 0
-3113 3367 3368 0
-3368 -3366 -3369 0
3368 3366 -3369 0
3368 -3366 3369 0
-3368 3366 3369 0
-3368 -3366 3370 0
3368 -3370 0
3366 -3370 0
-3113 -3367 3371 0
3113 -3371 0
3367 -3371 0
3370 3371 -3372 0
-3370 3372 0
-3371 3372 0
-186 -3231 3373 0
186 -3373 0
3231 -3373 0
-3119 -3373 -3374 0
3119 3373 -3374 0
3119 -3373 3374 0
-3119 3373 3374 0
-3374 -3372 -3375 0
3374 3372 -3375 0
3374 -3372 3375 0
-3374 3372 3375 0
-3374 -3372 3376 0
3374 -3376 0
3372 -3376 0
-3119 -3373 3377 0
3119 -3377 0
3373 -3377 0
3376 3377 -3378 0
-3376 3378 0
-3377 3378 0
-194 -3231 3379 0
194 -3379 0
3231 -3379 0
-3125 -3379 -3380 0
3125 3379 -3380 0
3125 -3379 3380 0
-3125 3379 3380 0
-3380 -3378 -3381 0
3380 3378 -3381 0
3380 -3378 3381 0
-3380 3378 3381 0
-3380 -3378 3382 0
3380 -3382 0
3378 -3382 0
-3125 -3379 3383 0
3125 -3383 0
3379 -3383 0
3382 3383 -3384 0
-3382 3384 0
-3383 3384 0
-202 -3231 3385 0
202 -3385 0
3231 -3385 0
-3131 -3385 -3386 0
3131 3385 -3386 0
3131 -3385 3386 0
-3131 3385 3386 0
-3386 -3384 -3387 0
3386 3384 -3387 0
3386 -3384 3387 0
-3386 3384 3387 0
-3386 -3384 3388 0
3386 -3388 0
3384 -3388 0
-3131 -3385 3389 0
3131 -3389 0
3385 -3389 0
3388 3389 -3390 0
-3388 3390 0
-3389 3390 0
-210 -3231 3391 0
210 -3391 0
3231 -3391 0
-3137 -3391 -3392 0
3137 3391 -3392 0
3137 -3391 3392 0
-3137 3391 3392 0
-3392 -3390 -3393 0
3392 3390 -3393 0
3392 -3390 3393 0
-3392 3390 3393 0
-3392 -3390 3394 0
3392 -3394 0
3390 -3394 0
-3137 -3391 3395 0
3137 -3395 0
3391 -3395 0
3394 3395 -3396 0
-3394 3396 0
-3395 3396 0
-218 -3231 3397 0
218 -3397 0
3231 -3397 0
-3143 -3397 -3398 0
3143 3397 -3398 0
3143 -3397 3398 0
-3143 3397 3398 0
-3398 -3396 -3399 0
3398 3396 -3399 0
3398 -3396 3399 0
-3398 3396 3399 0
-3398 -3396 3400 0
3398 -3400 0
3396 -3400 0
-3143 -3397 3401 0
3143 -3401 0
3397 -3401 0
3400 3401 -3402 0
-3400 3402 0
-3401 3402 0
-226 -3231 3403 0
226 -3403 0
3231 -3403 0
-3149 -3403 -3404 0
3149 3403 -3404 0
3149 -3403 3404 0
-3149 3403 3404 0
-3404 -3402 -3405 0
3404 3402 -3405 0
3404 -3402 3405 0
-3404 3402 3405 0
-3404 -3402 3406 0
3404 -3406 0
3402 -3406 0
-3149 -3403 3407 0
3149 -3407 0
3403 -3407 0
3406 3407 -3408 0
-3406 3408 0
-3407 3408 0
-234 -3231 3409 0
234 -3409 0
3231 -3409 0
-3155 -3409 -3410 0
3155 3409 -3410 0
3155 -3409 3410 0
-3155 3409 3410 0
-3410 -3408 -3411 0
3410 3408 -3411 0
3410 -3408 3411 0
-3410 3408 3411 0
-3410 -3408 3412 0
3410 -3412 0
3408 -3412 0
-3155 -3409 3413 0
3155 -3413 0
3409 -3413 0
3412 3413 -3414 0
-3412 3414 0
-3413 3414 0
-242 -3231 3415 0
242 -3415 0
3231 -3415 0
-3161 -3415 -3416 0
3161 3415 -3416 0
3161 -3415 3416 0
-3161 3415 3416 0
-3416 -3414 -3417 0
3416 3414 -3417 0
3416 -3414 3417 0
-3416 3414 3417 0
-3416 -3414 3418 0
3416 -3418 0
3414 -3418 0
-3161 -3415 3419 0
3161 -3419 0
3415 -3419 0
3418 3419 -3420 0
-3418 3420 0
-3419 3420 0
-250 -3231 3421 0
250 -3421 0
3231 -3421 0
-3167 -3421 -3422 0
3167 3421 -3422 0
3167 -3421 3422 0
-3167 3421 3422 0
-3422 -3420 -3423 0
3422 3420 -3423 0
3422 -3420 3423 0
-3422 3420 3423 0
-3422 -3420 3424 0
3422 -3424 0
3420 -3424 0
-3167 -3421 3425 0
3167 -3425 0
3421 -3425 0
3424 3425 -3426 0
-3424 3426 0
-3425 3426 0
-258 -3231 3427 0
258 -3427 0
3231 -3427 0
-3173 -3427 -3428 0
3173 3427 -3428 0
3173 -3427 3428 0
-3173 3427 3428 0
-3428 -3426 -3429 0
3428 3426 -3429 0
3428 -3426 3429 0
-3428 3426 3429 0
-3428 -3426 3430 0
3428 -3430 0
3426 -3430 0
-3173 -3427 3431 0
3173 -3431 0
3427 -3431 0
3430 3431 -3432 0
-3430 3432 0
-3431 3432 0
-266 -3231 3433 0
266 -3433 0
3231 -3433 0
-3179 -3433 -3434 0
3179 3433 -3434 0
3179 -3433 3434 0
-3179 3433 3434 0
-3434 -3432 -3435 0
3434 3432 -3435 0
3434 -3432 3435 0
-3434 3432 3435 0
-3434 -3432 3436 0
3434 -3436 0
3432 -3436 0
-3179 -3433 3437 0
3179 -3437 0
3433 -3437 0
3436 3437 -3438 0
-3436 3438 0
-3437 3438 0
-274 -3231 3439 0
274 -3439 0
3231 -3439 0
-3185 -3439 -3440 0
3185 3439 -3440 0
3185 -3439 3440 0
-3185 3439 3440 0
-3440 -3438 -3441 0
3440 3438 -3441 0
3440 -3438 3441 0
-3440 3438 3441 0
-3440 -3438 3442 0
3440 -3442 0
3438 -3442 0
-3185 -3439 3443 0
3185 -3443 0
3439 -3443 0
3442 3443 -3444 0
-3442 3444 0
-3443 3444 0
-282 -3231 3445 0
282 -3445 0
3231 -3445 0
-3191 -3445 -3446 0
3191 3445 -3446 0
3191 -3445 3446 0
-3191 3445 3446 0
-3446 -3444 -3447 0
3446 3444 -3447 0
3446 -3444 3447 0
-3446 3444 3447 0
-3446 -3444 3448 0
3446 -3448 0
3444 -3448 0
-3191 -3445 3449 0
3191 -3449 0
3445 -3449 0
3448 3449 -3450 0
-3448 3450 0
-3449 3450 0
-290 -3231 3451 0
290 -3451 0
3231 -3451 0
-3197 -3451 -3452 0
3197 3451 -3452 0
3197 -3451 3452 0
-3197 3451 3452 0
-3452 -3450 -3453 0
3452 3450 -3453 0
3452 -3450 3453 0
-3452 3450 3453 0
-3452 -3450 3454 0
3452 -3454 0
3450 -3454 0
-3197 -3451 3455 0
3197 -3455 0
3451 -3455 0
3454 3455 -3456 0
-3454 3456 0
-3455 3456 0
-298 -3231 3457 0
298 -3457 0
3231 -3457 0
-3203 -3457 -3458 0
3203 3457 -3458 0
3203 -3457 3458 0
-3203 3457 3458 0
-3458 -3456 -3459 0
3458 3456 -3459 0
3458 -3456 3459 0
-3458 3456 3459 0
-3458 -3456 3460 0
3458 -3460 0
3456 -3460 0
-3203 -3457 3461 0
3203 -3461 0
3457 -3461 0
3460 3461 -3462 0
-3460 3462 0
-3461 3462 0
-306 -3231 3463 0
306 -3463 0
3231 -3463 0
-3209 -3463 -3464 0
3209 3463 -3464 0
3209 -3463 3464 0
-3209 3463 3464 0
-3464 -3462 -3465 0
3464 3462 -3465 0
3464 -3462 3465 0
-3464 3462 3465 0
-3464 -3462 3466 0
3464 -3466 0
3462 -3466 0
-3209 -3463 3467 0
3209 -3467 0
3463 -3467 0
3466 3467 -3468 0
-3466 3468 0
-3467 3468 0
-314 -3231 3469 0
314 -3469 0
3231 -3469 0
-3215 -3469 -3470 0
3215 3469 -3470 0
3215 -3469 3470 0
-3215 3469 3470 0
-3470 -3468 -3471 0
3470 3468 -3471 0
3470 -3468 3471 0
-3470 3468 3471 0
-3470 -3468 3472 0
3470 -3472 0
3468 -3472 0
-3215 -3469 3473 0
3215 -3473 0
3469 -3473 0
3472 3473 -3474 0
-3472 3474 0
-3473 3474 0
-322 -3231 3475 0
322 -3475 0
3231 -3475 0
-3221 -3475 -3476 0
3221 3475 -3476 0
3221 -3475 3476 0
-3221 3475 3476 0
-3476 -3474 -3477 0
3476 3474 -3477 0
3476 -3474 3477 0
-3476 3474 3477 0
-3476 -3474 3478 0
3476 -3478 0
3474 -3478 0
-3221 -3475 3479 0
3221 -3479 0
3475 -3479 0
3478 3479 -3480 0
-3478 3480 0
-3479 3480 0
-330 -3231 3481 0
330 -3481 0
3231 -3481 0
-3227 -3481 -3482 0
3227 3481 -3482 0
3227 -3481 3482 0
-3227 3481 3482 0
-3482 -3480 -3483 0
3482 3480 -3483 0
3482 -3480 3483 0
-3482 3480 3483 0
-3482 -3480 3484 0
3482 -3484 0
3480 -3484 0
-3227 -3481 3485 0
3227 -3485 0
3481 -3485 0
3484 3485 -3486 0
-3484 3486 0
-3485 3486 0
-338 -3231 3487 0
338 -3487 0
3231 -3487 0
-3230 -3487 -3488 0
3230 3487 -3488 0
3230 -3487 3488 0
-3230 3487 3488 0
-3488 -3486 -3489 0
3488 3486 -3489 0
3488 -3486 3489 0
-3488 3486 3489 0
-3488 -3486 3490 0
3488 -3490 0
3486 -3490 0
-3230 -3487 3491 0
3230 -3491 0
3487 -3491 0
3490 3491 -3492 0
-3490 3492 0
-3491 3492 0
-1 -3493 3494 0
1 -3494 0
3493 -3494 0
-3237 -3494 -3495 0
3237 3494 -3495 0
3237 -3494 3495 0
-3237 3494 3495 0
-3237 -3494 3496 0
3237 -3496 0
3494 -3496 0
-4 -3493 3497 0
4 -3497 0
3493 -3497 0
-3243 -3497 -3498 0
3243 3497 -3498 0
3243 -3497 3498 0
-3243 3497 3498 0
-3498 -3496 -3499 0
3498 3496 -3499 0
3498 -3496 3499 0
-3498 3496 3499 0
-3498 -3496 3500 0
3498 -3500 0
3496 -3500 0
-3243 -3497 3501 0
3243 -3501 0
3497 -3501 0
3500 3501 -3502 0
-3500 3502 0
-3501 3502 0
-10 -3493 3503 0
10 -3503 0
3493 -3503 0
-3249 -3503 -3504 0
3249 3503 -3504 0
3249 -3503 3504 0
-3249 3503 3504 0
-3504 -3502 -3505 0
3504 3502 -3505 0
3504 -3502 3505 0
-3504 3502 3505 0
-3504 -3502 3506 0
3504 -3506 0
3502 -3506 0
-3249 -3503 3507 0
3249 -3507 0
3503 -3507 0
3506 3507 -3508 0
-3506 3508 0
-3507 3508 0
-18 -3493 3509 0
18 -3509 0
3493 -3509 0
-3255 -3509 -3510 0
3255 3509 -3510 0
3255 -3509 3510 0
-3255 3509 3510 0
-3510 -3508 -3511 0
3510 3508 -3511 0
3510 -3508 3511 0
-3510 3508 3511 0
-3510 -3508 3512 0
3510 -3512 0
3508 -3512 0
-3255 -3509 3513 0
3255 -3513 0
3509 -3513 0
3512 3513 -3514 0
-3512 3514 0
-3513 3514 0
-26 -3493 3515 0
26 -3515 0
3493 -3515 0
-3261 -3515 -3516 0
3261 3515 -3516 0
3261 -3515 3516 0
-3261 3515 3516 0
-3516 -3514 -3517 0
3516 3514 -3517 0
3516 -3514 3517 0
-3516 3514 3517 0
-3516 -3514 3518 0
3516 -3518 0
3514 -3518 0
-3261 -3515 3519 0
3261 -3519 0
3515 -3519 0
3518 3519 -3520 0
-3518 3520 0
-3519 3520 0
-34 -3493 3521 0
34 -3521 0
3493 -3521 0
-3267 -3521 -3522 0
3267 3521 -3522 0
3267 -3521 3522 0
-3267 3521 3522 0
-3522 -3520 -3523 0
3522 3520 -3523 0
3522 -3520 3523 0
-3522 3520 3523 0
-3522 -3520 3524 0
3522 -3524 0
3520 -3524 0
-3267 -3521 3525 0
3267 -3525 0
3521 -3525 0
3524 3525 -3526 0
-3524 3526 0
-3525 3526 0
-42 -3493 3527 0
42 -3527 0
3493 -3527 0
-3273 -3527 -3528 0
3273 3527 -3528 0
3273 -3527 3528 0
-3273 3527 3528 0
-3528 -3526 -3529 0
3528 3526 -3529 0
3528 -3526 3529 0
-3528 3526 3529 0
-3528 -3526 3530 0
3528 -3530 0
3526 -3530 0
-3273 -3527 3531 0
3273 -3531 0
3527 -3531 0
3530 3531 -3532 0
-3530 3532 0
-3531 3532 0
-50 -3493 3533 0
50 -3533 0
3493 -3533 0
-3279 -3533 -3534 0
3279 3533 -3534 0
3279 -3533 3534 0
-3279 3533 3534 0
-3534 -3532 -3535 0
3534 3532 -3535 0
3534 -3532 3535 0
-3534 3532 3535 0
-3534 -3532 3536 0
3534 -3536 0
3532 -3536 0
-3279 -3533 3537 0
3279 -3537 0
3533 -3537 0
3536 3537 -3538 0
-3536 3538 0
-3537 3538 0
-58 -3493 3539 0
58 -3539 0
3493 -3539 0
-3285 -3539 -3540 0
3285 3539 -3540 0
3285 -3539 3540 0
-3285 3539 3540 0
-3540 -3538 -3541 0
3540 3538 -3541 0
3540 -3538 3541 0
-3540 3538 3541 0
-3540 -3538 3542 0
3540 -3542 0
3538 -3542 0
-3285 -3539 3543 0
3285 -3543 0
3539 -3543 0
3542 3543 -3544 0
-3542 3544 0
-3543 3544 0
-66 -3493 3545 0
66 -3545 0
3493 -3545 0
-3291 -3545 -3546 0
3291 3545 -3546 0
3291 -3545 3546 0
-3291 3545 3546 0
-3546 -3544 -3547 0
3546 3544 -3547 0
3546 -3544 3547 0
-3546 3544 3547 0
-3546 -3544 3548 0
3546 -3548 0
3544 -3548 0
-3291 -3545 3549 0
3291 -3549 0
3545 -3549 0
3548 3549 -3550 0
-3548 3550 0
-3549 3550 0
-74 -3493 3551 0
74 -3551 0
3493 -3551 0
-3297 -3551 -3552 0
3297 3551 -3552 0
3297 -3551 3552 0
-3297 3551 3552 0
-3552 -3550 -3553 0
3552 3550 -3553 0
3552 -3550 3553 0
-3552 3550 3553 0
-3552 -3550 3554 0
3552 -3554 0
3550 -3554 0
-3297 -3551 3555 0
3297 -3555 0
3551 -3555 0
3554 3555 -3556 0
-3554 3556 0
-3555 3556 0
-82 -3493 3557 0
82 -3557 0
3493 -3557 0
-3303 -3557 -3558 0
3303 3557 -3558 0
3303 -3557 3558 0
-3303 3557 3558 0
-3558 -3556 -3559 0
3558 3556 -3559 0
3558 -3556 3559 0
-3558 3556 3559 0
-3558 -3556 3560 0
3558 -3560 0
3556 -3560 0
-3303 -3557 3561 0
3303 -3561 0
3557 -3561 0
3560 3561 -3562 0
-3560 3562 0
-3561 3562 0
-90 -3493 3563 0
90 -3563 0
3493 -3563 0
-3309 -3563 -3564 0
3309 3563 -3564 0
3309 -3563 3564 0
-3309 3563 3564 0
-3564 -3562 -3565 0
3564 3562 -3565 0
3564 -3562 3565 0
-3564 3562 3565 0
-3564 -3562 3566 0
3564 -3566 0
3562 -3566 0
-3309 -3563 3567 0
3309 -3567 0
3563 -3567 0
3566 3567 -3568 0
-3566 3568 0
-3567 3568 0
-98 -3493 3569 0
98 -3569 0
3493 -3569 0
-3315 -3569 -3570 0
3315 3569 -3570 0
3315 -3569 3570 0
-3315 3569 3570 0
-3570 -3568 -3571 0
3570 3568 -3571 0
3570 -3568 3571 0
-3570 3568 3571 0
-3570 -3568 3572 0
3570 -3572 0
3568 -3572 0
-3315 -3569 3573 0
3315 -3573 0
3569 -3573 0
3572 3573 -3574 0
-3572 3574 0
-3573 3574 0
-106 -3493 3575 0
106 -3575 0
3493 -3575 0
-3321 -3575 -3576 0
3321 3575 -3576 0
3321 -3575 3576 0
-3321 3575 3576 0
-3576 -3574 -3577 0
3576 3574 -3577 0
3576 -3574 3577 0
-3576 3574 3577 0
-3576 -3574 3578 0
3576 -3578 0
3574 -3578 0
-3321 -3575 3579 0
3321 -3579 0
3575 -3579 0
3578 3579 -3580 0
-3578 3580 0
-3579 3580 0
-114 -3493 3581 0
114 -3581 0
3493 -3581 0
-3327 -3581 -3582 0
3327 3581 -3582 0
3327 -3581 3582 0
-3327 3581 3582 0
-3582 -3580 -3583 0
3582 3580 -3583 0
3582 -3580 3583 0
-3582 3580 3583 0
-3582 -3580 3584 0
3582 -3584 0
3580 -3584 0
-3327 -3581 3585 0
3327 -3585 0
3581 -3585 0
3584 3585 -3586 0
-3584 3586 0
-3585 3586 0
-122 -3493 3587 0
122 -3587 0
3493 -3587 0
-3333 -3587 -3588 0
3333 3587 -3588 0
3333 -3587 3588 0
-3333 3587 3588 0
-3588 -3586 -3589 0
3588 3586 -3589 0
3588 -3586 3589 0
-3588 3586 3589 0
-3588 -3586 3590 0
3588 -3590 0
3586 -3590 0
-3333 -3587 3591 0
3333 -3591 0
3587 -3591 0
3590 3591 -3592 0
-3590 3592 0
-3591 3592 0
-130 -3493 3593 0
130 -3593 0
3493 -3593 0
-3339 -3593 -3594 0
3339 3593 -3594 0
3339 -3593 3594 0
-3339 3593 3594 0
-3594 -3592 -3595 0
3594 3592 -3595 0
3594 -3592 3595 0
-3594 3592 3595 0
-3594 -3592 3596 0
3594 -3596 0
3592 -3596 0
-3339 -3593 3597 0
3339 -3597 0
3593 -3597 0
3596 3597 -3598 0
-3596 3598 0
-3597 3598 0
-138 -3493 3599 0
138 -3599 0
3493 -3599 0
-3345 -3599 -3600 0
3345 3599 -3600 0
3345 -3599 3600 0
-3345 3599 3600 0
-3600 -3598 -3601 0
3600 3598 -3601 0
3600 -3598 3601 0
-3600 3598 3601 0
-3600 -3598 3602 0
3600 -3602 0
3598 -3602 0
-3345 -3599 3603 0
3345 -3603 0
3599 -3603 0
3602 3603 -3604 0
-3602 3604 0
-3603 3604 0
-146 -3493 3605 0
146 -3605 0
3493 -3605 0
-3351 -3605 -3606 0
3351 3605 -3606 0
3351 -3605 3606 0
-3351 3605 3606 0
-3606 -3604 -3607 0
3606 3604 -3607 0
3606 -3604 3607 0
-3606 3604 3607 0
-3606 -3604 3608 0
3606 -3608 0
3604 -3608 0
-3351 -3605 3609 0
3351 -3609 0
3605 -3609 0
3608 3609 -3610 0
-3608 3610 0
-3609 3610 0
-154 -3493 3611 0
154 -3611 0
3493 -3611 0
-3357 -3611 -3612 0
3357 3611 -3612 0
3357 -3611 3612 0
-3357 3611 3612 0
-3612 -3610 -3613 0
3612 3610 -3613 0
3612 -3610 3613 0
-3612 3610 3613 0
-3612 -3610 3614 0
3612 -3614 0
3610 -3614 0
-3357 -3611 3615 0
3357 -3615 0
3611 -3615 0
3614 3615 -3616 0
-3614 3616 0
-3615 3616 0
-162 -3493 3617 0
162 -3617 0
3493 -3617 0
-3363 -3617 -3618 0
3363 3617 -3618 0
3363 -3617 3618 0
-3363 3617 3618 0
-3618 -3616 -3619 0
3618 3616 -3619 0
3618 -3616 3619 0
-3618 3616 3619 0
-3618 -3616 3620 0
3618 -3620 0
3616 -3620 0
-3363 -3617 3621 0
3363 -3621 0
3617 -3621 0
3620 3621 -3622 0
-3620 3622 0
-3621 3622 0
-170 -3493 3623 0
170 -3623 0
3493 -3623 0
-3369 -3623 -3624 0
3369 3623 -3624 0
3369 -3623 3624 0
-3369 3623 3624 0
-3624 -3622 -3625 0
3624 3622 -3625 0
3624 -3622 3625 0
-3624 3622 3625 0
-3624 -3622 3626 0
3624 -3626 0
3622 -3626 0
-3369 -3623 3627 0
3369 -3627 0
3623 -3627 0
3626 3627 -3628 0
-3626 3628 0
-3627 3628 0
-178 -3493 3629 0
178 -3629 0
3493 -3629 0
-3375 -3629 -3630 0
3375 3629 -3630 0
3375 -3629 3630 0
-3375 3629 3630 0
-3630 -3628 -3631 0
3630 3628 -3631 0
3630 -3628 3631 0
-3630 3628 3631 0
-3630 -3628 3632 0
3630 -3632 0
3628 -3632 0
-3375 -3629 3633 0
3375 -3633 0
3629 -3633 0
3632 3633 -3634 0
-3632 3634 0
-3633 3634 0
-186 -3493 3635 0
186 -3635 0
3493 -3635 0
-3381 -3635 -3636 0
3381 3635 -3636 0
3381 -3635 3636 0
-3381 3635 3636 0
-3636 -3634 -3637 0
3636 3634 -3637 0
3636 -3634 3637 0
-3636 3634 3637 0
-3636 -3634 3638 0
3636 -3638 0
3634 -3638 0
-3381 -3635 3639 0
3381 -3639 0
3635 -3639 0
3638 3639 -3640 0
-3638 3640 0
-3639 3640 0
-194 -3493 3641 0
194 -3641 0
3493 -3641 0
-3387 -3641 -3642 0
3387 3641 -3642 0
3387 -3641 3642 0
-3387 3641 3642 0
-3642 -3640 -3643 0
3642 3640 -3643 0
3642 -3640 3643 0
-3642 3640 3643 0
-3642 -3640 3644 0
3642 -3644 0
3640 -3644 0
-3387 -3641 3645 0
3387 -3645 0
3641 -3645 0
3644 3645 -3646 0
-3644 3646 0
-3645 3646 0
-202 -3493 3647 0
202 -3647 0
3493 -3647 0
-3393 -3647 -3648 0
3393 3647 -3648 0
3393 -3647 3648 0
-3393 3647 3648 0
-3648 -3646 -3649 0
3648 3646 -3649 0
3648 -3646 3649 0
-3648 3646 3649 0
-3648 -3646 3650 0
3648 -3650 0
3646 -3650 0
-3393 -3647 3651 0
3393 -3651 0
3647 -3651 0
3650 3651 -3652 0
-3650 3652 0
-3651 3652 0
-210 -3493 3653 0
210 -3653 0
3493 -3653 0
-3399 -3653 -3654 0
3399 3653 -3654 0
3399 -3653 3654 0
-3399 3653 3654 0
-3654 -3652 -3655 0
3654 3652 -3655 0
3654 -3652 3655 0
-3654 3652 3655 0
-3654 -3652 3656 0
3654 -3656 0
3652 -3656 0
-3399 -3653 3657 0
3399 -3657 0
3653 -3657 0
3656 3657 -3658 0
-3656 3658 0
-3657 3658 0
-218 -3493 3659 0
218 -3659 0
3493 -3659 0
-3405 -3659 -3660 0
3405 3659 -3660 0
3405 -3659 3660 0
-3405 3659 3660 0
-3660 -3658 -3661 0
3660 3658 -3661 0
3660 -3658 3661 0
-3660 3658 3661 0
-3660 -3658 3662 0
3660 -3662 0
3658 -3662 0
-3405 -3659 3663 0
3405 -3663 0
3659 -3663 0
3662 3663 -3664 0
-3662 3664 0
-3663 3664 0
-226 -3493 3665 0
226 -3665 0
3493 -3665 0
-3411 -3665 -3666 0
3411 3665 -3666 0
3411 -3665 3666 0
-3411 3665 3666 0
-3666 -3664 -3667 0
3666 3664 -3667 0
3666 -3664 3667 0
-3666 3664 3667 0
-3666 -3664 3668 0
3666 -3668 0
3664 -3668 0
-3411 -3665 3669 0
3411 -3669 0
3665 -3669 0
3668 3669 -3670 0
-3668 3670 0
-3669 3670 0
-234 -3493 3671 0
234 -3671 0
3493 -3671 0
-3417 -3671 -3672 0
3417 3671 -3672 0
3417 -3671 3672 0
-3417 3671 3672 0
-3672 -3670 -3673 0
3672 3670 -3673 0
3672 -3670 3673 0
-3672 3670 3673 0
-3672 -3670 3674 0
3672 -3674 0
3670 -3674 0
-3417 -3671 3675 0
3417 -3675 0
3671 -3675 0
3674 3675 -3676 0
-3674 3676 0
-3675 3676 0
-242 -3493 3677 0
242 -3677 0
3493 -3677 0
-3423 -3677 -3678 0
3423 3677 -3678 0
3423 -3677 3678 0
-3423 3677 3678 0
-3678 -3676 -3679 0
3678 3676 -3679 0
3678 -3676 3679 0
-3678 3676 3679 0
-3678 -3676 3680 0
3678 -3680 0
3676 -3680 0
-3423 -3677 3681 0
3423 -3681 0
3677 -3681 0
3680 3681 -3682 0
-3680 3682 0
-3681 3682 0
-250 -3493 3683 0
250 -3683 0
3493 -3683 0
-3429 -3683 -3684 0
3429 3683 -3684 0
3429 -3683 3684 0
-3429 3683 3684 0
-3684 -3682 -3685 0
3684 3682 -3685 0
3684 -3682 3685 0
-3684 3682 3685 0
-3684 -3682 3686 0
3684 -3686 0
3682 -3686 0
-3429 -3683 3687 0
3429 -3687 0
3683 -3687 0
3686 3687 -3688 0
-3686 3688 0
-3687 3688 0
-258 -3493 3689 0
258 -3689 0
3493 -3689 0
-3435 -3689 -3690 0
3435 3689 -3690 0
3435 -3689 3690 0
-3435 3689 3690 0
-3690 -3688 -3691 0
3690 3688 -3691 0
3690 -3688 3691 0
-3690 3688 3691 0
-3690 -3688 3692 0
3690 -3692 0
3688 -3692 0
-3435 -3689 3693 0
3435 -3693 0
3689 -3693 0
3692 3693 -3694 0
-3692 3694 0
-3693 3694 0
-266 -3493 3695 0
266 -3695 0
3493 -3695 0
-3441 -3695 -3696 0
3441 3695 -3696 0
3441 -3695 3696 0
-3441 3695 3696 0
-3696 -3694 -3697 0
3696 3694 -3697 0
3696 -3694 3697 0
-3696 3694 3697 0
-3696 -3694 3698 0
3696 -3698 0
3694 -3698 0
-3441 -3695 3699 0
3441 -3699 0
3695 -3699 0
3698 3699 -3700 0
-3698 3700 0
-3699 3700 0
-274 -3493 3701 0
274 -3701 0
3493 -3701 0
-3447 -3701 -3702 0
3447 3701 -3702 0
3447 -3701 3702 0
-3447 3701 3702 0
-3702 -3700 -3703 0
3702 3700 -3703 0
3702 -3700 3703 0
-3702 3700 3703 0
-3702 -3700 3704 0
3702 -3704 0
3700 -3704 0
-3447 -3701 3705 0
3447 -3705 0
3701 -3705 0
3704 3705 -3706 0
-3704 3706 0
-3705 3706 0
-282 -3493 3707 0
282 -3707 0
3493 -3707 0
-3453 -3707 -3708 0
3453 3707 -3708 0
3453 -3707 3708 0
-3453 3707 3708 0
-3708 -3706 -3709 0
3708 3706 -3709 0
3708 -3706 3709 0
-3708 3706 3709 0
-3708 -3706 3710 0
3708 -3710 0
3706 -3710 0
-3453 -3707 3711 0
3453 -3711 0
3707 -3711 0
3710 3711 -3712 0
-3710 3712 0
-3711 3712 0
-290 -3493 3713 0
290 -3713 0
3493 -3713 0
-3459 -3713 -3714 0
3459 3713 -3714 0
3459 -3713 3714 0
-3459 3713 3714 0
-3714 -3712 -3715 0
3714 3712 -3715 0
3714 -3712 3715 0
-3714 3712 3715 0
-3714 -3712 3716 0
3714 -3716 0
3712 -3716 0
-3459 -3713 3717 0
3459 -3717 0
3713 -3717 0
3716 3717 -3718 0
-3716 3718 0
-3717 3718 0
-298 -3493 3719 0
298 -3719 0
3493 -3719 0
-3465 -3719 -3720 0
3465 3719 -3720 0
3465 -3719 3720 0
-3465 3719 3720 0
-3720 -3718 -3721 0
3720 3718 -3721 0
3720 -3718 3721 0
-3720 3718 3721 0
-3720 -3718 3722 0
3720 -3722 0
3718 -3722 0
-3465 -3719 3723 0
3465 -3723 0
3719 -3723 0
3722 3723 -3724 0
-3722 3724 0
-3723 3724 0
-306 -3493 3725 0
306 -3725 0
3493 -3725 0
-3471 -3725 -3726 0
3471 3725 -3726 0
3471 -3725 3726 0
-3471 3725 3726 0
-3726 -3724 -3727 0
3726 3724 -3727 0
3726 -3724 3727 0
-3726 3724 3727 0
-3726 -3724 3728 0
3726 -3728 0
3724 -3728 0
-3471 -3725 3729 0
3471 -3729 0
3725 -3729 0
3728 3729 -3730 0
-3728 3730 0
-3729 3730 0
-314 -3493 3731 0
314 -3731 0
3493 -3731 0
-3477 -3731 -3732 0
3477 3731 -3732 0
3477 -3731 3732 0
-3477 3731 3732 0
-3732 -3730 -3733 0
3732 3730 -3733 0
3732 -3730 3733 0
-3732 3730 3733 0
-3732 -3730 3734 0
3732 -3734 0
3730 -3734 0
-3477 -3731 3735 0
3477 -3735 0
3731 -3735 0
3734 3735 -3736 0
-3734 3736 0
-3735 3736 0
-322 -3493 3737 0
322 -3737 0
3493 -3737 0
-3483 -3737 -3738 0
3483 3737 -3738 0
3483 -3737 3738 0
-3483 3737 3738 0
-3738 -3736 -3739 0
3738 3736 -3739 0
3738 -3736 3739 0
-3738 3736 3739 0
-3738 -3736 3740 0
3738 -3740 0
3736 -3740 0
-3483 -3737 3741 0
3483 -3741 0
3737 -3741 0
3740 3741 -3742 0
-3740 3742 0
-3741 3742 0
-330 -3493 3743 0
330 -3743 0
3493 -3743 0
-3489 -3743 -3744 0
3489 3743 -3744 0
3489 -3743 3744 0
-3489 3743 3744 0
-3744 -3742 -3745 0
3744 3742 -3745 0
3744 -3742 3745 0
-3744 3742 3745 0
-3744 -3742 3746 0
3744 -3746 0
3742 -3746 0
-3489 -3743 3747 0
3489 -3747 0
3743 -3747 0
3746 3747 -3748 0
-3746 3748 0
-3747 3748 0
-338 -3493 3749 0
338 -3749 0
3493 -3749 0
-3492 -3749 -3750 0
3492 3749 -3750 0
3492 -3749 3750 0
-3492 3749 3750 0
-3750 -3748 -3751 0
3750 3748 -3751 0
3750 -3748 3751 0
-3750 3748 3751 0
-3750 -3748 3752 0
3750 -3752 0
3748 -3752 0
-3492 -3749 3753 0
3492 -3753 0
3749 -3753 0
3752 3753 -3754 0
-3752 3754 0
-3753 3754 0
-1 -3755 3756 0
1 -3756 0
3755 -3756 0
-3499 -3756 -3757 0
3499 3756 -3757 0
3499 -3756 3757 0
-3499 3756 3757 0
-3499 -3756 3758 0
3499 -3758 0
3756 -3758 0
-4 -3755 3759 0
4 -3759 0
3755 -3759 0
-3505 -3759 -3760 0
3505 3759 -3760 0
3505 -3759 3760 0
-3505 3759 3760 0
-3760 -3758 -3761 0
3760 3758 -3761 0
3760 -3758 3761 0
-3760 3758 3761 0
-3760 -3758 3762 0
3760 -3762 0
3758 -3762 0
-3505 -3759 3763 0
3505 -3763 0
3759 -3763 0
3762 3763 -3764 0
-3762 3764 0
-3763 3764 0
-10 -3755 3765 0
10 -3765 0
3755 -3765 0
-3511 -3765 -3766 0
3511 3765 -3766 0
3511 -3765 3766 0
-3511 3765 3766 0
-3766 -3764 -3767 0
3766 3764 -3767 0
3766 -3764 3767 0
-3766 3764 3767 0
-3766 -3764 3768 0
3766 -3768 0
3764 -3768 0
-3511 -3765 3769 0
3511 -3769 0
3765 -3769 0
3768 3769 -3770 0
-3768 3770 0
-3769 3770 0
-18 -3755 3771 0
18 -3771 0
3755 -3771 0
-3517 -3771 -3772 0
3517 3771 -3772 0
3517 -3771 3772 0
-3517 3771 3772 0
-3772 -3770 -3773 0
3772 3770 -3773 0
3772 -3770 3773 0
-3772 3770 3773 0
-3772 -3770 3774 0
3772 -3774 0
3770 -3774 0
-3517 -3771 3775 0
3517 -3775 0
3771 -3775 0
3774 3775 -3776 0
-3774 3776 0
-3775 3776 0
-26 -3755 3777 0
26 -3777 0
3755 -3777 0
-3523 -3777 -3778 0
3523 3777 -3778 0
3523 -3777 3778 0
-3523 3777 3778 0
-3778 -3776 -3779 0
3778 3776 -3779 0
3778 -3776 3779 0
-3778 3776 3779 0
-3778 -3776 3780 0
3778 -3780 0
3776 -3780 0
-3523 -3777 3781 0
3523 -3781 0
3777 -3781 0
3780 3781 -3782 0
-3780 3782 0
-3781 3782 0
-34 -3755 3783 0
34 -3783 0
3755 -3783 0
-3529 -3783 -3784 0
3529 3783 -3784 0
3529 -3783 3784 0
-3529 3783 3784 0
-3784 -3782 -3785 0
3784 3782 -3785 0
3784 -3782 3785 0
-3784 3782 3785 0
-3784 -3782 3786 0
3784 -3786 0
3782 -3786 0
-3529 -3783 3787 0
3529 -3787 0
3783 -3787 0
3786 3787 -3788 0
-3786 3788 0
-3787 3788 0
-42 -3755 3789 0
42 -3789 0
3755 -3789 0
-3535 -3789 -3790 0
3535 3789 -3790 0
3535 -3789 3790 0
-3535 3789 3790 0
-3790 -3788 -3791 0
3790 3788 -3791 0
3790 -3788 3791 0
-3790 3788 3791 0
-3790 -3788 3792 0
3790 -3792 0
3788 -3792 0
-3535 -3789 3793 0
3535 -3793 0
3789 -3793 0
3792 3793 -3794 0
-3792 3794 0
-3793 3794 0
-50 -3755 3795 0
50 -3795 0
3755 -3795 0
-3541 -3795 -3796 0
3541 3795 -3796 0
3541 -3795 3796 0
-3541 3795 3796 0
-3796 -3794 -3797 0
3796 3794 -3797 0
3796 -3794 3797 0
-3796 3794 3797 0
-3796 -3794 3798 0
3796 -3798 0
3794 -3798 0
-3541 -3795 3799 0
3541 -3799 0
3795 -3799 0
3798 3799 -3800 0
-3798 3800 0
-3799 3800 0
-58 -3755 3801 0
58 -3801 0
3755 -3801 0
-3547 -3801 -3802 0
3547 3801 -3802 0
3547 -3801 3802 0
-3547 3801 3802 0
-3802 -3800 -3803 0
3802 3800 -3803 0
3802 -3800 3803 0
-3802 3800 3803 0
-3802 -3800 3804 0
3802 -3804 0
3800 -3804 0
-3547 -3801 3805 0
3547 -3805 0
3801 -3805 0
3804 3805 -3806 0
-3804 3806 0
-3805 3806 0
-66 -3755 3807 0
66 -3807 0
3755 -3807 0
-3553 -3807 -3808 0
3553 3807 -3808 0
3553 -3807 3808 0
-3553 3807 3808 0
-3808 -3806 -3809 0
3808 3806 -3809 0
3808 -3806 3809 0
-3808 3806 3809 0
-3808 -3806 3810 0
3808 -3810 0
3806 -3810 0
-3553 -3807 3811 0
3553 -3811 0
3807 -3811 0
3810 3811 -3812 0
-3810 3812 0
-3811 3812 0
-74 -3755 3813 0
74 -3813 0
3755 -3813 0
-3559 -3813 -3814 0
3559 3813 -3814 0
3559 -3813 3814 0
-3559 3813 3814 0
-3814 -3812 -3815 0
3814 3812 -3815 0
3814 -3812 3815 0
-3814 3812 3815 0
-3814 -3812 3816 0
3814 -3816 0
3812 -3816 0
-3559 -3813 3817 0
3559 -3817 0
3813 -3817 0
3816 3817 -3818 0
-3816 3818 0
-3817 3818 0
-82 -3755 3819 0
82 -3819 0
3755 -3819 0
-3565 -3819 -3820 0
3565 3819 -3820 0
3565 -3819 3820 0
-3565 3819 3820 0
-3820 -3818 -3821 0
3820 3818 -3821 0
3820 -3818 3821 0
-3820 3818 3821 0
-3820 -3818 3822 0
3820 -3822 0
3818 -3822 0
-3565 -3819 3823 0
3565 -3823 0
3819 -3823 0
3822 3823 -3824 0
-3822 3824 0
-3823 3824 0
-90 -3755 3825 0
90 -3825 0
3755 -3825 0
-3571 -3825 -3826 0
3571 3825 -3826 0
3571 -3825 3826 0
-3571 3825 3826 0
-3826 -3824 -3827 0
3826 3824 -3827 0
3826 -3824 3827 0
-3826 3824 3827 0
-3826 -3824 3828 0
3826 -3828 0
3824 -3828 0
-3571 -3825 3829 0
3571 -3829 0
3825 -3829 0
3828 3829 -3830 0
-3828 3830 0
-3829 3830 0
-98 -3755 3831 0
98 -3831 0
3755 -3831 0
-3577 -3831 -3832 0
3577 3831 -3832 0
3577 -3831 3832 0
-3577 3831 3832 0
-3832 -3830 -3833 0
3832 3830 -3833 0
3832 -3830 3833 0
-3832 3830 3833 0
-3832 -3830 3834 0
3832 -3834 0
3830 -3834 0
-3577 -3831 3835 0
3577 -3835 0
3831 -3835 0
3834 3835 -3836 0
-3834 3836 0
-3835 3836 0
-106 -3755 3837 0
106 -3837 0
3755 -3837 0
-3583 -3837 -3838 0
3583 3837 -3838 0
3583 -3837 3838 0
-3583 3837 3838 0
-3838 -3836 -3839 0
3838 3836 -3839 0
3838 -3836 3839 0
-3838 3836 3839 0
-3838 -3836 3840 0
3838 -3840 0
3836 -3840 0
-3583 -3837 3841 0
3583 -3841 0
3837 -3841 0
3840 3841 -3842 0
-3840 3842 0
-3841 3842 0
-114 -3755 3843 0
114 -3843 0
3755 -3843 0
-3589 -3843 -3844 0
3589 3843 -3844 0
3589 -3843 3844 0
-3589 3843 3844 0
-3844 -3842 -3845 0
3844 3842 -3845 0
3844 -3842 3845 0
-3844 3842 3845 0
-3844 -3842 3846 0
3844 -3846 0
3842 -3846 0
-3589 -3843 3847 0
3589 -3847 0
3843 -3847 0
3846 3847 -3848 0
-3846 3848 0
-3847 3848 0
-122 -3755 3849 0
122 -3849 0
3755 -3849 0
-3595 -3849 -3850 0
3595 3849 -3850 0
3595 -3849 3850 0
-3595 3849 3850 0
-3850 -3848 -3851 0
3850 3848 -3851 0
3850 -3848 3851 0
-3850 3848 3851 0
-3850 -3848 3852 0
3850 -3852 0
3848 -3852 0
-3595 -3849 3853 0
3595 -3853 0
3849 -3853 0
3852 3853 -3854 0
-3852 3854 0
-3853 3854 0
-130 -3755 3855 0
130 -3855 0
3755 -3855 0
-3601 -3855 -3856 0
3601 3855 -3856 0
3601 -3855 3856 0
-3601 3855 3856 0
-3856 -3854 -3857 0
3856 3854 -3857 0
3856 -3854 3857 0
-3856 3854 3857 0
-3856 -3854 3858 0
3856 -3858 0
3854 -3858 0
-3601 -3855 3859 0
3601 -3859 0
3855 -3859 0
3858 3859 -3860 0
-3858 3860 0
-3859 3860 0
-138 -3755 3861 0
138 -3861 0
3755 -3861 0
-3607 -3861 -3862 0
3607 3861 -3862 0
3607 -3861 3862 0
-3607 3861 3862 0
-3862 -3860 -3863 0
3862 3860 -3863 0
3862 -3860 3863 0
-3862 3860 3863 0
-3862 -3860 3864 0
3862 -3864 0
3860 -3864 0
-3607 -3861 3865 0
3607 -3865 0
3861 -3865 0
3864 3865 -3866 0
-3864 3866 0
-3865 3866 0
-146 -3755 3867 0
146 -3867 0
3755 -3867 0
-3613 -3867 -3868 0
3613 3867 -3868 0
3613 -3867 3868 0
-3613 3867 3868 0
-3868 -3866 -3869 0
3868 3866 -3869 0
3868 -3866 3869 0
-3868 3866 3869 0
-3868 -3866 3870 0
3868 -3870 0
3866 -3870 0
-3613 -3867 3871 0
3613 -3871 0
3867 -3871 0
3870 3871 -3872 0
-3870 3872 0
-3871 3872 0
-154 -3755 3873 0
154 -3873 0
3755 -3873 0
-3619 -3873 -3874 0
3619 3873 -3874 0
3619 -3873 3874 0
-3619 3873 3874 0
-3874 -3872 -3875 0
3874 3872 -3875 0
3874 -3872 3875 0
-3874 3872 3875 0
-3874 -3872 3876 0
3874 -3876 0
3872 -3876 0
-3619 -3873 3877 0
3619 -3877 0
3873 -3877 0
3876 3877 -3878 0
-3876 3878 0
-3877 3878 0
-162 -3755 3879 0
162 -3879 0
3755 -3879 0
-3625 -3879 -3880 0
3625 3879 -3880 0
3625 -3879 3880 0
-3625 3879 3880 0
-3880 -3878 -3881 0
3880 3878 -3881 0
3880 -3878 3881 0
-3880 3878 3881 0
-3880 -3878 3882 0
3880 -3882 0
3878 -3882 0
-3625 -3879 3883 0
3625 -3883 0
3879 -3883 0
3882 3883 -3884 0
-3882 3884 0
-3883 3884 0
-170 -3755 3885 0
170 -3885 0
3755 -3885 0
-3631 -3885 -3886 0
3631 3885 -3886 0
3631 -3885 3886 0
-3631 3885 3886 0
-3886 -3884 -3887 0
3886 3884 -3887 0
3886 -3884 3887 0
-3886 3884 3887 0
-3886 -3884 3888 0
3886 -3888 0
3884 -3888 0
-3631 -3885 3889 0
3631 -3889 0
3885 -3889 0
3888 3889 -3890 0
-3888 3890 0
-3889 3890 0
-178 -3755 3891 0
178 -3891 0
3755 -3891 0
-3637 -3891 -3892 0
3637 3891 -3892 0
3637 -3891 3892 0
-3637 3891 3892 0
-3892 -3890 -3893 0
3892 3890 -3893 0
3892 -3890 3893 0
-3892 3890 3893 0
-3892 -3890 3894 0
3892 -3894 0
3890 -3894 0
-3637 -3891 3895 0
3637 -3895 0
3891 -3895 0
3894 3895 -3896 0
-3894 3896 0
-3895 3896 0
-186 -3755 3897 0
186 -3897 0
3755 -3897 0
-3643 -3897 -3898 0
3643 3897 -3898 0
3643 -3897 3898 0
-3643 3897 3898 0
-3898 -3896 -3899 0
3898 3896 -3899 0
3898 -3896 3899 0
-3898 3896 3899 0
-3898 -3896 3900 0
3898 -3900 0
3896 -3900 0
-3643 -3897 3901 0
3643 -3901 0
3897 -3901 0
3900 3901 -3902 0
-3900 3902 0
-3901 3902 0
-194 -3755 3903 0
194 -3903 0
3755 -3903 0
-3649 -3903 -3904 0
3649 3903 -3904 0
3649 -3903 3904 0
-3649 3903 3904 0
-3904 -3902 -3905 0
3904 3902 -3905 0
3904 -3902 3905 0
-3904 3902 3905 0
-3904 -3902 3906 0
3904 -3906 0
3902 -3906 0
-3649 -3903 3907 0
3649 -3907 0
3903 -3907 0
3906 3907 -3908 0
-3906 3908 0
-3907 3908 0
-202 -3755 3909 0
202 -3909 0
3755 -3909 0
-3655 -3909 -3910 0
3655 3909 -3910 0
3655 -3909 3910 0
-3655 3909 3910 0
-3910 -3908 -3911 0
3910 3908 -3911 0
3910 -3908 3911 0
-3910 3908 3911 0
-3910 -3908 3912 0
3910 -3912 0
3908 -3912 0
-3655 -3909 3913 0
3655 -3913 0
3909 -3913 0
3912 3913 -3914 0
-3912 3914 0
-3913 3914 0
-210 -3755 3915 0
210 -3915 0
3755 -3915 0
-3661 -3915 -3916 0
3661 3915 -3916 0
3661 -3915 3916 0
-3661 3915 3916 0
-3916 -3914 -3917 0
3916 3914 -3917 0
3916 -3914 3917 0
-3916 3914 3917 0
-3916 -3914 3918 0
3916 -3918 0
3914 -3918 0
-3661 -3915 3919 0
3661 -3919 0
3915 -3919 0
3918 3919 -3920 0
-3918 3920 0
-3919 3920 0
-218 -3755 3921 0
218 -3921 0
3755 -3921 0
-3667 -3921 -3922 0
3667 3921 -3922 0
3667 -3921 3922 0
-3667 3921 3922 0
-3922 -3920 -3923 0
3922 3920 -3923 0
3922 -3920 3923 0
-3922 3920 3923 0
-3922 -3920 3924 0
3922 -3924 0
3920 -3924 0
-3667 -3921 3925 0
3667 -3925 0
3921 -3925 0
3924 3925 -3926 0
-3924 3926 0
-3925 3926 0
-226 -3755 3927 0
226 -3927 0
3755 -3927 0
-3673 -3927 -3928 0
3673 3927 -3928 0
3673 -3927 3928 0
-3673 3927 3928 0
-3928 -3926 -3929 0
3928 3926 -3929 0
3928 -3926 3929 0
-3928 3926 3929 0
-3928 -3926 3930 0
3928 -3930 0
3926 -3930 0
-3673 -3927 3931 0
3673 -3931 0
3927 -3931 0
3930 3931 -3932 0
-3930 3932 0
-3931 3932 0
-234 -3755 3933 0
234 -3933 0
3755 -3933 0
-3679 -3933 -3934 0
3679 3933 -3934 0
3679 -3933 3934 0
-3679 3933 3934 0
-3934 -3932 -3935 0
3934 3932 -3935 0
3934 -3932 3935 0
-3934 3932 3935 0
-3934 -3932 3936 0
3934 -3936 0
3932 -3936 0
-3679 -3933 3937 0
3679 -3937 0
3933 -3937 0
3936 3937 -3938 0
-3936 3938 0
-3937 3938 0
-242 -3755 3939 0
242 -3939 0
3755 -3939 0
-3685 -3939 -3940 0
3685 3939 -3940 0
3685 -3939 3940 0
-3685 3939 3940 0
-3940 -3938 -3941 0
3940 3938 -3941 0
3940 -3938 3941 0
-3940 3938 3941 0
-3940 -3938 3942 0
3940 -3942 0
3938 -3942 0
-3685 -3939 3943 0
3685 -3943 0
3939 -3943 0
3942 3943 -3944 0
-3942 3944 0
-3943 3944 0
-250 -3755 3945 0
250 -3945 0
3755 -3945 0
-3691 -3945 -3946 0
3691 3945 -3946 0
3691 -3945 3946 0
-3691 3945 3946 0
-3946 -3944 -3947 0
3946 3944 -3947 0
3946 -3944 3947 0
-3946 3944 3947 0
-3946 -3944 3948 0
3946 -3948 0
3944 -3948 0
-3691 -3945 3949 0
3691 -3949 0
3945 -3949 0
3948 3949 -3950 0
-3948 3950 0
-3949 3950 0
-258 -3755 3951 0
258 -3951 0
3755 -3951 0
-3697 -3951 -3952 0
3697 3951 -3952 0
3697 -3951 3952 0
-3697 3951 3952 0
-3952 -3950 -3953 0
3952 3950 -3953 0
3952 -3950 3953 0
-3952 3950 3953 0
-3952 -3950 3954 0
3952 -3954 0
3950 -3954 0
-3697 -3951 3955 0
3697 -3955 0
3951 -3955 0
3954 3955 -3956 0
-3954 3956 0
-3955 3956 0
-266 -3755 3957 0
266 -3957 0
3755 -3957 0
-3703 -3957 -3958 0
3703 3957 -3958 0
3703 -3957 3958 0
-3703 3957 3958 0
-3958 -3956 -3959 0
3958 3956 -3959 0
3958 -3956 3959 0
-3958 3956 3959 0
-3958 -3956 3960 0
3958 -3960 0
3956 -3960 0
-3703 -3957 3961 0
3703 -3961 0
3957 -3961 0
3960 3961 -3962 0
-3960 3962 0
-3961 3962 0
-274 -3755 3963 0
274 -3963 0
3755 -3963 0
-3709 -3963 -3964 0
3709 3963 -3964 0
3709 -3963 3964 0
-3709 3963 3964 0
-3964 -3962 -3965 0
3964 3962 -3965 0
3964 -3962 3965 0
-3964 3962 3965 0
-3964 -3962 3966 0
3964 -3966 0
3962 -3966 0
-3709 -3963 3967 0
3709 -3967 0
3963 -3967 0
3966 3967 -3968 0
-3966 3968 0
-3967 3968 0
-282 -3755 3969 0
282 -3969 0
3755 -3969 0
-3715 -3969 -3970 0
3715 3969 -3970 0
3715 -3969 3970 0
-3715 3969 3970 0
-3970 -3968 -3971 0
3970 3968 -3971 0
3970 -3968 3971 0
-3970 3968 3971 0
-3970 -3968 3972 0
3970 -3972 0
3968 -3972 0
-3715 -3969 3973 0
3715 -3973 0
3969 -3973 0
3972 3973 -3974 0
-3972 3974 0
-3973 3974 0
-290 -3755 3975 0
290 -3975 0
3755 -3975 0
-3721 -3975 -3976 0
3721 3975 -3976 0
3721 -3975 3976 0
-3721 3975 3976 0
-3976 -3974 -3977 0
3976 3974 -3977 0
3976 -3974 3977 0
-3976 3974 3977 0
-3976 -3974 3978 0
3976 -3978 0
3974 -3978 0
-3721 -3975 3979 0
3721 -3979 0
3975 -3979 0
3978 3979 -3980 0
-3978 3980 0
-3979 3980 0
-298 -3755 3981 0
298 -3981 0
3755 -3981 0
-3727 -3981 -3982 0
3727 3981 -3982 0
3727 -3981 3982 0
-3727 3981 3982 0
-3982 -3980 -3983 0
3982 3980 -3983 0
3982 -3980 3983 0
-3982 3980 3983 0
-3982 -3980 3984 0
3982 -3984 0
3980 -3984 0
-3727 -3981 3985 0
3727 -3985 0
3981 -3985 0
3984 3985 -3986 0
-3984 3986 0
-3985 3986 0
-306 -3755 3987 0
306 -3987 0
3755 -3987 0
-3733 -3987 -3988 0
3733 3987 -3988 0
3733 -3987 3988 0
-3733 3987 3988 0
-3988 -3986 -3989 0
3988 3986 -3989 0
3988 -3986 3989 0
-3988 3986 3989 0
-3988 -3986 3990 0
3988 -3990 0
3986 -3990 0
-3733 -3987 3991 0
3733 -3991 0
3987 -3991 0
3990 3991 -3992 0
-3990 3992 0
-3991 3992 0
-314 -3755 3993 0
314 -3993 0
3755 -3993 0
-3739 -3993 -3994 0
3739 3993 -3994 0
3739 -3993 3994 0
-3739 3993 3994 0
-3994 -3992 -3995 0
3994 3992 -3995 0
3994 -3992 3995 0
-3994 3992 3995 0
-3994 -3992 3996 0
3994 -3996 0
3992 -3996 0
-3739 -3993 3997 0
3739 -3997 0
3993 -3997 0
3996 3997 -3998 0
-3996 3998 0
-3997 3998 0
-322 -3755 3999 0
322 -3999 0
3755 -3999 0
-3745 -3999 -4000 0
3745 3999 -4000 0
3745 -3999 4000 0
-3745 3999 4000 0
-4000 -3998 -4001 0
4000 3998 -4001 0
4000 -3998 4001 0
-4000 3998 4001 0
-4000 -3998 4002 0
4000 -4002 0
3998 -4002 0
-3745 -3999 4003 0
3745 -4003 0
3999 -4003 0
4002 4003 -4004 0
-4002 4004 0
-4003 4004 0
-330 -3755 4005 0
330 -4005 0
3755 -4005 0
-3751 -4005 -4006 0
3751 4005 -4006 0
3751 -4005 4006 0
-3751 4005 4006 0
-4006 -4004 -4007 0
4006 4004 -4007 0
4006 -4004 4007 0
-4006 4004 4007 0
-4006 -4004 4008 0
4006 -4008 0
4004 -4008 0
-3751 -4005 4009 0
3751 -4009 0
4005 -4009 0
4008 4009 -4010 0
-4008 4010 0
-4009 4010 0
-338 -3755 4011 0
338 -4011 0
3755 -4011 0
-3754 -4011 -4012 0
3754 4011 -4012 0
3754 -4011 4012 0
-3754 4011 4012 0
-4012 -4010 -4013 0
4012 4010 -4013 0
4012 -4010 4013 0
-4012 4010 4013 0
-4012 -4010 4014 0
4012 -4014 0
4010 -4014 0
-3754 -4011 4015 0
3754 -4015 0
4011 -4015 0
4014 4015 -4016 0
-4014 4016 0
-4015 4016 0
-1 -4017 4018 0
1 -4018 0
4017 -4018 0
-3761 -4018 -4019 0
3761 4018 -4019 0
3761 -4018 4019 0
-3761 4018 4019 0
-3761 -4018 4020 0
3761 -4020 0
4018 -4020 0
-4 -4017 4021 0
4 -4021 0
4017 -4021 0
-3767 -4021 -4022 0
3767 4021 -4022 0
3767 -4021 4022 0
-3767 4021 4022 0
-4022 -4020 -4023 0
4022 4020 -4023 0
4022 -4020 4023 0
-4022 4020 4023 0
-4022 -4020 4024 0
4022 -4024 0
4020 -4024 0
-3767 -4021 4025 0
3767 -4025 0
4021 -4025 0
4024 4025 -4026 0
-4024 4026 0
-4025 4026 0
-10 -4017 4027 0
10 -4027 0
4017 -4027 0
-3773 -4027 -4028 0
3773 4027 -4028 0
3773 -4027 4028 0
-3773 4027 4028 0
-4028 -4026 -4029 0
4028 4026 -4029 0
4028 -4026 4029 0
-4028 4026 4029 0
-4028 -4026 4030 0
4028 -4030 0
4026 -4030 0
-3773 -4027 4031 0
3773 -4031 0
4027 -4031 0
4030 4031 -4032 0
-4030 4032 0
-4031 4032 0
-18 -4017 4033 0
18 -4033 0
4017 -4033 0
-3779 -4033 -4034 0
3779 4033 -4034 0
3779 -4033 4034 0
-3779 4033 4034 0
-4034 -4032 -4035 0
4034 4032 -4035 0
4034 -4032 4035 0
-4034 4032 4035 0
-4034 -4032 4036 0
4034 -4036 0
4032 -4036 0
-3779 -4033 4037 0
3779 -4037 0
4033 -4037 0
4036 4037 -4038 0
-4036 4038 0
-4037 4038 0
-26 -4017 4039 0
26 -4039 0
4017 -4039 0
-3785 -4039 -4040 0
3785 4039 -4040 0
3785 -4039 4040 0
-3785 4039 4040 0
-4040 -4038 -4041 0
4040 4038 -4041 0
4040 -4038 4041 0
-4040 4038 4041 0
-4040 -4038 4042 0
4040 -4042 0
4038 -4042 0
-3785 -4039 4043 0
3785 -4043 0
4039 -4043 0
4042 4043 -4044 0
-4042 4044 0
-4043 4044 0
-34 -4017 4045 0
34 -4045 0
4017 -4045 0
-3791 -4045 -4046 0
3791 4045 -4046 0
3791 -4045 4046 0
-3791 4045 4046 0
-4046 -4044 -4047 0
4046 4044 -4047 0
4046 -4044 4047 0
-4046 4044 4047 0
-4046 -4044 4048 0
4046 -4048 0
4044 -4048 0
-3791 -4045 4049 0
3791 -4049 0
4045 -4049 0
4048 4049 -4050 0
-4048 4050 0
-4049 4050 0
-42 -4017 4051 0
42 -4051 0
4017 -4051 0
-3797 -4051 -4052 0
3797 4051 -4052 0
3797 -4051 4052 0
-3797 4051 4052 0
-4052 -4050 -4053 0
4052 4050 -4053 0
4052 -4050 4053 0
-4052 4050 4053 0
-4052 -4050 4054 0
4052 -4054 0
4050 -4054 0
-3797 -4051 4055 0
3797 -4055 0
4051 -4055 0
4054 4055 -4056 0
-4054 4056 0
-4055 4056 0
-50 -4017 4057 0
50 -4057 0
4017 -4057 0
-3803 -4057 -4058 0
3803 4057 -4058 0
3803 -4057 4058 0
-3803 4057 4058 0
-4058 -4056 -4059 0
4058 4056 -4059 0
4058 -4056 4059 0
-4058 4056 4059 0
-4058 -4056 4060 0
4058 -4060 0
4056 -4060 0
-3803 -4057 4061 0
3803 -4061 0
4057 -4061 0
4060 4061 -4062 0
-4060 4062 0
-4061 4062 0
-58 -4017 4063 0
58 -4063 0
4017 -4063 0
-3809 -4063 -4064 0
3809 4063 -4064 0
3809 -4063 4064 0
-3809 4063 4064 0
-4064 -4062 -4065 0
4064 4062 -4065 0
4064 -4062 4065 0
-4064 4062 4065 0
-4064 -4062 4066 0
4064 -4066 0
4062 -4066 0
-3809 -4063 4067 0
3809 -4067 0
4063 -4067 0
4066 4067 -4068 0
-4066 4068 0
-4067 4068 0
-66 -4017 4069 0
66 -4069 0
4017 -4069 0
-3815 -4069 -4070 0
3815 4069 -4070 0
3815 -4069 4070 0
-3815 4069 4070 0
-4070 -4068 -4071 0
4070 4068 -4071 0
4070 -4068 4071 0
-4070 4068 4071 0
-4070 -4068 4072 0
4070 -4072 0
4068 -4072 0
-3815 -4069 4073 0
3815 -4073 0
4069 -4073 0
4072 4073 -4074 0
-4072 4074 0
-4073 4074 0
-74 -4017 4075 0
74 -4075 0
4017 -4075 0
-3821 -4075 -4076 0
3821 4075 -4076 0
3821 -4075 4076 0
-3821 4075 4076 0
-4076 -4074 -4077 0
4076 4074 -4077 0
4076 -4074 4077 0
-4076 4074 4077 0
-4076 -4074 4078 0
4076 -4078 0
4074 -4078 0
-3821 -4075 4079 0
3821 -4079 0
4075 -4079 0
4078 4079 -4080 0
-4078 4080 0
-4079 4080 0
-82 -4017 4081 0
82 -4081 0
4017 -4081 0
-3827 -4081 -4082 0
3827 4081 -4082 0
3827 -4081 4082 0
-3827 4081 4082 0
-4082 -4080 -4083 0
4082 4080 -4083 0
4082 -4080 4083 0
-4082 4080 4083 0
-4082 -4080 4084 0
4082 -4084 0
4080 -4084 0
-3827 -4081 4085 0
3827 -4085 0
4081 -4085 0
4084 4085 -4086 0
-4084 4086 0
-4085 4086 0
-90 -4017 4087 0
90 -4087 0
4017 -4087 0
-3833 -4087 -4088 0
3833 4087 -4088 0
3833 -4087 4088 0
-3833 4087 4088 0
-4088 -4086 -4089 0
4088 4086 -4089 0
4088 -4086 4089 0
-4088 4086 4089 0
-4088 -4086 4090 0
4088 -4090 0
4086 -4090 0
-3833 -4087 4091 0
3833 -4091 0
4087 -4091 0
4090 4091 -4092 0
-4090 4092 0
-4091 4092 0
-98 -4017 4093 0
98 -4093 0
4017 -4093 0
-3839 -4093 -4094 0
3839 4093 -4094 0
3839 -4093 4094 0
-3839 4093 4094 0
-4094 -4092 -4095 0
4094 4092 -4095 0
4094 -4092 4095 0
-4094 4092 4095 0
-4094 -4092 4096 0
4094 -4096 0
4092 -4096 0
-3839 -4093 4097 0
3839 -4097 0
4093 -4097 0
4096 4097 -4098 0
-4096 4098 0
-4097 4098 0
-106 -4017 4099 0
106 -4099 0
4017 -4099 0
-3845 -4099 -4100 0
3845 4099 -4100 0
3845 -4099 4100 0
-3845 4099 4100 0
-4100 -4098 -4101 0
4100 4098 -4101 0
4100 -4098 4101 0
-4100 4098 4101 0
-4100 -4098 4102 0
4100 -4102 0
4098 -4102 0
-3845 -4099 4103 0
3845 -4103 0
4099 -4103 0
4102 4103 -4104 0
-4102 4104 0
-4103 4104 0
-114 -4017 4105 0
114 -4105 0
4017 -4105 0
-3851 -4105 -4106 0
3851 4105 -4106 0
3851 -4105 4106 0
-3851 4105 4106 0
-4106 -4104 -4107 0
4106 4104 -4107 0
4106 -4104 4107 0
-4106 4104 4107 0
-4106 -4104 4108 0
4106 -4108 0
4104 -4108 0
-3851 -4105 4109 0
3851 -4109 0
4105 -4109 0
4108 4109 -4110 0
-4108 4110 0
-4109 4110 0
-122 -4017 4111 0
122 -4111 0
4017 -4111 0
-3857 -4111 -4112 0
3857 4111 -4112 0
3857 -4111 4112 0
-3857 4111 4112 0
-4112 -4110 -4113 0
4112 4110 -4113 0
4112 -4110 4113 0
-4112 4110 4113 0
-4112 -4110 4114 0
4112 -4114 0
4110 -4114 0
-3857 -4111 4115 0
3857 -4115 0
4111 -4115 0
4114 4115 -4116 0
-4114 4116 0
-4115 4116 0
-130 -4017 4117 0
130 -4117 0
4017 -4117 0
-3863 -4117 -4118 0
3863 4117 -4118 0
3863 -4117 4118 0
-3863 4117 4118 0
-4118 -4116 -4119 0
4118 4116 -4119 0
4118 -4116 4119 0
-4118 4116 4119 0
-4118 -4116 4120 0
4118 -4120 0
4116 -4120 0
-3863 -4117 4121 0
3863 -4121 0
4117 -4121 0
4120 4121 -4122 0
-4120 4122 0
-4121 4122 0
-138 -4017 4123 0
138 -4123 0
4017 -4123 0
-3869 -4123 -4124 0
3869 4123 -4124 0
3869 -4123 4124 0
-3869 4123 4124 0
-4124 -4122 -4125 0
4124 4122 -4125 0
4124 -4122 4125 0
-4124 4122 4125 0
-4124 -4122 4126 0
4124 -4126 0
4122 -4126 0
-3869 -4123 4127 0
3869 -4127 0
4123 -4127 0
4126 4127 -4128 0
-4126 4128 0
-4127 4128 0
-146 -4017 4129 0
146 -4129 0
4017 -4129 0
-3875 -4129 -4130 0
3875 4129 -4130 0
3875 -4129 4130 0
-3875 4129 4130 0
-4130 -4128 -4131 0
4130 4128 -4131 0
4130 -4128 4131 0
-4130 4128 4131 0
-4130 -4128 4132 0
4130 -4132 0
4128 -4132 0
-3875 -4129 4133 0
3875 -4133 0
4129 -4133 0
4132 4133 -4134 0
-4132 4134 0
-4133 4134 0
-154 -4017 4135 0
154 -4135 0
4017 -4135 0
-3881 -4135 -4136 0
3881 4135 -4136 0
3881 -4135 4136 0
-3881 4135 4136 0
-4136 -4134 -4137 0
4136 4134 -4137 0
4136 -4134 4137 0
-4136 4134 4137 0
-4136 -4134 4138 0
4136 -4138 0
4134 -4138 0
-3881 -4135 4139 0
3881 -4139 0
4135 -4139 0
4138 4139 -4140 0
-4138 4140 0
-4139 4140 0
-162 -4017 4141 0
162 -4141 0
4017 -4141 0
-3887 -4141 -4142 0
3887 4141 -4142 0
3887 -4141 4142 0
-3887 4141 4142 0
-4142 -4140 -4143 0
4142 4140 -4143 0
4142 -4140 4143 0
-4142 4140 4143 0
-4142 -4140 4144 0
4142 -4144 0
4140 -4144 0
-3887 -4141 4145 0
3887 -4145 0
4141 -4145 0
4144 4145 -4146 0
-4144 4146 0
-4145 4146 0
-170 -4017 4147 0
170 -4147 0
4017 -4147 0
-3893 -4147 -4148 0
3893 4147 -4148 0
3893 -4147 4148 0
-3893 4147 4148 0
-4148 -4146 -4149 0
4148 4146 -4149 0
4148 -4146 4149 0
-4148 4146 4149 0
-4148 -4146 4150 0
4148 -4150 0
4146 -4150 0
-3893 -4147 4151 0
3893 -4151 0
4147 -4151 0
4150 4151 -4152 0
-4150 4152 0
-4151 4152 0
-178 -4017 4153 0
178 -4153 0
4017 -4153 0
-3899 -4153 -4154 0
3899 4153 -4154 0
3899 -4153 4154 0
-3899 4153 4154 0
-4154 -4152 -4155 0
4154 4152 -4155 0
4154 -4152 4155 0
-4154 4152 4155 0
-4154 -4152 4156 0
4154 -4156 0
4152 -4156 0
-3899 -4153 4157 0
3899 -4157 0
4153 -4157 0
4156 4157 -4158 0
-4156 4158 0
-4157 4158 0
-186 -4017 4159 0
186 -4159 0
4017 -4159 0
-3905 -4159 -4160 0
3905 4159 -4160 0
3905 -4159 4160 0
-3905 4159 4160 0
-4160 -4158 -4161 0
4160 4158 -4161 0
4160 -4158 4161 0
-4160 4158 4161 0
-4160 -4158 4162 0
4160 -4162 0
4158 -4162 0
-3905 -4159 4163 0
3905 -4163 0
4159 -4163 0
4162 4163 -4164 0
-4162 4164 0
-4163 4164 0
-194 -4017 4165 0
194 -4165 0
4017 -4165 0
-3911 -4165 -4166 0
3911 4165 -4166 0
3911 -4165 4166 0
-3911 4165 4166 0
-4166 -4164 -4167 0
4166 4164 -4167 0
4166 -4164 4167 0
-4166 4164 4167 0
-4166 -4164 4168 0
4166 -4168 0
4164 -4168 0
-3911 -4165 4169 0
3911 -4169 0
4165 -4169 0
4168 4169 -4170 0
-4168 4170 0
-4169 4170 0
-202 -4017 4171 0
202 -4171 0
4017 -4171 0
-3917 -4171 -4172 0
3917 4171 -4172 0
3917 -4171 4172 0
-3917 4171 4172 0
-4172 -4170 -4173 0
4172 4170 -4173 0
4172 -4170 4173 0
-4172 4170 4173 0
-4172 -4170 4174 0
4172 -4174 0
4170 -4174 0
-3917 -4171 4175 0
3917 -4175 0
4171 -4175 0
4174 4175 -4176 0
-4174 4176 0
-4175 4176 0
-210 -4017 4177 0
210 -4177 0
4017 -4177 0
-3923 -4177 -4178 0
3923 4177 -4178 0
3923 -4177 4178 0
-3923 4177 4178 0
-4178 -4176 -4179 0
4178 4176 -4179 0
4178 -4176 4179 0
-4178 4176 4179 0
-4178 -4176 4180 0
4178 -4180 0
4176 -4180 0
-3923 -4177 4181 0
3923 -4181 0
4177 -4181 0
4180 4181 -4182 0
-4180 4182 0
-4181 4182 0
-218 -4017 4183 0
218 -4183 0
4017 -4183 0
-3929 -4183 -4184 0
3929 4183 -4184 0
3929 -4183 4184 0
-3929 4183 4184 0
-4184 -4182 -4185 0
4184 4182 -4185 0
4184 -4182 4185 0
-4184 4182 4185 0
-4184 -4182 4186 0
4184 -4186 0
4182 -4186 0
-3929 -4183 4187 0
3929 -4187 0
4183 -4187 0
4186 4187 -4188 0
-4186 4188 0
-4187 4188 0
-226 -4017 4189 0
226 -4189 0
4017 -4189 0
-3935 -4189 -4190 0
3935 4189 -4190 0
3935 -4189 4190 0
-3935 4189 4190 0
-4190 -4188 -4191 0
4190 4188 -4191 0
4190 -4188 4191 0
-4190 4188 4191 0
-4190 -4188 4192 0
4190 -4192 0
4188 -4192 0
-3935 -4189 4193 0
3935 -4193 0
4189 -4193 0
4192 4193 -4194 0
-4192 4194 0
-4193 4194 0
-234 -4017 4195 0
234 -4195 0
4017 -4195 0
-3941 -4195 -4196 0
3941 4195 -4196 0
3941 -4195 4196 0
-3941 4195 4196 0
-4196 -4194 -4197 0
4196 4194 -4197 0
4196 -4194 4197 0
-4196 4194 4197 0
-4196 -4194 4198 0
4196 -4198 0
4194 -4198 0
-3941 -4195 4199 0
3941 -4199 0
4195 -4199 0
4198 4199 -4200 0
-4198 4200 0
-4199 4200 0
-242 -4017 4201 0
242 -4201 0
4017 -4201 0
-3947 -4201 -4202 0
3947 4201 -4202 0
3947 -4201 4202 0
-3947 4201 4202 0
-4202 -4200 -4203 0
4202 4200 -4203 0
4202 -4200 4203 0
-4202 4200 4203 0
-4202 -4200 4204 0
4202 -4204 0
4200 -4204 0
-3947 -4201 4205 0
3947 -4205 0
4201 -4205 0
4204 4205 -4206 0
-4204 4206 0
-4205 4206 0
-250 -4017 4207 0
250 -4207 0
4017 -4207 0
-3953 -4207 -4208 0
3953 4207 -4208 0
3953 -4207 4208 0
-3953 4207 4208 0
-4208 -4206 -4209 0
4208 4206 -4209 0
4208 -4206 4209 0
-4208 4206 4209 0
-4208 -4206 4210 0
4208 -4210 0
4206 -4210 0
-3953 -4207 4211 0
3953 -4211 0
4207 -4211 0
4210 4211 -4212 0
-4210 4212 0
-4211 4212 0
-258 -4017 4213 0
258 -4213 0
4017 -4213 0
-3959 -4213 -4214 0
3959 4213 -4214 0
3959 -4213 4214 0
-3959 4213 4214 0
-4214 -4212 -4215 0
4214 4212 -4215 0
4214 -4212 4215 0
-4214 4212 4215 0
-4214 -4212 4216 0
4214 -4216 0
4212 -4216 0
-3959 -4213 4217 0
3959 -4217 0
4213 -4217 0
4216 4217 -4218 0
-4216 4218 0
-4217 4218 0
-266 -4017 4219 0
266 -4219 0
4017 -4219 0
-3965 -4219 -4220 0
3965 4219 -4220 0
3965 -4219 4220 0
-3965 4219 4220 0
-4220 -4218 -4221 0
4220 4218 -4221 0
4220 -4218 4221 0
-4220 4218 4221 0
-4220 -4218 4222 0
4220 -4222 0
4218 -4222 0
-3965 -4219 4223 0
3965 -4223 0
4219 -4223 0
4222 4223 -4224 0
-4222 4224 0
-4223 4224 0
-274 -4017 4225 0
274 -4225 0
4017 -4225 0
-3971 -4225 -4226 0
3971 4225 -4226 0
3971 -4225 4226 0
-3971 4225 4226 0
-4226 -4224 -4227 0
4226 4224 -4227 0
4226 -4224 4227 0
-4226 4224 4227 0
-4226 -4224 4228 0
4226 -4228 0
4224 -4228 0
-3971 -4225 4229 0
3971 -4229 0
4225 -4229 0
4228 4229 -4230 0
-4228 4230 0
-4229 4230 0
-282 -4017 4231 0
282 -4231 0
4017 -4231 0
-3977 -4231 -4232 0
3977 4231 -4232 0
3977 -4231 4232 0
-3977 4231 4232 0
-4232 -4230 -4233 0
4232 4230 -4233 0
4232 -4230 4233 0
-4232 4230 4233 0
-4232 -4230 4234 0
4232 -4234 0
4230 -4234 0
-3977 -4231 4235 0
3977 -4235 0
4231 -4235 0
4234 4235 -4236 0
-4234 4236 0
-4235 4236 0
-290 -4017 4237 0
290 -4237 0
4017 -4237 0
-3983 -4237 -4238 0
3983 4237 -4238 0
3983 -4237 4238 0
-3983 4237 4238 0
-4238 -4236 -4239 0
4238 4236 -4239 0
4238 -4236 4239 0
-4238 4236 4239 0
-4238 -4236 4240 0
4238 -4240 0
4236 -4240 0
-3983 -4237 4241 0
3983 -4241 0
4237 -4241 0
4240 4241 -4242 0
-4240 4242 0
-4241 4242 0
-298 -4017 4243 0
298 -4243 0
4017 -4243 0
-3989 -4243 -4244 0
3989 4243 -4244 0
3989 -4243 4244 0
-3989 4243 4244 0
-4244 -4242 -4245 0
4244 4242 -4245 0
4244 -4242 4245 0
-4244 4242 4245 0
-4244 -4242 4246 0
4244 -4246 0
4242 -4246 0
-3989 -4243 4247 0
3989 -4247 0
4243 -4247 0
4246 4247 -4248 0
-4246 4248 0
-4247 4248 0
-306 -4017 4249 0
306 -4249 0
4017 -4249 0
-3995 -4249 -4250 0
3995 4249 -4250 0
3995 -4249 4250 0
-3995 4249 4250 0
-4250 -4248 -4251 0
4250 4248 -4251 0
4250 -4248 4251 0
-4250 4248 4251 0
-4250 -4248 4252 0
4250 -4252 0
4248 -4252 0
-3995 -4249 4253 0
3995 -4253 0
4249 -4253 0
4252 4253 -4254 0
-4252 4254 0
-4253 4254 0
-314 -4017 4255 0
314 -4255 0
4017 -4255 0
-4001 -4255 -4256 0
4001 4255 -4256 0
4001 -4255 4256 0
-4001 4255 4256 0
-4256 -4254 -4257 0
4256 4254 -4257 0
4256 -4254 4257 0
-4256 4254 4257 0
-4256 -4254 4258 0
4256 -4258 0
4254 -4258 0
-4001 -4255 4259 0
4001 -4259 0
4255 -4259 0
4258 4259 -4260 0
-4258 4260 0
-4259 4260 0
-322 -4017 4261 0
322 -4261 0
4017 -4261 0
-4007 -4261 -4262 0
4007 4261 -4262 0
4007 -4261 4262 0
-4007 4261 4262 0
-4262 -4260 -4263 0
4262 4260 -4263 0
4262 -4260 4263 0
-4262 4260 4263 0
-4262 -4260 4264 0
4262 -4264 0
4260 -4264 0
-4007 -4261 4265 0
4007 -4265 0
4261 -4265 0
4264 4265 -4266 0
-4264 4266 0
-4265 4266 0
-330 -4017 4267 0
330 -4267 0
4017 -4267 0
-4013 -4267 -4268 0
4013 4267 -4268 0
4013 -4267 4268 0
-4013 4267 4268 0
-4268 -4266 -4269 0
4268 4266 -4269 0
4268 -4266 4269 0
-4268 4266 4269 0
-4268 -4266 4270 0
4268 -4270 0
4266 -4270 0
-4013 -4267 4271 0
4013 -4271 0
4267 -4271 0
4270 4271 -4272 0
-4270 4272 0
-4271 4272 0
-338 -4017 4273 0
338 -4273 0
4017 -4273 0
-4016 -4273 -4274 0
4016 4273 -4274 0
4016 -4273 4274 0
-4016 4273 4274 0
-4274 -4272 -4275 0
4274 4272 -4275 0
4274 -4272 4275 0
-4274 4272 4275 0
-4274 -4272 4276 0
4274 -4276 0
4272 -4276 0
-4016 -4273 4277 0
4016 -4277 0
4273 -4277 0
4276 4277 -4278 0
-4276 4278 0
-4277 4278 0
-1 -4279 4280 0
1 -4280 0
4279 -4280 0
-4023 -4280 -4281 0
4023 4280 -4281 0
4023 -4280 4281 0
-4023 4280 4281 0
-4023 -4280 4282 0
4023 -4282 0
4280 -4282 0
-4 -4279 4283 0
4 -4283 0
4279 -4283 0
-4029 -4283 -4284 0
4029 4283 -4284 0
4029 -4283 4284 0
-4029 4283 4284 0
-4284 -4282 -4285 0
4284 4282 -4285 0
4284 -4282 4285 0
-4284 4282 4285 0
-4284 -4282 4286 0
4284 -4286 0
4282 -4286 0
-4029 -4283 4287 0
4029 -4287 0
4283 -4287 0
4286 4287 -4288 0
-4286 4288 0
-4287 4288 0
-10 -4279 4289 0
10 -4289 0
4279 -4289 0
-4035 -4289 -4290 0
4035 4289 -4290 0
4035 -4289 4290 0
-4035 4289 4290 0
-4290 -4288 -4291 0
4290 4288 -4291 0
4290 -4288 4291 0
-4290 4288 4291 0
-4290 -4288 4292 0
4290 -4292 0
4288 -4292 0
-4035 -4289 4293 0
4035 -4293 0
4289 -4293 0
4292 4293 -4294 0
-4292 4294 0
-4293 4294 0
-18 -4279 4295 0
18 -4295 0
4279 -4295 0
-4041 -4295 -4296 0
4041 4295 -4296 0
4041 -4295 4296 0
-4041 4295 4296 0
-4296 -4294 -4297 0
4296 4294 -4297 0
4296 -4294 4297 0
-4296 4294 4297 0
-4296 -4294 4298 0
4296 -4298 0
4294 -4298 0
-4041 -4295 4299 0
4041 -4299 0
4295 -4299 0
4298 4299 -4300 0
-4298 4300 0
-4299 4300 0
-26 -4279 4301 0
26 -4301 0
4279 -4301 0
-4047 -4301 -4302 0
4047 4301 -4302 0
4047 -4301 4302 0
-4047 4301 4302 0
-4302 -4300 -4303 0
4302 4300 -4303 0
4302 -4300 4303 0
-4302 4300 4303 0
-4302 -4300 4304 0
4302 -4304 0
4300 -4304 0
-4047 -4301 4305 0
4047 -4305 0
4301 -4305 0
4304 4305 -4306 0
-4304 4306 0
-4305 4306 0
-34 -4279 4307 0
34 -4307 0
4279 -4307 0
-4053 -4307 -4308 0
4053 4307 -4308 0
4053 -4307 4308 0
-4053 4307 4308 0
-4308 -4306 -4309 0
4308 4306 -4309 0
4308 -4306 4309 0
-4308 4306 4309 0
-4308 -4306 4310 0
4308 -4310 0
4306 -4310 0
-4053 -4307 4311 0
4053 -4311 0
4307 -4311 0
4310 4311 -4312 0
-4310 4312 0
-4311 4312 0
-42 -4279 4313 0
42 -4313 0
4279 -4313 0
-4059 -4313 -4314 0
4059 4313 -4314 0
4059 -4313 4314 0
-4059 4313 4314 0
-4314 -4312 -4315 0
4314 4312 -4315 0
4314 -4312 4315 0
-4314 4312 4315 0
-4314 -4312 4316 0
4314 -4316 0
4312 -4316 0
-4059 -4313 4317 0
4059 -4317 0
4313 -4317 0
4316 4317 -4318 0
-4316 4318 0
-4317 4318 0
-50 -4279 4319 0
50 -4319 0
4279 -4319 0
-4065 -4319 -4320 0
4065 4319 -4320 0
4065 -4319 4320 0
-4065 4319 4320 0
-4320 -4318 -4321 0
4320 4318 -4321 0
4320 -4318 4321 0
-4320 4318 4321 0
-4320 -4318 4322 0
4320 -4322 0
4318 -4322 0
-4065 -4319 4323 0
4065 -4323 0
4319 -4323 0
4322 4323 -4324 0
-4322 4324 0
-4323 4324 0
-58 -4279 4325 0
58 -4325 0
4279 -4325 0
-4071 -4325 -4326 0
4071 4325 -4326 0
4071 -4325 4326 0
-4071 4325 4326 0
-4326 -4324 -4327 0
4326 4324 -4327 0
4326 -4324 4327 0
-4326 4324 4327 0
-4326 -4324 4328 0
4326 -4328 0
4324 -4328 0
-4071 -4325 4329 0
4071 -4329 0
4325 -4329 0
4328 4329 -4330 0
-4328 4330 0
-4329 4330 0
-66 -4279 4331 0
66 -4331 0
4279 -4331 0
-4077 -4331 -4332 0
4077 4331 -4332 0
4077 -4331 4332 0
-4077 4331 4332 0
-4332 -4330 -4333 0
4332 4330 -4333 0
4332 -4330 4333 0
-4332 4330 4333 0
-4332 -4330 4334 0
4332 -4334 0
4330 -4334 0
-4077 -4331 4335 0
4077 -4335 0
4331 -4335 0
4334 4335 -4336 0
-4334 4336 0
-4335 4336 0
-74 -4279 4337 0
74 -4337 0
4279 -4337 0
-4083 -4337 -4338 0
4083 4337 -4338 0
4083 -4337 4338 0
-4083 4337 4338 0
-4338 -4336 -4339 0
4338 4336 -4339 0
4338 -4336 4339 0
-4338 4336 4339 0
-4338 -4336 4340 0
4338 -4340 0
4336 -4340 0
-4083 -4337 4341 0
4083 -4341 0
4337 -4341 0
4340 4341 -4342 0
-4340 4342 0
-4341 4342 0
-82 -4279 4343 0
82 -4343 0
4279 -4343 0
-4089 -4343 -4344 0
4089 4343 -4344 0
4089 -4343 4344 0
-4089 4343 4344 0
-4344 -4342 -4345 0
4344 4342 -4345 0
4344 -4342 4345 0
-4344 4342 4345 0
-4344 -4342 4346 0
4344 -4346 0
4342 -4346 0
-4089 -4343 4347 0
4089 -4347 0
4343 -4347 0
4346 4347 -4348 0
-4346 4348 0
-4347 4348 0
-90 -4279 4349 0
90 -4349 0
4279 -4349 0
-4095 -4349 -4350 0
4095 4349 -4350 0
4095 -4349 4350 0
-4095 4349 4350 0
-4350 -4348 -4351 0
4350 4348 -4351 0
4350 -4348 4351 0
-4350 4348 4351 0
-4350 -4348 4352 0
4350 -4352 0
4348 -4352 0
-4095 -4349 4353 0
4095 -4353 0
4349 -4353 0
4352 4353 -4354 0
-4352 4354 0
-4353 4354 0
-98 -4279 4355 0
98 -4355 0
4279 -4355 0
-4101 -4355 -4356 0
4101 4355 -4356 0
4101 -4355 4356 0
-4101 4355 4356 0
-4356 -4354 -4357 0
4356 4354 -4357 0
4356 -4354 4357 0
-4356 4354 4357 0
-4356 -4354 4358 0
4356 -4358 0
4354 -4358 0
-4101 -4355 4359 0
4101 -4359 0
4355 -4359 0
4358 4359 -4360 0
-4358 4360 0
-4359 4360 0
-106 -4279 4361 0
106 -4361 0
4279 -4361 0
-4107 -4361 -4362 0
4107 4361 -4362 0
4107 -4361 4362 0
-4107 4361 4362 0
-4362 -4360 -4363 0
4362 4360 -4363 0
4362 -4360 4363 0
-4362 4360 4363 0
-4362 -4360 4364 0
4362 -4364 0
4360 -4364 0
-4107 -4361 4365 0
4107 -4365 0
4361 -4365 0
4364 4365 -4366 0
-4364 4366 0
-4365 4366 0
-114 -4279 4367 0
114 -4367 0
4279 -4367 0
-4113 -4367 -4368 0
4113 4367 -4368 0
4113 -4367 4368 0
-4113 4367 4368 0
-4368 -4366 -4369 0
4368 4366 -4369 0
4368 -4366 4369 0
-4368 4366 4369 0
-4368 -4366 4370 0
4368 -4370 0
4366 -4370 0
-4113 -4367 4371 0
4113 -4371 0
4367 -4371 0
4370 4371 -4372 0
-4370 4372 0
-4371 4372 0
-122 -4279 4373 0
122 -4373 0
4279 -4373 0
-4119 -4373 -4374 0
4119 4373 -4374 0
4119 -4373 4374 0
-4119 4373 4374 0
-4374 -4372 -4375 0
4374 4372 -4375 0
4374 -4372 4375 0
-4374 4372 4375 0
-4374 -4372 4376 0
4374 -4376 0
4372 -4376 0
-4119 -4373 4377 0
4119 -4377 0
4373 -4377 0
4376 4377 -4378 0
-4376 4378 0
-4377 4378 0
-130 -4279 4379 0
130 -4379 0
4279 -4379 0
-4125 -4379 -4380 0
4125 4379 -4380 0
4125 -4379 4380 0
-4125 4379 4380 0
-4380 -4378 -4381 0
4380 4378 -4381 0
4380 -4378 4381 0
-4380 4378 4381 0
-4380 -4378 4382 0
4380 -4382 0
4378 -4382 0
-4125 -4379 4383 0
4125 -4383 0
4379 -4383 0
4382 4383 -4384 0
-4382 4384 0
-4383 4384 0
-138 -4279 4385 0
138 -4385 0
4279 -4385 0
-4131 -4385 -4386 0
4131 4385 -4386 0
4131 -4385 4386 0
-4131 4385 4386 0
-4386 -4384 -4387 0
4386 4384 -4387 0
4386 -4384 4387 0
-4386 4384 4387 0
-4386 -4384 4388 0
4386 -4388 0
4384 -4388 0
-4131 -4385 4389 0
4131 -4389 0
4385 -4389 0
4388 4389 -4390 0
-4388 4390 0
-4389 4390 0
-146 -4279 4391 0
146 -4391 0
4279 -4391 0
-4137 -4391 -4392 0
4137 4391 -4392 0
4137 -4391 4392 0
-4137 4391 4392 0
-4392 -4390 -4393 0
4392 4390 -4393 0
4392 -4390 4393 0
-4392 4390 4393 0
-4392 -4390 4394 0
4392 -4394 0
4390 -4394 0
-4137 -4391 4395 0
4137 -4395 0
4391 -4395 0
4394 4395 -4396 0
-4394 4396 0
-4395 4396 0
-154 -4279 4397 0
154 -4397 0
4279 -4397 0
-4143 -4397 -4398 0
4143 4397 -4398 0
4143 -4397 4398 0
-4143 4397 4398 0
-4398 -4396 -4399 0
4398 4396 -4399 0
4398 -4396 4399 0
-4398 4396 4399 0
-4398 -4396 4400 0
4398 -4400 0
4396 -4400 0
-4143 -4397 4401 0
4143 -4401 0
4397 -4401 0
4400 4401 -4402 0
-4400 4402 0
-4401 4402 0
-162 -4279 4403 0
162 -4403 0
4279 -4403 0
-4149 -4403 -4404 0
4149 4403 -4404 0
4149 -4403 4404 0
-4149 4403 4404 0
-4404 -4402 -4405 0
4404 4402 -4405 0
4404 -4402 4405 0
-4404 4402 4405 0
-4404 -4402 4406 0
4404 -4406 0
4402 -4406 0
-4149 -4403 4407 0
4149 -4407 0
4403 -4407 0
4406 4407 -4408 0
-4406 4408 0
-4407 4408 0
-170 -4279 4409 0
170 -4409 0
4279 -4409 0
-4155 -4409 -4410 0
4155 4409 -4410 0
4155 -4409 4410 0
-4155 4409 4410 0
-4410 -4408 -4411 0
4410 4408 -4411 0
4410 -4408 4411 0
-4410 4408 4411 0
-4410 -4408 4412 0
4410 -4412 0
4408 -4412 0
-4155 -4409 4413 0
4155 -4413 0
4409 -4413 0
4412 4413 -4414 0
-4412 4414 0
-4413 4414 0
-178 -4279 4415 0
178 -4415 0
4279 -4415 0
-4161 -4415 -4416 0
4161 4415 -4416 0
4161 -4415 4416 0
-4161 4415 4416 0
-4416 -4414 -4417 0
4416 4414 -4417 0
4416 -4414 4417 0
-4416 4414 4417 0
-4416 -4414 4418 0
4416 -4418 0
4414 -4418 0
-4161 -4415 4419 0
4161 -4419 0
4415 -4419 0
4418 4419 -4420 0
-4418 4420 0
-4419 4420 0
-186 -4279 4421 0
186 -4421 0
4279 -4421 0
-4167 -4421 -4422 0
4167 4421 -4422 0
4167 -4421 4422 0
-4167 4421 4422 0
-4422 -4420 -4423 0
4422 4420 -4423 0
4422 -4420 4423 0
-4422 4420 4423 0
-4422 -4420 4424 0
4422 -4424 0
4420 -4424 0
-4167 -4421 4425 0
4167 -4425 0
4421 -4425 0
4424 4425 -4426 0
-4424 4426 0
-4425 4426 0
-194 -4279 4427 0
194 -4427 0
4279 -4427 0
-4173 -4427 -4428 0
4173 4427 -4428 0
4173 -4427 4428 0
-4173 4427 4428 0
-4428 -4426 -4429 0
4428 4426 -4429 0
4428 -4426 4429 0
-4428 4426 4429 0
-4428 -4426 4430 0
4428 -4430 0
4426 -4430 0
-4173 -4427 4431 0
4173 -4431 0
4427 -4431 0
4430 4431 -4432 0
-4430 4432 0
-4431 4432 0
-202 -4279 4433 0
202 -4433 0
4279 -4433 0
-4179 -4433 -4434 0
4179 4433 -4434 0
4179 -4433 4434 0
-4179 4433 4434 0
-4434 -4432 -4435 0
4434 4432 -4435 0
4434 -4432 4435 0
-4434 4432 4435 0
-4434 -4432 4436 0
4434 -4436 0
4432 -4436 0
-4179 -4433 4437 0
4179 -4437 0
4433 -4437 0
4436 4437 -4438 0
-4436 4438 0
-4437 4438 0
-210 -4279 4439 0
210 -4439 0
4279 -4439 0
-4185 -4439 -4440 0
4185 4439 -4440 0
4185 -4439 4440 0
-4185 4439 4440 0
-4440 -4438 -4441 0
4440 4438 -4441 0
4440 -4438 4441 0
-4440 4438 4441 0
-4440 -4438 4442 0
4440 -4442 0
4438 -4442 0
-4185 -4439 4443 0
4185 -4443 0
4439 -4443 0
4442 4443 -4444 0
-4442 4444 0
-4443 4444 0
-218 -4279 4445 0
218 -4445 0
4279 -4445 0
-4191 -4445 -4446 0
4191 4445 -4446 0
4191 -4445 4446 0
-4191 4445 4446 0
-4446 -4444 -4447 0
4446 4444 -4447 0
4446 -4444 4447 0
-4446 4444 4447 0
-4446 -4444 4448 0
4446 -4448 0
4444 -4448 0
-4191 -4445 4449 0
4191 -4449 0
4445 -4449 0
4448 4449 -4450 0
-4448 4450 0
-4449 4450 0
-226 -4279 4451 0
226 -4451 0
4279 -4451 0
-4197 -4451 -4452 0
4197 4451 -4452 0
4197 -4451 4452 0
-4197 4451 4452 0
-4452 -4450 -4453 0
4452 4450 -4453 0
4452 -4450 4453 0
-4452 4450 4453 0
-4452 -4450 4454 0
4452 -4454 0
4450 -4454 0
-4197 -4451 4455 0
4197 -4455 0
4451 -4455 0
4454 4455 -4456 0
-4454 4456 0
-4455 4456 0
-234 -4279 4457 0
234 -4457 0
4279 -4457 0
-4203 -4457 -4458 0
4203 4457 -4458 0
4203 -4457 4458 0
-4203 4457 4458 0
-4458 -4456 -4459 0
4458 4456 -4459 0
4458 -4456 4459 0
-4458 4456 4459 0
-4458 -4456 4460 0
4458 -4460 0
4456 -4460 0
-4203 -4457 4461 0
4203 -4461 0
4457 -4461 0
4460 4461 -4462 0
-4460 4462 0
-4461 4462 0
-242 -4279 4463 0
242 -4463 0
4279 -4463 0
-4209 -4463 -4464 0
4209 4463 -4464 0
4209 -4463 4464 0
-4209 4463 4464 0
-4464 -4462 -4465 0
4464 4462 -4465 0
4464 -4462 4465 0
-4464 4462 4465 0
-4464 -4462 4466 0
4464 -4466 0
4462 -4466 0
-4209 -4463 4467 0
4209 -4467 0
4463 -4467 0
4466 4467 -4468 0
-4466 4468 0
-4467 4468 0
-250 -4279 4469 0
250 -4469 0
4279 -4469 0
-4215 -4469 -4470 0
4215 4469 -4470 0
4215 -4469 4470 0
-4215 4469 4470 0
-4470 -4468 -4471 0
4470 4468 -4471 0
4470 -4468 4471 0
-4470 4468 4471 0
-4470 -4468 4472 0
4470 -4472 0
4468 -4472 0
-4215 -4469 4473 0
4215 -4473 0
4469 -4473 0
4472 4473 -4474 0
-4472 4474 0
-4473 4474 0
-258 -4279 4475 0
258 -4475 0
4279 -4475 0
-4221 -4475 -4476 0
4221 4475 -4476 0
4221 -4475 4476 0
-4221 4475 4476 0
-4476 -4474 -4477 0
4476 4474 -4477 0
4476 -4474 4477 0
-4476 4474 4477 0
-4476 -4474 4478 0
4476 -4478 0
4474 -4478 0
-4221 -4475 4479 0
4221 -4479 0
4475 -4479 0
4478 4479 -4480 0
-4478 4480 0
-4479 4480 0
-266 -4279 4481 0
266 -4481 0
4279 -4481 0
-4227 -4481 -4482 0
4227 4481 -4482 0
4227 -4481 4482 0
-4227 4481 4482 0
-4482 -4480 -4483 0
4482 4480 -4483 0
4482 -4480 4483 0
-4482 4480 4483 0
-4482 -4480 4484 0
4482 -4484 0
4480 -4484 0
-4227 -4481 4485 0
4227 -4485 0
4481 -4485 0
4484 4485 -4486 0
-4484 4486 0
-4485 4486 0
-274 -4279 4487 0
274 -4487 0
4279 -4487 0
-4233 -4487 -4488 0
4233 4487 -4488 0
4233 -4487 4488 0
-4233 4487 4488 0
-4488 -4486 -4489 0
4488 4486 -4489 0
4488 -4486 4489 0
-4488 4486 4489 0
-4488 -4486 4490 0
4488 -4490 0
4486 -4490 0
-4233 -4487 4491 0
4233 -4491 0
4487 -4491 0
4490 4491 -4492 0
-4490 4492 0
-4491 4492 0
-282 -4279 4493 0
282 -4493 0
4279 -4493 0
-4239 -4493 -4494 0
4239 4493 -4494 0
4239 -4493 4494 0
-4239 4493 4494 0
-4494 -4492 -4495 0
4494 4492 -4495 0
4494 -4492 4495 0
-4494 4492 4495 0
-4494 -4492 4496 0
4494 -4496 0
4492 -4496 0
-4239 -4493 4497 0
4239 -4497 0
4493 -4497 0
4496 4497 -4498 0
-4496 4498 0
-4497 4498 0
-290 -4279 4499 0
290 -4499 0
4279 -4499 0
-4245 -4499 -4500 0
4245 4499 -4500 0
4245 -4499 4500 0
-4245 4499 4500 0
-4500 -4498 -4501 0
4500 4498 -4501 0
4500 -4498 4501 0
-4500 4498 4501 0
-4500 -4498 4502 0
4500 -4502 0
4498 -4502 0
-4245 -4499 4503 0
4245 -4503 0
4499 -4503 0
4502 4503 -4504 0
-4502 4504 0
-4503 4504 0
-298 -4279 4505 0
298 -4505 0
4279 -4505 0
-4251 -4505 -4506 0
4251 4505 -4506 0
4251 -4505 4506 0
-4251 4505 4506 0
-4506 -4504 -4507 0
4506 4504 -4507 0
4506 -4504 4507 0
-4506 4504 4507 0
-4506 -4504 4508 0
4506 -4508 0
4504 -4508 0
-4251 -4505 4509 0
4251 -4509 0
4505 -4509 0
4508 4509 -4510 0
-4508 4510 0
-4509 4510 0
-306 -4279 4511 0
306 -4511 0
4279 -4511 0
-4257 -4511 -4512 0
4257 4511 -4512 0
4257 -4511 4512 0
-4257 4511 4512 0
-4512 -4510 -4513 0
4512 4510 -4513 0
4512 -4510 4513 0
-4512 4510 4513 0
-4512 -4510 4514 0
4512 -4514 0
4510 -4514 0
-4257 -4511 4515 0
4257 -4515 0
4511 -4515 0
4514 4515 -4516 0
-4514 4516 0
-4515 4516 0
-314 -4279 4517 0
314 -4517 0
4279 -4517 0
-4263 -4517 -4518 0
4263 4517 -4518 0
4263 -4517 4518 0
-4263 4517 4518 0
-4518 -4516 -4519 0
4518 4516 -4519 0
4518 -4516 4519 0
-4518 4516 4519 0
-4518 -4516 4520 0
4518 -4520 0
4516 -4520 0
-4263 -4517 4521 0
4263 -4521 0
4517 -4521 0
4520 4521 -4522 0
-4520 4522 0
-4521 4522 0
-322 -4279 4523 0
322 -4523 0
4279 -4523 0
-4269 -4523 -4524 0
4269 4523 -4524 0
4269 -4523 4524 0
-4269 4523 4524 0
-4524 -4522 -4525 0
4524 4522 -4525 0
4524 -4522 4525 0
-4524 4522 4525 0
-4524 -4522 4526 0
4524 -4526 0
4522 -4526 0
-4269 -4523 4527 0
4269 -4527 0
4523 -4527 0
4526 4527 -4528 0
-4526 4528 0
-4527 4528 0
-330 -4279 4529 0
330 -4529 0
4279 -4529 0
-4275 -4529 -4530 0
4275 4529 -4530 0
4275 -4529 4530 0
-4275 4529 4530 0
-4530 -4528 -4531 0
4530 4528 -4531 0
4530 -4528 4531 0
-4530 4528 4531 0
-4530 -4528 4532 0
4530 -4532 0
4528 -4532 0
-4275 -4529 4533 0
4275 -4533 0
4529 -4533 0
4532 4533 -4534 0
-4532 4534 0
-4533 4534 0
-338 -4279 4535 0
338 -4535 0
4279 -4535 0
-4278 -4535 -4536 0
4278 4535 -4536 0
4278 -4535 4536 0
-4278 4535 4536 0
-4536 -4534 -4537 0
4536 4534 -4537 0
4536 -4534 4537 0
-4536 4534 4537 0
-4536 -4534 4538 0
4536 -4538 0
4534 -4538 0
-4278 -4535 4539 0
4278 -4539 0
4535 -4539 0
4538 4539 -4540 0
-4538 4540 0
-4539 4540 0
-1 -4541 4542 0
1 -4542 0
4541 -4542 0
-4285 -4542 -4543 0
4285 4542 -4543 0
4285 -4542 4543 0
-4285 4542 4543 0
-4285 -4542 4544 0
4285 -4544 0
4542 -4544 0
-4 -4541 4545 0
4 -4545 0
4541 -4545 0
-4291 -4545 -4546 0
4291 4545 -4546 0
4291 -4545 4546 0
-4291 4545 4546 0
-4546 -4544 -4547 0
4546 4544 -4547 0
4546 -4544 4547 0
-4546 4544 4547 0
-4546 -4544 4548 0
4546 -4548 0
4544 -4548 0
-4291 -4545 4549 0
4291 -4549 0
4545 -4549 0
4548 4549 -4550 0
-4548 4550 0
-4549 4550 0
-10 -4541 4551 0
10 -4551 0
4541 -4551 0
-4297 -4551 -4552 0
4297 4551 -4552 0
4297 -4551 4552 0
-4297 4551 4552 0
-4552 -4550 -4553 0
4552 4550 -4553 0
4552 -4550 4553 0
-4552 4550 4553 0
-4552 -4550 4554 0
4552 -4554 0
4550 -4554 0
-4297 -4551 4555 0
4297 -4555 0
4551 -4555 0
4554 4555 -4556 0
-4554 4556 0
-4555 4556 0
-18 -4541 4557 0
18 -4557 0
4541 -4557 0
-4303 -4557 -4558 0
4303 4557 -4558 0
4303 -4557 4558 0
-4303 4557 4558 0
-4558 -4556 -4559 0
4558 4556 -4559 0
4558 -4556 4559 0
-4558 4556 4559 0
-4558 -4556 4560 0
4558 -4560 0
4556 -4560 0
-4303 -4557 4561 0
4303 -4561 0
4557 -4561 0
4560 4561 -4562 0
-4560 4562 0
-4561 4562 0
-26 -4541 4563 0
26 -4563 0
4541 -4563 0
-4309 -4563 -4564 0
4309 4563 -4564 0
4309 -4563 4564 0
-4309 4563 4564 0
-4564 -4562 -4565 0
4564 4562 -4565 0
4564 -4562 4565 0
-4564 4562 4565 0
-4564 -4562 4566 0
4564 -4566 0
4562 -4566 0
-4309 -4563 4567 0
4309 -4567 0
4563 -4567 0
4566 4567 -4568 0
-4566 4568 0
-4567 4568 0
-34 -4541 4569 0
34 -4569 0
4541 -4569 0
-4315 -4569 -4570 0
4315 4569 -4570 0
4315 -4569 4570 0
-4315 4569 4570 0
-4570 -4568 -4571 0
4570 4568 -4571 0
4570 -4568 4571 0
-4570 4568 4571 0
-4570 -4568 4572 0
4570 -4572 0
4568 -4572 0
-4315 -4569 4573 0
4315 -4573 0
4569 -4573 0
4572 4573 -4574 0
-4572 4574 0
-4573 4574 0
-42 -4541 4575 0
42 -4575 0
4541 -4575 0
-4321 -4575 -4576 0
4321 4575 -4576 0
4321 -4575 4576 0
-4321 4575 4576 0
-4576 -4574 -4577 0
4576 4574 -4577 0
4576 -4574 4577 0
-4576 4574 4577 0
-4576 -4574 4578 0
4576 -4578 0
4574 -4578 0
-4321 -4575 4579 0
4321 -4579 0
4575 -4579 0
4578 4579 -4580 0
-4578 4580 0
-4579 4580 0
-50 -4541 4581 0
50 -4581 0
4541 -4581 0
-4327 -4581 -4582 0
4327 4581 -4582 0
4327 -4581 4582 0
-4327 4581 4582 0
-4582 -4580 -4583 0
4582 4580 -4583 0
4582 -4580 4583 0
-4582 4580 4583 0
-4582 -4580 4584 0
4582 -4584 0
4580 -4584 0
-4327 -4581 4585 0
4327 -4585 0
4581 -4585 0
4584 4585 -4586 0
-4584 4586 0
-4585 4586 0
-58 -4541 4587 0
58 -4587 0
4541 -4587 0
-4333 -4587 -4588 0
4333 4587 -4588 0
4333 -4587 4588 0
-4333 4587 4588 0
-4588 -4586 -4589 0
4588 4586 -4589 0
4588 -4586 4589 0
-4588 4586 4589 0
-4588 -4586 4590 0
4588 -4590 0
4586 -4590 0
-4333 -4587 4591 0
4333 -4591 0
4587 -4591 0
4590 4591 -4592 0
-4590 4592 0
-4591 4592 0
-66 -4541 4593 0
66 -4593 0
4541 -4593 0
-4339 -4593 -4594 0
4339 4593 -4594 0
4339 -4593 4594 0
-4339 4593 4594 0
-4594 -4592 -4595 0
4594 4592 -4595 0
4594 -4592 4595 0
-4594 4592 4595 0
-4594 -4592 4596 0
4594 -4596 0
4592 -4596 0
-4339 -4593 4597 0
4339 -4597 0
4593 -4597 0
4596 4597 -4598 0
-4596 4598 0
-4597 4598 0
-74 -4541 4599 0
74 -4599 0
4541 -4599 0
-4345 -4599 -4600 0
4345 4599 -4600 0
4345 -4599 4600 0
-4345 4599 4600 0
-4600 -4598 -4601 0
4600 4598 -4601 0
4600 -4598 4601 0
-4600 4598 4601 0
-4600 -4598 4602 0
4600 -4602 0
4598 -4602 0
-4345 -4599 4603 0
4345 -4603 0
4599 -4603 0
4602 4603 -4604 0
-4602 4604 0
-4603 4604 0
-82 -4541 4605 0
82 -4605 0
4541 -4605 0
-4351 -4605 -4606 0
4351 4605 -4606 0
4351 -4605 4606 0
-4351 4605 4606 0
-4606 -4604 -4607 0
4606 4604 -4607 0
4606 -4604 4607 0
-4606 4604 4607 0
-4606 -4604 4608 0
4606 -4608 0
4604 -4608 0
-4351 -4605 4609 0
4351 -4609 0
4605 -4609 0
4608 4609 -4610 0
-4608 4610 0
-4609 4610 0
-90 -4541 4611 0
90 -4611 0
4541 -4611 0
-4357 -4611 -4612 0
4357 4611 -4612 0
4357 -4611 4612 0
-4357 4611 4612 0
-4612 -4610 -4613 0
4612 4610 -4613 0
4612 -4610 4613 0
-4612 4610 4613 0
-4612 -4610 4614 0
4612 -4614 0
4610 -4614 0
-4357 -4611 4615 0
4357 -4615 0
4611 -4615 0
4614 4615 -4616 0
-4614 4616 0
-4615 4616 0
-98 -4541 4617 0
98 -4617 0
4541 -4617 0
-4363 -4617 -4618 0
4363 4617 -4618 0
4363 -4617 4618 0
-4363 4617 4618 0
-4618 -4616 -4619 0
4618 4616 -4619 0
4618 -4616 4619 0
-4618 4616 4619 0
-4618 -4616 4620 0
4618 -4620 0
4616 -4620 0
-4363 -4617 4621 0
4363 -4621 0
4617 -4621 0
4620 4621 -4622 0
-4620 4622 0
-4621 4622 0
-106 -4541 4623 0
106 -4623 0
4541 -4623 0
-4369 -4623 -4624 0
4369 4623 -4624 0
4369 -4623 4624 0
-4369 4623 4624 0
-4624 -4622 -4625 0
4624 4622 -4625 0
4624 -4622 4625 0
-4624 4622 4625 0
-4624 -4622 4626 0
4624 -4626 0
4622 -4626 0
-4369 -4623 4627 0
4369 -4627 0
4623 -4627 0
4626 4627 -4628 0
-4626 4628 0
-4627 4628 0
-114 -4541 4629 0
114 -4629 0
4541 -4629 0
-4375 -4629 -4630 0
4375 4629 -4630 0
4375 -4629 4630 0
-4375 4629 4630 0
-4630 -4628 -4631 0
4630 4628 -4631 0
4630 -4628 4631 0
-4630 4628 4631 0
-4630 -4628 4632 0
4630 -4632 0
4628 -4632 0
-4375 -4629 4633 0
4375 -4633 0
4629 -4633 0
4632 4633 -4634 0
-4632 4634 0
-4633 4634 0
-122 -4541 4635 0
122 -4635 0
4541 -4635 0
-4381 -4635 -4636 0
4381 4635 -4636 0
4381 -4635 4636 0
-4381 4635 4636 0
-4636 -4634 -4637 0
4636 4634 -4637 0
4636 -4634 4637 0
-4636 4634 4637 0
-4636 -4634 4638 0
4636 -4638 0
4634 -4638 0
-4381 -4635 4639 0
4381 -4639 0
4635 -4639 0
4638 4639 -4640 0
-4638 4640 0
-4639 4640 0
-130 -4541 4641 0
130 -4641 0
4541 -4641 0
-4387 -4641 -4642 0
4387 4641 -4642 0
4387 -4641 4642 0
-4387 4641 4642 0
-4642 -4640 -4643 0
4642 4640 -4643 0
4642 -4640 4643 0
-4642 4640 4643 0
-4642 -4640 4644 0
4642 -4644 0
4640 -4644 0
-4387 -4641 4645 0
4387 -4645 0
4641 -4645 0
4644 4645 -4646 0
-4644 4646 0
-4645 4646 0
-138 -4541 4647 0
138 -4647 0
4541 -4647 0
-4393 -4647 -4648 0
4393 4647 -4648 0
4393 -4647 4648 0
-4393 4647 4648 0
-4648 -4646 -4649 0
4648 4646 -4649 0
4648 -4646 4649 0
-4648 4646 4649 0
-4648 -4646 4650 0
4648 -4650 0
4646 -4650 0
-4393 -4647 4651 0
4393 -4651 0
4647 -4651 0
4650 4651 -4652 0
-4650 4652 0
-4651 4652 0
-146 -4541 4653 0
146 -4653 0
4541 -4653 0
-4399 -4653 -4654 0
4399 4653 -4654 0
4399 -4653 4654 0
-4399 4653 4654 0
-4654 -4652 -4655 0
4654 4652 -4655 0
4654 -4652 4655 0
-4654 4652 4655 0
-4654 -4652 4656 0
4654 -4656 0
4652 -4656 0
-4399 -4653 4657 0
4399 -4657 0
4653 -4657 0
4656 4657 -4658 0
-4656 4658 0
-4657 4658 0
-154 -4541 4659 0
154 -4659 0
4541 -4659 0
-4405 -4659 -4660 0
4405 4659 -4660 0
4405 -4659 4660 0
-4405 4659 4660 0
-4660 -4658 -4661 0
4660 4658 -4661 0
4660 -4658 4661 0
-4660 4658 4661 0
-4660 -4658 4662 0
4660 -4662 0
4658 -4662 0
-4405 -4659 4663 0
4405 -4663 0
4659 -4663 0
4662 4663 -4664 0
-4662 4664 0
-4663 4664 0
-162 -4541 4665 0
162 -4665 0
4541 -4665 0
-4411 -4665 -4666 0
4411 4665 -4666 0
4411 -4665 4666 0
-4411 4665 4666 0
-4666 -4664 -4667 0
4666 4664 -4667 0
4666 -4664 4667 0
-4666 4664 4667 0
-4666 -4664 4668 0
4666 -4668 0
4664 -4668 0
-4411 -4665 4669 0
4411 -4669 0
4665 -4669 0
4668 4669 -4670 0
-4668 4670 0
-4669 4670 0
-170 -4541 4671 0
170 -4671 0
4541 -4671 0
-4417 -4671 -4672 0
4417 4671 -4672 0
4417 -4671 4672 0
-4417 4671 4672 0
-4672 -4670 -4673 0
4672 4670 -4673 0
4672 -4670 4673 0
-4672 4670 4673 0
-4672 -4670 4674 0
4672 -4674 0
4670 -4674 0
-4417 -4671 4675 0
4417 -4675 0
4671 -4675 0
4674 4675 -4676 0
-4674 4676 0
-4675 4676 0
-178 -4541 4677 0
178 -4677 0
4541 -4677 0
-4423 -4677 -4678 0
4423 4677 -4678 0
4423 -4677 4678 0
-4423 4677 4678 0
-4678 -4676 -4679 0
4678 4676 -4679 0
4678 -4676 4679 0
-4678 4676 4679 0
-4678 -4676 4680 0
4678 -4680 0
4676 -4680 0
-4423 -4677 4681 0
4423 -4681 0
4677 -4681 0
4680 4681 -4682 0
-4680 4682 0
-4681 4682 0
-186 -4541 4683 0
186 -4683 0
4541 -4683 0
-4429 -4683 -4684 0
4429 4683 -4684 0
4429 -4683 4684 0
-4429 4683 4684 0
-4684 -4682 -4685 0
4684 4682 -4685 0
4684 -4682 4685 0
-4684 4682 4685 0
-4684 -4682 4686 0
4684 -4686 0
4682 -4686 0
-4429 -4683 4687 0
4429 -4687 0
4683 -4687 0
4686 4687 -4688 0
-4686 4688 0
-4687 4688 0
-194 -4541 4689 0
194 -4689 0
4541 -4689 0
-4435 -4689 -4690 0
4435 4689 -4690 0
4435 -4689 4690 0
-4435 4689 4690 0
-4690 -4688 -4691 0
4690 4688 -4691 0
4690 -4688 4691 0
-4690 4688 4691 0
-4690 -4688 4692 0
4690 -4692 0
4688 -4692 0
-4435 -4689 4693 0
4435 -4693 0
4689 -4693 0
4692 4693 -4694 0
-4692 4694 0
-4693 4694 0
-202 -4541 4695 0
202 -4695 0
4541 -4695 0
-4441 -4695 -4696 0
4441 4695 -4696 0
4441 -4695 4696 0
-4441 4695 4696 0
-4696 -4694 -4697 0
4696 4694 -4697 0
4696 -4694 4697 0
-4696 4694 4697 0
-4696 -4694 4698 0
4696 -4698 0
4694 -4698 0
-4441 -4695 4699 0
4441 -4699 0
4695 -4699 0
4698 4699 -4700 0
-4698 4700 0
-4699 4700 0
-210 -4541 4701 0
210 -4701 0
4541 -4701 0
-4447 -4701 -4702 0
4447 4701 -4702 0
4447 -4701 4702 0
-4447 4701 4702 0
-4702 -4700 -4703 0
4702 4700 -4703 0
4702 -4700 4703 0
-4702 4700 4703 0
-4702 -4700 4704 0
4702 -4704 0
4700 -4704 0
-4447 -4701 4705 0
4447 -4705 0
4701 -4705 0
4704 4705 -4706 0
-4704 4706 0
-4705 4706 0
-218 -4541 4707 0
218 -4707 0
4541 -4707 0
-4453 -4707 -4708 0
4453 4707 -4708 0
4453 -4707 4708 0
-4453 4707 4708 0
-4708 -4706 -4709 0
4708 4706 -4709 0
4708 -4706 4709 0
-4708 4706 4709 0
-4708 -4706 4710 0
4708 -4710 0
4706 -4710 0
-4453 -4707 4711 0
4453 -4711 0
4707 -4711 0
4710 4711 -4712 0
-4710 4712 0
-4711 4712 0
-226 -4541 4713 0
226 -4713 0
4541 -4713 0
-4459 -4713 -4714 0
4459 4713 -4714 0
4459 -4713 4714 0
-4459 4713 4714 0
-4714 -4712 -4715 0
4714 4712 -4715 0
4714 -4712 4715 0
-4714 4712 4715 0
-4714 -4712 4716 0
4714 -4716 0
4712 -4716 0
-4459 -4713 4717 0
4459 -4717 0
4713 -4717 0
4716 4717 -4718 0
-4716 4718 0
-4717 4718 0
-234 -4541 4719 0
234 -4719 0
4541 -4719 0
-4465 -4719 -4720 0
4465 4719 -4720 0
4465 -4719 4720 0
-4465 4719 4720 0
-4720 -4718 -4721 0
4720 4718 -4721 0
4720 -4718 4721 0
-4720 4718 4721 0
-4720 -4718 4722 0
4720 -4722 0
4718 -4722 0
-4465 -4719 4723 0
4465 -4723 0
4719 -4723 0
4722 4723 -4724 0
-4722 4724 0
-4723 4724 0
-242 -4541 4725 0
242 -4725 0
4541 -4725 0
-4471 -4725 -4726 0
4471 4725 -4726 0
4471 -4725 4726 0
-4471 4725 4726 0
-4726 -4724 -4727 0
4726 4724 -4727 0
4726 -4724 4727 0
-4726 4724 4727 0
-4726 -4724 4728 0
4726 -4728 0
4724 -4728 0
-4471 -4725 4729 0
4471 -4729 0
4725 -4729 0
4728 4729 -4730 0
-4728 4730 0
-4729 4730 0
-250 -4541 4731 0
250 -4731 0
4541 -4731 0
-4477 -4731 -4732 0
4477 4731 -4732 0
4477 -4731 4732 0
-4477 4731 4732 0
-4732 -4730 -4733 0
4732 4730 -4733 0
4732 -4730 4733 0
-4732 4730 4733 0
-4732 -4730 4734 0
4732 -4734 0
4730 -4734 0
-4477 -4731 4735 0
4477 -4735 0
4731 -4735 0
4734 4735 -4736 0
-4734 4736 0
-4735 4736 0
-258 -4541 4737 0
258 -4737 0
4541 -4737 0
-4483 -4737 -4738 0
4483 4737 -4738 0
4483 -4737 4738 0
-4483 4737 4738 0
-4738 -4736 -4739 0
4738 4736 -4739 0
4738 -4736 4739 0
-4738 4736 4739 0
-4738 -4736 4740 0
4738 -4740 0
4736 -4740 0
-4483 -4737 4741 0
4483 -4741 0
4737 -4741 0
4740 4741 -4742 0
-4740 4742 0
-4741 4742 0
-266 -4541 4743 0
266 -4743 0
4541 -4743 0
-4489 -4743 -4744 0
4489 4743 -4744 0
4489 -4743 4744 0
-4489 4743 4744 0
-4744 -4742 -4745 0
4744 4742 -4745 0
4744 -4742 4745 0
-4744 4742 4745 0
-4744 -4742 4746 0
4744 -4746 0
4742 -4746 0
-4489 -4743 4747 0
4489 -4747 0
4743 -4747 0
4746 4747 -4748 0
-4746 4748 0
-4747 4748 0
-274 -4541 4749 0
274 -4749 0
4541 -4749 0
-4495 -4749 -4750 0
4495 4749 -4750 0
4495 -4749 4750 0
-4495 4749 4750 0
-4750 -4748 -4751 0
4750 4748 -4751 0
4750 -4748 4751 0
-4750 4748 4751 0
-4750 -4748 4752 0
4750 -4752 0
4748 -4752 0
-4495 -4749 4753 0
4495 -4753 0
4749 -4753 0
4752 4753 -4754 0
-4752 4754 0
-4753 4754 0
-282 -4541 4755 0
282 -4755 0
4541 -4755 0
-4501 -4755 -4756 0
4501 4755 -4756 0
4501 -4755 4756 0
-4501 4755 4756 0
-4756 -4754 -4757 0
4756 4754 -4757 0
4756 -4754 4757 0
-4756 4754 4757 0
-4756 -4754 4758 0
4756 -4758 0
4754 -4758 0
-4501 -4755 4759 0
4501 -4759 0
4755 -4759 0
4758 4759 -4760 0
-4758 4760 0
-4759 4760 0
-290 -4541 4761 0
290 -4761 0
4541 -4761 0
-4507 -4761 -4762 0
4507 4761 -4762 0
4507 -4761 4762 0
-4507 4761 4762 0
-4762 -4760 -4763 0
4762 4760 -4763 0
4762 -4760 4763 0
-4762 4760 4763 0
-4762 -4760 4764 0
4762 -4764 0
4760 -4764 0
-4507 -4761 4765 0
4507 -4765 0
4761 -4765 0
4764 4765 -4766 0
-4764 4766 0
-4765 4766 0
-298 -4541 4767 0
298 -4767 0
4541 -4767 0
-4513 -4767 -4768 0
4513 4767 -4768 0
4513 -4767 4768 0
-4513 4767 4768 0
-4768 -4766 -4769 0
4768 4766 -4769 0
4768 -4766 4769 0
-4768 4766 4769 0
-4768 -4766 4770 0
4768 -4770 0
4766 -4770 0
-4513 -4767 4771 0
4513 -4771 0
4767 -4771 0
4770 4771 -4772 0
-4770 4772 0
-4771 4772 0
-306 -4541 4773 0
306 -4773 0
4541 -4773 0
-4519 -4773 -4774 0
4519 4773 -4774 0
4519 -4773 4774 0
-4519 4773 4774 0
-4774 -4772 -4775 0
4774 4772 -4775 0
4774 -4772 4775 0
-4774 4772 4775 0
-4774 -4772 4776 0
4774 -4776 0
4772 -4776 0
-4519 -4773 4777 0
4519 -4777 0
4773 -4777 0
4776 4777 -4778 0
-4776 4778 0
-4777 4778 0
-314 -4541 4779 0
314 -4779 0
4541 -4779 0
-4525 -4779 -4780 0
4525 4779 -4780 0
4525 -4779 4780 0
-4525 4779 4780 0
-4780 -4778 -4781 0
4780 4778 -4781 0
4780 -4778 4781 0
-4780 4778 4781 0
-4780 -4778 4782 0
4780 -4782 0
4778 -4782 0
-4525 -4779 4783 0
4525 -4783 0
4779 -4783 0
4782 4783 -4784 0
-4782 4784 0
-4783 4784 0
-322 -4541 4785 0
322 -4785 0
4541 -4785 0
-4531 -4785 -4786 0
4531 4785 -4786 0
4531 -4785 4786 0
-4531 4785 4786 0
-4786 -4784 -4787 0
4786 4784 -4787 0
4786 -4784 4787 0
-4786 4784 4787 0
-4786 -4784 4788 0
4786 -4788 0
4784 -4788 0
-4531 -4785 4789 0
4531 -4789 0
4785 -4789 0
4788 4789 -4790 0
-4788 4790 0
-4789 4790 0
-330 -4541 4791 0
330 -4791 0
4541 -4791 0
-4537 -4791 -4792 0
4537 4791 -4792 0
4537 -4791 4792 0
-4537 4791 4792 0
-4792 -4790 -4793 0
4792 4790 -4793 0
4792 -4790 4793 0
-4792 4790 4793 0
-4792 -4790 4794 0
4792 -4794 0
4790 -4794 0
-4537 -4791 4795 0
4537 -4795 0
4791 -4795 0
4794 4795 -4796 0
-4794 4796 0
-4795 4796 0
-338 -4541 4797 0
338 -4797 0
4541 -4797 0
-4540 -4797 -4798 0
4540 4797 -4798 0
4540 -4797 4798 0
-4540 4797 4798 0
-4798 -4796 -4799 0
4798 4796 -4799 0
4798 -4796 4799 0
-4798 4796 4799 0
-4798 -4796 4800 0
4798 -4800 0
4796 -4800 0
-4540 -4797 4801 0
4540 -4801 0
4797 -4801 0
4800 4801 -4802 0
-4800 4802 0
-4801 4802 0
-1 -4803 4804 0
1 -4804 0
4803 -4804 0
-4547 -4804 -4805 0
4547 4804 -4805 0
4547 -4804 4805 0
-4547 4804 4805 0
-4547 -4804 4806 0
4547 -4806 0
4804 -4806 0
-4 -4803 4807 0
4 -4807 0
4803 -4807 0
-4553 -4807 -4808 0
4553 4807 -4808 0
4553 -4807 4808 0
-4553 4807 4808 0
-4808 -4806 -4809 0
4808 4806 -4809 0
4808 -4806 4809 0
-4808 4806 4809 0
-4808 -4806 4810 0
4808 -4810 0
4806 -4810 0
-4553 -4807 4811 0
4553 -4811 0
4807 -4811 0
4810 4811 -4812 0
-4810 4812 0
-4811 4812 0
-10 -4803 4813 0
10 -4813 0
4803 -4813 0
-4559 -4813 -4814 0
4559 4813 -4814 0
4559 -4813 4814 0
-4559 4813 4814 0
-4814 -4812 -4815 0
4814 4812 -4815 0
4814 -4812 4815 0
-4814 4812 4815 0
-4814 -4812 4816 0
4814 -4816 0
4812 -4816 0
-4559 -4813 4817 0
4559 -4817 0
4813 -4817 0
4816 4817 -4818 0
-4816 4818 0
-4817 4818 0
-18 -4803 4819 0
18 -4819 0
4803 -4819 0
-4565 -4819 -4820 0
4565 4819 -4820 0
4565 -4819 4820 0
-4565 4819 4820 0
-4820 -4818 -4821 0
4820 4818 -4821 0
4820 -4818 4821 0
-4820 4818 4821 0
-4820 -4818 4822 0
4820 -4822 0
4818 -4822 0
-4565 -4819 4823 0
4565 -4823 0
4819 -4823 0
4822 4823 -4824 0
-4822 4824 0
-4823 4824 0
-26 -4803 4825 0
26 -4825 0
4803 -4825 0
-4571 -4825 -4826 0
4571 4825 -4826 0
4571 -4825 4826 0
-4571 4825 4826 0
-4826 -4824 -4827 0
4826 4824 -4827 0
4826 -4824 4827 0
-4826 4824 4827 0
-4826 -4824 4828 0
4826 -4828 0
4824 -4828 0
-4571 -4825 4829 0
4571 -4829 0
4825 -4829 0
4828 4829 -4830 0
-4828 4830 0
-4829 4830 0
-34 -4803 4831 0
34 -4831 0
4803 -4831 0
-4577 -4831 -4832 0
4577 4831 -4832 0
4577 -4831 4832 0
-4577 4831 4832 0
-4832 -4830 -4833 0
4832 4830 -4833 0
4832 -4830 4833 0
-4832 4830 4833 0
-4832 -4830 4834 0
4832 -4834 0
4830 -4834 0
-4577 -4831 4835 0
4577 -4835 0
4831 -4835 0
4834 4835 -4836 0
-4834 4836 0
-4835 4836 0
-42 -4803 4837 0
42 -4837 0
4803 -4837 0
-4583 -4837 -4838 0
4583 4837 -4838 0
4583 -4837 4838 0
-4583 4837 4838 0
-4838 -4836 -4839 0
4838 4836 -4839 0
4838 -4836 4839 0
-4838 4836 4839 0
-4838 -4836 4840 0
4838 -4840 0
4836 -4840 0
-4583 -4837 4841 0
4583 -4841 0
4837 -4841 0
4840 4841 -4842 0
-4840 4842 0
-4841 4842 0
-50 -4803 4843 0
50 -4843 0
4803 -4843 0
-4589 -4843 -4844 0
4589 4843 -4844 0
4589 -4843 4844 0
-4589 4843 4844 0
-4844 -4842 -4845 0
4844 4842 -4845 0
4844 -4842 4845 0
-4844 4842 4845 0
-4844 -4842 4846 0
4844 -4846 0
4842 -4846 0
-4589 -4843 4847 0
4589 -4847 0
4843 -4847 0
4846 4847 -4848 0
-4846 4848 0
-4847 4848 0
-58 -4803 4849 0
58 -4849 0
4803 -4849 0
-4595 -4849 -4850 0
4595 4849 -4850 0
4595 -4849 4850 0
-4595 4849 4850 0
-4850 -4848 -4851 0
4850 4848 -4851 0
4850 -4848 4851 0
-4850 4848 4851 0
-4850 -4848 4852 0
4850 -4852 0
4848 -4852 0
-4595 -4849 4853 0
4595 -4853 0
4849 -4853 0
4852 4853 -4854 0
-4852 4854 0
-4853 4854 0
-66 -4803 4855 0
66 -4855 0
4803 -4855 0
-4601 -4855 -4856 0
4601 4855 -4856 0
4601 -4855 4856 0
-4601 4855 4856 0
-4856 -4854 -4857 0
4856 4854 -4857 0
4856 -4854 4857 0
-4856 4854 4857 0
-4856 -4854 4858 0
4856 -4858 0
4854 -4858 0
-4601 -4855 4859 0
4601 -4859 0
4855 -4859 0
4858 4859 -4860 0
-4858 4860 0
-4859 4860 0
-74 -4803 4861 0
74 -4861 0
4803 -4861 0
-4607 -4861 -4862 0
4607 4861 -4862 0
4607 -4861 4862 0
-4607 4861 4862 0
-4862 -4860 -4863 0
4862 4860 -4863 0
4862 -4860 4863 0
-4862 4860 4863 0
-4862 -4860 4864 0
4862 -4864 0
4860 -4864 0
-4607 -4861 4865 0
4607 -4865 0
4861 -4865 0
4864 4865 -4866 0
-4864 4866 0
-4865 4866 0
-82 -4803 4867 0
82 -4867 0
4803 -4867 0
-4613 -4867 -4868 0
4613 4867 -4868 0
4613 -4867 4868 0
-4613 4867 4868 0
-4868 -4866 -4869 0
4868 4866 -4869 0
4868 -4866 4869 0
-4868 4866 4869 0
-4868 -4866 4870 0
4868 -4870 0
4866 -4870 0
-4613 -4867 4871 0
4613 -4871 0
4867 -4871 0
4870 4871 -4872 0
-4870 4872 0
-4871 4872 0
-90 -4803 4873 0
90 -4873 0
4803 -4873 0
-4619 -4873 -4874 0
4619 4873 -4874 0
4619 -4873 4874 0
-4619 4873 4874 0
-4874 -4872 -4875 0
4874 4872 -4875 0
4874 -4872 4875 0
-4874 4872 4875 0
-4874 -4872 4876 0
4874 -4876 0
4872 -4876 0
-4619 -4873 4877 0
4619 -4877 0
4873 -4877 0
4876 4877 -4878 0
-4876 4878 0
-4877 4878 0
-98 -4803 4879 0
98 -4879 0
4803 -4879 0
-4625 -4879 -4880 0
4625 4879 -4880 0
4625 -4879 4880 0
-4625 4879 4880 0
-4880 -4878 -4881 0
4880 4878 -4881 0
4880 -4878 4881 0
-4880 4878 4881 0
-4880 -4878 4882 0
4880 -4882 0
4878 -4882 0
-4625 -4879 4883 0
4625 -4883 0
4879 -4883 0
4882 4883 -4884 0
-4882 4884 0
-4883 4884 0
-106 -4803 4885 0
106 -4885 0
4803 -4885 0
-4631 -4885 -4886 0
4631 4885 -4886 0
4631 -4885 4886 0
-4631 4885 4886 0
-4886 -4884 -4887 0
4886 4884 -4887 0
4886 -4884 4887 0
-4886 4884 4887 0
-4886 -4884 4888 0
4886 -4888 0
4884 -4888 0
-4631 -4885 4889 0
4631 -4889 0
4885 -4889 0
4888 4889 -4890 0
-4888 4890 0
-4889 4890 0
-114 -4803 4891 0
114 -4891 0
4803 -4891 0
-4637 -4891 -4892 0
4637 4891 -4892 0
4637 -4891 4892 0
-4637 4891 4892 0
-4892 -4890 -4893 0
4892 4890 -4893 0
4892 -4890 4893 0
-4892 4890 4893 0
-4892 -4890 4894 0
4892 -4894 0
4890 -4894 0
-4637 -4891 4895 0
4637 -4895 0
4891 -4895 0
4894 4895 -4896 0
-4894 4896 0
-4895 4896 0
-122 -4803 4897 0
122 -4897 0
4803 -4897 0
-4643 -4897 -4898 0
4643 4897 -4898 0
4643 -4897 4898 0
-4643 4897 4898 0
-4898 -4896 -4899 0
4898 4896 -4899 0
4898 -4896 4899 0
-4898 4896 4899 0
-4898 -4896 4900 0
4898 -4900 0
4896 -4900 0
-4643 -4897 4901 0
4643 -4901 0
4897 -4901 0
4900 4901 -4902 0
-4900 4902 0
-4901 4902 0
-130 -4803 4903 0
130 -4903 0
4803 -4903 0
-4649 -4903 -4904 0
4649 4903 -4904 0
4649 -4903 4904 0
-4649 4903 4904 0
-4904 -4902 -4905 0
4904 4902 -4905 0
4904 -4902 4905 0
-4904 4902 4905 0
-4904 -4902 4906 0
4904 -4906 0
4902 -4906 0
-4649 -4903 4907 0
4649 -4907 0
4903 -4907 0
4906 4907 -4908 0
-4906 4908 0
-4907 4908 0
-138 -4803 4909 0
138 -4909 0
4803 -4909 0
-4655 -4909 -4910 0
4655 4909 -4910 0
4655 -4909 4910 0
-4655 4909 4910 0
-4910 -4908 -4911 0
4910 4908 -4911 0
4910 -4908 4911 0
-4910 4908 4911 0
-4910 -4908 4912 0
4910 -4912 0
4908 -4912 0
-4655 -4909 4913 0
4655 -4913 0
4909 -4913 0
4912 4913 -4914 0
-4912 4914 0
-4913 4914 0
-146 -4803 4915 0
146 -4915 0
4803 -4915 0
-4661 -4915 -4916 0
4661 4915 -4916 0
4661 -4915 4916 0
-4661 4915 4916 0
-4916 -4914 -4917 0
4916 4914 -4917 0
4916 -4914 4917 0
-4916 4914 4917 0
-4916 -4914 4918 0
4916 -4918 0
4914 -4918 0
-4661 -4915 4919 0
4661 -4919 0
4915 -4919 0
4918 4919 -4920 0
-4918 4920 0
-4919 4920 0
-154 -4803 4921 0
154 -4921 0
4803 -4921 0
-4667 -4921 -4922 0
4667 4921 -4922 0
4667 -4921 4922 0
-4667 4921 4922 0
-4922 -4920 -4923 0
4922 4920 -4923 0
4922 -4920 4923 0
-4922 4920 4923 0
-4922 -4920 4924 0
4922 -4924 0
4920 -4924 0
-4667 -4921 4925 0
4667 -4925 0
4921 -4925 0
4924 4925 -4926 0
-4924 4926 0
-4925 4926 0
-162 -4803 4927 0
162 -4927 0
4803 -4927 0
-4673 -4927 -4928 0
4673 4927 -4928 0
4673 -4927 4928 0
-4673 4927 4928 0
-4928 -4926 -4929 0
4928 4926 -4929 0
4928 -4926 4929 0
-4928 4926 4929 0
-4928 -4926 4930 0
4928 -4930 0
4926 -4930 0
-4673 -4927 4931 0
4673 -4931 0
4927 -4931 0
4930 4931 -4932 0
-4930 4932 0
-4931 4932 0
-170 -4803 4933 0
170 -4933 0
4803 -4933 0
-4679 -4933 -4934 0
4679 4933 -4934 0
4679 -4933 4934 0
-4679 4933 4934 0
-4934 -4932 -4935 0
4934 4932 -4935 0
4934 -4932 4935 0
-4934 4932 4935 0
-4934 -4932 4936 0
4934 -4936 0
4932 -4936 0
-4679 -4933 4937 0
4679 -4937 0
4933 -4937 0
4936 4937 -4938 0
-4936 4938 0
-4937 4938 0
-178 -4803 4939 0
178 -4939 0
4803 -4939 0
-4685 -4939 -4940 0
4685 4939 -4940 0
4685 -4939 4940 0
-4685 4939 4940 0
-4940 -4938 -4941 0
4940 4938 -4941 0
4940 -4938 4941 0
-4940 4938 4941 0
-4940 -4938 4942 0
4940 -4942 0
4938 -4942 0
-4685 -4939 4943 0
4685 -4943 0
4939 -4943 0
4942 4943 -4944 0
-4942 4944 0
-4943 4944 0
-186 -4803 4945 0
186 -4945 0
4803 -4945 0
-4691 -4945 -4946 0
4691 4945 -4946 0
4691 -4945 4946 0
-4691 4945 4946 0
-4946 -4944 -4947 0
4946 4944 -4947 0
4946 -4944 4947 0
-4946 4944 4947 0
-4946 -4944 4948 0
4946 -4948 0
4944 -4948 0
-4691 -4945 4949 0
4691 -4949 0
4945 -4949 0
4948 4949 -4950 0
-4948 4950 0
-4949 4950 0
-194 -4803 4951 0
194 -4951 0
4803 -4951 0
-4697 -4951 -4952 0
4697 4951 -4952 0
4697 -4951 4952 0
-4697 4951 4952 0
-4952 -4950 -4953 0
4952 4950 -4953 0
4952 -4950 4953 0
-4952 4950 4953 0
-4952 -4950 4954 0
4952 -4954 0
4950 -4954 0
-4697 -4951 4955 0
4697 -4955 0
4951 -4955 0
4954 4955 -4956 0
-4954 4956 0
-4955 4956 0
-202 -4803 4957 0
202 -4957 0
4803 -4957 0
-4703 -4957 -4958 0
4703 4957 -4958 0
4703 -4957 4958 0
-4703 4957 4958 0
-4958 -4956 -4959 0
4958 4956 -4959 0
4958 -4956 4959 0
-4958 4956 4959 0
-4958 -4956 4960 0
4958 -4960 0
4956 -4960 0
-4703 -4957 4961 0
4703 -4961 0
4957 -4961 0
4960 4961 -4962 0
-4960 4962 0
-4961 4962 0
-210 -4803 4963 0
210 -4963 0
4803 -4963 0
-4709 -4963 -4964 0
4709 4963 -4964 0
4709 -4963 4964 0
-4709 4963 4964 0
-4964 -4962 -4965 0
4964 4962 -4965 0
4964 -4962 4965 0
-4964 4962 4965 0
-4964 -4962 4966 0
4964 -4966 0
4962 -4966 0
-4709 -4963 4967 0
4709 -4967 0
4963 -4967 0
4966 4967 -4968 0
-4966 4968 0
-4967 4968 0
-218 -4803 4969 0
218 -4969 0
4803 -4969 0
-4715 -4969 -4970 0
4715 4969 -4970 0
4715 -4969 4970 0
-4715 4969 4970 0
-4970 -4968 -4971 0
4970 4968 -4971 0
4970 -4968 4971 0
-4970 4968 4971 0
-4970 -4968 4972 0
4970 -4972 0
4968 -4972 0
-4715 -4969 4973 0
4715 -4973 0
4969 -4973 0
4972 4973 -4974 0
-4972 4974 0
-4973 4974 0
-226 -4803 4975 0
226 -4975 0
4803 -4975 0
-4721 -4975 -4976 0
4721 4975 -4976 0
4721 -4975 4976 0
-4721 4975 4976 0
-4976 -4974 -4977 0
4976 4974 -4977 0
4976 -4974 4977 0
-4976 4974 4977 0
-4976 -4974 4978 0
4976 -4978 0
4974 -4978 0
-4721 -4975 4979 0
4721 -4979 0
4975 -4979 0
4978 4979 -4980 0
-4978 4980 0
-4979 4980 0
-234 -4803 4981 0
234 -4981 0
4803 -4981 0
-4727 -4981 -4982 0
4727 4981 -4982 0
4727 -4981 4982 0
-4727 4981 4982 0
-4982 -4980 -4983 0
4982 4980 -4983 0
4982 -4980 4983 0
-4982 4980 4983 0
-4982 -4980 4984 0
4982 -4984 0
4980 -4984 0
-4727 -4981 4985 0
4727 -4985 0
4981 -4985 0
4984 4985 -4986 0
-4984 4986 0
-4985 4986 0
-242 -4803 4987 0
242 -4987 0
4803 -4987 0
-4733 -4987 -4988 0
4733 4987 -4988 0
4733 -4987 4988 0
-4733 4987 4988 0
-4988 -4986 -4989 0
4988 4986 -4989 0
4988 -4986 4989 0
-4988 4986 4989 0
-4988 -4986 4990 0
4988 -4990 0
4986 -4990 0
-4733 -4987 4991 0
4733 -4991 0
4987 -4991 0
4990 4991 -4992 0
-4990 4992 0
-4991 4992 0
-250 -4803 4993 0
250 -4993 0
4803 -4993 0
-4739 -4993 -4994 0
4739 4993 -4994 0
4739 -4993 4994 0
-4739 4993 4994 0
-4994 -4992 -4995 0
4994 4992 -4995 0
4994 -4992 4995 0
-4994 4992 4995 0
-4994 -4992 4996 0
4994 -4996 0
4992 -4996 0
-4739 -4993 4997 0
4739 -4997 0
4993 -4997 0
4996 4997 -4998 0
-4996 4998 0
-4997 4998 0
-258 -4803 4999 0
258 -4999 0
4803 -4999 0
-4745 -4999 -5000 0
4745 4999 -5000 0
4745 -4999 5000 0
-4745 4999 5000 0
-5000 -4998 -5001 0
5000 4998 -5001 0
5000 -4998 5001 0
-5000 4998 5001 0
-5000 -4998 5002 0
5000 -5002 0
4998 -5002 0
-4745 -4999 5003 0
4745 -5003 0
4999 -5003 0
5002 5003 -5004 0
-5002 5004 0
-5003 5004 0
-266 -4803 5005 0
266 -5005 0
4803 -5005 0
-4751 -5005 -5006 0
4751 5005 -5006 0
4751 -5005 5006 0
-4751 5005 5006 0
-5006 -5004 -5007 0
5006 5004 -5007 0
5006 -5004 5007 0
-5006 5004 5007 0
-5006 -5004 5008 0
5006 -5008 0
5004 -5008 0
-4751 -5005 5009 0
4751 -5009 0
5005 -5009 0
5008 5009 -5010 0
-5008 5010 0
-5009 5010 0
-274 -4803 5011 0
274 -5011 0
4803 -5011 0
-4757 -5011 -5012 0
4757 5011 -5012 0
4757 -5011 5012 0
-4757 5011 5012 0
-5012 -5010 -5013 0
5012 5010 -5013 0
5012 -5010 5013 0
-5012 5010 5013 0
-5012 -5010 5014 0
5012 -5014 0
5010 -5014 0
-4757 -5011 5015 0
4757 -5015 0
5011 -5015 0
5014 5015 -5016 0
-5014 5016 0
-5015 5016 0
-282 -4803 5017 0
282 -5017 0
4803 -5017 0
-4763 -5017 -5018 0
4763 5017 -5018 0
4763 -5017 5018 0
-4763 5017 5018 0
-5018 -5016 -5019 0
5018 5016 -5019 0
5018 -5016 5019 0
-5018 5016 5019 0
-5018 -5016 5020 0
5018 -5020 0
5016 -5020 0
-4763 -5017 5021 0
4763 -5021 0
5017 -5021 0
5020 5021 -5022 0
-5020 5022 0
-5021 5022 0
-290 -4803 5023 0
290 -5023 0
4803 -5023 0
-4769 -5023 -5024 0
4769 5023 -5024 0
4769 -5023 5024 0
-4769 5023 5024 0
-5024 -5022 -5025 0
5024 5022 -5025 0
5024 -5022 5025 0
-5024 5022 5025 0
-5024 -5022 5026 0
5024 -5026 0
5022 -5026 0
-4769 -5023 5027 0
4769 -5027 0
5023 -5027 0
5026 5027 -5028 0
-5026 5028 0
-5027 5028 0
-298 -4803 5029 0
298 -5029 0
4803 -5029 0
-4775 -5029 -5030 0
4775 5029 -5030 0
4775 -5029 5030 0
-4775 5029 5030 0
-5030 -5028 -5031 0
5030 5028 -5031 0
5030 -5028 5031 0
-5030 5028 5031 0
-5030 -5028 5032 0
5030 -5032 0
5028 -5032 0
-4775 -5029 5033 0
4775 -5033 0
5029 -5033 0
5032 5033 -5034 0
-5032 5034 0
-5033 5034 0
-306 -4803 5035 0
306 -5035 0
4803 -5035 0
-4781 -5035 -5036 0
4781 5035 -5036 0
4781 -5035 5036 0
-4781 5035 5036 0
-5036 -5034 -5037 0
5036 5034 -5037 0
5036 -5034 5037 0
-5036 5034 5037 0
-5036 -5034 5038 0
5036 -5038 0
5034 -5038 0
-4781 -5035 5039 0
4781 -5039 0
5035 -5039 0
5038 5039 -5040 0
-5038 5040 0
-5039 5040 0
-314 -4803 5041 0
314 -5041 0
4803 -5041 0
-4787 -5041 -5042 0
4787 5041 -5042 0
4787 -5041 5042 0
-4787 5041 5042 0
-5042 -5040 -5043 0
5042 5040 -5043 0
5042 -5040 5043 0
-5042 5040 5043 0
-5042 -5040 5044 0
5042 -5044 0
5040 -5044 0
-4787 -5041 5045 0
4787 -5045 0
5041 -5045 0
5044 5045 -5046 0
-5044 5046 0
-5045 5046 0
-322 -4803 5047 0
322 -5047 0
4803 -5047 0
-4793 -5047 -5048 0
4793 5047 -5048 0
4793 -5047 5048 0
-4793 5047 5048 0
-5048 -5046 -5049 0
5048 5046 -5049 0
5048 -5046 5049 0
-5048 5046 5049 0
-5048 -5046 5050 0
5048 -5050 0
5046 -5050 0
-4793 -5047 5051 0
4793 -5051 0
5047 -5051 0
5050 5051 -5052 0
-5050 5052 0
-5051 5052 0
-330 -4803 5053 0
330 -5053 0
4803 -5053 0
-4799 -5053 -5054 0
4799 5053 -5054 0
4799 -5053 5054 0
-4799 5053 5054 0
-5054 -5052 -5055 0
5054 5052 -5055 0
5054 -5052 5055 0
-5054 5052 5055 0
-5054 -5052 5056 0
5054 -5056 0
5052 -5056 0
-4799 -5053 5057 0
4799 -5057 0
5053 -5057 0
5056 5057 -5058 0
-5056 5058 0
-5057 5058 0
-338 -4803 5059 0
338 -5059 0
4803 -5059 0
-4802 -5059 -5060 0
4802 5059 -5060 0
4802 -5059 5060 0
-4802 5059 5060 0
-5060 -5058 -5061 0
5060 5058 -5061 0
5060 -5058 5061 0
-5060 5058 5061 0
-5060 -5058 5062 0
5060 -5062 0
5058 -5062 0
-4802 -5059 5063 0
4802 -5063 0
5059 -5063 0
5062 5063 -5064 0
-5062 5064 0
-5063 5064 0
-1 -5065 5066 0
1 -5066 0
5065 -5066 0
-4809 -5066 -5067 0
4809 5066 -5067 0
4809 -5066 5067 0
-4809 5066 5067 0
-4809 -5066 5068 0
4809 -5068 0
5066 -5068 0
-4 -5065 5069 0
4 -5069 0
5065 -5069 0
-4815 -5069 -5070 0
4815 5069 -5070 0
4815 -5069 5070 0
-4815 5069 5070 0
-5070 -5068 -5071 0
5070 5068 -5071 0
5070 -5068 5071 0
-5070 5068 5071 0
-5070 -5068 5072 0
5070 -5072 0
5068 -5072 0
-4815 -5069 5073 0
4815 -5073 0
5069 -5073 0
5072 5073 -5074 0
-5072 5074 0
-5073 5074 0
-10 -5065 5075 0
10 -5075 0
5065 -5075 0
-4821 -5075 -5076 0
4821 5075 -5076 0
4821 -5075 5076 0
-4821 5075 5076 0
-5076 -5074 -5077 0
5076 5074 -5077 0
5076 -5074 5077 0
-5076 5074 5077 0
-5076 -5074 5078 0
5076 -5078 0
5074 -5078 0
-4821 -5075 5079 0
4821 -5079 0
5075 -5079 0
5078 5079 -5080 0
-5078 5080 0
-5079 5080 0
-18 -5065 5081 0
18 -5081 0
5065 -5081 0
-4827 -5081 -5082 0
4827 5081 -5082 0
4827 -5081 5082 0
-4827 5081 5082 0
-5082 -5080 -5083 0
5082 5080 -5083 0
5082 -5080 5083 0
-5082 5080 5083 0
-5082 -5080 5084 0
5082 -5084 0
5080 -5084 0
-4827 -5081 5085 0
4827 -5085 0
5081 -5085 0
5084 5085 -5086 0
-5084 5086 0
-5085 5086 0
-26 -5065 5087 0
26 -5087 0
5065 -5087 0
-4833 -5087 -5088 0
4833 5087 -5088 0
4833 -5087 5088 0
-4833 5087 5088 0
-5088 -5086 -5089 0
5088 5086 -5089 0
5088 -5086 5089 0
-5088 5086 5089 0
-5088 -5086 5090 0
5088 -5090 0
5086 -5090 0
-4833 -5087 5091 0
4833 -5091 0
5087 -5091 0
5090 5091 -5092 0
-5090 5092 0
-5091 5092 0
-34 -5065 5093 0
34 -5093 0
5065 -5093 0
-4839 -5093 -5094 0
4839 5093 -5094 0
4839 -5093 5094 0
-4839 5093 5094 0
-5094 -5092 -5095 0
5094 5092 -5095 0
5094 -5092 5095 0
-5094 5092 5095 0
-5094 -5092 5096 0
5094 -5096 0
5092 -5096 0
-4839 -5093 5097 0
4839 -5097 0
5093 -5097 0
5096 5097 -5098 0
-5096 5098 0
-5097 5098 0
-42 -5065 5099 0
42 -5099 0
5065 -5099 0
-4845 -5099 -5100 0
4845 5099 -5100 0
4845 -5099 5100 0
-4845 5099 5100 0
-5100 -5098 -5101 0
5100 5098 -5101 0
5100 -5098 5101 0
-5100 5098 5101 0
-5100 -5098 5102 0
5100 -5102 0
5098 -5102 0
-4845 -5099 5103 0
4845 -5103 0
5099 -5103 0
5102 5103 -5104 0
-5102 5104 0
-5103 5104 0
-50 -5065 5105 0
50 -5105 0
5065 -5105 0
-4851 -5105 -5106 0
4851 5105 -5106 0
4851 -5105 5106 0
-4851 5105 5106 0
-5106 -5104 -5107 0
5106 5104 -5107 0
5106 -5104 5107 0
-5106 5104 5107 0
-5106 -5104 5108 0
5106 -5108 0
5104 -5108 0
-4851 -5105 5109 0
4851 -5109 0
5105 -5109 0
5108 5109 -5110 0
-5108 5110 0
-5109 5110 0
-58 -5065 5111 0
58 -5111 0
5065 -5111 0
-4857 -5111 -5112 0
4857 5111 -5112 0
4857 -5111 5112 0
-4857 5111 5112 0
-5112 -5110 -5113 0
5112 5110 -5113 0
5112 -5110 5113 0
-5112 5110 5113 0
-5112 -5110 5114 0
5112 -5114 0
5110 -5114 0
-4857 -5111 5115 0
4857 -5115 0
5111 -5115 0
5114 5115 -5116 0
-5114 5116 0
-5115 5116 0
-66 -5065 5117 0
66 -5117 0
5065 -5117 0
-4863 -5117 -5118 0
4863 5117 -5118 0
4863 -5117 5118 0
-4863 5117 5118 0
-5118 -5116 -5119 0
5118 5116 -5119 0
5118 -5116 5119 0
-5118 5116 5119 0
-5118 -5116 5120 0
5118 -5120 0
5116 -5120 0
-4863 -5117 5121 0
4863 -5121 0
5117 -5121 0
5120 5121 -5122 0
-5120 5122 0
-5121 5122 0
-74 -5065 5123 0
74 -5123 0
5065 -5123 0
-4869 -5123 -5124 0
4869 5123 -5124 0
4869 -5123 5124 0
-4869 5123 5124 0
-5124 -5122 -5125 0
5124 5122 -5125 0
5124 -5122 5125 0
-5124 5122 5125 0
-5124 -5122 5126 0
5124 -5126 0
5122 -5126 0
-4869 -5123 5127 0
4869 -5127 0
5123 -5127 0
5126 5127 -5128 0
-5126 5128 0
-5127 5128 0
-82 -5065 5129 0
82 -5129 0
5065 -5129 0
-4875 -5129 -5130 0
4875 5129 -5130 0
4875 -5129 5130 0
-4875 5129 5130 0
-5130 -5128 -5131 0
5130 5128 -5131 0
5130 -5128 5131 0
-5130 5128 5131 0
-5130 -5128 5132 0
5130 -5132 0
5128 -5132 0
-4875 -5129 5133 0
4875 -5133 0
5129 -5133 0
5132 5133 -5134 0
-5132 5134 0
-5133 5134 0
-90 -5065 5135 0
90 -5135 0
5065 -5135 0
-4881 -5135 -5136 0
4881 5135 -5136 0
4881 -5135 5136 0
-4881 5135 5136 0
-5136 -5134 -5137 0
5136 5134 -5137 0
5136 -5134 5137 0
-5136 5134 5137 0
-5136 -5134 5138 0
5136 -5138 0
5134 -5138 0
-4881 -5135 5139 0
4881 -5139 0
5135 -5139 0
5138 5139 -5140 0
-5138 5140 0
-5139 5140 0
-98 -5065 5141 0
98 -5141 0
5065 -5141 0
-4887 -5141 -5142 0
4887 5141 -5142 0
4887 -5141 5142 0
-4887 5141 5142 0
-5142 -5140 -5143 0
5142 5140 -5143 0
5142 -5140 5143 0
-5142 5140 5143 0
-5142 -5140 5144 0
5142 -5144 0
5140 -5144 0
-4887 -5141 5145 0
4887 -5145 0
5141 -5145 0
5144 5145 -5146 0
-5144 5146 0
-5145 5146 0
-106 -5065 5147 0
106 -5147 0
5065 -5147 0
-4893 -5147 -5148 0
4893 5147 -5148 0
4893 -5147 5148 0
-4893 5147 5148 0
-5148 -5146 -5149 0
5148 5146 -5149 0
5148 -5146 5149 0
-5148 5146 5149 0
-5148 -5146 5150 0
5148 -5150 0
5146 -5150 0
-4893 -5147 5151 0
4893 -5151 0
5147 -5151 0
5150 5151 -5152 0
-5150 5152 0
-5151 5152 0
-114 -5065 5153 0
114 -5153 0
5065 -5153 0
-4899 -5153 -5154 0
4899 5153 -5154 0
4899 -5153 5154 0
-4899 5153 5154 0
-5154 -5152 -5155 0
5154 5152 -5155 0
5154 -5152 5155 0
-5154 5152 5155 0
-5154 -5152 5156 0
5154 -5156 0
5152 -5156 0
-4899 -5153 5157 0
4899 -5157 0
5153 -5157 0
5156 5157 -5158 0
-5156 5158 0
-5157 5158 0
-122 -5065 5159 0
122 -5159 0
5065 -5159 0
-4905 -5159 -5160 0
4905 5159 -5160 0
4905 -5159 5160 0
-4905 5159 5160 0
-5160 -5158 -5161 0
5160 5158 -5161 0
5160 -5158 5161 0
-5160 5158 5161 0
-5160 -5158 5162 0
5160 -5162 0
5158 -5162 0
-4905 -5159 5163 0
4905 -5163 0
5159 -5163 0
5162 5163 -5164 0
-5162 5164 0
-5163 5164 0
-130 -5065 5165 0
130 -5165 0
5065 -5165 0
-4911 -5165 -5166 0
4911 5165 -5166 0
4911 -5165 5166 0
-4911 5165 5166 0
-5166 -5164 -5167 0
5166 5164 -5167 0
5166 -5164 5167 0
-5166 5164 5167 0
-5166 -5164 5168 0
5166 -5168 0
5164 -5168 0
-4911 -5165 5169 0
4911 -5169 0
5165 -5169 0
5168 5169 -5170 0
-5168 5170 0
-5169 5170 0
-138 -5065 5171 0
138 -5171 0
5065 -5171 0
-4917 -5171 -5172 0
4917 5171 -5172 0
4917 -5171 5172 0
-4917 5171 5172 0
-5172 -5170 -5173 0
5172 5170 -5173 0
5172 -5170 5173 0
-5172 5170 5173 0
-5172 -5170 5174 0
5172 -5174 0
5170 -5174 0
-4917 -5171 5175 0
4917 -5175 0
5171 -5175 0
5174 5175 -5176 0
-5174 5176 0
-5175 5176 0
-146 -5065 5177 0
146 -5177 0
5065 -5177 0
-4923 -5177 -5178 0
4923 5177 -5178 0
4923 -5177 5178 0
-4923 5177 5178 0
-5178 -5176 -5179 0
5178 5176 -5179 0
5178 -5176 5179 0
-5178 5176 5179 0
-5178 -5176 5180 0
5178 -5180 0
5176 -5180 0
-4923 -5177 5181 0
4923 -5181 0
5177 -5181 0
5180 5181 -5182 0
-5180 5182 0
-5181 5182 0
-154 -5065 5183 0
154 -5183 0
5065 -5183 0
-4929 -5183 -5184 0
4929 5183 -5184 0
4929 -5183 5184 0
-4929 5183 5184 0
-5184 -5182 -5185 0
5184 5182 -5185 0
5184 -5182 5185 0
-5184 5182 5185 0
-5184 -5182 5186 0
5184 -5186 0
5182 -5186 0
-4929 -5183 5187 0
4929 -5187 0
5183 -5187 0
5186 5187 -5188 0
-5186 5188 0
-5187 5188 0
-162 -5065 5189 0
162 -5189 0
5065 -5189 0
-4935 -5189 -5190 0
4935 5189 -5190 0
4935 -5189 5190 0
-4935 5189 5190 0
-5190 -5188 -5191 0
5190 5188 -5191 0
5190 -5188 5191 0
-5190 5188 5191 0
-5190 -5188 5192 0
5190 -5192 0
5188 -5192 0
-4935 -5189 5193 0
4935 -5193 0
5189 -5193 0
5192 5193 -5194 0
-5192 5194 0
-5193 5194 0
-170 -5065 5195 0
170 -5195 0
5065 -5195 0
-4941 -5195 -5196 0
4941 5195 -5196 0
4941 -5195 5196 0
-4941 5195 5196 0
-5196 -5194 -5197 0
5196 5194 -5197 0
5196 -5194 5197 0
-5196 5194 5197 0
-5196 -5194 5198 0
5196 -5198 0
5194 -5198 0
-4941 -5195 5199 0
4941 -5199 0
5195 -5199 0
5198 5199 -5200 0
-5198 5200 0
-5199 5200 0
-178 -5065 5201 0
178 -5201 0
5065 -5201 0
-4947 -5201 -5202 0
4947 5201 -5202 0
4947 -5201 5202 0
-4947 5201 5202 0
-5202 -5200 -5203 0
5202 5200 -5203 0
5202 -5200 5203 0
-5202 5200 5203 0
-5202 -5200 5204 0
5202 -5204 0
5200 -5204 0
-4947 -5201 5205 0
4947 -5205 0
5201 -5205 0
5204 5205 -5206 0
-5204 5206 0
-5205 5206 0
-186 -5065 5207 0
186 -5207 0
5065 -5207 0
-4953 -5207 -5208 0
4953 5207 -5208 0
4953 -5207 5208 0
-4953 5207 5208 0
-5208 -5206 -5209 0
5208 5206 -5209 0
5208 -5206 5209 0
-5208 5206 5209 0
-5208 -5206 5210 0
5208 -5210 0
5206 -5210 0
-4953 -5207 5211 0
4953 -5211 0
5207 -5211 0
5210 5211 -5212 0
-5210 5212 0
-5211 5212 0
-194 -5065 5213 0
194 -5213 0
5065 -5213 0
-4959 -5213 -5214 0
4959 5213 -5214 0
4959 -5213 5214 0
-4959 5213 5214 0
-5214 -5212 -5215 0
5214 5212 -5215 0
5214 -5212 5215 0
-5214 5212 5215 0
-5214 -5212 5216 0
5214 -5216 0
5212 -5216 0
-4959 -5213 5217 0
4959 -5217 0
5213 -5217 0
5216 5217 -5218 0
-5216 5218 0
-5217 5218 0
-202 -5065 5219 0
202 -5219 0
5065 -5219 0
-4965 -5219 -5220 0
4965 5219 -5220 0
4965 -5219 5220 0
-4965 5219 5220 0
-5220 -5218 -5221 0
5220 5218 -5221 0
5220 -5218 5221 0
-5220 5218 5221 0
-5220 -5218 5222 0
5220 -5222 0
5218 -5222 0
-4965 -5219 5223 0
4965 -5223 0
5219 -5223 0
5222 5223 -5224 0
-5222 5224 0
-5223 5224 0
-210 -5065 5225 0
210 -5225 0
5065 -5225 0
-4971 -5225 -5226 0
4971 5225 -5226 0
4971 -5225 5226 0
-4971 5225 5226 0
-5226 -5224 -5227 0
5226 5224 -5227 0
5226 -5224 5227 0
-5226 5224 5227 0
-5226 -5224 5228 0
5226 -5228 0
5224 -5228 0
-4971 -5225 5229 0
4971 -5229 0
5225 -5229 0
5228 5229 -5230 0
-5228 5230 0
-5229 5230 0
-218 -5065 5231 0
218 -5231 0
5065 -5231 0
-4977 -5231 -5232 0
4977 5231 -5232 0
4977 -5231 5232 0
-4977 5231 5232 0
-5232 -5230 -5233 0
5232 5230 -5233 0
5232 -5230 5233 0
-5232 5230 5233 0
-5232 -5230 5234 0
5232 -5234 0
5230 -5234 0
-4977 -5231 5235 0
4977 -5235 0
5231 -5235 0
5234 5235 -5236 0
-5234 5236 0
-5235 5236 0
-226 -5065 5237 0
226 -5237 0
5065 -5237 0
-4983 -5237 -5238 0
4983 5237 -5238 0
4983 -5237 5238 0
-4983 5237 5238 0
-5238 -5236 -5239 0
5238 5236 -5239 0
5238 -5236 5239 0
-5238 5236 5239 0
-5238 -5236 5240 0
5238 -5240 0
5236 -5240 0
-4983 -5237 5241 0
4983 -5241 0
5237 -5241 0
5240 5241 -5242 0
-5240 5242 0
-5241 5242 0
-234 -5065 5243 0
234 -5243 0
5065 -5243 0
-4989 -5243 -5244 0
4989 5243 -5244 0
4989 -5243 5244 0
-4989 5243 5244 0
-5244 -5242 -5245 0
5244 5242 -5245 0
5244 -5242 5245 0
-5244 5242 5245 0
-5244 -5242 5246 0
5244 -5246 0
5242 -5246 0
-4989 -5243 5247 0
4989 -5247 0
5243 -5247 0
5246 5247 -5248 0
-5246 5248 0
-5247 5248 0
-242 -5065 5249 0
242 -5249 0
5065 -5249 0
-4995 -5249 -5250 0
4995 5249 -5250 0
4995 -5249 5250 0
-4995 5249 5250 0
-5250 -5248 -5251 0
5250 5248 -5251 0
5250 -5248 5251 0
-5250 5248 5251 0
-5250 -5248 5252 0
5250 -5252 0
5248 -5252 0
-4995 -5249 5253 0
4995 -5253 0
5249 -5253 0
5252 5253 -5254 0
-5252 5254 0
-5253 5254 0
-250 -5065 5255 0
250 -5255 0
5065 -5255 0
-5001 -5255 -5256 0
5001 5255 -5256 0
5001 -5255 5256 0
-5001 5255 5256 0
-5256 -5254 -5257 0
5256 5254 -5257 0
5256 -5254 5257 0
-5256 5254 5257 0
-5256 -5254 5258 0
5256 -5258 0
5254 -5258 0
-5001 -5255 5259 0
5001 -5259 0
5255 -5259 0
5258 5259 -5260 0
-5258 5260 0
-5259 5260 0
-258 -5065 5261 0
258 -5261 0
5065 -5261 0
-5007 -5261 -5262 0
5007 5261 -5262 0
5007 -5261 5262 0
-5007 5261 5262 0
-5262 -5260 -5263 0
5262 5260 -5263 0
5262 -5260 5263 0
-5262 5260 5263 0
-5262 -5260 5264 0
5262 -5264 0
5260 -5264 0
-5007 -5261 5265 0
5007 -5265 0
5261 -5265 0
5264 5265 -5266 0
-5264 5266 0
-5265 5266 0
-266 -5065 5267 0
266 -5267 0
5065 -5267 0
-5013 -5267 -5268 0
5013 5267 -5268 0
5013 -5267 5268 0
-5013 5267 5268 0
-5268 -5266 -5269 0
5268 5266 -5269 0
5268 -5266 5269 0
-5268 5266 5269 0
-5268 -5266 5270 0
5268 -5270 0
5266 -5270 0
-5013 -5267 5271 0
5013 -5271 0
5267 -5271 0
5270 5271 -5272 0
-5270 5272 0
-5271 5272 0
-274 -5065 5273 0
274 -5273 0
5065 -5273 0
-5019 -5273 -5274 0
5019 5273 -5274 0
5019 -5273 5274 0
-5019 5273 5274 0
-5274 -5272 -5275 0
5274 5272 -5275 0
5274 -5272 5275 0
-5274 5272 5275 0
-5274 -5272 5276 0
5274 -5276 0
5272 -5276 0
-5019 -5273 5277 0
5019 -5277 0
5273 -5277 0
5276 5277 -5278 0
-5276 5278 0
-5277 5278 0
-282 -5065 5279 0
282 -5279 0
5065 -5279 0
-5025 -5279 -5280 0
5025 5279 -5280 0
5025 -5279 5280 0
-5025 5279 5280 0
-5280 -5278 -5281 0
5280 5278 -5281 0
5280 -5278 5281 0
-5280 5278 5281 0
-5280 -5278 5282 0
5280 -5282 0
5278 -5282 0
-5025 -5279 5283 0
5025 -5283 0
5279 -5283 0
5282 5283 -5284 0
-5282 5284 0
-5283 5284 0
-290 -5065 5285 0
290 -5285 0
5065 -5285 0
-5031 -5285 -5286 0
5031 5285 -5286 0
5031 -5285 5286 0
-5031 5285 5286 0
-5286 -5284 -5287 0
5286 5284 -5287 0
5286 -5284 5287 0
-5286 5284 5287 0
-5286 -5284 5288 0
5286 -5288 0
5284 -5288 0
-5031 -5285 5289 0
5031 -5289 0
5285 -5289 0
5288 5289 -5290 0
-5288 5290 0
-5289 5290 0
-298 -5065 5291 0
298 -5291 0
5065 -5291 0
-5037 -5291 -5292 0
5037 5291 -5292 0
5037 -5291 5292 0
-5037 5291 5292 0
-5292 -5290 -5293 0
5292 5290 -5293 0
5292 -5290 5293 0
-5292 5290 5293 0
-5292 -5290 5294 0
5292 -5294 0
5290 -5294 0
-5037 -5291 5295 0
5037 -5295 0
5291 -5295 0
5294 5295 -5296 0
-5294 5296 0
-5295 5296 0
-306 -5065 5297 0
306 -5297 0
5065 -5297 0
-5043 -5297 -5298 0
5043 5297 -5298 0
5043 -5297 5298 0
-5043 5297 5298 0
-5298 -5296 -5299 0
5298 5296 -5299 0
5298 -5296 5299 0
-5298 5296 5299 0
-5298 -5296 5300 0
5298 -5300 0
5296 -5300 0
-5043 -5297 5301 0
5043 -5301 0
5297 -5301 0
5300 5301 -5302 0
-5300 5302 0
-5301 5302 0
-314 -5065 5303 0
314 -5303 0
5065 -5303 0
-5049 -5303 -5304 0
5049 5303 -5304 0
5049 -5303 5304 0
-5049 5303 5304 0
-5304 -5302 -5305 0
5304 5302 -5305 0
5304 -5302 5305 0
-5304 5302 5305 0
-5304 -5302 5306 0
5304 -5306 0
5302 -5306 0
-5049 -5303 5307 0
5049 -5307 0
5303 -5307 0
5306 5307 -5308 0
-5306 5308 0
-5307 5308 0
-322 -5065 5309 0
322 -5309 0
5065 -5309 0
-5055 -5309 -5310 0
5055 5309 -5310 0
5055 -5309 5310 0
-5055 5309 5310 0
-5310 -5308 -5311 0
5310 5308 -5311 0
5310 -5308 5311 0
-5310 5308 5311 0
-5310 -5308 5312 0
5310 -5312 0
5308 -5312 0
-5055 -5309 5313 0
5055 -5313 0
5309 -5313 0
5312 5313 -5314 0
-5312 5314 0
-5313 5314 0
-330 -5065 5315 0
330 -5315 0
5065 -5315 0
-5061 -5315 -5316 0
5061 5315 -5316 0
5061 -5315 5316 0
-5061 5315 5316 0
-5316 -5314 -5317 0
5316 5314 -5317 0
5316 -5314 5317 0
-5316 5314 5317 0
-5316 -5314 5318 0
5316 -5318 0
5314 -5318 0
-5061 -5315 5319 0
5061 -5319 0
5315 -5319 0
5318 5319 -5320 0
-5318 5320 0
-5319 5320 0
-338 -5065 5321 0
338 -5321 0
5065 -5321 0
-5064 -5321 -5322 0
5064 5321 -5322 0
5064 -5321 5322 0
-5064 5321 5322 0
-5322 -5320 -5323 0
5322 5320 -5323 0
5322 -5320 5323 0
-5322 5320 5323 0
-5322 -5320 5324 0
5322 -5324 0
5320 -5324 0
-5064 -5321 5325 0
5064 -5325 0
5321 -5325 0
5324 5325 -5326 0
-5324 5326 0
-5325 5326 0
-1 -5327 5328 0
1 -5328 0
5327 -5328 0
-5071 -5328 -5329 0
5071 5328 -5329 0
5071 -5328 5329 0
-5071 5328 5329 0
-5071 -5328 5330 0
5071 -5330 0
5328 -5330 0
-4 -5327 5331 0
4 -5331 0
5327 -5331 0
-5077 -5331 -5332 0
5077 5331 -5332 0
5077 -5331 5332 0
-5077 5331 5332 0
-5332 -5330 -5333 0
5332 5330 -5333 0
5332 -5330 5333 0
-5332 5330 5333 0
-5332 -5330 5334 0
5332 -5334 0
5330 -5334 0
-5077 -5331 5335 0
5077 -5335 0
5331 -5335 0
5334 5335 -5336 0
-5334 5336 0
-5335 5336 0
-10 -5327 5337 0
10 -5337 0
5327 -5337 0
-5083 -5337 -5338 0
5083 5337 -5338 0
5083 -5337 5338 0
-5083 5337 5338 0
-5338 -5336 -5339 0
5338 5336 -5339 0
5338 -5336 5339 0
-5338 5336 5339 0
-5338 -5336 5340 0
5338 -5340 0
5336 -5340 0
-5083 -5337 5341 0
5083 -5341 0
5337 -5341 0
5340 5341 -5342 0
-5340 5342 0
-5341 5342 0
-18 -5327 5343 0
18 -5343 0
5327 -5343 0
-5089 -5343 -5344 0
5089 5343 -5344 0
5089 -5343 5344 0
-5089 5343 5344 0
-5344 -5342 -5345 0
5344 5342 -5345 0
5344 -5342 5345 0
-5344 5342 5345 0
-5344 -5342 5346 0
5344 -5346 0
5342 -5346 0
-5089 -5343 5347 0
5089 -5347 0
5343 -5347 0
5346 5347 -5348 0
-5346 5348 0
-5347 5348 0
-26 -5327 5349 0
26 -5349 0
5327 -5349 0
-5095 -5349 -5350 0
5095 5349 -5350 0
5095 -5349 5350 0
-5095 5349 5350 0
-5350 -5348 -5351 0
5350 5348 -5351 0
5350 -5348 5351 0
-5350 5348 5351 0
-5350 -5348 5352 0
5350 -5352 0
5348 -5352 0
-5095 -5349 5353 0
5095 -5353 0
5349 -5353 0
5352 5353 -5354 0
-5352 5354 0
-5353 5354 0
-34 -5327 5355 0
34 -5355 0
5327 -5355 0
-5101 -5355 -5356 0
5101 5355 -5356 0
5101 -5355 5356 0
-5101 5355 5356 0
-5356 -5354 -5357 0
5356 5354 -5357 0
5356 -5354 5357 0
-5356 5354 5357 0
-5356 -5354 5358 0
5356 -5358 0
5354 -5358 0
-5101 -5355 5359 0
5101 -5359 0
5355 -5359 0
5358 5359 -5360 0
-5358 5360 0
-5359 5360 0
-42 -5327 5361 0
42 -5361 0
5327 -5361 0
-5107 -5361 -5362 0
5107 5361 -5362 0
5107 -5361 5362 0
-5107 5361 5362 0
-5362 -5360 -5363 0
5362 5360 -5363 0
5362 -5360 5363 0
-5362 5360 5363 0
-5362 -5360 5364 0
5362 -5364 0
5360 -5364 0
-5107 -5361 5365 0
5107 -5365 0
5361 -5365 0
5364 5365 -5366 0
-5364 5366 0
-5365 5366 0
-50 -5327 5367 0
50 -5367 0
5327 -5367 0
-5113 -5367 -5368 0
5113 5367 -5368 0
5113 -5367 5368 0
-5113 5367 5368 0
-5368 -5366 -5369 0
5368 5366 -5369 0
5368 -5366 5369 0
-5368 5366 5369 0
-5368 -5366 5370 0
5368 -5370 0
5366 -5370 0
-5113 -5367 5371 0
5113 -5371 0
5367 -5371 0
5370 5371 -5372 0
-5370 5372 0
-5371 5372 0
-58 -5327 5373 0
58 -5373 0
5327 -5373 0
-5119 -5373 -5374 0
5119 5373 -5374 0
5119 -5373 5374 0
-5119 5373 5374 0
-5374 -5372 -5375 0
5374 5372 -5375 0
5374 -5372 5375 0
-5374 5372 5375 0
-5374 -5372 5376 0
5374 -5376 0
5372 -5376 0
-5119 -5373 5377 0
5119 -5377 0
5373 -5377 0
5376 5377 -5378 0
-5376 5378 0
-5377 5378 0
-66 -5327 5379 0
66 -5379 0
5327 -5379 0
-5125 -5379 -5380 0
5125 5379 -5380 0
5125 -5379 5380 0
-5125 5379 5380 0
-5380 -5378 -5381 0
5380 5378 -5381 0
5380 -5378 5381 0
-5380 5378 5381 0
-5380 -5378 5382 0
5380 -5382 0
5378 -5382 0
-5125 -5379 5383 0
5125 -5383 0
5379 -5383 0
5382 5383 -5384 0
-5382 5384 0
-5383 5384 0
-74 -5327 5385 0
74 -5385 0
5327 -5385 0
-5131 -5385 -5386 0
5131 5385 -5386 0
5131 -5385 5386 0
-5131 5385 5386 0
-5386 -5384 -5387 0
5386 5384 -5387 0
5386 -5384 5387 0
-5386 5384 5387 0
-5386 -5384 5388 0
5386 -5388 0
5384 -5388 0
-5131 -5385 5389 0
5131 -5389 0
5385 -5389 0
5388 5389 -5390 0
-5388 5390 0
-5389 5390 0
-82 -5327 5391 0
82 -5391 0
5327 -5391 0
-5137 -5391 -5392 0
5137 5391 -5392 0
5137 -5391 5392 0
-5137 5391 5392 0
-5392 -5390 -5393 0
5392 5390 -5393 0
5392 -5390 5393 0
-5392 5390 5393 0
-5392 -5390 5394 0
5392 -5394 0
5390 -5394 0
-5137 -5391 5395 0
5137 -5395 0
5391 -5395 0
5394 5395 -5396 0
-5394 5396 0
-5395 5396 0
-90 -5327 5397 0
90 -5397 0
5327 -5397 0
-5143 -5397 -5398 0
5143 5397 -5398 0
5143 -5397 5398 0
-5143 5397 5398 0
-5398 -5396 -5399 0
5398 5396 -5399 0
5398 -5396 5399 0
-5398 5396 5399 0
-5398 -5396 5400 0
5398 -5400 0
5396 -5400 0
-5143 -5397 5401 0
5143 -5401 0
5397 -5401 0
5400 5401 -5402 0
-5400 5402 0
-5401 5402 0
-98 -5327 5403 0
98 -5403 0
5327 -5403 0
-5149 -5403 -5404 0
5149 5403 -5404 0
5149 -5403 5404 0
-5149 5403 5404 0
-5404 -5402 -5405 0
5404 5402 -5405 0
5404 -5402 5405 0
-5404 5402 5405 0
-5404 -5402 5406 0
5404 -5406 0
5402 -5406 0
-5149 -5403 5407 0
5149 -5407 0
5403 -5407 0
5406 5407 -5408 0
-5406 5408 0
-5407 5408 0
-106 -5327 5409 0
106 -5409 0
5327 -5409 0
-5155 -5409 -5410 0
5155 5409 -5410 0
5155 -5409 5410 0
-5155 5409 5410 0
-5410 -5408 -5411 0
5410 5408 -5411 0
5410 -5408 5411 0
-5410 5408 5411 0
-5410 -5408 5412 0
5410 -5412 0
5408 -5412 0
-5155 -5409 5413 0
5155 -5413 0
5409 -5413 0
5412 5413 -5414 0
-5412 5414 0
-5413 5414 0
-114 -5327 5415 0
114 -5415 0
5327 -5415 0
-5161 -5415 -5416 0
5161 5415 -5416 0
5161 -5415 5416 0
-5161 5415 5416 0
-5416 -5414 -5417 0
5416 5414 -5417 0
5416 -5414 5417 0
-5416 5414 5417 0
-5416 -5414 5418 0
5416 -5418 0
5414 -5418 0
-5161 -5415 5419 0
5161 -5419 0
5415 -5419 0
5418 5419 -5420 0
-5418 5420 0
-5419 5420 0
-122 -5327 5421 0
122 -5421 0
5327 -5421 0
-5167 -5421 -5422 0
5167 5421 -5422 0
5167 -5421 5422 0
-5167 5421 5422 0
-5422 -5420 -5423 0
5422 5420 -5423 0
5422 -5420 5423 0
-5422 5420 5423 0
-5422 -5420 5424 0
5422 -5424 0
5420 -5424 0
-5167 -5421 5425 0
5167 -5425 0
5421 -5425 0
5424 5425 -5426 0
-5424 5426 0
-5425 5426 0
-130 -5327 5427 0
130 -5427 0
5327 -5427 0
-5173 -5427 -5428 0
5173 5427 -5428 0
5173 -5427 5428 0
-5173 5427 5428 0
-5428 -5426 -5429 0
5428 5426 -5429 0
5428 -5426 5429 0
-5428 5426 5429 0
-5428 -5426 5430 0
5428 -5430 0
5426 -5430 0
-5173 -5427 5431 0
5173 -5431 0
5427 -5431 0
5430 5431 -5432 0
-5430 5432 0
-5431 5432 0
-138 -5327 5433 0
138 -5433 0
5327 -5433 0
-5179 -5433 -5434 0
5179 5433 -5434 0
5179 -5433 5434 0
-5179 5433 5434 0
-5434 -5432 -5435 0
5434 5432 -5435 0
5434 -5432 5435 0
-5434 5432 5435 0
-5434 -5432 5436 0
5434 -5436 0
5432 -5436 0
-5179 -5433 5437 0
5179 -5437 0
5433 -5437 0
5436 5437 -5438 0
-5436 5438 0
-5437 5438 0
-146 -5327 5439 0
146 -5439 0
5327 -5439 0
-5185 -5439 -5440 0
5185 5439 -5440 0
5185 -5439 5440 0
-5185 5439 5440 0
-5440 -5438 -5441 0
5440 5438 -5441 0
5440 -5438 5441 0
-5440 5438 5441 0
-5440 -5438 5442 0
5440 -5442 0
5438 -5442 0
-5185 -5439 5443 0
5185 -5443 0
5439 -5443 0
5442 5443 -5444 0
-5442 5444 0
-5443 5444 0
-154 -5327 5445 0
154 -5445 0
5327 -5445 0
-5191 -5445 -5446 0
5191 5445 -5446 0
5191 -5445 5446 0
-5191 5445 5446 0
-5446 -5444 -5447 0
5446 5444 -5447 0
5446 -5444 5447 0
-5446 5444 5447 0
-5446 -5444 5448 0
5446 -5448 0
5444 -5448 0
-5191 -5445 5449 0
5191 -5449 0
5445 -5449 0
5448 5449 -5450 0
-5448 5450 0
-5449 5450 0
-162 -5327 5451 0
162 -5451 0
5327 -5451 0
-5197 -5451 -5452 0
5197 5451 -5452 0
5197 -5451 5452 0
-5197 5451 5452 0
-5452 -5450 -5453 0
5452 5450 -5453 0
5452 -5450 5453 0
-5452 5450 5453 0
-5452 -5450 5454 0
5452 -5454 0
5450 -5454 0
-5197 -5451 5455 0
5197 -5455 0
5451 -5455 0
5454 5455 -5456 0
-5454 5456 0
-5455 5456 0
-170 -5327 5457 0
170 -5457 0
5327 -5457 0
-5203 -5457 -5458 0
5203 5457 -5458 0
5203 -5457 5458 0
-5203 5457 5458 0
-5458 -5456 -5459 0
5458 5456 -5459 0
5458 -5456 5459 0
-5458 5456 5459 0
-5458 -5456 5460 0
5458 -5460 0
5456 -5460 0
-5203 -5457 5461 0
5203 -5461 0
5457 -5461 0
5460 5461 -5462 0
-5460 5462 0
-5461 5462 0
-178 -5327 5463 0
178 -5463 0
5327 -5463 0
-5209 -5463 -5464 0
5209 5463 -5464 0
5209 -5463 5464 0
-5209 5463 5464 0
-5464 -5462 -5465 0
5464 5462 -5465 0
5464 -5462 5465 0
-5464 5462 5465 0
-5464 -5462 5466 0
5464 -5466 0
5462 -5466 0
-5209 -5463 5467 0
5209 -5467 0
5463 -5467 0
5466 5467 -5468 0
-5466 5468 0
-5467 5468 0
-186 -5327 5469 0
186 -5469 0
5327 -5469 0
-5215 -5469 -5470 0
5215 5469 -5470 0
5215 -5469 5470 0
-5215 5469 5470 0
-5470 -5468 -5471 0
5470 5468 -5471 0
5470 -5468 5471 0
-5470 5468 5471 0
-5470 -5468 5472 0
5470 -5472 0
5468 -5472 0
-5215 -5469 5473 0
5215 -5473 0
5469 -5473 0
5472 5473 -5474 0
-5472 5474 0
-5473 5474 0
-194 -5327 5475 0
194 -5475 0
5327 -5475 0
-5221 -5475 -5476 0
5221 5475 -5476 0
5221 -5475 5476 0
-5221 5475 5476 0
-5476 -5474 -5477 0
5476 5474 -5477 0
5476 -5474 5477 0
-5476 5474 5477 0
-5476 -5474 5478 0
5476 -5478 0
5474 -5478 0
-5221 -5475 5479 0
5221 -5479 0
5475 -5479 0
5478 5479 -5480 0
-5478 5480 0
-5479 5480 0
-202 -5327 5481 0
202 -5481 0
5327 -5481 0
-5227 -5481 -5482 0
5227 5481 -5482 0
5227 -5481 5482 0
-5227 5481 5482 0
-5482 -5480 -5483 0
5482 5480 -5483 0
5482 -5480 5483 0
-5482 5480 5483 0
-5482 -5480 5484 0
5482 -5484 0
5480 -5484 0
-5227 -5481 5485 0
5227 -5485 0
5481 -5485 0
5484 5485 -5486 0
-5484 5486 0
-5485 5486 0
-210 -5327 5487 0
210 -5487 0
5327 -5487 0
-5233 -5487 -5488 0
5233 5487 -5488 0
5233 -5487 5488 0
-5233 5487 5488 0
-5488 -5486 -5489 0
5488 5486 -5489 0
5488 -5486 5489 0
-5488 5486 5489 0
-5488 -5486 5490 0
5488 -5490 0
5486 -5490 0
-5233 -5487 5491 0
5233 -5491 0
5487 -5491 0
5490 5491 -5492 0
-5490 5492 0
-5491 5492 0
-218 -5327 5493 0
218 -5493 0
5327 -5493 0
-5239 -5493 -5494 0
5239 5493 -5494 0
5239 -5493 5494 0
-5239 5493 5494 0
-5494 -5492 -5495 0
5494 5492 -5495 0
5494 -5492 5495 0
-5494 5492 5495 0
-5494 -5492 5496 0
5494 -5496 0
5492 -5496 0
-5239 -5493 5497 0
5239 -5497 0
5493 -5497 0
5496 5497 -5498 0
-5496 5498 0
-5497 5498 0
-226 -5327 5499 0
226 -5499 0
5327 -5499 0
-5245 -5499 -5500 0
5245 5499 -5500 0
5245 -5499 5500 0
-5245 5499 5500 0
-5500 -5498 -5501 0
5500 5498 -5501 0
5500 -5498 5501 0
-5500 5498 5501 0
-5500 -5498 5502 0
5500 -5502 0
5498 -5502 0
-5245 -5499 5503 0
5245 -5503 0
5499 -5503 0
5502 5503 -5504 0
-5502 5504 0
-5503 5504 0
-234 -5327 5505 0
234 -5505 0
5327 -5505 0
-5251 -5505 -5506 0
5251 5505 -5506 0
5251 -5505 5506 0
-5251 5505 5506 0
-5506 -5504 -5507 0
5506 5504 -5507 0
5506 -5504 5507 0
-5506 5504 5507 0
-5506 -5504 5508 0
5506 -5508 0
5504 -5508 0
-5251 -5505 5509 0
5251 -5509 0
5505 -5509 0
5508 5509 -5510 0
-5508 5510 0
-5509 5510 0
-242 -5327 5511 0
242 -5511 0
5327 -5511 0
-5257 -5511 -5512 0
5257 5511 -5512 0
5257 -5511 5512 0
-5257 5511 5512 0
-5512 -5510 -5513 0
5512 5510 -5513 0
5512 -5510 5513 0
-5512 5510 5513 0
-5512 -5510 5514 0
5512 -5514 0
5510 -5514 0
-5257 -5511 5515 0
5257 -5515 0
5511 -5515 0
5514 5515 -5516 0
-5514 5516 0
-5515 5516 0
-250 -5327 5517 0
250 -5517 0
5327 -5517 0
-5263 -5517 -5518 0
5263 5517 -5518 0
5263 -5517 5518 0
-5263 5517 5518 0
-5518 -5516 -5519 0
5518 5516 -5519 0
5518 -5516 5519 0
-5518 5516 5519 0
-5518 -5516 5520 0
5518 -5520 0
5516 -5520 0
-5263 -5517 5521 0
5263 -5521 0
5517 -5521 0
5520 5521 -5522 0
-5520 5522 0
-5521 5522 0
-258 -5327 5523 0
258 -5523 0
5327 -5523 0
-5269 -5523 -5524 0
5269 5523 -5524 0
5269 -5523 5524 0
-5269 5523 5524 0
-5524 -5522 -5525 0
5524 5522 -5525 0
5524 -5522 5525 0
-5524 5522 5525 0
-5524 -5522 5526 0
5524 -5526 0
5522 -5526 0
-5269 -5523 5527 0
5269 -5527 0
5523 -5527 0
5526 5527 -5528 0
-5526 5528 0
-5527 5528 0
-266 -5327 5529 0
266 -5529 0
5327 -5529 0
-5275 -5529 -5530 0
5275 5529 -5530 0
5275 -5529 5530 0
-5275 5529 5530 0
-5530 -5528 -5531 0
5530 5528 -5531 0
5530 -5528 5531 0
-5530 5528 5531 0
-5530 -5528 5532 0
5530 -5532 0
5528 -5532 0
-5275 -5529 5533 0
5275 -5533 0
5529 -5533 0
5532 5533 -5534 0
-5532 5534 0
-5533 5534 0
-274 -5327 5535 0
274 -5535 0
5327 -5535 0
-5281 -5535 -5536 0
5281 5535 -5536 0
5281 -5535 5536 0
-5281 5535 5536 0
-5536 -5534 -5537 0
5536 5534 -5537 0
5536 -5534 5537 0
-5536 5534 5537 0
-5536 -5534 5538 0
5536 -5538 0
5534 -5538 0
-5281 -5535 5539 0
5281 -5539 0
5535 -5539 0
5538 5539 -5540 0
-5538 5540 0
-5539 5540 0
-282 -5327 5541 0
282 -5541 0
5327 -5541 0
-5287 -5541 -5542 0
5287 5541 -5542 0
5287 -5541 5542 0
-5287 5541 5542 0
-5542 -5540 -5543 0
5542 5540 -5543 0
5542 -5540 5543 0
-5542 5540 5543 0
-5542 -5540 5544 0
5542 -5544 0
5540 -5544 0
-5287 -5541 5545 0
5287 -5545 0
5541 -5545 0
5544 5545 -5546 0
-5544 5546 0
-5545 5546 0
-290 -5327 5547 0
290 -5547 0
5327 -5547 0
-5293 -5547 -5548 0
5293 5547 -5548 0
5293 -5547 5548 0
-5293 5547 5548 0
-5548 -5546 -5549 0
5548 5546 -5549 0
5548 -5546 5549 0
-5548 5546 5549 0
-5548 -5546 5550 0
5548 -5550 0
5546 -5550 0
-5293 -5547 5551 0
5293 -5551 0
5547 -5551 0
5550 5551 -5552 0
-5550 5552 0
-5551 5552 0
-298 -5327 5553 0
298 -5553 0
5327 -5553 0
-5299 -5553 -5554 0
5299 5553 -5554 0
5299 -5553 5554 0
-5299 5553 5554 0
-5554 -5552 -5555 0
5554 5552 -5555 0
5554 -5552 5555 0
-5554 5552 5555 0
-5554 -5552 5556 0
5554 -5556 0
5552 -5556 0
-5299 -5553 5557 0
5299 -5557 0
5553 -5557 0
5556 5557 -5558 0
-5556 5558 0
-5557 5558 0
-306 -5327 5559 0
306 -5559 0
5327 -5559 0
-5305 -5559 -5560 0
5305 5559 -5560 0
5305 -5559 5560 0
-5305 5559 5560 0
-5560 -5558 -5561 0
5560 5558 -5561 0
5560 -5558 5561 0
-5560 5558 5561 0
-5560 -5558 5562 0
5560 -5562 0
5558 -5562 0
-5305 -5559 5563 0
5305 -5563 0
5559 -5563 0
5562 5563 -5564 0
-5562 5564 0
-5563 5564 0
-314 -5327 5565 0
314 -5565 0
5327 -5565 0
-5311 -5565 -5566 0
5311 5565 -5566 0
5311 -5565 5566 0
-5311 5565 5566 0
-5566 -5564 -5567 0
5566 5564 -5567 0
5566 -5564 5567 0
-5566 5564 5567 0
-5566 -5564 5568 0
5566 -5568 0
5564 -5568 0
-5311 -5565 5569 0
5311 -5569 0
5565 -5569 0
5568 5569 -5570 0
-5568 5570 0
-5569 5570 0
-322 -5327 5571 0
322 -5571 0
5327 -5571 0
-5317 -5571 -5572 0
5317 5571 -5572 0
5317 -5571 5572 0
-5317 5571 5572 0
-5572 -5570 -5573 0
5572 5570 -5573 0
5572 -5570 5573 0
-5572 5570 5573 0
-5572 -5570 5574 0
5572 -5574 0
5570 -5574 0
-5317 -5571 5575 0
5317 -5575 0
5571 -5575 0
5574 5575 -5576 0
-5574 5576 0
-5575 5576 0
-330 -5327 5577 0
330 -5577 0
5327 -5577 0
-5323 -5577 -5578 0
5323 5577 -5578 0
5323 -5577 5578 0
-5323 5577 5578 0
-5578 -5576 -5579 0
5578 5576 -5579 0
5578 -5576 5579 0
-5578 5576 5579 0
-5578 -5576 5580 0
5578 -5580 0
5576 -5580 0
-5323 -5577 5581 0
5323 -5581 0
5577 -5581 0
5580 5581 -5582 0
-5580 5582 0
-5581 5582 0
-338 -5327 5583 0
338 -5583 0
5327 -5583 0
-5326 -5583 -5584 0
5326 5583 -5584 0
5326 -5583 5584 0
-5326 5583 5584 0
-5584 -5582 -5585 0
5584 5582 -5585 0
5584 -5582 5585 0
-5584 5582 5585 0
-5584 -5582 5586 0
5584 -5586 0
5582 -5586 0
-5326 -5583 5587 0
5326 -5587 0
5583 -5587 0
5586 5587 -5588 0
-5586 5588 0
-5587 5588 0
-1 -5589 5590 0
1 -5590 0
5589 -5590 0
-5333 -5590 -5591 0
5333 5590 -5591 0
5333 -5590 5591 0
-5333 5590 5591 0
-5333 -5590 5592 0
5333 -5592 0
5590 -5592 0
-4 -5589 5593 0
4 -5593 0
5589 -5593 0
-5339 -5593 -5594 0
5339 5593 -5594 0
5339 -5593 5594 0
-5339 5593 5594 0
-5594 -5592 -5595 0
5594 5592 -5595 0
5594 -5592 5595 0
-5594 5592 5595 0
-5594 -5592 5596 0
5594 -5596 0
5592 -5596 0
-5339 -5593 5597 0
5339 -5597 0
5593 -5597 0
5596 5597 -5598 0
-5596 5598 0
-5597 5598 0
-10 -5589 5599 0
10 -5599 0
5589 -5599 0
-5345 -5599 -5600 0
5345 5599 -5600 0
5345 -5599 5600 0
-5345 5599 5600 0
-5600 -5598 -5601 0
5600 5598 -5601 0
5600 -5598 5601 0
-5600 5598 5601 0
-5600 -5598 5602 0
5600 -5602 0
5598 -5602 0
-5345 -5599 5603 0
5345 -5603 0
5599 -5603 0
5602 5603 -5604 0
-5602 5604 0
-5603 5604 0
-18 -5589 5605 0
18 -5605 0
5589 -5605 0
-5351 -5605 -5606 0
5351 5605 -5606 0
5351 -5605 5606 0
-5351 5605 5606 0
-5606 -5604 -5607 0
5606 5604 -5607 0
5606 -5604 5607 0
-5606 5604 5607 0
-5606 -5604 5608 0
5606 -5608 0
5604 -5608 0
-5351 -5605 5609 0
5351 -5609 0
5605 -5609 0
5608 5609 -5610 0
-5608 5610 0
-5609 5610 0
-26 -5589 5611 0
26 -5611 0
5589 -5611 0
-5357 -5611 -5612 0
5357 5611 -5612 0
5357 -5611 5612 0
-5357 5611 5612 0
-5612 -5610 -5613 0
5612 5610 -5613 0
5612 -5610 5613 0
-5612 5610 5613 0
-5612 -5610 5614 0
5612 -5614 0
5610 -5614 0
-5357 -5611 5615 0
5357 -5615 0
5611 -5615 0
5614 5615 -5616 0
-5614 5616 0
-5615 5616 0
-34 -5589 5617 0
34 -5617 0
5589 -5617 0
-5363 -5617 -5618 0
5363 5617 -5618 0
5363 -5617 5618 0
-5363 5617 5618 0
-5618 -5616 -5619 0
5618 5616 -5619 0
5618 -5616 5619 0
-5618 5616 5619 0
-5618 -5616 5620 0
5618 -5620 0
5616 -5620 0
-5363 -5617 5621 0
5363 -5621 0
5617 -5621 0
5620 5621 -5622 0
-5620 5622 0
-5621 5622 0
-42 -5589 5623 0
42 -5623 0
5589 -5623 0
-5369 -5623 -5624 0
5369 5623 -5624 0
5369 -5623 5624 0
-5369 5623 5624 0
-5624 -5622 -5625 0
5624 5622 -5625 0
5624 -5622 5625 0
-5624 5622 5625 0
-5624 -5622 5626 0
5624 -5626 0
5622 -5626 0
-5369 -5623 5627 0
5369 -5627 0
5623 -5627 0
5626 5627 -5628 0
-5626 5628 0
-5627 5628 0
-50 -5589 5629 0
50 -5629 0
5589 -5629 0
-5375 -5629 -5630 0
5375 5629 -5630 0
5375 -5629 5630 0
-5375 5629 5630 0
-5630 -5628 -5631 0
5630 5628 -5631 0
5630 -5628 5631 0
-5630 5628 5631 0
-5630 -5628 5632 0
5630 -5632 0
5628 -5632 0
-5375 -5629 5633 0
5375 -5633 0
5629 -5633 0
5632 5633 -5634 0
-5632 5634 0
-5633 5634 0
-58 -5589 5635 0
58 -5635 0
5589 -5635 0
-5381 -5635 -5636 0
5381 5635 -5636 0
5381 -5635 5636 0
-5381 5635 5636 0
-5636 -5634 -5637 0
5636 5634 -5637 0
5636 -5634 5637 0
-5636 5634 5637 0
-5636 -5634 5638 0
5636 -5638 0
5634 -5638 0
-5381 -5635 5639 0
5381 -5639 0
5635 -5639 0
5638 5639 -5640 0
-5638 5640 0
-5639 5640 0
-66 -5589 5641 0
66 -5641 0
5589 -5641 0
-5387 -5641 -5642 0
5387 5641 -5642 0
5387 -5641 5642 0
-5387 5641 5642 0
-5642 -5640 -5643 0
5642 5640 -5643 0
5642 -5640 5643 0
-5642 5640 5643 0
-5642 -5640 5644 0
5642 -5644 0
5640 -5644 0
-5387 -5641 5645 0
5387 -5645 0
5641 -5645 0
5644 5645 -5646 0
-5644 5646 0
-5645 5646 0
-74 -5589 5647 0
74 -5647 0
5589 -5647 0
-5393 -5647 -5648 0
5393 5647 -5648 0
5393 -5647 5648 0
-5393 5647 5648 0
-5648 -5646 -5649 0
5648 5646 -5649 0
5648 -5646 5649 0
-5648 5646 5649 0
-5648 -5646 5650 0
5648 -5650 0
5646 -5650 0
-5393 -5647 5651 0
5393 -5651 0
5647 -5651 0
5650 5651 -5652 0
-5650 5652 0
-5651 5652 0
-82 -5589 5653 0
82 -5653 0
5589 -5653 0
-5399 -5653 -5654 0
5399 5653 -5654 0
5399 -5653 5654 0
-5399 5653 5654 0
-5654 -5652 -5655 0
5654 5652 -5655 0
5654 -5652 5655 0
-5654 5652 5655 0
-5654 -5652 5656 0
5654 -5656 0
5652 -5656 0
-5399 -5653 5657 0
5399 -5657 0
5653 -5657 0
5656 5657 -5658 0
-5656 5658 0
-5657 5658 0
-90 -5589 5659 0
90 -5659 0
5589 -5659 0
-5405 -5659 -5660 0
5405 5659 -5660 0
5405 -5659 5660 0
-5405 5659 5660 0
-5660 -5658 -5661 0
5660 5658 -5661 0
5660 -5658 5661 0
-5660 5658 5661 0
-5660 -5658 5662 0
5660 -5662 0
5658 -5662 0
-5405 -5659 5663 0
5405 -5663 0
5659 -5663 0
5662 5663 -5664 0
-5662 5664 0
-5663 5664 0
-98 -5589 5665 0
98 -5665 0
5589 -5665 0
-5411 -5665 -5666 0
5411 5665 -5666 0
5411 -5665 5666 0
-5411 5665 5666 0
-5666 -5664 -5667 0
5666 5664 -5667 0
5666 -5664 5667 0
-5666 5664 5667 0
-5666 -5664 5668 0
5666 -5668 0
5664 -5668 0
-5411 -5665 5669 0
5411 -5669 0
5665 -5669 0
5668 5669 -5670 0
-5668 5670 0
-5669 5670 0
-106 -5589 5671 0
106 -5671 0
5589 -5671 0
-5417 -5671 -5672 0
5417 5671 -5672 0
5417 -5671 5672 0
-5417 5671 5672 0
-5672 -5670 -5673 0
5672 5670 -5673 0
5672 -5670 5673 0
-5672 5670 5673 0
-5672 -5670 5674 0
5672 -5674 0
5670 -5674 0
-5417 -5671 5675 0
5417 -5675 0
5671 -5675 0
5674 5675 -5676 0
-5674 5676 0
-5675 5676 0
-114 -5589 5677 0
114 -5677 0
5589 -5677 0
-5423 -5677 -5678 0
5423 5677 -5678 0
5423 -5677 5678 0
-5423 5677 5678 0
-5678 -5676 -5679 0
5678 5676 -5679 0
5678 -5676 5679 0
-5678 5676 5679 0
-5678 -5676 5680 0
5678 -5680 0
5676 -5680 0
-5423 -5677 5681 0
5423 -5681 0
5677 -5681 0
5680 5681 -5682 0
-5680 5682 0
-5681 5682 0
-122 -5589 5683 0
122 -5683 0
5589 -5683 0
-5429 -5683 -5684 0
5429 5683 -5684 0
5429 -5683 5684 0
-5429 5683 5684 0
-5684 -5682 -5685 0
5684 5682 -5685 0
5684 -5682 5685 0
-5684 5682 5685 0
-5684 -5682 5686 0
5684 -5686 0
5682 -5686 0
-5429 -5683 5687 0
5429 -5687 0
5683 -5687 0
5686 5687 -5688 0
-5686 5688 0
-5687 5688 0
-130 -5589 5689 0
130 -5689 0
5589 -5689 0
-5435 -5689 -5690 0
5435 5689 -5690 0
5435 -5689 5690 0
-5435 5689 5690 0
-5690 -5688 -5691 0
5690 5688 -5691 0
5690 -5688 5691 0
-5690 5688 5691 0
-5690 -5688 5692 0
5690 -5692 0
5688 -5692 0
-5435 -5689 5693 0
5435 -5693 0
5689 -5693 0
5692 5693 -5694 0
-5692 5694 0
-5693 5694 0
-138 -5589 5695 0
138 -5695 0
5589 -5695 0
-5441 -5695 -5696 0
5441 5695 -5696 0
5441 -5695 5696 0
-5441 5695 5696 0
-5696 -5694 -5697 0
5696 5694 -5697 0
5696 -5694 5697 0
-5696 5694 5697 0
-5696 -5694 5698 0
5696 -5698 0
5694 -5698 0
-5441 -5695 5699 0
5441 -5699 0
5695 -5699 0
5698 5699 -5700 0
-5698 5700 0
-5699 5700 0
-146 -5589 5701 0
146 -5701 0
5589 -5701 0
-5447 -5701 -5702 0
5447 5701 -5702 0
5447 -5701 5702 0
-5447 5701 5702 0
-5702 -5700 -5703 0
5702 5700 -5703 0
5702 -5700 5703 0
-5702 5700 5703 0
-5702 -5700 5704 0
5702 -5704 0
5700 -5704 0
-5447 -5701 5705 0
5447 -5705 0
5701 -5705 0
5704 5705 -5706 0
-5704 5706 0
-5705 5706 0
-154 -5589 5707 0
154 -5707 0
5589 -5707 0
-5453 -5707 -5708 0
5453 5707 -5708 0
5453 -5707 5708 0
-5453 5707 5708 0
-5708 -5706 -5709 0
5708 5706 -5709 0
5708 -5706 5709 0
-5708 5706 5709 0
-5708 -5706 5710 0
5708 -5710 0
5706 -5710 0
-5453 -5707 5711 0
5453 -5711 0
5707 -5711 0
5710 5711 -5712 0
-5710 5712 0
-5711 5712 0
-162 -5589 5713 0
162 -5713 0
5589 -5713 0
-5459 -5713 -5714 0
5459 5713 -5714 0
5459 -5713 5714 0
-5459 5713 5714 0
-5714 -5712 -5715 0
5714 5712 -5715 0
5714 -5712 5715 0
-5714 5712 5715 0
-5714 -5712 5716 0
5714 -5716 0
5712 -5716 0
-5459 -5713 5717 0
5459 -5717 0
5713 -5717 0
5716 5717 -5718 0
-5716 5718 0
-5717 5718 0
-170 -5589 5719 0
170 -5719 0
5589 -5719 0
-5465 -5719 -5720 0
5465 5719 -5720 0
5465 -5719 5720 0
-5465 5719 5720 0
-5720 -5718 -5721 0
5720 5718 -5721 0
5720 -5718 5721 0
-5720 5718 5721 0
-5720 -5718 5722 0
5720 -5722 0
5718 -5722 0
-5465 -5719 5723 0
5465 -5723 0
5719 -5723 0
5722 5723 -5724 0
-5722 5724 0
-5723 5724 0
-178 -5589 5725 0
178 -5725 0
5589 -5725 0
-5471 -5725 -5726 0
5471 5725 -5726 0
5471 -5725 5726 0
-5471 5725 5726 0
-5726 -5724 -5727 0
5726 5724 -5727 0
5726 -5724 5727 0
-5726 5724 5727 0
-5726 -5724 5728 0
5726 -5728 0
5724 -5728 0
-5471 -5725 5729 0
5471 -5729 0
5725 -5729 0
5728 5729 -5730 0
-5728 5730 0
-5729 5730 0
-186 -5589 5731 0
186 -5731 0
5589 -5731 0
-5477 -5731 -5732 0
5477 5731 -5732 0
5477 -5731 5732 0
-5477 5731 5732 0
-5732 -5730 -5733 0
5732 5730 -5733 0
5732 -5730 5733 0
-5732 5730 5733 0
-5732 -5730 5734 0
5732 -5734 0
5730 -5734 0
-5477 -5731 5735 0
5477 -5735 0
5731 -5735 0
5734 5735 -5736 0
-5734 5736 0
-5735 5736 0
-194 -5589 5737 0
194 -5737 0
5589 -5737 0
-5483 -5737 -5738 0
5483 5737 -5738 0
5483 -5737 5738 0
-5483 5737 5738 0
-5738 -5736 -5739 0
5738 5736 -5739 0
5738 -5736 5739 0
-5738 5736 5739 0
-5738 -5736 5740 0
5738 -5740 0
5736 -5740 0
-5483 -5737 5741 0
5483 -5741 0
5737 -5741 0
5740 5741 -5742 0
-5740 5742 0
-5741 5742 0
-202 -5589 5743 0
202 -5743 0
5589 -5743 0
-5489 -5743 -5744 0
5489 5743 -5744 0
5489 -5743 5744 0
-5489 5743 5744 0
-5744 -5742 -5745 0
5744 5742 -5745 0
5744 -5742 5745 0
-5744 5742 5745 0
-5744 -5742 5746 0
5744 -5746 0
5742 -5746 0
-5489 -5743 5747 0
5489 -5747 0
5743 -5747 0
5746 5747 -5748 0
-5746 5748 0
-5747 5748 0
-210 -5589 5749 0
210 -5749 0
5589 -5749 0
-5495 -5749 -5750 0
5495 5749 -5750 0
5495 -5749 5750 0
-5495 5749 5750 0
-5750 -5748 -5751 0
5750 5748 -5751 0
5750 -5748 5751 0
-5750 5748 5751 0
-5750 -5748 5752 0
5750 -5752 0
5748 -5752 0
-5495 -5749 5753 0
5495 -5753 0
5749 -5753 0
5752 5753 -5754 0
-5752 5754 0
-5753 5754 0
-218 -5589 5755 0
218 -5755 0
5589 -5755 0
-5501 -5755 -5756 0
5501 5755 -5756 0
5501 -5755 5756 0
-5501 5755 5756 0
-5756 -5754 -5757 0
5756 5754 -5757 0
5756 -5754 5757 0
-5756 5754 5757 0
-5756 -5754 5758 0
5756 -5758 0
5754 -5758 0
-5501 -5755 5759 0
5501 -5759 0
5755 -5759 0
5758 5759 -5760 0
-5758 5760 0
-5759 5760 0
-226 -5589 5761 0
226 -5761 0
5589 -5761 0
-5507 -5761 -5762 0
5507 5761 -5762 0
5507 -5761 5762 0
-5507 5761 5762 0
-5762 -5760 -5763 0
5762 5760 -5763 0
5762 -5760 5763 0
-5762 5760 5763 0
-5762 -5760 5764 0
5762 -5764 0
5760 -5764 0
-5507 -5761 5765 0
5507 -5765 0
5761 -5765 0
5764 5765 -5766 0
-5764 5766 0
-5765 5766 0
-234 -5589 5767 0
234 -5767 0
5589 -5767 0
-5513 -5767 -5768 0
5513 5767 -5768 0
5513 -5767 5768 0
-5513 5767 5768 0
-5768 -5766 -5769 0
5768 5766 -5769 0
5768 -5766 5769 0
-5768 5766 5769 0
-5768 -5766 5770 0
5768 -5770 0
5766 -5770 0
-5513 -5767 5771 0
5513 -5771 0
5767 -5771 0
5770 5771 -5772 0
-5770 5772 0
-5771 5772 0
-242 -5589 5773 0
242 -5773 0
5589 -5773 0
-5519 -5773 -5774 0
5519 5773 -5774 0
5519 -5773 5774 0
-5519 5773 5774 0
-5774 -5772 -5775 0
5774 5772 -5775 0
5774 -5772 5775 0
-5774 5772 5775 0
-5774 -5772 5776 0
5774 -5776 0
5772 -5776 0
-5519 -5773 5777 0
5519 -5777 0
5773 -5777 0
5776 5777 -5778 0
-5776 5778 0
-5777 5778 0
-250 -5589 5779 0
250 -5779 0
5589 -5779 0
-5525 -5779 -5780 0
5525 5779 -5780 0
5525 -5779 5780 0
-5525 5779 5780 0
-5780 -5778 -5781 0
5780 5778 -5781 0
5780 -5778 5781 0
-5780 5778 5781 0
-5780 -5778 5782 0
5780 -5782 0
5778 -5782 0
-5525 -5779 5783 0
5525 -5783 0
5779 -5783 0
5782 5783 -5784 0
-5782 5784 0
-5783 5784 0
-258 -5589 5785 0
258 -5785 0
5589 -5785 0
-5531 -5785 -5786 0
5531 5785 -5786 0
5531 -5785 5786 0
-5531 5785 5786 0
-5786 -5784 -5787 0
5786 5784 -5787 0
5786 -5784 5787 0
-5786 5784 5787 0
-5786 -5784 5788 0
5786 -5788 0
5784 -5788 0
-5531 -5785 5789 0
5531 -5789 0
5785 -5789 0
5788 5789 -5790 0
-5788 5790 0
-5789 5790 0
-266 -5589 5791 0
266 -5791 0
5589 -5791 0
-5537 -5791 -5792 0
5537 5791 -5792 0
5537 -5791 5792 0
-5537 5791 5792 0
-5792 -5790 -5793 0
5792 5790 -5793 0
5792 -5790 5793 0
-5792 5790 5793 0
-5792 -5790 5794 0
5792 -5794 0
5790 -5794 0
-5537 -5791 5795 0
5537 -5795 0
5791 -5795 0
5794 5795 -5796 0
-5794 5796 0
-5795 5796 0
-274 -5589 5797 0
274 -5797 0
5589 -5797 0
-5543 -5797 -5798 0
5543 5797 -5798 0
5543 -5797 5798 0
-5543 5797 5798 0
-5798 -5796 -5799 0
5798 5796 -5799 0
5798 -5796 5799 0
-5798 5796 5799 0
-5798 -5796 5800 0
5798 -5800 0
5796 -5800 0
-5543 -5797 5801 0
5543 -5801 0
5797 -5801 0
5800 5801 -5802 0
-5800 5802 0
-5801 5802 0
-282 -5589 5803 0
282 -5803 0
5589 -5803 0
-5549 -5803 -5804 0
5549 5803 -5804 0
5549 -5803 5804 0
-5549 5803 5804 0
-5804 -5802 -5805 0
5804 5802 -5805 0
5804 -5802 5805 0
-5804 5802 5805 0
-5804 -5802 5806 0
5804 -5806 0
5802 -5806 0
-5549 -5803 5807 0
5549 -5807 0
5803 -5807 0
5806 5807 -5808 0
-5806 5808 0
-5807 5808 0
-290 -5589 5809 0
290 -5809 0
5589 -5809 0
-5555 -5809 -5810 0
5555 5809 -5810 0
5555 -5809 5810 0
-5555 5809 5810 0
-5810 -5808 -5811 0
5810 5808 -5811 0
5810 -5808 5811 0
-5810 5808 5811 0
-5810 -5808 5812 0
5810 -5812 0
5808 -5812 0
-5555 -5809 5813 0
5555 -5813 0
5809 -5813 0
5812 5813 -5814 0
-5812 5814 0
-5813 5814 0
-298 -5589 5815 0
298 -5815 0
5589 -5815 0
-5561 -5815 -5816 0
5561 5815 -5816 0
5561 -5815 5816 0
-5561 5815 5816 0
-5816 -5814 -5817 0
5816 5814 -5817 0
5816 -5814 5817 0
-5816 5814 5817 0
-5816 -5814 5818 0
5816 -5818 0
5814 -5818 0
-5561 -5815 5819 0
5561 -5819 0
5815 -5819 0
5818 5819 -5820 0
-5818 5820 0
-5819 5820 0
-306 -5589 5821 0
306 -5821 0
5589 -5821 0
-5567 -5821 -5822 0
5567 5821 -5822 0
5567 -5821 5822 0
-5567 5821 5822 0
-5822 -5820 -5823 0
5822 5820 -5823 0
5822 -5820 5823 0
-5822 5820 5823 0
-5822 -5820 5824 0
5822 -5824 0
5820 -5824 0
-5567 -5821 5825 0
5567 -5825 0
5821 -5825 0
5824 5825 -5826 0
-5824 5826 0
-5825 5826 0
-314 -5589 5827 0
314 -5827 0
5589 -5827 0
-5573 -5827 -5828 0
5573 5827 -5828 0
5573 -5827 5828 0
-5573 5827 5828 0
-5828 -5826 -5829 0
5828 5826 -5829 0
5828 -5826 5829 0
-5828 5826 5829 0
-5828 -5826 5830 0
5828 -5830 0
5826 -5830 0
-5573 -5827 5831 0
5573 -5831 0
5827 -5831 0
5830 5831 -5832 0
-5830 5832 0
-5831 5832 0
-322 -5589 5833 0
322 -5833 0
5589 -5833 0
-5579 -5833 -5834 0
5579 5833 -5834 0
5579 -5833 5834 0
-5579 5833 5834 0
-5834 -5832 -5835 0
5834 5832 -5835 0
5834 -5832 5835 0
-5834 5832 5835 0
-5834 -5832 5836 0
5834 -5836 0
5832 -5836 0
-5579 -5833 5837 0
5579 -5837 0
5833 -5837 0
5836 5837 -5838 0
-5836 5838 0
-5837 5838 0
-330 -5589 5839 0
330 -5839 0
5589 -5839 0
-5585 -5839 -5840 0
5585 5839 -5840 0
5585 -5839 5840 0
-5585 5839 5840 0
-5840 -5838 -5841 0
5840 5838 -5841 0
5840 -5838 5841 0
-5840 5838 5841 0
-5840 -5838 5842 0
5840 -5842 0
5838 -5842 0
-5585 -5839 5843 0
5585 -5843 0
5839 -5843 0
5842 5843 -5844 0
-5842 5844 0
-5843 5844 0
-338 -5589 5845 0
338 -5845 0
5589 -5845 0
-5588 -5845 -5846 0
5588 5845 -5846 0
5588 -5845 5846 0
-5588 5845 5846 0
-5846 -5844 -5847 0
5846 5844 -5847 0
5846 -5844 5847 0
-5846 5844 5847 0
-5846 -5844 5848 0
5846 -5848 0
5844 -5848 0
-5588 -5845 5849 0
5588 -5849 0
5845 -5849 0
5848 5849 -5850 0
-5848 5850 0
-5849 5850 0
-1 -5851 5852 0
1 -5852 0
5851 -5852 0
-5595 -5852 -5853 0
5595 5852 -5853 0
5595 -5852 5853 0
-5595 5852 5853 0
-5595 -5852 5854 0
5595 -5854 0
5852 -5854 0
-4 -5851 5855 0
4 -5855 0
5851 -5855 0
-5601 -5855 -5856 0
5601 5855 -5856 0
5601 -5855 5856 0
-5601 5855 5856 0
-5856 -5854 -5857 0
5856 5854 -5857 0
5856 -5854 5857 0
-5856 5854 5857 0
-5856 -5854 5858 0
5856 -5858 0
5854 -5858 0
-5601 -5855 5859 0
5601 -5859 0
5855 -5859 0
5858 5859 -5860 0
-5858 5860 0
-5859 5860 0
-10 -5851 5861 0
10 -5861 0
5851 -5861 0
-5607 -5861 -5862 0
5607 5861 -5862 0
5607 -5861 5862 0
-5607 5861 5862 0
-5862 -5860 -5863 0
5862 5860 -5863 0
5862 -5860 5863 0
-5862 5860 5863 0
-5862 -5860 5864 0
5862 -5864 0
5860 -5864 0
-5607 -5861 5865 0
5607 -5865 0
5861 -5865 0
5864 5865 -5866 0
-5864 5866 0
-5865 5866 0
-18 -5851 5867 0
18 -5867 0
5851 -5867 0
-5613 -5867 -5868 0
5613 5867 -5868 0
5613 -5867 5868 0
-5613 5867 5868 0
-5868 -5866 -5869 0
5868 5866 -5869 0
5868 -5866 5869 0
-5868 5866 5869 0
-5868 -5866 5870 0
5868 -5870 0
5866 -5870 0
-5613 -5867 5871 0
5613 -5871 0
5867 -5871 0
5870 5871 -5872 0
-5870 5872 0
-5871 5872 0
-26 -5851 5873 0
26 -5873 0
5851 -5873 0
-5619 -5873 -5874 0
5619 5873 -5874 0
5619 -5873 5874 0
-5619 5873 5874 0
-5874 -5872 -5875 0
5874 5872 -5875 0
5874 -5872 5875 0
-5874 5872 5875 0
-5874 -5872 5876 0
5874 -5876 0
5872 -5876 0
-5619 -5873 5877 0
5619 -5877 0
5873 -5877 0
5876 5877 -5878 0
-5876 5878 0
-5877 5878 0
-34 -5851 5879 0
34 -5879 0
5851 -5879 0
-5625 -5879 -5880 0
5625 5879 -5880 0
5625 -5879 5880 0
-5625 5879 5880 0
-5880 -5878 -5881 0
5880 5878 -5881 0
5880 -5878 5881 0
-5880 5878 5881 0
-5880 -5878 5882 0
5880 -5882 0
5878 -5882 0
-5625 -5879 5883 0
5625 -5883 0
5879 -5883 0
5882 5883 -5884 0
-5882 5884 0
-5883 5884 0
-42 -5851 5885 0
42 -5885 0
5851 -5885 0
-5631 -5885 -5886 0
5631 5885 -5886 0
5631 -5885 5886 0
-5631 5885 5886 0
-5886 -5884 -5887 0
5886 5884 -5887 0
5886 -5884 5887 0
-5886 5884 5887 0
-5886 -5884 5888 0
5886 -5888 0
5884 -5888 0
-5631 -5885 5889 0
5631 -5889 0
5885 -5889 0
5888 5889 -5890 0
-5888 5890 0
-5889 5890 0
-50 -5851 5891 0
50 -5891 0
5851 -5891 0
-5637 -5891 -5892 0
5637 5891 -5892 0
5637 -5891 5892 0
-5637 5891 5892 0
-5892 -5890 -5893 0
5892 5890 -5893 0
5892 -5890 5893 0
-5892 5890 5893 0
-5892 -5890 5894 0
5892 -5894 0
5890 -5894 0
-5637 -5891 5895 0
5637 -5895 0
5891 -5895 0
5894 5895 -5896 0
-5894 5896 0
-5895 5896 0
-58 -5851 5897 0
58 -5897 0
5851 -5897 0
-5643 -5897 -5898 0
5643 5897 -5898 0
5643 -5897 5898 0
-5643 5897 5898 0
-5898 -5896 -5899 0
5898 5896 -5899 0
5898 -5896 5899 0
-5898 5896 5899 0
-5898 -5896 5900 0
5898 -5900 0
5896 -5900 0
-5643 -5897 5901 0
5643 -5901 0
5897 -5901 0
5900 5901 -5902 0
-5900 5902 0
-5901 5902 0
-66 -5851 5903 0
66 -5903 0
5851 -5903 0
-5649 -5903 -5904 0
5649 5903 -5904 0
5649 -5903 5904 0
-5649 5903 5904 0
-5904 -5902 -5905 0
5904 5902 -5905 0
5904 -5902 5905 0
-5904 5902 5905 0
-5904 -5902 5906 0
5904 -5906 0
5902 -5906 0
-5649 -5903 5907 0
5649 -5907 0
5903 -5907 0
5906 5907 -5908 0
-5906 5908 0
-5907 5908 0
-74 -5851 5909 0
74 -5909 0
5851 -5909 0
-5655 -5909 -5910 0
5655 5909 -5910 0
5655 -5909 5910 0
-5655 5909 5910 0
-5910 -5908 -5911 0
5910 5908 -5911 0
5910 -5908 5911 0
-5910 5908 5911 0
-5910 -5908 5912 0
5910 -5912 0
5908 -5912 0
-5655 -5909 5913 0
5655 -5913 0
5909 -5913 0
5912 5913 -5914 0
-5912 5914 0
-5913 5914 0
-82 -5851 5915 0
82 -5915 0
5851 -5915 0
-5661 -5915 -5916 0
5661 5915 -5916 0
5661 -5915 5916 0
-5661 5915 5916 0
-5916 -5914 -5917 0
5916 5914 -5917 0
5916 -5914 5917 0
-5916 5914 5917 0
-5916 -5914 5918 0
5916 -5918 0
5914 -5918 0
-5661 -5915 5919 0
5661 -5919 0
5915 -5919 0
5918 5919 -5920 0
-5918 5920 0
-5919 5920 0
-90 -5851 5921 0
90 -5921 0
5851 -5921 0
-5667 -5921 -5922 0
5667 5921 -5922 0
5667 -5921 5922 0
-5667 5921 5922 0
-5922 -5920 -5923 0
5922 5920 -5923 0
5922 -5920 5923 0
-5922 5920 5923 0
-5922 -5920 5924 0
5922 -5924 0
5920 -5924 0
-5667 -5921 5925 0
5667 -5925 0
5921 -5925 0
5924 5925 -5926 0
-5924 5926 0
-5925 5926 0
-98 -5851 5927 0
98 -5927 0
5851 -5927 0
-5673 -5927 -5928 0
5673 5927 -5928 0
5673 -5927 5928 0
-5673 5927 5928 0
-5928 -5926 -5929 0
5928 5926 -5929 0
5928 -5926 5929 0
-5928 5926 5929 0
-5928 -5926 5930 0
5928 -5930 0
5926 -5930 0
-5673 -5927 5931 0
5673 -5931 0
5927 -5931 0
5930 5931 -5932 0
-5930 5932 0
-5931 5932 0
-106 -5851 5933 0
106 -5933 0
5851 -5933 0
-5679 -5933 -5934 0
5679 5933 -5934 0
5679 -5933 5934 0
-5679 5933 5934 0
-5934 -5932 -5935 0
5934 5932 -5935 0
5934 -5932 5935 0
-5934 5932 5935 0
-5934 -5932 5936 0
5934 -5936 0
5932 -5936 0
-5679 -5933 5937 0
5679 -5937 0
5933 -5937 0
5936 5937 -5938 0
-5936 5938 0
-5937 5938 0
-114 -5851 5939 0
114 -5939 0
5851 -5939 0
-5685 -5939 -5940 0
5685 5939 -5940 0
5685 -5939 5940 0
-5685 5939 5940 0
-5940 -5938 -5941 0
5940 5938 -5941 0
5940 -5938 5941 0
-5940 5938 5941 0
-5940 -5938 5942 0
5940 -5942 0
5938 -5942 0
-5685 -5939 5943 0
5685 -5943 0
5939 -5943 0
5942 5943 -5944 0
-5942 5944 0
-5943 5944 0
-122 -5851 5945 0
122 -5945 0
5851 -5945 0
-5691 -5945 -5946 0
5691 5945 -5946 0
5691 -5945 5946 0
-5691 5945 5946 0
-5946 -5944 -5947 0
5946 5944 -5947 0
5946 -5944 5947 0
-5946 5944 5947 0
-5946 -5944 5948 0
5946 -5948 0
5944 -5948 0
-5691 -5945 5949 0
5691 -5949 0
5945 -5949 0
5948 5949 -5950 0
-5948 5950 0
-5949 5950 0
-130 -5851 5951 0
130 -5951 0
5851 -5951 0
-5697 -5951 -5952 0
5697 5951 -5952 0
5697 -5951 5952 0
-5697 5951 5952 0
-5952 -5950 -5953 0
5952 5950 -5953 0
5952 -5950 5953 0
-5952 5950 5953 0
-5952 -5950 5954 0
5952 -5954 0
5950 -5954 0
-5697 -5951 5955 0
5697 -5955 0
5951 -5955 0
5954 5955 -5956 0
-5954 5956 0
-5955 5956 0
-138 -5851 5957 0
138 -5957 0
5851 -5957 0
-5703 -5957 -5958 0
5703 5957 -5958 0
5703 -5957 5958 0
-5703 5957 5958 0
-5958 -5956 -5959 0
5958 5956 -5959 0
5958 -5956 5959 0
-5958 5956 5959 0
-5958 -5956 5960 0
5958 -5960 0
5956 -5960 0
-5703 -5957 5961 0
5703 -5961 0
5957 -5961 0
5960 5961 -5962 0
-5960 5962 0
-5961 5962 0
-146 -5851 5963 0
146 -5963 0
5851 -5963 0
-5709 -5963 -5964 0
5709 5963 -5964 0
5709 -5963 5964 0
-5709 5963 5964 0
-5964 -5962 -5965 0
5964 5962 -5965 0
5964 -5962 5965 0
-5964 5962 5965 0
-5964 -5962 5966 0
5964 -5966 0
5962 -5966 0
-5709 -5963 5967 0
5709 -5967 0
5963 -5967 0
5966 5967 -5968 0
-5966 5968 0
-5967 5968 0
-154 -5851 5969 0
154 -5969 0
5851 -5969 0
-5715 -5969 -5970 0
5715 5969 -5970 0
5715 -5969 5970 0
-5715 5969 5970 0
-5970 -5968 -5971 0
5970 5968 -5971 0
5970 -5968 5971 0
-5970 5968 5971 0
-5970 -5968 5972 0
5970 -5972 0
5968 -5972 0
-5715 -5969 5973 0
5715 -5973 0
5969 -5973 0
5972 5973 -5974 0
-5972 5974 0
-5973 5974 0
-162 -5851 5975 0
162 -5975 0
5851 -5975 0
-5721 -5975 -5976 0
5721 5975 -5976 0
5721 -5975 5976 0
-5721 5975 5976 0
-5976 -5974 -5977 0
5976 5974 -5977 0
5976 -5974 5977 0
-5976 5974 5977 0
-5976 -5974 5978 0
5976 -5978 0
5974 -5978 0
-5721 -5975 5979 0
5721 -5979 0
5975 -5979 0
5978 5979 -5980 0
-5978 5980 0
-5979 5980 0
-170 -5851 5981 0
170 -5981 0
5851 -5981 0
-5727 -5981 -5982 0
5727 5981 -5982 0
5727 -5981 5982 0
-5727 5981 5982 0
-5982 -5980 -5983 0
5982 5980 -5983 0
5982 -5980 5983 0
-5982 5980 5983 0
-5982 -5980 5984 0
5982 -5984 0
5980 -5984 0
-5727 -5981 5985 0
5727 -5985 0
5981 -5985 0
5984 5985 -5986 0
-5984 5986 0
-5985 5986 0
-178 -5851 5987 0
178 -5987 0
5851 -5987 0
-5733 -5987 -5988 0
5733 5987 -5988 0
5733 -5987 5988 0
-5733 5987 5988 0
-5988 -5986 -5989 0
5988 5986 -5989 0
5988 -5986 5989 0
-5988 5986 5989 0
-5988 -5986 5990 0
5988 -5990 0
5986 -5990 0
-5733 -5987 5991 0
5733 -5991 0
5987 -5991 0
5990 5991 -5992 0
-5990 5992 0
-5991 5992 0
-186 -5851 5993 0
186 -5993 0
5851 -5993 0
-5739 -5993 -5994 0
5739 5993 -5994 0
5739 -5993 5994 0
-5739 5993 5994 0
-5994 -5992 -5995 0
5994 5992 -5995 0
5994 -5992 5995 0
-5994 5992 5995 0
-5994 -5992 5996 0
5994 -5996 0
5992 -5996 0
-5739 -5993 5997 0
5739 -5997 0
5993 -5997 0
5996 5997 -5998 0
-5996 5998 0
-5997 5998 0
-194 -5851 5999 0
194 -5999 0
5851 -5999 0
-5745 -5999 -6000 0
5745 5999 -6000 0
5745 -5999 6000 0
-5745 5999 6000 0
-6000 -5998 -6001 0
6000 5998 -6001 0
6000 -5998 6001 0
-6000 5998 6001 0
-6000 -5998 6002 0
6000 -6002 0
5998 -6002 0
-5745 -5999 6003 0
5745 -6003 0
5999 -6003 0
6002 6003 -6004 0
-6002 6004 0
-6003 6004 0
-202 -5851 6005 0
202 -6005 0
5851 -6005 0
-5751 -6005 -6006 0
5751 6005 -6006 0
5751 -6005 6006 0
-5751 6005 6006 0
-6006 -6004 -6007 0
6006 6004 -6007 0
6006 -6004 6007 0
-6006 6004 6007 0
-6006 -6004 6008 0
6006 -6008 0
6004 -6008 0
-5751 -6005 6009 0
5751 -6009 0
6005 -6009 0
6008 6009 -6010 0
-6008 6010 0
-6009 6010 0
-210 -5851 6011 0
210 -6011 0
5851 -6011 0
-5757 -6011 -6012 0
5757 6011 -6012 0
5757 -6011 6012 0
-5757 6011 6012 0
-6012 -6010 -6013 0
6012 6010 -6013 0
6012 -6010 6013 0
-6012 6010 6013 0
-6012 -6010 6014 0
6012 -6014 0
6010 -6014 0
-5757 -6011 6015 0
5757 -6015 0
6011 -6015 0
6014 6015 -6016 0
-6014 6016 0
-6015 6016 0
-218 -5851 6017 0
218 -6017 0
5851 -6017 0
-5763 -6017 -6018 0
5763 6017 -6018 0
5763 -6017 6018 0
-5763 6017 6018 0
-6018 -6016 -6019 0
6018 6016 -6019 0
6018 -6016 6019 0
-6018 6016 6019 0
-6018 -6016 6020 0
6018 -6020 0
6016 -6020 0
-5763 -6017 6021 0
5763 -6021 0
6017 -6021 0
6020 6021 -6022 0
-6020 6022 0
-6021 6022 0
-226 -5851 6023 0
226 -6023 0
5851 -6023 0
-5769 -6023 -6024 0
5769 6023 -6024 0
5769 -6023 6024 0
-5769 6023 6024 0
-6024 -6022 -6025 0
6024 6022 -6025 0
6024 -6022 6025 0
-6024 6022 6025 0
-6024 -6022 6026 0
6024 -6026 0
6022 -6026 0
-5769 -6023 6027 0
5769 -6027 0
6023 -6027 0
6026 6027 -6028 0
-6026 6028 0
-6027 6028 0
-234 -5851 6029 0
234 -6029 0
5851 -6029 0
-5775 -6029 -6030 0
5775 6029 -6030 0
5775 -6029 6030 0
-5775 6029 6030 0
-6030 -6028 -6031 0
6030 6028 -6031 0
6030 -6028 6031 0
-6030 6028 6031 0
-6030 -6028 6032 0
6030 -6032 0
6028 -6032 0
-5775 -6029 6033 0
5775 -6033 0
6029 -6033 0
6032 6033 -6034 0
-6032 6034 0
-6033 6034 0
-242 -5851 6035 0
242 -6035 0
5851 -6035 0
-5781 -6035 -6036 0
5781 6035 -6036 0
5781 -6035 6036 0
-5781 6035 6036 0
-6036 -6034 -6037 0
6036 6034 -6037 0
6036 -6034 6037 0
-6036 6034 6037 0
-6036 -6034 6038 0
6036 -6038 0
6034 -6038 0
-5781 -6035 6039 0
5781 -6039 0
6035 -6039 0
6038 6039 -6040 0
-6038 6040 0
-6039 6040 0
-250 -5851 6041 0
250 -6041 0
5851 -6041 0
-5787 -6041 -6042 0
5787 6041 -6042 0
5787 -6041 6042 0
-5787 6041 6042 0
-6042 -6040 -6043 0
6042 6040 -6043 0
6042 -6040 6043 0
-6042 6040 6043 0
-6042 -6040 6044 0
6042 -6044 0
6040 -6044 0
-5787 -6041 6045 0
5787 -6045 0
6041 -6045 0
6044 6045 -6046 0
-6044 6046 0
-6045 6046 0
-258 -5851 6047 0
258 -6047 0
5851 -6047 0
-5793 -6047 -6048 0
5793 6047 -6048 0
5793 -6047 6048 0
-5793 6047 6048 0
-6048 -6046 -6049 0
6048 6046 -6049 0
6048 -6046 6049 0
-6048 6046 6049 0
-6048 -6046 6050 0
6048 -6050 0
6046 -6050 0
-5793 -6047 6051 0
5793 -6051 0
6047 -6051 0
6050 6051 -6052 0
-6050 6052 0
-6051 6052 0
-266 -5851 6053 0
266 -6053 0
5851 -6053 0
-5799 -6053 -6054 0
5799 6053 -6054 0
5799 -6053 6054 0
-5799 6053 6054 0
-6054 -6052 -6055 0
6054 6052 -6055 0
6054 -6052 6055 0
-6054 6052 6055 0
-6054 -6052 6056 0
6054 -6056 0
6052 -6056 0
-5799 -6053 6057 0
5799 -6057 0
6053 -6057 0
6056 6057 -6058 0
-6056 6058 0
-6057 6058 0
-274 -5851 6059 0
274 -6059 0
5851 -6059 0
-5805 -6059 -6060 0
5805 6059 -6060 0
5805 -6059 6060 0
-5805 6059 6060 0
-6060 -6058 -6061 0
6060 6058 -6061 0
6060 -6058 6061 0
-6060 6058 6061 0
-6060 -6058 6062 0
6060 -6062 0
6058 -6062 0
-5805 -6059 6063 0
5805 -6063 0
6059 -6063 0
6062 6063 -6064 0
-6062 6064 0
-6063 6064 0
-282 -5851 6065 0
282 -6065 0
5851 -6065 0
-5811 -6065 -6066 0
5811 6065 -6066 0
5811 -6065 6066 0
-5811 6065 6066 0
-6066 -6064 -6067 0
6066 6064 -6067 0
6066 -6064 6067 0
-6066 6064 6067 0
-6066 -6064 6068 0
6066 -6068 0
6064 -6068 0
-5811 -6065 6069 0
5811 -6069 0
6065 -6069 0
6068 6069 -6070 0
-6068 6070 0
-6069 6070 0
-290 -5851 6071 0
290 -6071 0
5851 -6071 0
-5817 -6071 -6072 0
5817 6071 -6072 0
5817 -6071 6072 0
-5817 6071 6072 0
-6072 -6070 -6073 0
6072 6070 -6073 0
6072 -6070 6073 0
-6072 6070 6073 0
-6072 -6070 6074 0
6072 -6074 0
6070 -6074 0
-5817 -6071 6075 0
5817 -6075 0
6071 -6075 0
6074 6075 -6076 0
-6074 6076 0
-6075 6076 0
-298 -5851 6077 0
298 -6077 0
5851 -6077 0
-5823 -6077 -6078 0
5823 6077 -6078 0
5823 -6077 6078 0
-5823 6077 6078 0
-6078 -6076 -6079 0
6078 6076 -6079 0
6078 -6076 6079 0
-6078 6076 6079 0
-6078 -6076 6080 0
6078 -6080 0
6076 -6080 0
-5823 -6077 6081 0
5823 -6081 0
6077 -6081 0
6080 6081 -6082 0
-6080 6082 0
-6081 6082 0
-306 -5851 6083 0
306 -6083 0
5851 -6083 0
-5829 -6083 -6084 0
5829 6083 -6084 0
5829 -6083 6084 0
-5829 6083 6084 0
-6084 -6082 -6085 0
6084 6082 -6085 0
6084 -6082 6085 0
-6084 6082 6085 0
-6084 -6082 6086 0
6084 -6086 0
6082 -6086 0
-5829 -6083 6087 0
5829 -6087 0
6083 -6087 0
6086 6087 -6088 0
-6086 6088 0
-6087 6088 0
-314 -5851 6089 0
314 -6089 0
5851 -6089 0
-5835 -6089 -6090 0
5835 6089 -6090 0
5835 -6089 6090 0
-5835 6089 6090 0
-6090 -6088 -6091 0
6090 6088 -6091 0
6090 -6088 6091 0
-6090 6088 6091 0
-6090 -6088 6092 0
6090 -6092 0
6088 -6092 0
-5835 -6089 6093 0
5835 -6093 0
6089 -6093 0
6092 6093 -6094 0
-6092 6094 0
-6093 6094 0
-322 -5851 6095 0
322 -6095 0
5851 -6095 0
-5841 -6095 -6096 0
5841 6095 -6096 0
5841 -6095 6096 0
-5841 6095 6096 0
-6096 -6094 -6097 0
6096 6094 -6097 0
6096 -6094 6097 0
-6096 6094 6097 0
-6096 -6094 6098 0
6096 -6098 0
6094 -6098 0
-5841 -6095 6099 0
5841 -6099 0
6095 -6099 0
6098 6099 -6100 0
-6098 6100 0
-6099 6100 0
-330 -5851 6101 0
330 -6101 0
5851 -6101 0
-5847 -6101 -6102 0
5847 6101 -6102 0
5847 -6101 6102 0
-5847 6101 6102 0
-6102 -6100 -6103 0
6102 6100 -6103 0
6102 -6100 6103 0
-6102 6100 6103 0
-6102 -6100 6104 0
6102 -6104 0
6100 -6104 0
-5847 -6101 6105 0
5847 -6105 0
6101 -6105 0
6104 6105 -6106 0
-6104 6106 0
-6105 6106 0
-338 -5851 6107 0
338 -6107 0
5851 -6107 0
-5850 -6107 -6108 0
5850 6107 -6108 0
5850 -6107 6108 0
-5850 6107 6108 0
-6108 -6106 -6109 0
6108 6106 -6109 0
6108 -6106 6109 0
-6108 6106 6109 0
-6108 -6106 6110 0
6108 -6110 0
6106 -6110 0
-5850 -6107 6111 0
5850 -6111 0
6107 -6111 0
6110 6111 -6112 0
-6110 6112 0
-6111 6112 0
-1 -6113 6114 0
1 -6114 0
6113 -6114 0
-5857 -6114 -6115 0
5857 6114 -6115 0
5857 -6114 6115 0
-5857 6114 6115 0
-5857 -6114 6116 0
5857 -6116 0
6114 -6116 0
-4 -6113 6117 0
4 -6117 0
6113 -6117 0
-5863 -6117 -6118 0
5863 6117 -6118 0
5863 -6117 6118 0
-5863 6117 6118 0
-6118 -6116 -6119 0
6118 6116 -6119 0
6118 -6116 6119 0
-6118 6116 6119 0
-6118 -6116 6120 0
6118 -6120 0
6116 -6120 0
-5863 -6117 6121 0
5863 -6121 0
6117 -6121 0
6120 6121 -6122 0
-6120 6122 0
-6121 6122 0
-10 -6113 6123 0
10 -6123 0
6113 -6123 0
-5869 -6123 -6124 0
5869 6123 -6124 0
5869 -6123 6124 0
-5869 6123 6124 0
-6124 -6122 -6125 0
6124 6122 -6125 0
6124 -6122 6125 0
-6124 6122 6125 0
-6124 -6122 6126 0
6124 -6126 0
6122 -6126 0
-5869 -6123 6127 0
5869 -6127 0
6123 -6127 0
6126 6127 -6128 0
-6126 6128 0
-6127 6128 0
-18 -6113 6129 0
18 -6129 0
6113 -6129 0
-5875 -6129 -6130 0
5875 6129 -6130 0
5875 -6129 6130 0
-5875 6129 6130 0
-6130 -6128 -6131 0
6130 6128 -6131 0
6130 -6128 6131 0
-6130 6128 6131 0
-6130 -6128 6132 0
6130 -6132 0
6128 -6132 0
-5875 -6129 6133 0
5875 -6133 0
6129 -6133 0
6132 6133 -6134 0
-6132 6134 0
-6133 6134 0
-26 -6113 6135 0
26 -6135 0
6113 -6135 0
-5881 -6135 -6136 0
5881 6135 -6136 0
5881 -6135 6136 0
-5881 6135 6136 0
-6136 -6134 -6137 0
6136 6134 -6137 0
6136 -6134 6137 0
-6136 6134 6137 0
-6136 -6134 6138 0
6136 -6138 0
6134 -6138 0
-5881 -6135 6139 0
5881 -6139 0
6135 -6139 0
6138 6139 -6140 0
-6138 6140 0
-6139 6140 0
-34 -6113 6141 0
34 -6141 0
6113 -6141 0
-5887 -6141 -6142 0
5887 6141 -6142 0
5887 -6141 6142 0
-5887 6141 6142 0
-6142 -6140 -6143 0
6142 6140 -6143 0
6142 -6140 6143 0
-6142 6140 6143 0
-6142 -6140 6144 0
6142 -6144 0
6140 -6144 0
-5887 -6141 6145 0
5887 -6145 0
6141 -6145 0
6144 6145 -6146 0
-6144 6146 0
-6145 6146 0
-42 -6113 6147 0
42 -6147 0
6113 -6147 0
-5893 -6147 -6148 0
5893 6147 -6148 0
5893 -6147 6148 0
-5893 6147 6148 0
-6148 -6146 -6149 0
6148 6146 -6149 0
6148 -6146 6149 0
-6148 6146 6149 0
-6148 -6146 6150 0
6148 -6150 0
6146 -6150 0
-5893 -6147 6151 0
5893 -6151 0
6147 -6151 0
6150 6151 -6152 0
-6150 6152 0
-6151 6152 0
-50 -6113 6153 0
50 -6153 0
6113 -6153 0
-5899 -6153 -6154 0
5899 6153 -6154 0
5899 -6153 6154 0
-5899 6153 6154 0
-6154 -6152 -6155 0
6154 6152 -6155 0
6154 -6152 6155 0
-6154 6152 6155 0
-6154 -6152 6156 0
6154 -6156 0
6152 -6156 0
-5899 -6153 6157 0
5899 -6157 0
6153 -6157 0
6156 6157 -6158 0
-6156 6158 0
-6157 6158 0
-58 -6113 6159 0
58 -6159 0
6113 -6159 0
-5905 -6159 -6160 0
5905 6159 -6160 0
5905 -6159 6160 0
-5905 6159 6160 0
-6160 -6158 -6161 0
6160 6158 -6161 0
6160 -6158 6161 0
-6160 6158 6161 0
-6160 -6158 6162 0
6160 -6162 0
6158 -6162 0
-5905 -6159 6163 0
5905 -6163 0
6159 -6163 0
6162 6163 -6164 0
-6162 6164 0
-6163 6164 0
-66 -6113 6165 0
66 -6165 0
6113 -6165 0
-5911 -6165 -6166 0
5911 6165 -6166 0
5911 -6165 6166 0
-5911 6165 6166 0
-6166 -6164 -6167 0
6166 6164 -6167 0
6166 -6164 6167 0
-6166 6164 6167 0
-6166 -6164 6168 0
6166 -6168 0
6164 -6168 0
-5911 -6165 6169 0
5911 -6169 0
6165 -6169 0
6168 6169 -6170 0
-6168 6170 0
-6169 6170 0
-74 -6113 6171 0
74 -6171 0
6113 -6171 0
-5917 -6171 -6172 0
5917 6171 -6172 0
5917 -6171 6172 0
-5917 6171 6172 0
-6172 -6170 -6173 0
6172 6170 -6173 0
6172 -6170 6173 0
-6172 6170 6173 0
-6172 -6170 6174 0
6172 -6174 0
6170 -6174 0
-5917 -6171 6175 0
5917 -6175 0
6171 -6175 0
6174 6175 -6176 0
-6174 6176 0
-6175 6176 0
-82 -6113 6177 0
82 -6177 0
6113 -6177 0
-5923 -6177 -6178 0
5923 6177 -6178 0
5923 -6177 6178 0
-5923 6177 6178 0
-6178 -6176 -6179 0
6178 6176 -6179 0
6178 -6176 6179 0
-6178 6176 6179 0
-6178 -6176 6180 0
6178 -6180 0
6176 -6180 0
-5923 -6177 6181 0
5923 -6181 0
6177 -6181 0
6180 6181 -6182 0
-6180 6182 0
-6181 6182 0
-90 -6113 6183 0
90 -6183 0
6113 -6183 0
-5929 -6183 -6184 0
5929 6183 -6184 0
5929 -6183 6184 0
-5929 6183 6184 0
-6184 -6182 -6185 0
6184 6182 -6185 0
6184 -6182 6185 0
-6184 6182 6185 0
-6184 -6182 6186 0
6184 -6186 0
6182 -6186 0
-5929 -6183 6187 0
5929 -6187 0
6183 -6187 0
6186 6187 -6188 0
-6186 6188 0
-6187 6188 0
-98 -6113 6189 0
98 -6189 0
6113 -6189 0
-5935 -6189 -6190 0
5935 6189 -6190 0
5935 -6189 6190 0
-5935 6189 6190 0
-6190 -6188 -6191 0
6190 6188 -6191 0
6190 -6188 6191 0
-6190 6188 6191 0
-6190 -6188 6192 0
6190 -6192 0
6188 -6192 0
-5935 -6189 6193 0
5935 -6193 0
6189 -6193 0
6192 6193 -6194 0
-6192 6194 0
-6193 6194 0
-106 -6113 6195 0
106 -6195 0
6113 -6195 0
-5941 -6195 -6196 0
5941 6195 -6196 0
5941 -6195 6196 0
-5941 6195 6196 0
-6196 -6194 -6197 0
6196 6194 -6197 0
6196 -6194 6197 0
-6196 6194 6197 0
-6196 -6194 6198 0
6196 -6198 0
6194 -6198 0
-5941 -6195 6199 0
5941 -6199 0
6195 -6199 0
6198 6199 -6200 0
-6198 6200 0
-6199 6200 0
-114 -6113 6201 0
114 -6201 0
6113 -6201 0
-5947 -6201 -6202 0
5947 6201 -6202 0
5947 -6201 6202 0
-5947 6201 6202 0
-6202 -6200 -6203 0
6202 6200 -6203 0
6202 -6200 6203 0
-6202 6200 6203 0
-6202 -6200 6204 0
6202 -6204 0
6200 -6204 0
-5947 -6201 6205 0
5947 -6205 0
6201 -6205 0
6204 6205 -6206 0
-6204 6206 0
-6205 6206 0
-122 -6113 6207 0
122 -6207 0
6113 -6207 0
-5953 -6207 -6208 0
5953 6207 -6208 0
5953 -6207 6208 0
-5953 6207 6208 0
-6208 -6206 -6209 0
6208 6206 -6209 0
6208 -6206 6209 0
-6208 6206 6209 0
-6208 -6206 6210 0
6208 -6210 0
6206 -6210 0
-5953 -6207 6211 0
5953 -6211 0
6207 -6211 0
6210 6211 -6212 0
-6210 6212 0
-6211 6212 0
-130 -6113 6213 0
130 -6213 0
6113 -6213 0
-5959 -6213 -6214 0
5959 6213 -6214 0
5959 -6213 6214 0
-5959 6213 6214 0
-6214 -6212 -6215 0
6214 6212 -6215 0
6214 -6212 6215 0
-6214 6212 6215 0
-6214 -6212 6216 0
6214 -6216 0
6212 -6216 0
-5959 -6213 6217 0
5959 -6217 0
6213 -6217 0
6216 6217 -6218 0
-6216 6218 0
-6217 6218 0
-138 -6113 6219 0
138 -6219 0
6113 -6219 0
-5965 -6219 -6220 0
5965 6219 -6220 0
5965 -6219 6220 0
-5965 6219 6220 0
-6220 -6218 -6221 0
6220 6218 -6221 0
6220 -6218 6221 0
-6220 6218 6221 0
-6220 -6218 6222 0
6220 -6222 0
6218 -6222 0
-5965 -6219 6223 0
5965 -6223 0
6219 -6223 0
6222 6223 -6224 0
-6222 6224 0
-6223 6224 0
-146 -6113 6225 0
146 -6225 0
6113 -6225 0
-5971 -6225 -6226 0
5971 6225 -6226 0
5971 -6225 6226 0
-5971 6225 6226 0
-6226 -6224 -6227 0
6226 6224 -6227 0
6226 -6224 6227 0
-6226 6224 6227 0
-6226 -6224 6228 0
6226 -6228 0
6224 -6228 0
-5971 -6225 6229 0
5971 -6229 0
6225 -6229 0
6228 6229 -6230 0
-6228 6230 0
-6229 6230 0
-154 -6113 6231 0
154 -6231 0
6113 -6231 0
-5977 -6231 -6232 0
5977 6231 -6232 0
5977 -6231 6232 0
-5977 6231 6232 0
-6232 -6230 -6233 0
6232 6230 -6233 0
6232 -6230 6233 0
-6232 6230 6233 0
-6232 -6230 6234 0
6232 -6234 0
6230 -6234 0
-5977 -6231 6235 0
5977 -6235 0
6231 -6235 0
6234 6235 -6236 0
-6234 6236 0
-6235 6236 0
-162 -6113 6237 0
162 -6237 0
6113 -6237 0
-5983 -6237 -6238 0
5983 6237 -6238 0
5983 -6237 6238 0
-5983 6237 6238 0
-6238 -6236 -6239 0
6238 6236 -6239 0
6238 -6236 6239 0
-6238 6236 6239 0
-6238 -6236 6240 0
6238 -6240 0
6236 -6240 0
-5983 -6237 6241 0
5983 -6241 0
6237 -6241 0
6240 6241 -6242 0
-6240 6242 0
-6241 6242 0
-170 -6113 6243 0
170 -6243 0
6113 -6243 0
-5989 -6243 -6244 0
5989 6243 -6244 0
5989 -6243 6244 0
-5989 6243 6244 0
-6244 -6242 -6245 0
6244 6242 -6245 0
6244 -6242 6245 0
-6244 6242 6245 0
-6244 -6242 6246 0
6244 -6246 0
6242 -6246 0
-5989 -6243 6247 0
5989 -6247 0
6243 -6247 0
6246 6247 -6248 0
-6246 6248 0
-6247 6248 0
-178 -6113 6249 0
178 -6249 0
6113 -6249 0
-5995 -6249 -6250 0
5995 6249 -6250 0
5995 -6249 6250 0
-5995 6249 6250 0
-6250 -6248 -6251 0
6250 6248 -6251 0
6250 -6248 6251 0
-6250 6248 6251 0
-6250 -6248 6252 0
6250 -6252 0
6248 -6252 0
-5995 -6249 6253 0
5995 -6253 0
6249 -6253 0
6252 6253 -6254 0
-6252 6254 0
-6253 6254 0
-186 -6113 6255 0
186 -6255 0
6113 -6255 0
-6001 -6255 -6256 0
6001 6255 -6256 0
6001 -6255 6256 0
-6001 6255 6256 0
-6256 -6254 -6257 0
6256 6254 -6257 0
6256 -6254 6257 0
-6256 6254 6257 0
-6256 -6254 6258 0
6256 -6258 0
6254 -6258 0
-6001 -6255 6259 0
6001 -6259 0
6255 -6259 0
6258 6259 -6260 0
-6258 6260 0
-6259 6260 0
-194 -6113 6261 0
194 -6261 0
6113 -6261 0
-6007 -6261 -6262 0
6007 6261 -6262 0
6007 -6261 6262 0
-6007 6261 6262 0
-6262 -6260 -6263 0
6262 6260 -6263 0
6262 -6260 6263 0
-6262 6260 6263 0
-6262 -6260 6264 0
6262 -6264 0
6260 -6264 0
-6007 -6261 6265 0
6007 -6265 0
6261 -6265 0
6264 6265 -6266 0
-6264 6266 0
-6265 6266 0
-202 -6113 6267 0
202 -6267 0
6113 -6267 0
-6013 -6267 -6268 0
6013 6267 -6268 0
6013 -6267 6268 0
-6013 6267 6268 0
-6268 -6266 -6269 0
6268 6266 -6269 0
6268 -6266 6269 0
-6268 6266 6269 0
-6268 -6266 6270 0
6268 -6270 0
6266 -6270 0
-6013 -6267 6271 0
6013 -6271 0
6267 -6271 0
6270 6271 -6272 0
-6270 6272 0
-6271 6272 0
-210 -6113 6273 0
210 -6273 0
6113 -6273 0
-6019 -6273 -6274 0
6019 6273 -6274 0
6019 -6273 6274 0
-6019 6273 6274 0
-6274 -6272 -6275 0
6274 6272 -6275 0
6274 -6272 6275 0
-6274 6272 6275 0
-6274 -6272 6276 0
6274 -6276 0
6272 -6276 0
-6019 -6273 6277 0
6019 -6277 0
6273 -6277 0
6276 6277 -6278 0
-6276 6278 0
-6277 6278 0
-218 -6113 6279 0
218 -6279 0
6113 -6279 0
-6025 -6279 -6280 0
6025 6279 -6280 0
6025 -6279 6280 0
-6025 6279 6280 0
-6280 -6278 -6281 0
6280 6278 -6281 0
6280 -6278 6281 0
-6280 6278 6281 0
-6280 -6278 6282 0
6280 -6282 0
6278 -6282 0
-6025 -6279 6283 0
6025 -6283 0
6279 -6283 0
6282 6283 -6284 0
-6282 6284 0
-6283 6284 0
-226 -6113 6285 0
226 -6285 0
6113 -6285 0
-6031 -6285 -6286 0
6031 6285 -6286 0
6031 -6285 6286 0
-6031 6285 6286 0
-6286 -6284 -6287 0
6286 6284 -6287 0
6286 -6284 6287 0
-6286 6284 6287 0
-6286 -6284 6288 0
6286 -6288 0
6284 -6288 0
-6031 -6285 6289 0
6031 -6289 0
6285 -6289 0
6288 6289 -6290 0
-6288 6290 0
-6289 6290 0
-234 -6113 6291 0
234 -6291 0
6113 -6291 0
-6037 -6291 -6292 0
6037 6291 -6292 0
6037 -6291 6292 0
-6037 6291 6292 0
-6292 -6290 -6293 0
6292 6290 -6293 0
6292 -6290 6293 0
-6292 6290 6293 0
-6292 -6290 6294 0
6292 -6294 0
6290 -6294 0
-6037 -6291 6295 0
6037 -6295 0
6291 -6295 0
6294 6295 -6296 0
-6294 6296 0
-6295 6296 0
-242 -6113 6297 0
242 -6297 0
6113 -6297 0
-6043 -6297 -6298 0
6043 6297 -6298 0
6043 -6297 6298 0
-6043 6297 6298 0
-6298 -6296 -6299 0
6298 6296 -6299 0
6298 -6296 6299 0
-6298 6296 6299 0
-6298 -6296 6300 0
6298 -6300 0
6296 -6300 0
-6043 -6297 6301 0
6043 -6301 0
6297 -6301 0
6300 6301 -6302 0
-6300 6302 0
-6301 6302 0
-250 -6113 6303 0
250 -6303 0
6113 -6303 0
-6049 -6303 -6304 0
6049 6303 -6304 0
6049 -6303 6304 0
-6049 6303 6304 0
-6304 -6302 -6305 0
6304 6302 -6305 0
6304 -6302 6305 0
-6304 6302 6305 0
-6304 -6302 6306 0
6304 -6306 0
6302 -6306 0
-6049 -6303 6307 0
6049 -6307 0
6303 -6307 0
6306 6307 -6308 0
-6306 6308 0
-6307 6308 0
-258 -6113 6309 0
258 -6309 0
6113 -6309 0
-6055 -6309 -6310 0
6055 6309 -6310 0
6055 -6309 6310 0
-6055 6309 6310 0
-6310 -6308 -6311 0
6310 6308 -6311 0
6310 -6308 6311 0
-6310 6308 6311 0
-6310 -6308 6312 0
6310 -6312 0
6308 -6312 0
-6055 -6309 6313 0
6055 -6313 0
6309 -6313 0
6312 6313 -6314 0
-6312 6314 0
-6313 6314 0
-266 -6113 6315 0
266 -6315 0
6113 -6315 0
-6061 -6315 -6316 0
6061 6315 -6316 0
6061 -6315 6316 0
-6061 6315 6316 0
-6316 -6314 -6317 0
6316 6314 -6317 0
6316 -6314 6317 0
-6316 6314 6317 0
-6316 -6314 6318 0
6316 -6318 0
6314 -6318 0
-6061 -6315 6319 0
6061 -6319 0
6315 -6319 0
6318 6319 -6320 0
-6318 6320 0
-6319 6320 0
-274 -6113 6321 0
274 -6321 0
6113 -6321 0
-6067 -6321 -6322 0
6067 6321 -6322 0
6067 -6321 6322 0
-6067 6321 6322 0
-6322 -6320 -6323 0
6322 6320 -6323 0
6322 -6320 6323 0
-6322 6320 6323 0
-6322 -6320 6324 0
6322 -6324 0
6320 -6324 0
-6067 -6321 6325 0
6067 -6325 0
6321 -6325 0
6324 6325 -6326 0
-6324 6326 0
-6325 6326 0
-282 -6113 6327 0
282 -6327 0
6113 -6327 0
-6073 -6327 -6328 0
6073 6327 -6328 0
6073 -6327 6328 0
-6073 6327 6328 0
-6328 -6326 -6329 0
6328 6326 -6329 0
6328 -6326 6329 0
-6328 6326 6329 0
-6328 -6326 6330 0
6328 -6330 0
6326 -6330 0
-6073 -6327 6331 0
6073 -6331 0
6327 -6331 0
6330 6331 -6332 0
-6330 6332 0
-6331 6332 0
-290 -6113 6333 0
290 -6333 0
6113 -6333 0
-6079 -6333 -6334 0
6079 6333 -6334 0
6079 -6333 6334 0
-6079 6333 6334 0
-6334 -6332 -6335 0
6334 6332 -6335 0
6334 -6332 6335 0
-6334 6332 6335 0
-6334 -6332 6336 0
6334 -6336 0
6332 -6336 0
-6079 -6333 6337 0
6079 -6337 0
6333 -6337 0
6336 6337 -6338 0
-6336 6338 0
-6337 6338 0
-298 -6113 6339 0
298 -6339 0
6113 -6339 0
-6085 -6339 -6340 0
6085 6339 -6340 0
6085 -6339 6340 0
-6085 6339 6340 0
-6340 -6338 -6341 0
6340 6338 -6341 0
6340 -6338 6341 0
-6340 6338 6341 0
-6340 -6338 6342 0
6340 -6342 0
6338 -6342 0
-6085 -6339 6343 0
6085 -6343 0
6339 -6343 0
6342 6343 -6344 0
-6342 6344 0
-6343 6344 0
-306 -6113 6345 0
306 -6345 0
6113 -6345 0
-6091 -6345 -6346 0
6091 6345 -6346 0
6091 -6345 6346 0
-6091 6345 6346 0
-6346 -6344 -6347 0
6346 6344 -6347 0
6346 -6344 6347 0
-6346 6344 6347 0
-6346 -6344 6348 0
6346 -6348 0
6344 -6348 0
-6091 -6345 6349 0
6091 -6349 0
6345 -6349 0
6348 6349 -6350 0
-6348 6350 0
-6349 6350 0
-314 -6113 6351 0
314 -6351 0
6113 -6351 0
-6097 -6351 -6352 0
6097 6351 -6352 0
6097 -6351 6352 0
-6097 6351 6352 0
-6352 -6350 -6353 0
6352 6350 -6353 0
6352 -6350 6353 0
-6352 6350 6353 0
-6352 -6350 6354 0
6352 -6354 0
6350 -6354 0
-6097 -6351 6355 0
6097 -6355 0
6351 -6355 0
6354 6355 -6356 0
-6354 6356 0
-6355 6356 0
-322 -6113 6357 0
322 -6357 0
6113 -6357 0
-6103 -6357 -6358 0
6103 6357 -6358 0
6103 -6357 6358 0
-6103 6357 6358 0
-6358 -6356 -6359 0
6358 6356 -6359 0
6358 -6356 6359 0
-6358 6356 6359 0
-6358 -6356 6360 0
6358 -6360 0
6356 -6360 0
-6103 -6357 6361 0
6103 -6361 0
6357 -6361 0
6360 6361 -6362 0
-6360 6362 0
-6361 6362 0
-330 -6113 6363 0
330 -6363 0
6113 -6363 0
-6109 -6363 -6364 0
6109 6363 -6364 0
6109 -6363 6364 0
-6109 6363 6364 0
-6364 -6362 -6365 0
6364 6362 -6365 0
6364 -6362 6365 0
-6364 6362 6365 0
-6364 -6362 6366 0
6364 -6366 0
6362 -6366 0
-6109 -6363 6367 0
6109 -6367 0
6363 -6367 0
6366 6367 -6368 0
-6366 6368 0
-6367 6368 0
-338 -6113 6369 0
338 -6369 0
6113 -6369 0
-6112 -6369 -6370 0
6112 6369 -6370 0
6112 -6369 6370 0
-6112 6369 6370 0
-6370 -6368 -6371 0
6370 6368 -6371 0
6370 -6368 6371 0
-6370 6368 6371 0
-6370 -6368 6372 0
6370 -6372 0
6368 -6372 0
-6112 -6369 6373 0
6112 -6373 0
6369 -6373 0
6372 6373 -6374 0
-6372 6374 0
-6373 6374 0
-1 -6375 6376 0
1 -6376 0
6375 -6376 0
-6119 -6376 -6377 0
6119 6376 -6377 0
6119 -6376 6377 0
-6119 6376 6377 0
-6119 -6376 6378 0
6119 -6378 0
6376 -6378 0
-4 -6375 6379 0
4 -6379 0
6375 -6379 0
-6125 -6379 -6380 0
6125 6379 -6380 0
6125 -6379 6380 0
-6125 6379 6380 0
-6380 -6378 -6381 0
6380 6378 -6381 0
6380 -6378 6381 0
-6380 6378 6381 0
-6380 -6378 6382 0
6380 -6382 0
6378 -6382 0
-6125 -6379 6383 0
6125 -6383 0
6379 -6383 0
6382 6383 -6384 0
-6382 6384 0
-6383 6384 0
-10 -6375 6385 0
10 -6385 0
6375 -6385 0
-6131 -6385 -6386 0
6131 6385 -6386 0
6131 -6385 6386 0
-6131 6385 6386 0
-6386 -6384 -6387 0
6386 6384 -6387 0
6386 -6384 6387 0
-6386 6384 6387 0
-6386 -6384 6388 0
6386 -6388 0
6384 -6388 0
-6131 -6385 6389 0
6131 -6389 0
6385 -6389 0
6388 6389 -6390 0
-6388 6390 0
-6389 6390 0
-18 -6375 6391 0
18 -6391 0
6375 -6391 0
-6137 -6391 -6392 0
6137 6391 -6392 0
6137 -6391 6392 0
-6137 6391 6392 0
-6392 -6390 -6393 0
6392 6390 -6393 0
6392 -6390 6393 0
-6392 6390 6393 0
-6392 -6390 6394 0
6392 -6394 0
6390 -6394 0
-6137 -6391 6395 0
6137 -6395 0
6391 -6395 0
6394 6395 -6396 0
-6394 6396 0
-6395 6396 0
-26 -6375 6397 0
26 -6397 0
6375 -6397 0
-6143 -6397 -6398 0
6143 6397 -6398 0
6143 -6397 6398 0
-6143 6397 6398 0
-6398 -6396 -6399 0
6398 6396 -6399 0
6398 -6396 6399 0
-6398 6396 6399 0
-6398 -6396 6400 0
6398 -6400 0
6396 -6400 0
-6143 -6397 6401 0
6143 -6401 0
6397 -6401 0
6400 6401 -6402 0
-6400 6402 0
-6401 6402 0
-34 -6375 6403 0
34 -6403 0
6375 -6403 0
-6149 -6403 -6404 0
6149 6403 -6404 0
6149 -6403 6404 0
-6149 6403 6404 0
-6404 -6402 -6405 0
6404 6402 -6405 0
6404 -6402 6405 0
-6404 6402 6405 0
-6404 -6402 6406 0
6404 -6406 0
6402 -6406 0
-6149 -6403 6407 0
6149 -6407 0
6403 -6407 0
6406 6407 -6408 0
-6406 6408 0
-6407 6408 0
-42 -6375 6409 0
42 -6409 0
6375 -6409 0
-6155 -6409 -6410 0
6155 6409 -6410 0
6155 -6409 6410 0
-6155 6409 6410 0
-6410 -6408 -6411 0
6410 6408 -6411 0
6410 -6408 6411 0
-6410 6408 6411 0
-6410 -6408 6412 0
6410 -6412 0
6408 -6412 0
-6155 -6409 6413 0
6155 -6413 0
6409 -6413 0
6412 6413 -6414 0
-6412 6414 0
-6413 6414 0
-50 -6375 6415 0
50 -6415 0
6375 -6415 0
-6161 -6415 -6416 0
6161 6415 -6416 0
6161 -6415 6416 0
-6161 6415 6416 0
-6416 -6414 -6417 0
6416 6414 -6417 0
6416 -6414 6417 0
-6416 6414 6417 0
-6416 -6414 6418 0
6416 -6418 0
6414 -6418 0
-6161 -6415 6419 0
6161 -6419 0
6415 -6419 0
6418 6419 -6420 0
-6418 6420 0
-6419 6420 0
-58 -6375 6421 0
58 -6421 0
6375 -6421 0
-6167 -6421 -6422 0
6167 6421 -6422 0
6167 -6421 6422 0
-6167 6421 6422 0
-6422 -6420 -6423 0
6422 6420 -6423 0
6422 -6420 6423 0
-6422 6420 6423 0
-6422 -6420 6424 0
6422 -6424 0
6420 -6424 0
-6167 -6421 6425 0
6167 -6425 0
6421 -6425 0
6424 6425 -6426 0
-6424 6426 0
-6425 6426 0
-66 -6375 6427 0
66 -6427 0
6375 -6427 0
-6173 -6427 -6428 0
6173 6427 -6428 0
6173 -6427 6428 0
-6173 6427 6428 0
-6428 -6426 -6429 0
6428 6426 -6429 0
6428 -6426 6429 0
-6428 6426 6429 0
-6428 -6426 6430 0
6428 -6430 0
6426 -6430 0
-6173 -6427 6431 0
6173 -6431 0
6427 -6431 0
6430 6431 -6432 0
-6430 6432 0
-6431 6432 0
-74 -6375 6433 0
74 -6433 0
6375 -6433 0
-6179 -6433 -6434 0
6179 6433 -6434 0
6179 -6433 6434 0
-6179 6433 6434 0
-6434 -6432 -6435 0
6434 6432 -6435 0
6434 -6432 6435 0
-6434 6432 6435 0
-6434 -6432 6436 0
6434 -6436 0
6432 -6436 0
-6179 -6433 6437 0
6179 -6437 0
6433 -6437 0
6436 6437 -6438 0
-6436 6438 0
-6437 6438 0
-82 -6375 6439 0
82 -6439 0
6375 -6439 0
-6185 -6439 -6440 0
6185 6439 -6440 0
6185 -6439 6440 0
-6185 6439 6440 0
-6440 -6438 -6441 0
6440 6438 -6441 0
6440 -6438 6441 0
-6440 6438 6441 0
-6440 -6438 6442 0
6440 -6442 0
6438 -6442 0
-6185 -6439 6443 0
6185 -6443 0
6439 -6443 0
6442 6443 -6444 0
-6442 6444 0
-6443 6444 0
-90 -6375 6445 0
90 -6445 0
6375 -6445 0
-6191 -6445 -6446 0
6191 6445 -6446 0
6191 -6445 6446 0
-6191 6445 6446 0
-6446 -6444 -6447 0
6446 6444 -6447 0
6446 -6444 6447 0
-6446 6444 6447 0
-6446 -6444 6448 0
6446 -6448 0
6444 -6448 0
-6191 -6445 6449 0
6191 -6449 0
6445 -6449 0
6448 6449 -6450 0
-6448 6450 0
-6449 6450 0
-98 -6375 6451 0
98 -6451 0
6375 -6451 0
-6197 -6451 -6452 0
6197 6451 -6452 0
6197 -6451 6452 0
-6197 6451 6452 0
-6452 -6450 -6453 0
6452 6450 -6453 0
6452 -6450 6453 0
-6452 6450 6453 0
-6452 -6450 6454 0
6452 -6454 0
6450 -6454 0
-6197 -6451 6455 0
6197 -6455 0
6451 -6455 0
6454 6455 -6456 0
-6454 6456 0
-6455 6456 0
-106 -6375 6457 0
106 -6457 0
6375 -6457 0
-6203 -6457 -6458 0
6203 6457 -6458 0
6203 -6457 6458 0
-6203 6457 6458 0
-6458 -6456 -6459 0
6458 6456 -6459 0
6458 -6456 6459 0
-6458 6456 6459 0
-6458 -6456 6460 0
6458 -6460 0
6456 -6460 0
-6203 -6457 6461 0
6203 -6461 0
6457 -6461 0
6460 6461 -6462 0
-6460 6462 0
-6461 6462 0
-114 -6375 6463 0
114 -6463 0
6375 -6463 0
-6209 -6463 -6464 0
6209 6463 -6464 0
6209 -6463 6464 0
-6209 6463 6464 0
-6464 -6462 -6465 0
6464 6462 -6465 0
6464 -6462 6465 0
-6464 6462 6465 0
-6464 -6462 6466 0
6464 -6466 0
6462 -6466 0
-6209 -6463 6467 0
6209 -6467 0
6463 -6467 0
6466 6467 -6468 0
-6466 6468 0
-6467 6468 0
-122 -6375 6469 0
122 -6469 0
6375 -6469 0
-6215 -6469 -6470 0
6215 6469 -6470 0
6215 -6469 6470 0
-6215 6469 6470 0
-6470 -6468 -6471 0
6470 6468 -6471 0
6470 -6468 6471 0
-6470 6468 6471 0
-6470 -6468 6472 0
6470 -6472 0
6468 -6472 0
-6215 -6469 6473 0
6215 -6473 0
6469 -6473 0
6472 6473 -6474 0
-6472 6474 0
-6473 6474 0
-130 -6375 6475 0
130 -6475 0
6375 -6475 0
-6221 -6475 -6476 0
6221 6475 -6476 0
6221 -6475 6476 0
-6221 6475 6476 0
-6476 -6474 -6477 0
6476 6474 -6477 0
6476 -6474 6477 0
-6476 6474 6477 0
-6476 -6474 6478 0
6476 -6478 0
6474 -6478 0
-6221 -6475 6479 0
6221 -6479 0
6475 -6479 0
6478 6479 -6480 0
-6478 6480 0
-6479 6480 0
-138 -6375 6481 0
138 -6481 0
6375 -6481 0
-6227 -6481 -6482 0
6227 6481 -6482 0
6227 -6481 6482 0
-6227 6481 6482 0
-6482 -6480 -6483 0
6482 6480 -6483 0
6482 -6480 6483 0
-6482 6480 6483 0
-6482 -6480 6484 0
6482 -6484 0
6480 -6484 0
-6227 -6481 6485 0
6227 -6485 0
6481 -6485 0
6484 6485 -6486 0
-6484 6486 0
-6485 6486 0
-146 -6375 6487 0
146 -6487 0
6375 -6487 0
-6233 -6487 -6488 0
6233 6487 -6488 0
6233 -6487 6488 0
-6233 6487 6488 0
-6488 -6486 -6489 0
6488 6486 -6489 0
6488 -6486 6489 0
-6488 6486 6489 0
-6488 -6486 6490 0
6488 -6490 0
6486 -6490 0
-6233 -6487 6491 0
6233 -6491 0
6487 -6491 0
6490 6491 -6492 0
-6490 6492 0
-6491 6492 0
-154 -6375 6493 0
154 -6493 0
6375 -6493 0
-6239 -6493 -6494 0
6239 6493 -6494 0
6239 -6493 6494 0
-6239 6493 6494 0
-6494 -6492 -6495 0
6494 6492 -6495 0
6494 -6492 6495 0
-6494 6492 6495 0
-6494 -6492 6496 0
6494 -6496 0
6492 -6496 0
-6239 -6493 6497 0
6239 -6497 0
6493 -6497 0
6496 6497 -6498 0
-6496 6498 0
-6497 6498 0
-162 -6375 6499 0
162 -6499 0
6375 -6499 0
-6245 -6499 -6500 0
6245 6499 -6500 0
6245 -6499 6500 0
-6245 6499 6500 0
-6500 -6498 -6501 0
6500 6498 -6501 0
6500 -6498 6501 0
-6500 6498 6501 0
-6500 -6498 6502 0
6500 -6502 0
6498 -6502 0
-6245 -6499 6503 0
6245 -6503 0
6499 -6503 0
6502 6503 -6504 0
-6502 6504 0
-6503 6504 0
-170 -6375 6505 0
170 -6505 0
6375 -6505 0
-6251 -6505 -6506 0
6251 6505 -6506 0
6251 -6505 6506 0
-6251 6505 6506 0
-6506 -6504 -6507 0
6506 6504 -6507 0
6506 -6504 6507 0
-6506 6504 6507 0
-6506 -6504 6508 0
6506 -6508 0
6504 -6508 0
-6251 -6505 6509 0
6251 -6509 0
6505 -6509 0
6508 6509 -6510 0
-6508 6510 0
-6509 6510 0
-178 -6375 6511 0
178 -6511 0
6375 -6511 0
-6257 -6511 -6512 0
6257 6511 -6512 0
6257 -6511 6512 0
-6257 6511 6512 0
-6512 -6510 -6513 0
6512 6510 -6513 0
6512 -6510 6513 0
-6512 6510 6513 0
-6512 -6510 6514 0
6512 -6514 0
6510 -6514 0
-6257 -6511 6515 0
6257 -6515 0
6511 -6515 0
6514 6515 -6516 0
-6514 6516 0
-6515 6516 0
-186 -6375 6517 0
186 -6517 0
6375 -6517 0
-6263 -6517 -6518 0
6263 6517 -6518 0
6263 -6517 6518 0
-6263 6517 6518 0
-6518 -6516 -6519 0
6518 6516 -6519 0
6518 -6516 6519 0
-6518 6516 6519 0
-6518 -6516 6520 0
6518 -6520 0
6516 -6520 0
-6263 -6517 6521 0
6263 -6521 0
6517 -6521 0
6520 6521 -6522 0
-6520 6522 0
-6521 6522 0
-194 -6375 6523 0
194 -6523 0
6375 -6523 0
-6269 -6523 -6524 0
6269 6523 -6524 0
6269 -6523 6524 0
-6269 6523 6524 0
-6524 -6522 -6525 0
6524 6522 -6525 0
6524 -6522 6525 0
-6524 6522 6525 0
-6524 -6522 6526 0
6524 -6526 0
6522 -6526 0
-6269 -6523 6527 0
6269 -6527 0
6523 -6527 0
6526 6527 -6528 0
-6526 6528 0
-6527 6528 0
-202 -6375 6529 0
202 -6529 0
6375 -6529 0
-6275 -6529 -6530 0
6275 6529 -6530 0
6275 -6529 6530 0
-6275 6529 6530 0
-6530 -6528 -6531 0
6530 6528 -6531 0
6530 -6528 6531 0
-6530 6528 6531 0
-6530 -6528 6532 0
6530 -6532 0
6528 -6532 0
-6275 -6529 6533 0
6275 -6533 0
6529 -6533 0
6532 6533 -6534 0
-6532 6534 0
-6533 6534 0
-210 -6375 6535 0
210 -6535 0
6375 -6535 0
-6281 -6535 -6536 0
6281 6535 -6536 0
6281 -6535 6536 0
-6281 6535 6536 0
-6536 -6534 -6537 0
6536 6534 -6537 0
6536 -6534 6537 0
-6536 6534 6537 0
-6536 -6534 6538 0
6536 -6538 0
6534 -6538 0
-6281 -6535 6539 0
6281 -6539 0
6535 -6539 0
6538 6539 -6540 0
-6538 6540 0
-6539 6540 0
-218 -6375 6541 0
218 -6541 0
6375 -6541 0
-6287 -6541 -6542 0
6287 6541 -6542 0
6287 -6541 6542 0
-6287 6541 6542 0
-6542 -6540 -6543 0
6542 6540 -6543 0
6542 -6540 6543 0
-6542 6540 6543 0
-6542 -6540 6544 0
6542 -6544 0
6540 -6544 0
-6287 -6541 6545 0
6287 -6545 0
6541 -6545 0
6544 6545 -6546 0
-6544 6546 0
-6545 6546 0
-226 -6375 6547 0
226 -6547 0
6375 -6547 0
-6293 -6547 -6548 0
6293 6547 -6548 0
6293 -6547 6548 0
-6293 6547 6548 0
-6548 -6546 -6549 0
6548 6546 -6549 0
6548 -6546 6549 0
-6548 6546 6549 0
-6548 -6546 6550 0
6548 -6550 0
6546 -6550 0
-6293 -6547 6551 0
6293 -6551 0
6547 -6551 0
6550 6551 -6552 0
-6550 6552 0
-6551 6552 0
-234 -6375 6553 0
234 -6553 0
6375 -6553 0
-6299 -6553 -6554 0
6299 6553 -6554 0
6299 -6553 6554 0
-6299 6553 6554 0
-6554 -6552 -6555 0
6554 6552 -6555 0
6554 -6552 6555 0
-6554 6552 6555 0
-6554 -6552 6556 0
6554 -6556 0
6552 -6556 0
-6299 -6553 6557 0
6299 -6557 0
6553 -6557 0
6556 6557 -6558 0
-6556 6558 0
-6557 6558 0
-242 -6375 6559 0
242 -6559 0
6375 -6559 0
-6305 -6559 -6560 0
6305 6559 -6560 0
6305 -6559 6560 0
-6305 6559 6560 0
-6560 -6558 -6561 0
6560 6558 -6561 0
6560 -6558 6561 0
-6560 6558 6561 0
-6560 -6558 6562 0
6560 -6562 0
6558 -6562 0
-6305 -6559 6563 0
6305 -6563 0
6559 -6563 0
6562 6563 -6564 0
-6562 6564 0
-6563 6564 0
-250 -6375 6565 0
250 -6565 0
6375 -6565 0
-6311 -6565 -6566 0
6311 6565 -6566 0
6311 -6565 6566 0
-6311 6565 6566 0
-6566 -6564 -6567 0
6566 6564 -6567 0
6566 -6564 6567 0
-6566 6564 6567 0
-6566 -6564 6568 0
6566 -6568 0
6564 -6568 0
-6311 -6565 6569 0
6311 -6569 0
6565 -6569 0
6568 6569 -6570 0
-6568 6570 0
-6569 6570 0
-258 -6375 6571 0
258 -6571 0
6375 -6571 0
-6317 -6571 -6572 0
6317 6571 -6572 0
6317 -6571 6572 0
-6317 6571 6572 0
-6572 -6570 -6573 0
6572 6570 -6573 0
6572 -6570 6573 0
-6572 6570 6573 0
-6572 -6570 6574 0
6572 -6574 0
6570 -6574 0
-6317 -6571 6575 0
6317 -6575 0
6571 -6575 0
6574 6575 -6576 0
-6574 6576 0
-6575 6576 0
-266 -6375 6577 0
266 -6577 0
6375 -6577 0
-6323 -6577 -6578 0
6323 6577 -6578 0
6323 -6577 6578 0
-6323 6577 6578 0
-6578 -6576 -6579 0
6578 6576 -6579 0
6578 -6576 6579 0
-6578 6576 6579 0
-6578 -6576 6580 0
6578 -6580 0
6576 -6580 0
-6323 -6577 6581 0
6323 -6581 0
6577 -6581 0
6580 6581 -6582 0
-6580 6582 0
-6581 6582 0
-274 -6375 6583 0
274 -6583 0
6375 -6583 0
-6329 -6583 -6584 0
6329 6583 -6584 0
6329 -6583 6584 0
-6329 6583 6584 0
-6584 -6582 -6585 0
6584 6582 -6585 0
6584 -6582 6585 0
-6584 6582 6585 0
-6584 -6582 6586 0
6584 -6586 0
6582 -6586 0
-6329 -6583 6587 0
6329 -6587 0
6583 -6587 0
6586 6587 -6588 0
-6586 6588 0
-6587 6588 0
-282 -6375 6589 0
282 -6589 0
6375 -6589 0
-6335 -6589 -6590 0
6335 6589 -6590 0
6335 -6589 6590 0
-6335 6589 6590 0
-6590 -6588 -6591 0
6590 6588 -6591 0
6590 -6588 6591 0
-6590 6588 6591 0
-6590 -6588 6592 0
6590 -6592 0
6588 -6592 0
-6335 -6589 6593 0
6335 -6593 0
6589 -6593 0
6592 6593 -6594 0
-6592 6594 0
-6593 6594 0
-290 -6375 6595 0
290 -6595 0
6375 -6595 0
-6341 -6595 -6596 0
6341 6595 -6596 0
6341 -6595 6596 0
-6341 6595 6596 0
-6596 -6594 -6597 0
6596 6594 -6597 0
6596 -6594 6597 0
-6596 6594 6597 0
-6596 -6594 6598 0
6596 -6598 0
6594 -6598 0
-6341 -6595 6599 0
6341 -6599 0
6595 -6599 0
6598 6599 -6600 0
-6598 6600 0
-6599 6600 0
-298 -6375 6601 0
298 -6601 0
6375 -6601 0
-6347 -6601 -6602 0
6347 6601 -6602 0
6347 -6601 6602 0
-6347 6601 6602 0
-6602 -6600 -6603 0
6602 6600 -6603 0
6602 -6600 6603 0
-6602 6600 6603 0
-6602 -6600 6604 0
6602 -6604 0
6600 -6604 0
-6347 -6601 6605 0
6347 -6605 0
6601 -6605 0
6604 6605 -6606 0
-6604 6606 0
-6605 6606 0
-306 -6375 6607 0
306 -6607 0
6375 -6607 0
-6353 -6607 -6608 0
6353 6607 -6608 0
6353 -6607 6608 0
-6353 6607 6608 0
-6608 -6606 -6609 0
6608 6606 -6609 0
6608 -6606 6609 0
-6608 6606 6609 0
-6608 -6606 6610 0
6608 -6610 0
6606 -6610 0
-6353 -6607 6611 0
6353 -6611 0
6607 -6611 0
6610 6611 -6612 0
-6610 6612 0
-6611 6612 0
-314 -6375 6613 0
314 -6613 0
6375 -6613 0
-6359 -6613 -6614 0
6359 6613 -6614 0
6359 -6613 6614 0
-6359 6613 6614 0
-6614 -6612 -6615 0
6614 6612 -6615 0
6614 -6612 6615 0
-6614 6612 6615 0
-6614 -6612 6616 0
6614 -6616 0
6612 -6616 0
-6359 -6613 6617 0
6359 -6617 0
6613 -6617 0
6616 6617 -6618 0
-6616 6618 0
-6617 6618 0
-322 -6375 6619 0
322 -6619 0
6375 -6619 0
-6365 -6619 -6620 0
6365 6619 -6620 0
6365 -6619 6620 0
-6365 6619 6620 0
-6620 -6618 -6621 0
6620 6618 -6621 0
6620 -6618 6621 0
-6620 6618 6621 0
-6620 -6618 6622 0
6620 -6622 0
6618 -6622 0
-6365 -6619 6623 0
6365 -6623 0
6619 -6623 0
6622 6623 -6624 0
-6622 6624 0
-6623 6624 0
-330 -6375 6625 0
330 -6625 0
6375 -6625 0
-6371 -6625 -6626 0
6371 6625 -6626 0
6371 -6625 6626 0
-6371 6625 6626 0
-6626 -6624 -6627 0
6626 6624 -6627 0
6626 -6624 6627 0
-6626 6624 6627 0
-6626 -6624 6628 0
6626 -6628 0
6624 -6628 0
-6371 -6625 6629 0
6371 -6629 0
6625 -6629 0
6628 6629 -6630 0
-6628 6630 0
-6629 6630 0
-338 -6375 6631 0
338 -6631 0
6375 -6631 0
-6374 -6631 -6632 0
6374 6631 -6632 0
6374 -6631 6632 0
-6374 6631 6632 0
-6632 -6630 -6633 0
6632 6630 -6633 0
6632 -6630 6633 0
-6632 6630 6633 0
-6632 -6630 6634 0
6632 -6634 0
6630 -6634 0
-6374 -6631 6635 0
6374 -6635 0
6631 -6635 0
6634 6635 -6636 0
-6634 6636 0
-6635 6636 0
-1 -6637 6638 0
1 -6638 0
6637 -6638 0
-6381 -6638 -6639 0
6381 6638 -6639 0
6381 -6638 6639 0
-6381 6638 6639 0
-6381 -6638 6640 0
6381 -6640 0
6638 -6640 0
-4 -6637 6641 0
4 -6641 0
6637 -6641 0
-6387 -6641 -6642 0
6387 6641 -6642 0
6387 -6641 6642 0
-6387 6641 6642 0
-6642 -6640 -6643 0
6642 6640 -6643 0
6642 -6640 6643 0
-6642 6640 6643 0
-6642 -6640 6644 0
6642 -6644 0
6640 -6644 0
-6387 -6641 6645 0
6387 -6645 0
6641 -6645 0
6644 6645 -6646 0
-6644 6646 0
-6645 6646 0
-10 -6637 6647 0
10 -6647 0
6637 -6647 0
-6393 -6647 -6648 0
6393 6647 -6648 0
6393 -6647 6648 0
-6393 6647 6648 0
-6648 -6646 -6649 0
6648 6646 -6649 0
6648 -6646 6649 0
-6648 6646 6649 0
-6648 -6646 6650 0
6648 -6650 0
6646 -6650 0
-6393 -6647 6651 0
6393 -6651 0
6647 -6651 0
6650 6651 -6652 0
-6650 6652 0
-6651 6652 0
-18 -6637 6653 0
18 -6653 0
6637 -6653 0
-6399 -6653 -6654 0
6399 6653 -6654 0
6399 -6653 6654 0
-6399 6653 6654 0
-6654 -6652 -6655 0
6654 6652 -6655 0
6654 -6652 6655 0
-6654 6652 6655 0
-6654 -6652 6656 0
6654 -6656 0
6652 -6656 0
-6399 -6653 6657 0
6399 -6657 0
6653 -6657 0
6656 6657 -6658 0
-6656 6658 0
-6657 6658 0
-26 -6637 6659 0
26 -6659 0
6637 -6659 0
-6405 -6659 -6660 0
6405 6659 -6660 0
6405 -6659 6660 0
-6405 6659 6660 0
-6660 -6658 -6661 0
6660 6658 -6661 0
6660 -6658 6661 0
-6660 6658 6661 0
-6660 -6658 6662 0
6660 -6662 0
6658 -6662 0
-6405 -6659 6663 0
6405 -6663 0
6659 -6663 0
6662 6663 -6664 0
-6662 6664 0
-6663 6664 0
-34 -6637 6665 0
34 -6665 0
6637 -6665 0
-6411 -6665 -6666 0
6411 6665 -6666 0
6411 -6665 6666 0
-6411 6665 6666 0
-6666 -6664 -6667 0
6666 6664 -6667 0
6666 -6664 6667 0
-6666 6664 6667 0
-6666 -6664 6668 0
6666 -6668 0
6664 -6668 0
-6411 -6665 6669 0
6411 -6669 0
6665 -6669 0
6668 6669 -6670 0
-6668 6670 0
-6669 6670 0
-42 -6637 6671 0
42 -6671 0
6637 -6671 0
-6417 -6671 -6672 0
6417 6671 -6672 0
6417 -6671 6672 0
-6417 6671 6672 0
-6672 -6670 -6673 0
6672 6670 -6673 0
6672 -6670 6673 0
-6672 6670 6673 0
-6672 -6670 6674 0
6672 -6674 0
6670 -6674 0
-6417 -6671 6675 0
6417 -6675 0
6671 -6675 0
6674 6675 -6676 0
-6674 6676 0
-6675 6676 0
-50 -6637 6677 0
50 -6677 0
6637 -6677 0
-6423 -6677 -6678 0
6423 6677 -6678 0
6423 -6677 6678 0
-6423 6677 6678 0
-6678 -6676 -6679 0
6678 6676 -6679 0
6678 -6676 6679 0
-6678 6676 6679 0
-6678 -6676 6680 0
6678 -6680 0
6676 -6680 0
-6423 -6677 6681 0
6423 -6681 0
6677 -6681 0
6680 6681 -6682 0
-6680 6682 0
-6681 6682 0
-58 -6637 6683 0
58 -6683 0
6637 -6683 0
-6429 -6683 -6684 0
6429 6683 -6684 0
6429 -6683 6684 0
-6429 6683 6684 0
-6684 -6682 -6685 0
6684 6682 -6685 0
6684 -6682 6685 0
-6684 6682 6685 0
-6684 -6682 6686 0
6684 -6686 0
6682 -6686 0
-6429 -6683 6687 0
6429 -6687 0
6683 -6687 0
6686 6687 -6688 0
-6686 6688 0
-6687 6688 0
-66 -6637 6689 0
66 -6689 0
6637 -6689 0
-6435 -6689 -6690 0
6435 6689 -6690 0
6435 -6689 6690 0
-6435 6689 6690 0
-6690 -6688 -6691 0
6690 6688 -6691 0
6690 -6688 6691 0
-6690 6688 6691 0
-6690 -6688 6692 0
6690 -6692 0
6688 -6692 0
-6435 -6689 6693 0
6435 -6693 0
6689 -6693 0
6692 6693 -6694 0
-6692 6694 0
-6693 6694 0
-74 -6637 6695 0
74 -6695 0
6637 -6695 0
-6441 -6695 -6696 0
6441 6695 -6696 0
6441 -6695 6696 0
-6441 6695 6696 0
-6696 -6694 -6697 0
6696 6694 -6697 0
6696 -6694 6697 0
-6696 6694 6697 0
-6696 -6694 6698 0
6696 -6698 0
6694 -6698 0
-6441 -6695 6699 0
6441 -6699 0
6695 -6699 0
6698 6699 -6700 0
-6698 6700 0
-6699 6700 0
-82 -6637 6701 0
82 -6701 0
6637 -6701 0
-6447 -6701 -6702 0
6447 6701 -6702 0
6447 -6701 6702 0
-6447 6701 6702 0
-6702 -6700 -6703 0
6702 6700 -6703 0
6702 -6700 6703 0
-6702 6700 6703 0
-6702 -6700 6704 0
6702 -6704 0
6700 -6704 0
-6447 -6701 6705 0
6447 -6705 0
6701 -6705 0
6704 6705 -6706 0
-6704 6706 0
-6705 6706 0
-90 -6637 6707 0
90 -6707 0
6637 -6707 0
-6453 -6707 -6708 0
6453 6707 -6708 0
6453 -6707 6708 0
-6453 6707 6708 0
-6708 -6706 -6709 0
6708 6706 -6709 0
6708 -6706 6709 0
-6708 6706 6709 0
-6708 -6706 6710 0
6708 -6710 0
6706 -6710 0
-6453 -6707 6711 0
6453 -6711 0
6707 -6711 0
6710 6711 -6712 0
-6710 6712 0
-6711 6712 0
-98 -6637 6713 0
98 -6713 0
6637 -6713 0
-6459 -6713 -6714 0
6459 6713 -6714 0
6459 -6713 6714 0
-6459 6713 6714 0
-6714 -6712 -6715 0
6714 6712 -6715 0
6714 -6712 6715 0
-6714 6712 6715 0
-6714 -6712 6716 0
6714 -6716 0
6712 -6716 0
-6459 -6713 6717 0
6459 -6717 0
6713 -6717 0
6716 6717 -6718 0
-6716 6718 0
-6717 6718 0
-106 -6637 6719 0
106 -6719 0
6637 -6719 0
-6465 -6719 -6720 0
6465 6719 -6720 0
6465 -6719 6720 0
-6465 6719 6720 0
-6720 -6718 -6721 0
6720 6718 -6721 0
6720 -6718 6721 0
-6720 6718 6721 0
-6720 -6718 6722 0
6720 -6722 0
6718 -6722 0
-6465 -6719 6723 0
6465 -6723 0
6719 -6723 0
6722 6723 -6724 0
-6722 6724 0
-6723 6724 0
-114 -6637 6725 0
114 -6725 0
6637 -6725 0
-6471 -6725 -6726 0
6471 6725 -6726 0
6471 -6725 6726 0
-6471 6725 6726 0
-6726 -6724 -6727 0
6726 6724 -6727 0
6726 -6724 6727 0
-6726 6724 6727 0
-6726 -6724 6728 0
6726 -6728 0
6724 -6728 0
-6471 -6725 6729 0
6471 -6729 0
6725 -6729 0
6728 6729 -6730 0
-6728 6730 0
-6729 6730 0
-122 -6637 6731 0
122 -6731 0
6637 -6731 0
-6477 -6731 -6732 0
6477 6731 -6732 0
6477 -6731 6732 0
-6477 6731 6732 0
-6732 -6730 -6733 0
6732 6730 -6733 0
6732 -6730 6733 0
-6732 6730 6733 0
-6732 -6730 6734 0
6732 -6734 0
6730 -6734 0
-6477 -6731 6735 0
6477 -6735 0
6731 -6735 0
6734 6735 -6736 0
-6734 6736 0
-6735 6736 0
-130 -6637 6737 0
130 -6737 0
6637 -6737 0
-6483 -6737 -6738 0
6483 6737 -6738 0
6483 -6737 6738 0
-6483 6737 6738 0
-6738 -6736 -6739 0
6738 6736 -6739 0
6738 -6736 6739 0
-6738 6736 6739 0
-6738 -6736 6740 0
6738 -6740 0
6736 -6740 0
-6483 -6737 6741 0
6483 -6741 0
6737 -6741 0
6740 6741 -6742 0
-6740 6742 0
-6741 6742 0
-138 -6637 6743 0
138 -6743 0
6637 -6743 0
-6489 -6743 -6744 0
6489 6743 -6744 0
6489 -6743 6744 0
-6489 6743 6744 0
-6744 -6742 -6745 0
6744 6742 -6745 0
6744 -6742 6745 0
-6744 6742 6745 0
-6744 -6742 6746 0
6744 -6746 0
6742 -6746 0
-6489 -6743 6747 0
6489 -6747 0
6743 -6747 0
6746 6747 -6748 0
-6746 6748 0
-6747 6748 0
-146 -6637 6749 0
146 -6749 0
6637 -6749 0
-6495 -6749 -6750 0
6495 6749 -6750 0
6495 -6749 6750 0
-6495 6749 6750 0
-6750 -6748 -6751 0
6750 6748 -6751 0
6750 -6748 6751 0
-6750 6748 6751 0
-6750 -6748 6752 0
6750 -6752 0
6748 -6752 0
-6495 -6749 6753 0
6495 -6753 0
6749 -6753 0
6752 6753 -6754 0
-6752 6754 0
-6753 6754 0
-154 -6637 6755 0
154 -6755 0
6637 -6755 0
-6501 -6755 -6756 0
6501 6755 -6756 0
6501 -6755 6756 0
-6501 6755 6756 0
-6756 -6754 -6757 0
6756 6754 -6757 0
6756 -6754 6757 0
-6756 6754 6757 0
-6756 -6754 6758 0
6756 -6758 0
6754 -6758 0
-6501 -6755 6759 0
6501 -6759 0
6755 -6759 0
6758 6759 -6760 0
-6758 6760 0
-6759 6760 0
-162 -6637 6761 0
162 -6761 0
6637 -6761 0
-6507 -6761 -6762 0
6507 6761 -6762 0
6507 -6761 6762 0
-6507 6761 6762 0
-6762 -6760 -6763 0
6762 6760 -6763 0
6762 -6760 6763 0
-6762 6760 6763 0
-6762 -6760 6764 0
6762 -6764 0
6760 -6764 0
-6507 -6761 6765 0
6507 -6765 0
6761 -6765 0
6764 6765 -6766 0
-6764 6766 0
-6765 6766 0
-170 -6637 6767 0
170 -6767 0
6637 -6767 0
-6513 -6767 -6768 0
6513 6767 -6768 0
6513 -6767 6768 0
-6513 6767 6768 0
-6768 -6766 -6769 0
6768 6766 -6769 0
6768 -6766 6769 0
-6768 6766 6769 0
-6768 -6766 6770 0
6768 -6770 0
6766 -6770 0
-6513 -6767 6771 0
6513 -6771 0
6767 -6771 0
6770 6771 -6772 0
-6770 6772 0
-6771 6772 0
-178 -6637 6773 0
178 -6773 0
6637 -6773 0
-6519 -6773 -6774 0
6519 6773 -6774 0
6519 -6773 6774 0
-6519 6773 6774 0
-6774 -6772 -6775 0
6774 6772 -6775 0
6774 -6772 6775 0
-6774 6772 6775 0
-6774 -6772 6776 0
6774 -6776 0
6772 -6776 0
-6519 -6773 6777 0
6519 -6777 0
6773 -6777 0
6776 6777 -6778 0
-6776 6778 0
-6777 6778 0
-186 -6637 6779 0
186 -6779 0
6637 -6779 0
-6525 -6779 -6780 0
6525 6779 -6780 0
6525 -6779 6780 0
-6525 6779 6780 0
-6780 -6778 -6781 0
6780 6778 -6781 0
6780 -6778 6781 0
-6780 6778 6781 0
-6780 -6778 6782 0
6780 -6782 0
6778 -6782 0
-6525 -6779 6783 0
6525 -6783 0
6779 -6783 0
6782 6783 -6784 0
-6782 6784 0
-6783 6784 0
-194 -6637 6785 0
194 -6785 0
6637 -6785 0
-6531 -6785 -6786 0
6531 6785 -6786 0
6531 -6785 6786 0
-6531 6785 6786 0
-6786 -6784 -6787 0
6786 6784 -6787 0
6786 -6784 6787 0
-6786 6784 6787 0
-6786 -6784 6788 0
6786 -6788 0
6784 -6788 0
-6531 -6785 6789 0
6531 -6789 0
6785 -6789 0
6788 6789 -6790 0
-6788 6790 0
-6789 6790 0
-202 -6637 6791 0
202 -6791 0
6637 -6791 0
-6537 -6791 -6792 0
6537 6791 -6792 0
6537 -6791 6792 0
-6537 6791 6792 0
-6792 -6790 -6793 0
6792 6790 -6793 0
6792 -6790 6793 0
-6792 6790 6793 0
-6792 -6790 6794 0
6792 -6794 0
6790 -6794 0
-6537 -6791 6795 0
6537 -6795 0
6791 -6795 0
6794 6795 -6796 0
-6794 6796 0
-6795 6796 0
-210 -6637 6797 0
210 -6797 0
6637 -6797 0
-6543 -6797 -6798 0
6543 6797 -6798 0
6543 -6797 6798 0
-6543 6797 6798 0
-6798 -6796 -6799 0
6798 6796 -6799 0
6798 -6796 6799 0
-6798 6796 6799 0
-6798 -6796 6800 0
6798 -6800 0
6796 -6800 0
-6543 -6797 6801 0
6543 -6801 0
6797 -6801 0
6800 6801 -6802 0
-6800 6802 0
-6801 6802 0
-218 -6637 6803 0
218 -6803 0
6637 -6803 0
-6549 -6803 -6804 0
6549 6803 -6804 0
6549 -6803 6804 0
-6549 6803 6804 0
-6804 -6802 -6805 0
6804 6802 -6805 0
6804 -6802 6805 0
-6804 6802 6805 0
-6804 -6802 6806 0
6804 -6806 0
6802 -6806 0
-6549 -6803 6807 0
6549 -6807 0
6803 -6807 0
6806 6807 -6808 0
-6806 6808 0
-6807 6808 0
-226 -6637 6809 0
226 -6809 0
6637 -6809 0
-6555 -6809 -6810 0
6555 6809 -6810 0
6555 -6809 6810 0
-6555 6809 6810 0
-6810 -6808 -6811 0
6810 6808 -6811 0
6810 -6808 6811 0
-6810 6808 6811 0
-6810 -6808 6812 0
6810 -6812 0
6808 -6812 0
-6555 -6809 6813 0
6555 -6813 0
6809 -6813 0
6812 6813 -6814 0
-6812 6814 0
-6813 6814 0
-234 -6637 6815 0
234 -6815 0
6637 -6815 0
-6561 -6815 -6816 0
6561 6815 -6816 0
6561 -6815 6816 0
-6561 6815 6816 0
-6816 -6814 -6817 0
6816 6814 -6817 0
6816 -6814 6817 0
-6816 6814 6817 0
-6816 -6814 6818 0
6816 -6818 0
6814 -6818 0
-6561 -6815 6819 0
6561 -6819 0
6815 -6819 0
6818 6819 -6820 0
-6818 6820 0
-6819 6820 0
-242 -6637 6821 0
242 -6821 0
6637 -6821 0
-6567 -6821 -6822 0
6567 6821 -6822 0
6567 -6821 6822 0
-6567 6821 6822 0
-6822 -6820 -6823 0
6822 6820 -6823 0
6822 -6820 6823 0
-6822 6820 6823 0
-6822 -6820 6824 0
6822 -6824 0
6820 -6824 0
-6567 -6821 6825 0
6567 -6825 0
6821 -6825 0
6824 6825 -6826 0
-6824 6826 0
-6825 6826 0
-250 -6637 6827 0
250 -6827 0
6637 -6827 0
-6573 -6827 -6828 0
6573 6827 -6828 0
6573 -6827 6828 0
-6573 6827 6828 0
-6828 -6826 -6829 0
6828 6826 -6829 0
6828 -6826 6829 0
-6828 6826 6829 0
-6828 -6826 6830 0
6828 -6830 0
6826 -6830 0
-6573 -6827 6831 0
6573 -6831 0
6827 -6831 0
6830 6831 -6832 0
-6830 6832 0
-6831 6832 0
-258 -6637 6833 0
258 -6833 0
6637 -6833 0
-6579 -6833 -6834 0
6579 6833 -6834 0
6579 -6833 6834 0
-6579 6833 6834 0
-6834 -6832 -6835 0
6834 6832 -6835 0
6834 -6832 6835 0
-6834 6832 6835 0
-6834 -6832 6836 0
6834 -6836 0
6832 -6836 0
-6579 -6833 6837 0
6579 -6837 0
6833 -6837 0
6836 6837 -6838 0
-6836 6838 0
-6837 6838 0
-266 -6637 6839 0
266 -6839 0
6637 -6839 0
-6585 -6839 -6840 0
6585 6839 -6840 0
6585 -6839 6840 0
-6585 6839 6840 0
-6840 -6838 -6841 0
6840 6838 -6841 0
6840 -6838 6841 0
-6840 6838 6841 0
-6840 -6838 6842 0
6840 -6842 0
6838 -6842 0
-6585 -6839 6843 0
6585 -6843 0
6839 -6843 0
6842 6843 -6844 0
-6842 6844 0
-6843 6844 0
-274 -6637 6845 0
274 -6845 0
6637 -6845 0
-6591 -6845 -6846 0
6591 6845 -6846 0
6591 -6845 6846 0
-6591 6845 6846 0
-6846 -6844 -6847 0
6846 6844 -6847 0
6846 -6844 6847 0
-6846 6844 6847 0
-6846 -6844 6848 0
6846 -6848 0
6844 -6848 0
-6591 -6845 6849 0
6591 -6849 0
6845 -6849 0
6848 6849 -6850 0
-6848 6850 0
-6849 6850 0
-282 -6637 6851 0
282 -6851 0
6637 -6851 0
-6597 -6851 -6852 0
6597 6851 -6852 0
6597 -6851 6852 0
-6597 6851 6852 0
-6852 -6850 -6853 0
6852 6850 -6853 0
6852 -6850 6853 0
-6852 6850 6853 0
-6852 -6850 6854 0
6852 -6854 0
6850 -6854 0
-6597 -6851 6855 0
6597 -6855 0
6851 -6855 0
6854 6855 -6856 0
-6854 6856 0
-6855 6856 0
-290 -6637 6857 0
290 -6857 0
6637 -6857 0
-6603 -6857 -6858 0
6603 6857 -6858 0
6603 -6857 6858 0
-6603 6857 6858 0
-6858 -6856 -6859 0
6858 6856 -6859 0
6858 -6856 6859 0
-6858 6856 6859 0
-6858 -6856 6860 0
6858 -6860 0
6856 -6860 0
-6603 -6857 6861 0
6603 -6861 0
6857 -6861 0
6860 6861 -6862 0
-6860 6862 0
-6861 6862 0
-298 -6637 6863 0
298 -6863 0
6637 -6863 0
-6609 -6863 -6864 0
6609 6863 -6864 0
6609 -6863 6864 0
-6609 6863 6864 0
-6864 -6862 -6865 0
6864 6862 -6865 0
6864 -6862 6865 0
-6864 6862 6865 0
-6864 -6862 6866 0
6864 -6866 0
6862 -6866 0
-6609 -6863 6867 0
6609 -6867 0
6863 -6867 0
6866 6867 -6868 0
-6866 6868 0
-6867 6868 0
-306 -6637 6869 0
306 -6869 0
6637 -6869 0
-6615 -6869 -6870 0
6615 6869 -6870 0
6615 -6869 6870 0
-6615 6869 6870 0
-6870 -6868 -6871 0
6870 6868 -6871 0
6870 -6868 6871 0
-6870 6868 6871 0
-6870 -6868 6872 0
6870 -6872 0
6868 -6872 0
-6615 -6869 6873 0
6615 -6873 0
6869 -6873 0
6872 6873 -6874 0
-6872 6874 0
-6873 6874 0
-314 -6637 6875 0
314 -6875 0
6637 -6875 0
-6621 -6875 -6876 0
6621 6875 -6876 0
6621 -6875 6876 0
-6621 6875 6876 0
-6876 -6874 -6877 0
6876 6874 -6877 0
6876 -6874 6877 0
-6876 6874 6877 0
-6876 -6874 6878 0
6876 -6878 0
6874 -6878 0
-6621 -6875 6879 0
6621 -6879 0
6875 -6879 0
6878 6879 -6880 0
-6878 6880 0
-6879 6880 0
-322 -6637 6881 0
322 -6881 0
6637 -6881 0
-6627 -6881 -6882 0
6627 6881 -6882 0
6627 -6881 6882 0
-6627 6881 6882 0
-6882 -6880 -6883 0
6882 6880 -6883 0
6882 -6880 6883 0
-6882 6880 6883 0
-6882 -6880 6884 0
6882 -6884 0
6880 -6884 0
-6627 -6881 6885 0
6627 -6885 0
6881 -6885 0
6884 6885 -6886 0
-6884 6886 0
-6885 6886 0
-330 -6637 6887 0
330 -6887 0
6637 -6887 0
-6633 -6887 -6888 0
6633 6887 -6888 0
6633 -6887 6888 0
-6633 6887 6888 0
-6888 -6886 -6889 0
6888 6886 -6889 0
6888 -6886 6889 0
-6888 6886 6889 0
-6888 -6886 6890 0
6888 -6890 0
6886 -6890 0
-6633 -6887 6891 0
6633 -6891 0
6887 -6891 0
6890 6891 -6892 0
-6890 6892 0
-6891 6892 0
-338 -6637 6893 0
338 -6893 0
6637 -6893 0
-6636 -6893 -6894 0
6636 6893 -6894 0
6636 -6893 6894 0
-6636 6893 6894 0
-6894 -6892 -6895 0
6894 6892 -6895 0
6894 -6892 6895 0
-6894 6892 6895 0
-6894 -6892 6896 0
6894 -6896 0
6892 -6896 0
-6636 -6893 6897 0
6636 -6897 0
6893 -6897 0
6896 6897 -6898 0
-6896 6898 0
-6897 6898 0
-1 -6899 6900 0
1 -6900 0
6899 -6900 0
-6643 -6900 -6901 0
6643 6900 -6901 0
6643 -6900 6901 0
-6643 6900 6901 0
-6643 -6900 6902 0
6643 -6902 0
6900 -6902 0
-4 -6899 6903 0
4 -6903 0
6899 -6903 0
-6649 -6903 -6904 0
6649 6903 -6904 0
6649 -6903 6904 0
-6649 6903 6904 0
-6904 -6902 -6905 0
6904 6902 -6905 0
6904 -6902 6905 0
-6904 6902 6905 0
-6904 -6902 6906 0
6904 -6906 0
6902 -6906 0
-6649 -6903 6907 0
6649 -6907 0
6903 -6907 0
6906 6907 -6908 0
-6906 6908 0
-6907 6908 0
-10 -6899 6909 0
10 -6909 0
6899 -6909 0
-6655 -6909 -6910 0
6655 6909 -6910 0
6655 -6909 6910 0
-6655 6909 6910 0
-6910 -6908 -6911 0
6910 6908 -6911 0
6910 -6908 6911 0
-6910 6908 6911 0
-6910 -6908 6912 0
6910 -6912 0
6908 -6912 0
-6655 -6909 6913 0
6655 -6913 0
6909 -6913 0
6912 6913 -6914 0
-6912 6914 0
-6913 6914 0
-18 -6899 6915 0
18 -6915 0
6899 -6915 0
-6661 -6915 -6916 0
6661 6915 -6916 0
6661 -6915 6916 0
-6661 6915 6916 0
-6916 -6914 -6917 0
6916 6914 -6917 0
6916 -6914 6917 0
-6916 6914 6917 0
-6916 -6914 6918 0
6916 -6918 0
6914 -6918 0
-6661 -6915 6919 0
6661 -6919 0
6915 -6919 0
6918 6919 -6920 0
-6918 6920 0
-6919 6920 0
-26 -6899 6921 0
26 -6921 0
6899 -6921 0
-6667 -6921 -6922 0
6667 6921 -6922 0
6667 -6921 6922 0
-6667 6921 6922 0
-6922 -6920 -6923 0
6922 6920 -6923 0
6922 -6920 6923 0
-6922 6920 6923 0
-6922 -6920 6924 0
6922 -6924 0
6920 -6924 0
-6667 -6921 6925 0
6667 -6925 0
6921 -6925 0
6924 6925 -6926 0
-6924 6926 0
-6925 6926 0
-34 -6899 6927 0
34 -6927 0
6899 -6927 0
-6673 -6927 -6928 0
6673 6927 -6928 0
6673 -6927 6928 0
-6673 6927 6928 0
-6928 -6926 -6929 0
6928 6926 -6929 0
6928 -6926 6929 0
-6928 6926 6929 0
-6928 -6926 6930 0
6928 -6930 0
6926 -6930 0
-6673 -6927 6931 0
6673 -6931 0
6927 -6931 0
6930 6931 -6932 0
-6930 6932 0
-6931 6932 0
-42 -6899 6933 0
42 -6933 0
6899 -6933 0
-6679 -6933 -6934 0
6679 6933 -6934 0
6679 -6933 6934 0
-6679 6933 6934 0
-6934 -6932 -6935 0
6934 6932 -6935 0
6934 -6932 6935 0
-6934 6932 6935 0
-6934 -6932 6936 0
6934 -6936 0
6932 -6936 0
-6679 -6933 6937 0
6679 -6937 0
6933 -6937 0
6936 6937 -6938 0
-6936 6938 0
-6937 6938 0
-50 -6899 6939 0
50 -6939 0
6899 -6939 0
-6685 -6939 -6940 0
6685 6939 -6940 0
6685 -6939 6940 0
-6685 6939 6940 0
-6940 -6938 -6941 0
6940 6938 -6941 0
6940 -6938 6941 0
-6940 6938 6941 0
-6940 -6938 6942 0
6940 -6942 0
6938 -6942 0
-6685 -6939 6943 0
6685 -6943 0
6939 -6943 0
6942 6943 -6944 0
-6942 6944 0
-6943 6944 0
-58 -6899 6945 0
58 -6945 0
6899 -6945 0
-6691 -6945 -6946 0
6691 6945 -6946 0
6691 -6945 6946 0
-6691 6945 6946 0
-6946 -6944 -6947 0
6946 6944 -6947 0
6946 -6944 6947 0
-6946 6944 6947 0
-6946 -6944 6948 0
6946 -6948 0
6944 -6948 0
-6691 -6945 6949 0
6691 -6949 0
6945 -6949 0
6948 6949 -6950 0
-6948 6950 0
-6949 6950 0
-66 -6899 6951 0
66 -6951 0
6899 -6951 0
-6697 -6951 -6952 0
6697 6951 -6952 0
6697 -6951 6952 0
-6697 6951 6952 0
-6952 -6950 -6953 0
6952 6950 -6953 0
6952 -6950 6953 0
-6952 6950 6953 0
-6952 -6950 6954 0
6952 -6954 0
6950 -6954 0
-6697 -6951 6955 0
6697 -6955 0
6951 -6955 0
6954 6955 -6956 0
-6954 6956 0
-6955 6956 0
-74 -6899 6957 0
74 -6957 0
6899 -6957 0
-6703 -6957 -6958 0
6703 6957 -6958 0
6703 -6957 6958 0
-6703 6957 6958 0
-6958 -6956 -6959 0
6958 6956 -6959 0
6958 -6956 6959 0
-6958 6956 6959 0
-6958 -6956 6960 0
6958 -6960 0
6956 -6960 0
-6703 -6957 6961 0
6703 -6961 0
6957 -6961 0
6960 6961 -6962 0
-6960 6962 0
-6961 6962 0
-82 -6899 6963 0
82 -6963 0
6899 -6963 0
-6709 -6963 -6964 0
6709 6963 -6964 0
6709 -6963 6964 0
-6709 6963 6964 0
-6964 -6962 -6965 0
6964 6962 -6965 0
6964 -6962 6965 0
-6964 6962 6965 0
-6964 -6962 6966 0
6964 -6966 0
6962 -6966 0
-6709 -6963 6967 0
6709 -6967 0
6963 -6967 0
6966 6967 -6968 0
-6966 6968 0
-6967 6968 0
-90 -6899 6969 0
90 -6969 0
6899 -6969 0
-6715 -6969 -6970 0
6715 6969 -6970 0
6715 -6969 6970 0
-6715 6969 6970 0
-6970 -6968 -6971 0
6970 6968 -6971 0
6970 -6968 6971 0
-6970 6968 6971 0
-6970 -6968 6972 0
6970 -6972 0
6968 -6972 0
-6715 -6969 6973 0
6715 -6973 0
6969 -6973 0
6972 6973 -6974 0
-6972 6974 0
-6973 6974 0
-98 -6899 6975 0
98 -6975 0
6899 -6975 0
-6721 -6975 -6976 0
6721 6975 -6976 0
6721 -6975 6976 0
-6721 6975 6976 0
-6976 -6974 -6977 0
6976 6974 -6977 0
6976 -6974 6977 0
-6976 6974 6977 0
-6976 -6974 6978 0
6976 -6978 0
6974 -6978 0
-6721 -6975 6979 0
6721 -6979 0
6975 -6979 0
6978 6979 -6980 0
-6978 6980 0
-6979 6980 0
-106 -6899 6981 0
106 -6981 0
6899 -6981 0
-6727 -6981 -6982 0
6727 6981 -6982 0
6727 -6981 6982 0
-6727 6981 6982 0
-6982 -6980 -6983 0
6982 6980 -6983 0
6982 -6980 6983 0
-6982 6980 6983 0
-6982 -6980 6984 0
6982 -6984 0
6980 -6984 0
-6727 -6981 6985 0
6727 -6985 0
6981 -6985 0
6984 6985 -6986 0
-6984 6986 0
-6985 6986 0
-114 -6899 6987 0
114 -6987 0
6899 -6987 0
-6733 -6987 -6988 0
6733 6987 -6988 0
6733 -6987 6988 0
-6733 6987 6988 0
-6988 -6986 -6989 0
6988 6986 -6989 0
6988 -6986 6989 0
-6988 6986 6989 0
-6988 -6986 6990 0
6988 -6990 0
6986 -6990 0
-6733 -6987 6991 0
6733 -6991 0
6987 -6991 0
6990 6991 -6992 0
-6990 6992 0
-6991 6992 0
-122 -6899 6993 0
122 -6993 0
6899 -6993 0
-6739 -6993 -6994 0
6739 6993 -6994 0
6739 -6993 6994 0
-6739 6993 6994 0
-6994 -6992 -6995 0
6994 6992 -6995 0
6994 -6992 6995 0
-6994 6992 6995 0
-6994 -6992 6996 0
6994 -6996 0
6992 -6996 0
-6739 -6993 6997 0
6739 -6997 0
6993 -6997 0
6996 6997 -6998 0
-6996 6998 0
-6997 6998 0
-130 -6899 6999 0
130 -6999 0
6899 -6999 0
-6745 -6999 -7000 0
6745 6999 -7000 0
6745 -6999 7000 0
-6745 6999 7000 0
-7000 -6998 -7001 0
7000 6998 -7001 0
7000 -6998 7001 0
-7000 6998 7001 0
-7000 -6998 7002 0
7000 -7002 0
6998 -7002 0
-6745 -6999 7003 0
6745 -7003 0
6999 -7003 0
7002 7003 -7004 0
-7002 7004 0
-7003 7004 0
-138 -6899 7005 0
138 -7005 0
6899 -7005 0
-6751 -7005 -7006 0
6751 7005 -7006 0
6751 -7005 7006 0
-6751 7005 7006 0
-7006 -7004 -7007 0
7006 7004 -7007 0
7006 -7004 7007 0
-7006 7004 7007 0
-7006 -7004 7008 0
7006 -7008 0
7004 -7008 0
-6751 -7005 7009 0
6751 -7009 0
7005 -7009 0
7008 7009 -7010 0
-7008 7010 0
-7009 7010 0
-146 -6899 7011 0
146 -7011 0
6899 -7011 0
-6757 -7011 -7012 0
6757 7011 -7012 0
6757 -7011 7012 0
-6757 7011 7012 0
-7012 -7010 -7013 0
7012 7010 -7013 0
7012 -7010 7013 0
-7012 7010 7013 0
-7012 -7010 7014 0
7012 -7014 0
7010 -7014 0
-6757 -7011 7015 0
6757 -7015 0
7011 -7015 0
7014 7015 -7016 0
-7014 7016 0
-7015 7016 0
-154 -6899 7017 0
154 -7017 0
6899 -7017 0
-6763 -7017 -7018 0
6763 7017 -7018 0
6763 -7017 7018 0
-6763 7017 7018 0
-7018 -7016 -7019 0
7018 7016 -7019 0
7018 -7016 7019 0
-7018 7016 7019 0
-7018 -7016 7020 0
7018 -7020 0
7016 -7020 0
-6763 -7017 7021 0
6763 -7021 0
7017 -7021 0
7020 7021 -7022 0
-7020 7022 0
-7021 7022 0
-162 -6899 7023 0
162 -7023 0
6899 -7023 0
-6769 -7023 -7024 0
6769 7023 -7024 0
6769 -7023 7024 0
-6769 7023 7024 0
-7024 -7022 -7025 0
7024 7022 -7025 0
7024 -7022 7025 0
-7024 7022 7025 0
-7024 -7022 7026 0
7024 -7026 0
7022 -7026 0
-6769 -7023 7027 0
6769 -7027 0
7023 -7027 0
7026 7027 -7028 0
-7026 7028 0
-7027 7028 0
-170 -6899 7029 0
170 -7029 0
6899 -7029 0
-6775 -7029 -7030 0
6775 7029 -7030 0
6775 -7029 7030 0
-6775 7029 7030 0
-7030 -7028 -7031 0
7030 7028 -7031 0
7030 -7028 7031 0
-7030 7028 7031 0
-7030 -7028 7032 0
7030 -7032 0
7028 -7032 0
-6775 -7029 7033 0
6775 -7033 0
7029 -7033 0
7032 7033 -7034 0
-7032 7034 0
-7033 7034 0
-178 -6899 7035 0
178 -7035 0
6899 -7035 0
-6781 -7035 -7036 0
6781 7035 -7036 0
6781 -7035 7036 0
-6781 7035 7036 0
-7036 -7034 -7037 0
7036 7034 -7037 0
7036 -7034 7037 0
-7036 7034 7037 0
-7036 -7034 7038 0
7036 -7038 0
7034 -7038 0
-6781 -7035 7039 0
6781 -7039 0
7035 -7039 0
7038 7039 -7040 0
-7038 7040 0
-7039 7040 0
-186 -6899 7041 0
186 -7041 0
6899 -7041 0
-6787 -7041 -7042 0
6787 7041 -7042 0
6787 -7041 7042 0
-6787 7041 7042 0
-7042 -7040 -7043 0
7042 7040 -7043 0
7042 -7040 7043 0
-7042 7040 7043 0
-7042 -7040 7044 0
7042 -7044 0
7040 -7044 0
-6787 -7041 7045 0
6787 -7045 0
7041 -7045 0
7044 7045 -7046 0
-7044 7046 0
-7045 7046 0
-194 -6899 7047 0
194 -7047 0
6899 -7047 0
-6793 -7047 -7048 0
6793 7047 -7048 0
6793 -7047 7048 0
-6793 7047 7048 0
-7048 -7046 -7049 0
7048 7046 -7049 0
7048 -7046 7049 0
-7048 7046 7049 0
-7048 -7046 7050 0
7048 -7050 0
7046 -7050 0
-6793 -7047 7051 0
6793 -7051 0
7047 -7051 0
7050 7051 -7052 0
-7050 7052 0
-7051 7052 0
-202 -6899 7053 0
202 -7053 0
6899 -7053 0
-6799 -7053 -7054 0
6799 7053 -7054 0
6799 -7053 7054 0
-6799 7053 7054 0
-7054 -7052 -7055 0
7054 7052 -7055 0
7054 -7052 7055 0
-7054 7052 7055 0
-7054 -7052 7056 0
7054 -7056 0
7052 -7056 0
-6799 -7053 7057 0
6799 -7057 0
7053 -7057 0
7056 7057 -7058 0
-7056 7058 0
-7057 7058 0
-210 -6899 7059 0
210 -7059 0
6899 -7059 0
-6805 -7059 -7060 0
6805 7059 -7060 0
6805 -7059 7060 0
-6805 7059 7060 0
-7060 -7058 -7061 0
7060 7058 -7061 0
7060 -7058 7061 0
-7060 7058 7061 0
-7060 -7058 7062 0
7060 -7062 0
7058 -7062 0
-6805 -7059 7063 0
6805 -7063 0
7059 -7063 0
7062 7063 -7064 0
-7062 7064 0
-7063 7064 0
-218 -6899 7065 0
218 -7065 0
6899 -7065 0
-6811 -7065 -7066 0
6811 7065 -7066 0
6811 -7065 7066 0
-6811 7065 7066 0
-7066 -7064 -7067 0
7066 7064 -7067 0
7066 -7064 7067 0
-7066 7064 7067 0
-7066 -7064 7068 0
7066 -7068 0
7064 -7068 0
-6811 -7065 7069 0
6811 -7069 0
7065 -7069 0
7068 7069 -7070 0
-7068 7070 0
-7069 7070 0
-226 -6899 7071 0
226 -7071 0
6899 -7071 0
-6817 -7071 -7072 0
6817 7071 -7072 0
6817 -7071 7072 0
-6817 7071 7072 0
-7072 -7070 -7073 0
7072 7070 -7073 0
7072 -7070 7073 0
-7072 7070 7073 0
-7072 -7070 7074 0
7072 -7074 0
7070 -7074 0
-6817 -7071 7075 0
6817 -7075 0
7071 -7075 0
7074 7075 -7076 0
-7074 7076 0
-7075 7076 0
-234 -6899 7077 0
234 -7077 0
6899 -7077 0
-6823 -7077 -7078 0
6823 7077 -7078 0
6823 -7077 7078 0
-6823 7077 7078 0
-7078 -7076 -7079 0
7078 7076 -7079 0
7078 -7076 7079 0
-7078 7076 7079 0
-7078 -7076 7080 0
7078 -7080 0
7076 -7080 0
-6823 -7077 7081 0
6823 -7081 0
7077 -7081 0
7080 7081 -7082 0
-7080 7082 0
-7081 7082 0
-242 -6899 7083 0
242 -7083 0
6899 -7083 0
-6829 -7083 -7084 0
6829 7083 -7084 0
6829 -7083 7084 0
-6829 7083 7084 0
-7084 -7082 -7085 0
7084 7082 -7085 0
7084 -7082 7085 0
-7084 7082 7085 0
-7084 -7082 7086 0
7084 -7086 0
7082 -7086 0
-6829 -7083 7087 0
6829 -7087 0
7083 -7087 0
7086 7087 -7088 0
-7086 7088 0
-7087 7088 0
-250 -6899 7089 0
250 -7089 0
6899 -7089 0
-6835 -7089 -7090 0
6835 7089 -7090 0
6835 -7089 7090 0
-6835 7089 7090 0
-7090 -7088 -7091 0
7090 7088 -7091 0
7090 -7088 7091 0
-7090 7088 7091 0
-7090 -7088 7092 0
7090 -7092 0
7088 -7092 0
-6835 -7089 7093 0
6835 -7093 0
7089 -7093 0
7092 7093 -7094 0
-7092 7094 0
-7093 7094 0
-258 -6899 7095 0
258 -7095 0
6899 -7095 0
-6841 -7095 -7096 0
6841 7095 -7096 0
6841 -7095 7096 0
-6841 7095 7096 0
-7096 -7094 -7097 0
7096 7094 -7097 0
7096 -7094 7097 0
-7096 7094 7097 0
-7096 -7094 7098 0
7096 -7098 0
7094 -7098 0
-6841 -7095 7099 0
6841 -7099 0
7095 -7099 0
7098 7099 -7100 0
-7098 7100 0
-7099 7100 0
-266 -6899 7101 0
266 -7101 0
6899 -7101 0
-6847 -7101 -7102 0
6847 7101 -7102 0
6847 -7101 7102 0
-6847 7101 7102 0
-7102 -7100 -7103 0
7102 7100 -7103 0
7102 -7100 7103 0
-7102 7100 7103 0
-7102 -7100 7104 0
7102 -7104 0
7100 -7104 0
-6847 -7101 7105 0
6847 -7105 0
7101 -7105 0
7104 7105 -7106 0
-7104 7106 0
-7105 7106 0
-274 -6899 7107 0
274 -7107 0
6899 -7107 0
-6853 -7107 -7108 0
6853 7107 -7108 0
6853 -7107 7108 0
-6853 7107 7108 0
-7108 -7106 -7109 0
7108 7106 -7109 0
7108 -7106 7109 0
-7108 7106 7109 0
-7108 -7106 7110 0
7108 -7110 0
7106 -7110 0
-6853 -7107 7111 0
6853 -7111 0
7107 -7111 0
7110 7111 -7112 0
-7110 7112 0
-7111 7112 0
-282 -6899 7113 0
282 -7113 0
6899 -7113 0
-6859 -7113 -7114 0
6859 7113 -7114 0
6859 -7113 7114 0
-6859 7113 7114 0
-7114 -7112 -7115 0
7114 7112 -7115 0
7114 -7112 7115 0
-7114 7112 7115 0
-7114 -7112 7116 0
7114 -7116 0
7112 -7116 0
-6859 -7113 7117 0
6859 -7117 0
7113 -7117 0
7116 7117 -7118 0
-7116 7118 0
-7117 7118 0
-290 -6899 7119 0
290 -7119 0
6899 -7119 0
-6865 -7119 -7120 0
6865 7119 -7120 0
6865 -7119 7120 0
-6865 7119 7120 0
-7120 -7118 -7121 0
7120 7118 -7121 0
7120 -7118 7121 0
-7120 7118 7121 0
-7120 -7118 7122 0
7120 -7122 0
7118 -7122 0
-6865 -7119 7123 0
6865 -7123 0
7119 -7123 0
7122 7123 -7124 0
-7122 7124 0
-7123 7124 0
-298 -6899 7125 0
298 -7125 0
6899 -7125 0
-6871 -7125 -7126 0
6871 7125 -7126 0
6871 -7125 7126 0
-6871 7125 7126 0
-7126 -7124 -7127 0
7126 7124 -7127 0
7126 -7124 7127 0
-7126 7124 7127 0
-7126 -7124 7128 0
7126 -7128 0
7124 -7128 0
-6871 -7125 7129 0
6871 -7129 0
7125 -7129 0
7128 7129 -7130 0
-7128 7130 0
-7129 7130 0
-306 -6899 7131 0
306 -7131 0
6899 -7131 0
-6877 -7131 -7132 0
6877 7131 -7132 0
6877 -7131 7132 0
-6877 7131 7132 0
-7132 -7130 -7133 0
7132 7130 -7133 0
7132 -7130 7133 0
-7132 7130 7133 0
-7132 -7130 7134 0
7132 -7134 0
7130 -7134 0
-6877 -7131 7135 0
6877 -7135 0
7131 -7135 0
7134 7135 -7136 0
-7134 7136 0
-7135 7136 0
-314 -6899 7137 0
314 -7137 0
6899 -7137 0
-6883 -7137 -7138 0
6883 7137 -7138 0
6883 -7137 7138 0
-6883 7137 7138 0
-7138 -7136 -7139 0
7138 7136 -7139 0
7138 -7136 7139 0
-7138 7136 7139 0
-7138 -7136 7140 0
7138 -7140 0
7136 -7140 0
-6883 -7137 7141 0
6883 -7141 0
7137 -7141 0
7140 7141 -7142 0
-7140 7142 0
-7141 7142 0
-322 -6899 7143 0
322 -7143 0
6899 -7143 0
-6889 -7143 -7144 0
6889 7143 -7144 0
6889 -7143 7144 0
-6889 7143 7144 0
-7144 -7142 -7145 0
7144 7142 -7145 0
7144 -7142 7145 0
-7144 7142 7145 0
-7144 -7142 7146 0
7144 -7146 0
7142 -7146 0
-6889 -7143 7147 0
6889 -7147 0
7143 -7147 0
7146 7147 -7148 0
-7146 7148 0
-7147 7148 0
-330 -6899 7149 0
330 -7149 0
6899 -7149 0
-6895 -7149 -7150 0
6895 7149 -7150 0
6895 -7149 7150 0
-6895 7149 7150 0
-7150 -7148 -7151 0
7150 7148 -7151 0
7150 -7148 7151 0
-7150 7148 7151 0
-7150 -7148 7152 0
7150 -7152 0
7148 -7152 0
-6895 -7149 7153 0
6895 -7153 0
7149 -7153 0
7152 7153 -7154 0
-7152 7154 0
-7153 7154 0
-338 -6899 7155 0
338 -7155 0
6899 -7155 0
-6898 -7155 -7156 0
6898 7155 -7156 0
6898 -7155 7156 0
-6898 7155 7156 0
-7156 -7154 -7157 0
7156 7154 -7157 0
7156 -7154 7157 0
-7156 7154 7157 0
-7156 -7154 7158 0
7156 -7158 0
7154 -7158 0
-6898 -7155 7159 0
6898 -7159 0
7155 -7159 0
7158 7159 -7160 0
-7158 7160 0
-7159 7160 0
-1 -7161 7162 0
1 -7162 0
7161 -7162 0
-6905 -7162 -7163 0
6905 7162 -7163 0
6905 -7162 7163 0
-6905 7162 7163 0
-6905 -7162 7164 0
6905 -7164 0
7162 -7164 0
-4 -7161 7165 0
4 -7165 0
7161 -7165 0
-6911 -7165 -7166 0
6911 7165 -7166 0
6911 -7165 7166 0
-6911 7165 7166 0
-7166 -7164 -7167 0
7166 7164 -7167 0
7166 -7164 7167 0
-7166 7164 7167 0
-7166 -7164 7168 0
7166 -7168 0
7164 -7168 0
-6911 -7165 7169 0
6911 -7169 0
7165 -7169 0
7168 7169 -7170 0
-7168 7170 0
-7169 7170 0
-10 -7161 7171 0
10 -7171 0
7161 -7171 0
-6917 -7171 -7172 0
6917 7171 -7172 0
6917 -7171 7172 0
-6917 7171 7172 0
-7172 -7170 -7173 0
7172 7170 -7173 0
7172 -7170 7173 0
-7172 7170 7173 0
-7172 -7170 7174 0
7172 -7174 0
7170 -7174 0
-6917 -7171 7175 0
6917 -7175 0
7171 -7175 0
7174 7175 -7176 0
-7174 7176 0
-7175 7176 0
-18 -7161 7177 0
18 -7177 0
7161 -7177 0
-6923 -7177 -7178 0
6923 7177 -7178 0
6923 -7177 7178 0
-6923 7177 7178 0
-7178 -7176 -7179 0
7178 7176 -7179 0
7178 -7176 7179 0
-7178 7176 7179 0
-7178 -7176 7180 0
7178 -7180 0
7176 -7180 0
-6923 -7177 7181 0
6923 -7181 0
7177 -7181 0
7180 7181 -7182 0
-7180 7182 0
-7181 7182 0
-26 -7161 7183 0
26 -7183 0
7161 -7183 0
-6929 -7183 -7184 0
6929 7183 -7184 0
6929 -7183 7184 0
-6929 7183 7184 0
-7184 -7182 -7185 0
7184 7182 -7185 0
7184 -7182 7185 0
-7184 7182 7185 0
-7184 -7182 7186 0
7184 -7186 0
7182 -7186 0
-6929 -7183 7187 0
6929 -7187 0
7183 -7187 0
7186 7187 -7188 0
-7186 7188 0
-7187 7188 0
-34 -7161 7189 0
34 -7189 0
7161 -7189 0
-6935 -7189 -7190 0
6935 7189 -7190 0
6935 -7189 7190 0
-6935 7189 7190 0
-7190 -7188 -7191 0
7190 7188 -7191 0
7190 -7188 7191 0
-7190 7188 7191 0
-7190 -7188 7192 0
7190 -7192 0
7188 -7192 0
-6935 -7189 7193 0
6935 -7193 0
7189 -7193 0
7192 7193 -7194 0
-7192 7194 0
-7193 7194 0
-42 -7161 7195 0
42 -7195 0
7161 -7195 0
-6941 -7195 -7196 0
6941 7195 -7196 0
6941 -7195 7196 0
-6941 7195 7196 0
-7196 -7194 -7197 0
7196 7194 -7197 0
7196 -7194 7197 0
-7196 7194 7197 0
-7196 -7194 7198 0
7196 -7198 0
7194 -7198 0
-6941 -7195 7199 0
6941 -7199 0
7195 -7199 0
7198 7199 -7200 0
-7198 7200 0
-7199 7200 0
-50 -7161 7201 0
50 -7201 0
7161 -7201 0
-6947 -7201 -7202 0
6947 7201 -7202 0
6947 -7201 7202 0
-6947 7201 7202 0
-7202 -7200 -7203 0
7202 7200 -7203 0
7202 -7200 7203 0
-7202 7200 7203 0
-7202 -7200 7204 0
7202 -7204 0
7200 -7204 0
-6947 -7201 7205 0
6947 -7205 0
7201 -7205 0
7204 7205 -7206 0
-7204 7206 0
-7205 7206 0
-58 -7161 7207 0
58 -7207 0
7161 -7207 0
-6953 -7207 -7208 0
6953 7207 -7208 0
6953 -7207 7208 0
-6953 7207 7208 0
-7208 -7206 -7209 0
7208 7206 -7209 0
7208 -7206 7209 0
-7208 7206 7209 0
-7208 -7206 7210 0
7208 -7210 0
7206 -7210 0
-6953 -7207 7211 0
6953 -7211 0
7207 -7211 0
7210 7211 -7212 0
-7210 7212 0
-7211 7212 0
-66 -7161 7213 0
66 -7213 0
7161 -7213 0
-6959 -7213 -7214 0
6959 7213 -7214 0
6959 -7213 7214 0
-6959 7213 7214 0
-7214 -7212 -7215 0
7214 7212 -7215 0
7214 -7212 7215 0
-7214 7212 7215 0
-7214 -7212 7216 0
7214 -7216 0
7212 -7216 0
-6959 -7213 7217 0
6959 -7217 0
7213 -7217 0
7216 7217 -7218 0
-7216 7218 0
-7217 7218 0
-74 -7161 7219 0
74 -7219 0
7161 -7219 0
-6965 -7219 -7220 0
6965 7219 -7220 0
6965 -7219 7220 0
-6965 7219 7220 0
-7220 -7218 -7221 0
7220 7218 -7221 0
7220 -7218 7221 0
-7220 7218 7221 0
-7220 -7218 7222 0
7220 -7222 0
7218 -7222 0
-6965 -7219 7223 0
6965 -7223 0
7219 -7223 0
7222 7223 -7224 0
-7222 7224 0
-7223 7224 0
-82 -7161 7225 0
82 -7225 0
7161 -7225 0
-6971 -7225 -7226 0
6971 7225 -7226 0
6971 -7225 7226 0
-6971 7225 7226 0
-7226 -7224 -7227 0
7226 7224 -7227 0
7226 -7224 7227 0
-7226 7224 7227 0
-7226 -7224 7228 0
7226 -7228 0
7224 -7228 0
-6971 -7225 7229 0
6971 -7229 0
7225 -7229 0
7228 7229 -7230 0
-7228 7230 0
-7229 7230 0
-90 -7161 7231 0
90 -7231 0
7161 -7231 0
-6977 -7231 -7232 0
6977 7231 -7232 0
6977 -7231 7232 0
-6977 7231 7232 0
-7232 -7230 -7233 0
7232 7230 -7233 0
7232 -7230 7233 0
-7232 7230 7233 0
-7232 -7230 7234 0
7232 -7234 0
7230 -7234 0
-6977 -7231 7235 0
6977 -7235 0
7231 -7235 0
7234 7235 -7236 0
-7234 7236 0
-7235 7236 0
-98 -7161 7237 0
98 -7237 0
7161 -7237 0
-6983 -7237 -7238 0
6983 7237 -7238 0
6983 -7237 7238 0
-6983 7237 7238 0
-7238 -7236 -7239 0
7238 7236 -7239 0
7238 -7236 7239 0
-7238 7236 7239 0
-7238 -7236 7240 0
7238 -7240 0
7236 -7240 0
-6983 -7237 7241 0
6983 -7241 0
7237 -7241 0
7240 7241 -7242 0
-7240 7242 0
-7241 7242 0
-106 -7161 7243 0
106 -7243 0
7161 -7243 0
-6989 -7243 -7244 0
6989 7243 -7244 0
6989 -7243 7244 0
-6989 7243 7244 0
-7244 -7242 -7245 0
7244 7242 -7245 0
7244 -7242 7245 0
-7244 7242 7245 0
-7244 -7242 7246 0
7244 -7246 0
7242 -7246 0
-6989 -7243 7247 0
6989 -7247 0
7243 -7247 0
7246 7247 -7248 0
-7246 7248 0
-7247 7248 0
-114 -7161 7249 0
114 -7249 0
7161 -7249 0
-6995 -7249 -7250 0
6995 7249 -7250 0
6995 -7249 7250 0
-6995 7249 7250 0
-7250 -7248 -7251 0
7250 7248 -7251 0
7250 -7248 7251 0
-7250 7248 7251 0
-7250 -7248 7252 0
7250 -7252 0
7248 -7252 0
-6995 -7249 7253 0
6995 -7253 0
7249 -7253 0
7252 7253 -7254 0
-7252 7254 0
-7253 7254 0
-122 -7161 7255 0
122 -7255 0
7161 -7255 0
-7001 -7255 -7256 0
7001 7255 -7256 0
7001 -7255 7256 0
-7001 7255 7256 0
-7256 -7254 -7257 0
7256 7254 -7257 0
7256 -7254 7257 0
-7256 7254 7257 0
-7256 -7254 7258 0
7256 -7258 0
7254 -7258 0
-7001 -7255 7259 0
7001 -7259 0
7255 -7259 0
7258 7259 -7260 0
-7258 7260 0
-7259 7260 0
-130 -7161 7261 0
130 -7261 0
7161 -7261 0
-7007 -7261 -7262 0
7007 7261 -7262 0
7007 -7261 7262 0
-7007 7261 7262 0
-7262 -7260 -7263 0
7262 7260 -7263 0
7262 -7260 7263 0
-7262 7260 7263 0
-7262 -7260 7264 0
7262 -7264 0
7260 -7264 0
-7007 -7261 7265 0
7007 -7265 0
7261 -7265 0
7264 7265 -7266 0
-7264 7266 0
-7265 7266 0
-138 -7161 7267 0
138 -7267 0
7161 -7267 0
-7013 -7267 -7268 0
7013 7267 -7268 0
7013 -7267 7268 0
-7013 7267 7268 0
-7268 -7266 -7269 0
7268 7266 -7269 0
7268 -7266 7269 0
-7268 7266 7269 0
-7268 -7266 7270 0
7268 -7270 0
7266 -7270 0
-7013 -7267 7271 0
7013 -7271 0
7267 -7271 0
7270 7271 -7272 0
-7270 7272 0
-7271 7272 0
-146 -7161 7273 0
146 -7273 0
7161 -7273 0
-7019 -7273 -7274 0
7019 7273 -7274 0
7019 -7273 7274 0
-7019 7273 7274 0
-7274 -7272 -7275 0
7274 7272 -7275 0
7274 -7272 7275 0
-7274 7272 7275 0
-7274 -7272 7276 0
7274 -7276 0
7272 -7276 0
-7019 -7273 7277 0
7019 -7277 0
7273 -7277 0
7276 7277 -7278 0
-7276 7278 0
-7277 7278 0
-154 -7161 7279 0
154 -7279 0
7161 -7279 0
-7025 -7279 -7280 0
7025 7279 -7280 0
7025 -7279 7280 0
-7025 7279 7280 0
-7280 -7278 -7281 0
7280 7278 -7281 0
7280 -7278 7281 0
-7280 7278 7281 0
-7280 -7278 7282 0
7280 -7282 0
7278 -7282 0
-7025 -7279 7283 0
7025 -7283 0
7279 -7283 0
7282 7283 -7284 0
-7282 7284 0
-7283 7284 0
-162 -7161 7285 0
162 -7285 0
7161 -7285 0
-7031 -7285 -7286 0
7031 7285 -7286 0
7031 -7285 7286 0
-7031 7285 7286 0
-7286 -7284 -7287 0
7286 7284 -7287 0
7286 -7284 7287 0
-7286 7284 7287 0
-7286 -7284 7288 0
7286 -7288 0
7284 -7288 0
-7031 -7285 7289 0
7031 -7289 0
7285 -7289 0
7288 7289 -7290 0
-7288 7290 0
-7289 7290 0
-170 -7161 7291 0
170 -7291 0
7161 -7291 0
-7037 -7291 -7292 0
7037 7291 -7292 0
7037 -7291 7292 0
-7037 7291 7292 0
-7292 -7290 -7293 0
7292 7290 -7293 0
7292 -7290 7293 0
-7292 7290 7293 0
-7292 -7290 7294 0
7292 -7294 0
7290 -7294 0
-7037 -7291 7295 0
7037 -7295 0
7291 -7295 0
7294 7295 -7296 0
-7294 7296 0
-7295 7296 0
-178 -7161 7297 0
178 -7297 0
7161 -7297 0
-7043 -7297 -7298 0
7043 7297 -7298 0
7043 -7297 7298 0
-7043 7297 7298 0
-7298 -7296 -7299 0
7298 7296 -7299 0
7298 -7296 7299 0
-7298 7296 7299 0
-7298 -7296 7300 0
7298 -7300 0
7296 -7300 0
-7043 -7297 7301 0
7043 -7301 0
7297 -7301 0
7300 7301 -7302 0
-7300 7302 0
-7301 7302 0
-186 -7161 7303 0
186 -7303 0
7161 -7303 0
-7049 -7303 -7304 0
7049 7303 -7304 0
7049 -7303 7304 0
-7049 7303 7304 0
-7304 -7302 -7305 0
7304 7302 -7305 0
7304 -7302 7305 0
-7304 7302 7305 0
-7304 -7302 7306 0
7304 -7306 0
7302 -7306 0
-7049 -7303 7307 0
7049 -7307 0
7303 -7307 0
7306 7307 -7308 0
-7306 7308 0
-7307 7308 0
-194 -7161 7309 0
194 -7309 0
7161 -7309 0
-7055 -7309 -7310 0
7055 7309 -7310 0
7055 -7309 7310 0
-7055 7309 7310 0
-7310 -7308 -7311 0
7310 7308 -7311 0
7310 -7308 7311 0
-7310 7308 7311 0
-7310 -7308 7312 0
7310 -7312 0
7308 -7312 0
-7055 -7309 7313 0
7055 -7313 0
7309 -7313 0
7312 7313 -7314 0
-7312 7314 0
-7313 7314 0
-202 -7161 7315 0
202 -7315 0
7161 -7315 0
-7061 -7315 -7316 0
7061 7315 -7316 0
7061 -7315 7316 0
-7061 7315 7316 0
-7316 -7314 -7317 0
7316 7314 -7317 0
7316 -7314 7317 0
-7316 7314 7317 0
-7316 -7314 7318 0
7316 -7318 0
7314 -7318 0
-7061 -7315 7319 0
7061 -7319 0
7315 -7319 0
7318 7319 -7320 0
-7318 7320 0
-7319 7320 0
-210 -7161 7321 0
210 -7321 0
7161 -7321 0
-7067 -7321 -7322 0
7067 7321 -7322 0
7067 -7321 7322 0
-7067 7321 7322 0
-7322 -7320 -7323 0
7322 7320 -7323 0
7322 -7320 7323 0
-7322 7320 7323 0
-7322 -7320 7324 0
7322 -7324 0
7320 -7324 0
-7067 -7321 7325 0
7067 -7325 0
7321 -7325 0
7324 7325 -7326 0
-7324 7326 0
-7325 7326 0
-218 -7161 7327 0
218 -7327 0
7161 -7327 0
-7073 -7327 -7328 0
7073 7327 -7328 0
7073 -7327 7328 0
-7073 7327 7328 0
-7328 -7326 -7329 0
7328 7326 -7329 0
7328 -7326 7329 0
-7328 7326 7329 0
-7328 -7326 7330 0
7328 -7330 0
7326 -7330 0
-7073 -7327 7331 0
7073 -7331 0
7327 -7331 0
7330 7331 -7332 0
-7330 7332 0
-7331 7332 0
-226 -7161 7333 0
226 -7333 0
7161 -7333 0
-7079 -7333 -7334 0
7079 7333 -7334 0
7079 -7333 7334 0
-7079 7333 7334 0
-7334 -7332 -7335 0
7334 7332 -7335 0
7334 -7332 7335 0
-7334 7332 7335 0
-7334 -7332 7336 0
7334 -7336 0
7332 -7336 0
-7079 -7333 7337 0
7079 -7337 0
7333 -7337 0
7336 7337 -7338 0
-7336 7338 0
-7337 7338 0
-234 -7161 7339 0
234 -7339 0
7161 -7339 0
-7085 -7339 -7340 0
7085 7339 -7340 0
7085 -7339 7340 0
-7085 7339 7340 0
-7340 -7338 -7341 0
7340 7338 -7341 0
7340 -7338 7341 0
-7340 7338 7341 0
-7340 -7338 7342 0
7340 -7342 0
7338 -7342 0
-7085 -7339 7343 0
7085 -7343 0
7339 -7343 0
7342 7343 -7344 0
-7342 7344 0
-7343 7344 0
-242 -7161 7345 0
242 -7345 0
7161 -7345 0
-7091 -7345 -7346 0
7091 7345 -7346 0
7091 -7345 7346 0
-7091 7345 7346 0
-7346 -7344 -7347 0
7346 7344 -7347 0
7346 -7344 7347 0
-7346 7344 7347 0
-7346 -7344 7348 0
7346 -7348 0
7344 -7348 0
-7091 -7345 7349 0
7091 -7349 0
7345 -7349 0
7348 7349 -7350 0
-7348 7350 0
-7349 7350 0
-250 -7161 7351 0
250 -7351 0
7161 -7351 0
-7097 -7351 -7352 0
7097 7351 -7352 0
7097 -7351 7352 0
-7097 7351 7352 0
-7352 -7350 -7353 0
7352 7350 -7353 0
7352 -7350 7353 0
-7352 7350 7353 0
-7352 -7350 7354 0
7352 -7354 0
7350 -7354 0
-7097 -7351 7355 0
7097 -7355 0
7351 -7355 0
7354 7355 -7356 0
-7354 7356 0
-7355 7356 0
-258 -7161 7357 0
258 -7357 0
7161 -7357 0
-7103 -7357 -7358 0
7103 7357 -7358 0
7103 -7357 7358 0
-7103 7357 7358 0
-7358 -7356 -7359 0
7358 7356 -7359 0
7358 -7356 7359 0
-7358 7356 7359 0
-7358 -7356 7360 0
7358 -7360 0
7356 -7360 0
-7103 -7357 7361 0
7103 -7361 0
7357 -7361 0
7360 7361 -7362 0
-7360 7362 0
-7361 7362 0
-266 -7161 7363 0
266 -7363 0
7161 -7363 0
-7109 -7363 -7364 0
7109 7363 -7364 0
7109 -7363 7364 0
-7109 7363 7364 0
-7364 -7362 -7365 0
7364 7362 -7365 0
7364 -7362 7365 0
-7364 7362 7365 0
-7364 -7362 7366 0
7364 -7366 0
7362 -7366 0
-7109 -7363 7367 0
7109 -7367 0
7363 -7367 0
7366 7367 -7368 0
-7366 7368 0
-7367 7368 0
-274 -7161 7369 0
274 -7369 0
7161 -7369 0
-7115 -7369 -7370 0
7115 7369 -7370 0
7115 -7369 7370 0
-7115 7369 7370 0
-7370 -7368 -7371 0
7370 7368 -7371 0
7370 -7368 7371 0
-7370 7368 7371 0
-7370 -7368 7372 0
7370 -7372 0
7368 -7372 0
-7115 -7369 7373 0
7115 -7373 0
7369 -7373 0
7372 7373 -7374 0
-7372 7374 0
-7373 7374 0
-282 -7161 7375 0
282 -7375 0
7161 -7375 0
-7121 -7375 -7376 0
7121 7375 -7376 0
7121 -7375 7376 0
-7121 7375 7376 0
-7376 -7374 -7377 0
7376 7374 -7377 0
7376 -7374 7377 0
-7376 7374 7377 0
-7376 -7374 7378 0
7376 -7378 0
7374 -7378 0
-7121 -7375 7379 0
7121 -7379 0
7375 -7379 0
7378 7379 -7380 0
-7378 7380 0
-7379 7380 0
-290 -7161 7381 0
290 -7381 0
7161 -7381 0
-7127 -7381 -7382 0
7127 7381 -7382 0
7127 -7381 7382 0
-7127 7381 7382 0
-7382 -7380 -7383 0
7382 7380 -7383 0
7382 -7380 7383 0
-7382 7380 7383 0
-7382 -7380 7384 0
7382 -7384 0
7380 -7384 0
-7127 -7381 7385 0
7127 -7385 0
7381 -7385 0
7384 7385 -7386 0
-7384 7386 0
-7385 7386 0
-298 -7161 7387 0
298 -7387 0
7161 -7387 0
-7133 -7387 -7388 0
7133 7387 -7388 0
7133 -7387 7388 0
-7133 7387 7388 0
-7388 -7386 -7389 0
7388 7386 -7389 0
7388 -7386 7389 0
-7388 7386 7389 0
-7388 -7386 7390 0
7388 -7390 0
7386 -7390 0
-7133 -7387 7391 0
7133 -7391 0
7387 -7391 0
7390 7391 -7392 0
-7390 7392 0
-7391 7392 0
-306 -7161 7393 0
306 -7393 0
7161 -7393 0
-7139 -7393 -7394 0
7139 7393 -7394 0
7139 -7393 7394 0
-7139 7393 7394 0
-7394 -7392 -7395 0
7394 7392 -7395 0
7394 -7392 7395 0
-7394 7392 7395 0
-7394 -7392 7396 0
7394 -7396 0
7392 -7396 0
-7139 -7393 7397 0
7139 -7397 0
7393 -7397 0
7396 7397 -7398 0
-7396 7398 0
-7397 7398 0
-314 -7161 7399 0
314 -7399 0
7161 -7399 0
-7145 -7399 -7400 0
7145 7399 -7400 0
7145 -7399 7400 0
-7145 7399 7400 0
-7400 -7398 -7401 0
7400 7398 -7401 0
7400 -7398 7401 0
-7400 7398 7401 0
-7400 -7398 7402 0
7400 -7402 0
7398 -7402 0
-7145 -7399 7403 0
7145 -7403 0
7399 -7403 0
7402 7403 -7404 0
-7402 7404 0
-7403 7404 0
-322 -7161 7405 0
322 -7405 0
7161 -7405 0
-7151 -7405 -7406 0
7151 7405 -7406 0
7151 -7405 7406 0
-7151 7405 7406 0
-7406 -7404 -7407 0
7406 7404 -7407 0
7406 -7404 7407 0
-7406 7404 7407 0
-7406 -7404 7408 0
7406 -7408 0
7404 -7408 0
-7151 -7405 7409 0
7151 -7409 0
7405 -7409 0
7408 7409 -7410 0
-7408 7410 0
-7409 7410 0
-330 -7161 7411 0
330 -7411 0
7161 -7411 0
-7157 -7411 -7412 0
7157 7411 -7412 0
7157 -7411 7412 0
-7157 7411 7412 0
-7412 -7410 -7413 0
7412 7410 -7413 0
7412 -7410 7413 0
-7412 7410 7413 0
-7412 -7410 7414 0
7412 -7414 0
7410 -7414 0
-7157 -7411 7415 0
7157 -7415 0
7411 -7415 0
7414 7415 -7416 0
-7414 7416 0
-7415 7416 0
-338 -7161 7417 0
338 -7417 0
7161 -7417 0
-7160 -7417 -7418 0
7160 7417 -7418 0
7160 -7417 7418 0
-7160 7417 7418 0
-7418 -7416 -7419 0
7418 7416 -7419 0
7418 -7416 7419 0
-7418 7416 7419 0
-7418 -7416 7420 0
7418 -7420 0
7416 -7420 0
-7160 -7417 7421 0
7160 -7421 0
7417 -7421 0
7420 7421 -7422 0
-7420 7422 0
-7421 7422 0
-1 -7423 7424 0
1 -7424 0
7423 -7424 0
-7167 -7424 -7425 0
7167 7424 -7425 0
7167 -7424 7425 0
-7167 7424 7425 0
-7167 -7424 7426 0
7167 -7426 0
7424 -7426 0
-4 -7423 7427 0
4 -7427 0
7423 -7427 0
-7173 -7427 -7428 0
7173 7427 -7428 0
7173 -7427 7428 0
-7173 7427 7428 0
-7428 -7426 -7429 0
7428 7426 -7429 0
7428 -7426 7429 0
-7428 7426 7429 0
-7428 -7426 7430 0
7428 -7430 0
7426 -7430 0
-7173 -7427 7431 0
7173 -7431 0
7427 -7431 0
7430 7431 -7432 0
-7430 7432 0
-7431 7432 0
-10 -7423 7433 0
10 -7433 0
7423 -7433 0
-7179 -7433 -7434 0
7179 7433 -7434 0
7179 -7433 7434 0
-7179 7433 7434 0
-7434 -7432 -7435 0
7434 7432 -7435 0
7434 -7432 7435 0
-7434 7432 7435 0
-7434 -7432 7436 0
7434 -7436 0
7432 -7436 0
-7179 -7433 7437 0
7179 -7437 0
7433 -7437 0
7436 7437 -7438 0
-7436 7438 0
-7437 7438 0
-18 -7423 7439 0
18 -7439 0
7423 -7439 0
-7185 -7439 -7440 0
7185 7439 -7440 0
7185 -7439 7440 0
-7185 7439 7440 0
-7440 -7438 -7441 0
7440 7438 -7441 0
7440 -7438 7441 0
-7440 7438 7441 0
-7440 -7438 7442 0
7440 -7442 0
7438 -7442 0
-7185 -7439 7443 0
7185 -7443 0
7439 -7443 0
7442 7443 -7444 0
-7442 7444 0
-7443 7444 0
-26 -7423 7445 0
26 -7445 0
7423 -7445 0
-7191 -7445 -7446 0
7191 7445 -7446 0
7191 -7445 7446 0
-7191 7445 7446 0
-7446 -7444 -7447 0
7446 7444 -7447 0
7446 -7444 7447 0
-7446 7444 7447 0
-7446 -7444 7448 0
7446 -7448 0
7444 -7448 0
-7191 -7445 7449 0
7191 -7449 0
7445 -7449 0
7448 7449 -7450 0
-7448 7450 0
-7449 7450 0
-34 -7423 7451 0
34 -7451 0
7423 -7451 0
-7197 -7451 -7452 0
7197 7451 -7452 0
7197 -7451 7452 0
-7197 7451 7452 0
-7452 -7450 -7453 0
7452 7450 -7453 0
7452 -7450 7453 0
-7452 7450 7453 0
-7452 -7450 7454 0
7452 -7454 0
7450 -7454 0
-7197 -7451 7455 0
7197 -7455 0
7451 -7455 0
7454 7455 -7456 0
-7454 7456 0
-7455 7456 0
-42 -7423 7457 0
42 -7457 0
7423 -7457 0
-7203 -7457 -7458 0
7203 7457 -7458 0
7203 -7457 7458 0
-7203 7457 7458 0
-7458 -7456 -7459 0
7458 7456 -7459 0
7458 -7456 7459 0
-7458 7456 7459 0
-7458 -7456 7460 0
7458 -7460 0
7456 -7460 0
-7203 -7457 7461 0
7203 -7461 0
7457 -7461 0
7460 7461 -7462 0
-7460 7462 0
-7461 7462 0
-50 -7423 7463 0
50 -7463 0
7423 -7463 0
-7209 -7463 -7464 0
7209 7463 -7464 0
7209 -7463 7464 0
-7209 7463 7464 0
-7464 -7462 -7465 0
7464 7462 -7465 0
7464 -7462 7465 0
-7464 7462 7465 0
-7464 -7462 7466 0
7464 -7466 0
7462 -7466 0
-7209 -7463 7467 0
7209 -7467 0
7463 -7467 0
7466 7467 -7468 0
-7466 7468 0
-7467 7468 0
-58 -7423 7469 0
58 -7469 0
7423 -7469 0
-7215 -7469 -7470 0
7215 7469 -7470 0
7215 -7469 7470 0
-7215 7469 7470 0
-7470 -7468 -7471 0
7470 7468 -7471 0
7470 -7468 7471 0
-7470 7468 7471 0
-7470 -7468 7472 0
7470 -7472 0
7468 -7472 0
-7215 -7469 7473 0
7215 -7473 0
7469 -7473 0
7472 7473 -7474 0
-7472 7474 0
-7473 7474 0
-66 -7423 7475 0
66 -7475 0
7423 -7475 0
-7221 -7475 -7476 0
7221 7475 -7476 0
7221 -7475 7476 0
-7221 7475 7476 0
-7476 -7474 -7477 0
7476 7474 -7477 0
7476 -7474 7477 0
-7476 7474 7477 0
-7476 -7474 7478 0
7476 -7478 0
7474 -7478 0
-7221 -7475 7479 0
7221 -7479 0
7475 -7479 0
7478 7479 -7480 0
-7478 7480 0
-7479 7480 0
-74 -7423 7481 0
74 -7481 0
7423 -7481 0
-7227 -7481 -7482 0
7227 7481 -7482 0
7227 -7481 7482 0
-7227 7481 7482 0
-7482 -7480 -7483 0
7482 7480 -7483 0
7482 -7480 7483 0
-7482 7480 7483 0
-7482 -7480 7484 0
7482 -7484 0
7480 -7484 0
-7227 -7481 7485 0
7227 -7485 0
7481 -7485 0
7484 7485 -7486 0
-7484 7486 0
-7485 7486 0
-82 -7423 7487 0
82 -7487 0
7423 -7487 0
-7233 -7487 -7488 0
7233 7487 -7488 0
7233 -7487 7488 0
-7233 7487 7488 0
-7488 -7486 -7489 0
7488 7486 -7489 0
7488 -7486 7489 0
-7488 7486 7489 0
-7488 -7486 7490 0
7488 -7490 0
7486 -7490 0
-7233 -7487 7491 0
7233 -7491 0
7487 -7491 0
7490 7491 -7492 0
-7490 7492 0
-7491 7492 0
-90 -7423 7493 0
90 -7493 0
7423 -7493 0
-7239 -7493 -7494 0
7239 7493 -7494 0
7239 -7493 7494 0
-7239 7493 7494 0
-7494 -7492 -7495 0
7494 7492 -7495 0
7494 -7492 7495 0
-7494 7492 7495 0
-7494 -7492 7496 0
7494 -7496 0
7492 -7496 0
-7239 -7493 7497 0
7239 -7497 0
7493 -7497 0
7496 7497 -7498 0
-7496 7498 0
-7497 7498 0
-98 -7423 7499 0
98 -7499 0
7423 -7499 0
-7245 -7499 -7500 0
7245 7499 -7500 0
7245 -7499 7500 0
-7245 7499 7500 0
-7500 -7498 -7501 0
7500 7498 -7501 0
7500 -7498 7501 0
-7500 7498 7501 0
-7500 -7498 7502 0
7500 -7502 0
7498 -7502 0
-7245 -7499 7503 0
7245 -7503 0
7499 -7503 0
7502 7503 -7504 0
-7502 7504 0
-7503 7504 0
-106 -7423 7505 0
106 -7505 0
7423 -7505 0
-7251 -7505 -7506 0
7251 7505 -7506 0
7251 -7505 7506 0
-7251 7505 7506 0
-7506 -7504 -7507 0
7506 7504 -7507 0
7506 -7504 7507 0
-7506 7504 7507 0
-7506 -7504 7508 0
7506 -7508 0
7504 -7508 0
-7251 -7505 7509 0
7251 -7509 0
7505 -7509 0
7508 7509 -7510 0
-7508 7510 0
-7509 7510 0
-114 -7423 7511 0
114 -7511 0
7423 -7511 0
-7257 -7511 -7512 0
7257 7511 -7512 0
7257 -7511 7512 0
-7257 7511 7512 0
-7512 -7510 -7513 0
7512 7510 -7513 0
7512 -7510 7513 0
-7512 7510 7513 0
-7512 -7510 7514 0
7512 -7514 0
7510 -7514 0
-7257 -7511 7515 0
7257 -7515 0
7511 -7515 0
7514 7515 -7516 0
-7514 7516 0
-7515 7516 0
-122 -7423 7517 0
122 -7517 0
7423 -7517 0
-7263 -7517 -7518 0
7263 7517 -7518 0
7263 -7517 7518 0
-7263 7517 7518 0
-7518 -7516 -7519 0
7518 7516 -7519 0
7518 -7516 7519 0
-7518 7516 7519 0
-7518 -7516 7520 0
7518 -7520 0
7516 -7520 0
-7263 -7517 7521 0
7263 -7521 0
7517 -7521 0
7520 7521 -7522 0
-7520 7522 0
-7521 7522 0
-130 -7423 7523 0
130 -7523 0
7423 -7523 0
-7269 -7523 -7524 0
7269 7523 -7524 0
7269 -7523 7524 0
-7269 7523 7524 0
-7524 -7522 -7525 0
7524 7522 -7525 0
7524 -7522 7525 0
-7524 7522 7525 0
-7524 -7522 7526 0
7524 -7526 0
7522 -7526 0
-7269 -7523 7527 0
7269 -7527 0
7523 -7527 0
7526 7527 -7528 0
-7526 7528 0
-7527 7528 0
-138 -7423 7529 0
138 -7529 0
7423 -7529 0
-7275 -7529 -7530 0
7275 7529 -7530 0
7275 -7529 7530 0
-7275 7529 7530 0
-7530 -7528 -7531 0
7530 7528 -7531 0
7530 -7528 7531 0
-7530 7528 7531 0
-7530 -7528 7532 0
7530 -7532 0
7528 -7532 0
-7275 -7529 7533 0
7275 -7533 0
7529 -7533 0
7532 7533 -7534 0
-7532 7534 0
-7533 7534 0
-146 -7423 7535 0
146 -7535 0
7423 -7535 0
-7281 -7535 -7536 0
7281 7535 -7536 0
7281 -7535 7536 0
-7281 7535 7536 0
-7536 -7534 -7537 0
7536 7534 -7537 0
7536 -7534 7537 0
-7536 7534 7537 0
-7536 -7534 7538 0
7536 -7538 0
7534 -7538 0
-7281 -7535 7539 0
7281 -7539 0
7535 -7539 0
7538 7539 -7540 0
-7538 7540 0
-7539 7540 0
-154 -7423 7541 0
154 -7541 0
7423 -7541 0
-7287 -7541 -7542 0
7287 7541 -7542 0
7287 -7541 7542 0
-7287 7541 7542 0
-7542 -7540 -7543 0
7542 7540 -7543 0
7542 -7540 7543 0
-7542 7540 7543 0
-7542 -7540 7544 0
7542 -7544 0
7540 -7544 0
-7287 -7541 7545 0
7287 -7545 0
7541 -7545 0
7544 7545 -7546 0
-7544 7546 0
-7545 7546 0
-162 -7423 7547 0
162 -7547 0
7423 -7547 0
-7293 -7547 -7548 0
7293 7547 -7548 0
7293 -7547 7548 0
-7293 7547 7548 0
-7548 -7546 -7549 0
7548 7546 -7549 0
7548 -7546 7549 0
-7548 7546 7549 0
-7548 -7546 7550 0
7548 -7550 0
7546 -7550 0
-7293 -7547 7551 0
7293 -7551 0
7547 -7551 0
7550 7551 -7552 0
-7550 7552 0
-7551 7552 0
-170 -7423 7553 0
170 -7553 0
7423 -7553 0
-7299 -7553 -7554 0
7299 7553 -7554 0
7299 -7553 7554 0
-7299 7553 7554 0
-7554 -7552 -7555 0
7554 7552 -7555 0
7554 -7552 7555 0
-7554 7552 7555 0
-7554 -7552 7556 0
7554 -7556 0
7552 -7556 0
-7299 -7553 7557 0
7299 -7557 0
7553 -7557 0
7556 7557 -7558 0
-7556 7558 0
-7557 7558 0
-178 -7423 7559 0
178 -7559 0
7423 -7559 0
-7305 -7559 -7560 0
7305 7559 -7560 0
7305 -7559 7560 0
-7305 7559 7560 0
-7560 -7558 -7561 0
7560 7558 -7561 0
7560 -7558 7561 0
-7560 7558 7561 0
-7560 -7558 7562 0
7560 -7562 0
7558 -7562 0
-7305 -7559 7563 0
7305 -7563 0
7559 -7563 0
7562 7563 -7564 0
-7562 7564 0
-7563 7564 0
-186 -7423 7565 0
186 -7565 0
7423 -7565 0
-7311 -7565 -7566 0
7311 7565 -7566 0
7311 -7565 7566 0
-7311 7565 7566 0
-7566 -7564 -7567 0
7566 7564 -7567 0
7566 -7564 7567 0
-7566 7564 7567 0
-7566 -7564 7568 0
7566 -7568 0
7564 -7568 0
-7311 -7565 7569 0
7311 -7569 0
7565 -7569 0
7568 7569 -7570 0
-7568 7570 0
-7569 7570 0
-194 -7423 7571 0
194 -7571 0
7423 -7571 0
-7317 -7571 -7572 0
7317 7571 -7572 0
7317 -7571 7572 0
-7317 7571 7572 0
-7572 -7570 -7573 0
7572 7570 -7573 0
7572 -7570 7573 0
-7572 7570 7573 0
-7572 -7570 7574 0
7572 -7574 0
7570 -7574 0
-7317 -7571 7575 0
7317 -7575 0
7571 -7575 0
7574 7575 -7576 0
-7574 7576 0
-7575 7576 0
-202 -7423 7577 0
202 -7577 0
7423 -7577 0
-7323 -7577 -7578 0
7323 7577 -7578 0
7323 -7577 7578 0
-7323 7577 7578 0
-7578 -7576 -7579 0
7578 7576 -7579 0
7578 -7576 7579 0
-7578 7576 7579 0
-7578 -7576 7580 0
7578 -7580 0
7576 -7580 0
-7323 -7577 7581 0
7323 -7581 0
7577 -7581 0
7580 7581 -7582 0
-7580 7582 0
-7581 7582 0
-210 -7423 7583 0
210 -7583 0
7423 -7583 0
-7329 -7583 -7584 0
7329 7583 -7584 0
7329 -7583 7584 0
-7329 7583 7584 0
-7584 -7582 -7585 0
7584 7582 -7585 0
7584 -7582 7585 0
-7584 7582 7585 0
-7584 -7582 7586 0
7584 -7586 0
7582 -7586 0
-7329 -7583 7587 0
7329 -7587 0
7583 -7587 0
7586 7587 -7588 0
-7586 7588 0
-7587 7588 0
-218 -7423 7589 0
218 -7589 0
7423 -7589 0
-7335 -7589 -7590 0
7335 7589 -7590 0
7335 -7589 7590 0
-7335 7589 7590 0
-7590 -7588 -7591 0
7590 7588 -7591 0
7590 -7588 7591 0
-7590 7588 7591 0
-7590 -7588 7592 0
7590 -7592 0
7588 -7592 0
-7335 -7589 7593 0
7335 -7593 0
7589 -7593 0
7592 7593 -7594 0
-7592 7594 0
-7593 7594 0
-226 -7423 7595 0
226 -7595 0
7423 -7595 0
-7341 -7595 -7596 0
7341 7595 -7596 0
7341 -7595 7596 0
-7341 7595 7596 0
-7596 -7594 -7597 0
7596 7594 -7597 0
7596 -7594 7597 0
-7596 7594 7597 0
-7596 -7594 7598 0
7596 -7598 0
7594 -7598 0
-7341 -7595 7599 0
7341 -7599 0
7595 -7599 0
7598 7599 -7600 0
-7598 7600 0
-7599 7600 0
-234 -7423 7601 0
234 -7601 0
7423 -7601 0
-7347 -7601 -7602 0
7347 7601 -7602 0
7347 -7601 7602 0
-7347 7601 7602 0
-7602 -7600 -7603 0
7602 7600 -7603 0
7602 -7600 7603 0
-7602 7600 7603 0
-7602 -7600 7604 0
7602 -7604 0
7600 -7604 0
-7347 -7601 7605 0
7347 -7605 0
7601 -7605 0
7604 7605 -7606 0
-7604 7606 0
-7605 7606 0
-242 -7423 7607 0
242 -7607 0
7423 -7607 0
-7353 -7607 -7608 0
7353 7607 -7608 0
7353 -7607 7608 0
-7353 7607 7608 0
-7608 -7606 -7609 0
7608 7606 -7609 0
7608 -7606 7609 0
-7608 7606 7609 0
-7608 -7606 7610 0
7608 -7610 0
7606 -7610 0
-7353 -7607 7611 0
7353 -7611 0
7607 -7611 0
7610 7611 -7612 0
-7610 7612 0
-7611 7612 0
-250 -7423 7613 0
250 -7613 0
7423 -7613 0
-7359 -7613 -7614 0
7359 7613 -7614 0
7359 -7613 7614 0
-7359 7613 7614 0
-7614 -7612 -7615 0
7614 7612 -7615 0
7614 -7612 7615 0
-7614 7612 7615 0
-7614 -7612 7616 0
7614 -7616 0
7612 -7616 0
-7359 -7613 7617 0
7359 -7617 0
7613 -7617 0
7616 7617 -7618 0
-7616 7618 0
-7617 7618 0
-258 -7423 7619 0
258 -7619 0
7423 -7619 0
-7365 -7619 -7620 0
7365 7619 -7620 0
7365 -7619 7620 0
-7365 7619 7620 0
-7620 -7618 -7621 0
7620 7618 -7621 0
7620 -7618 7621 0
-7620 7618 7621 0
-7620 -7618 7622 0
7620 -7622 0
7618 -7622 0
-7365 -7619 7623 0
7365 -7623 0
7619 -7623 0
7622 7623 -7624 0
-7622 7624 0
-7623 7624 0
-266 -7423 7625 0
266 -7625 0
7423 -7625 0
-7371 -7625 -7626 0
7371 7625 -7626 0
7371 -7625 7626 0
-7371 7625 7626 0
-7626 -7624 -7627 0
7626 7624 -7627 0
7626 -7624 7627 0
-7626 7624 7627 0
-7626 -7624 7628 0
7626 -7628 0
7624 -7628 0
-7371 -7625 7629 0
7371 -7629 0
7625 -7629 0
7628 7629 -7630 0
-7628 7630 0
-7629 7630 0
-274 -7423 7631 0
274 -7631 0
7423 -7631 0
-7377 -7631 -7632 0
7377 7631 -7632 0
7377 -7631 7632 0
-7377 7631 7632 0
-7632 -7630 -7633 0
7632 7630 -7633 0
7632 -7630 7633 0
-7632 7630 7633 0
-7632 -7630 7634 0
7632 -7634 0
7630 -7634 0
-7377 -7631 7635 0
7377 -7635 0
7631 -7635 0
7634 7635 -7636 0
-7634 7636 0
-7635 7636 0
-282 -7423 7637 0
282 -7637 0
7423 -7637 0
-7383 -7637 -7638 0
7383 7637 -7638 0
7383 -7637 7638 0
-7383 7637 7638 0
-7638 -7636 -7639 0
7638 7636 -7639 0
7638 -7636 7639 0
-7638 7636 7639 0
-7638 -7636 7640 0
7638 -7640 0
7636 -7640 0
-7383 -7637 7641 0
7383 -7641 0
7637 -7641 0
7640 7641 -7642 0
-7640 7642 0
-7641 7642 0
-290 -7423 7643 0
290 -7643 0
7423 -7643 0
-7389 -7643 -7644 0
7389 7643 -7644 0
7389 -7643 7644 0
-7389 7643 7644 0
-7644 -7642 -7645 0
7644 7642 -7645 0
7644 -7642 7645 0
-7644 7642 7645 0
-7644 -7642 7646 0
7644 -7646 0
7642 -7646 0
-7389 -7643 7647 0
7389 -7647 0
7643 -7647 0
7646 7647 -7648 0
-7646 7648 0
-7647 7648 0
-298 -7423 7649 0
298 -7649 0
7423 -7649 0
-7395 -7649 -7650 0
7395 7649 -7650 0
7395 -7649 7650 0
-7395 7649 7650 0
-7650 -7648 -7651 0
7650 7648 -7651 0
7650 -7648 7651 0
-7650 7648 7651 0
-7650 -7648 7652 0
7650 -7652 0
7648 -7652 0
-7395 -7649 7653 0
7395 -7653 0
7649 -7653 0
7652 7653 -7654 0
-7652 7654 0
-7653 7654 0
-306 -7423 7655 0
306 -7655 0
7423 -7655 0
-7401 -7655 -7656 0
7401 7655 -7656 0
7401 -7655 7656 0
-7401 7655 7656 0
-7656 -7654 -7657 0
7656 7654 -7657 0
7656 -7654 7657 0
-7656 7654 7657 0
-7656 -7654 7658 0
7656 -7658 0
7654 -7658 0
-7401 -7655 7659 0
7401 -7659 0
7655 -7659 0
7658 7659 -7660 0
-7658 7660 0
-7659 7660 0
-314 -7423 7661 0
314 -7661 0
7423 -7661 0
-7407 -7661 -7662 0
7407 7661 -7662 0
7407 -7661 7662 0
-7407 7661 7662 0
-7662 -7660 -7663 0
7662 7660 -7663 0
7662 -7660 7663 0
-7662 7660 7663 0
-7662 -7660 7664 0
7662 -7664 0
7660 -7664 0
-7407 -7661 7665 0
7407 -7665 0
7661 -7665 0
7664 7665 -7666 0
-7664 7666 0
-7665 7666 0
-322 -7423 7667 0
322 -7667 0
7423 -7667 0
-7413 -7667 -7668 0
7413 7667 -7668 0
7413 -7667 7668 0
-7413 7667 7668 0
-7668 -7666 -7669 0
7668 7666 -7669 0
7668 -7666 7669 0
-7668 7666 7669 0
-7668 -7666 7670 0
7668 -7670 0
7666 -7670 0
-7413 -7667 7671 0
7413 -7671 0
7667 -7671 0
7670 7671 -7672 0
-7670 7672 0
-7671 7672 0
-330 -7423 7673 0
330 -7673 0
7423 -7673 0
-7419 -7673 -7674 0
7419 7673 -7674 0
7419 -7673 7674 0
-7419 7673 7674 0
-7674 -7672 -7675 0
7674 7672 -7675 0
7674 -7672 7675 0
-7674 7672 7675 0
-7674 -7672 7676 0
7674 -7676 0
7672 -7676 0
-7419 -7673 7677 0
7419 -7677 0
7673 -7677 0
7676 7677 -7678 0
-7676 7678 0
-7677 7678 0
-338 -7423 7679 0
338 -7679 0
7423 -7679 0
-7422 -7679 -7680 0
7422 7679 -7680 0
7422 -7679 7680 0
-7422 7679 7680 0
-7680 -7678 -7681 0
7680 7678 -7681 0
7680 -7678 7681 0
-7680 7678 7681 0
-7680 -7678 7682 0
7680 -7682 0
7678 -7682 0
-7422 -7679 7683 0
7422 -7683 0
7679 -7683 0
7682 7683 -7684 0
-7682 7684 0
-7683 7684 0
-1 -7685 7686 0
1 -7686 0
7685 -7686 0
-7429 -7686 -7687 0
7429 7686 -7687 0
7429 -7686 7687 0
-7429 7686 7687 0
-7429 -7686 7688 0
7429 -7688 0
7686 -7688 0
-4 -7685 7689 0
4 -7689 0
7685 -7689 0
-7435 -7689 -7690 0
7435 7689 -7690 0
7435 -7689 7690 0
-7435 7689 7690 0
-7690 -7688 -7691 0
7690 7688 -7691 0
7690 -7688 7691 0
-7690 7688 7691 0
-7690 -7688 7692 0
7690 -7692 0
7688 -7692 0
-7435 -7689 7693 0
7435 -7693 0
7689 -7693 0
7692 7693 -7694 0
-7692 7694 0
-7693 7694 0
-10 -7685 7695 0
10 -7695 0
7685 -7695 0
-7441 -7695 -7696 0
7441 7695 -7696 0
7441 -7695 7696 0
-7441 7695 7696 0
-7696 -7694 -7697 0
7696 7694 -7697 0
7696 -7694 7697 0
-7696 7694 7697 0
-7696 -7694 7698 0
7696 -7698 0
7694 -7698 0
-7441 -7695 7699 0
7441 -7699 0
7695 -7699 0
7698 7699 -7700 0
-7698 7700 0
-7699 7700 0
-18 -7685 7701 0
18 -7701 0
7685 -7701 0
-7447 -7701 -7702 0
7447 7701 -7702 0
7447 -7701 7702 0
-7447 7701 7702 0
-7702 -7700 -7703 0
7702 7700 -7703 0
7702 -7700 7703 0
-7702 7700 7703 0
-7702 -7700 7704 0
7702 -7704 0
7700 -7704 0
-7447 -7701 7705 0
7447 -7705 0
7701 -7705 0
7704 7705 -7706 0
-7704 7706 0
-7705 7706 0
-26 -7685 7707 0
26 -7707 0
7685 -7707 0
-7453 -7707 -7708 0
7453 7707 -7708 0
7453 -7707 7708 0
-7453 7707 7708 0
-7708 -7706 -7709 0
7708 7706 -7709 0
7708 -7706 7709 0
-7708 7706 7709 0
-7708 -7706 7710 0
7708 -7710 0
7706 -7710 0
-7453 -7707 7711 0
7453 -7711 0
7707 -7711 0
7710 7711 -7712 0
-7710 7712 0
-7711 7712 0
-34 -7685 7713 0
34 -7713 0
7685 -7713 0
-7459 -7713 -7714 0
7459 7713 -7714 0
7459 -7713 7714 0
-7459 7713 7714 0
-7714 -7712 -7715 0
7714 7712 -7715 0
7714 -7712 7715 0
-7714 7712 7715 0
-7714 -7712 7716 0
7714 -7716 0
7712 -7716 0
-7459 -7713 7717 0
7459 -7717 0
7713 -7717 0
7716 7717 -7718 0
-7716 7718 0
-7717 7718 0
-42 -7685 7719 0
42 -7719 0
7685 -7719 0
-7465 -7719 -7720 0
7465 7719 -7720 0
7465 -7719 7720 0
-7465 7719 7720 0
-7720 -7718 -7721 0
7720 7718 -7721 0
7720 -7718 7721 0
-7720 7718 7721 0
-7720 -7718 7722 0
7720 -7722 0
7718 -7722 0
-7465 -7719 7723 0
7465 -7723 0
7719 -7723 0
7722 7723 -7724 0
-7722 7724 0
-7723 7724 0
-50 -7685 7725 0
50 -7725 0
7685 -7725 0
-7471 -7725 -7726 0
7471 7725 -7726 0
7471 -7725 7726 0
-7471 7725 7726 0
-7726 -7724 -7727 0
7726 7724 -7727 0
7726 -7724 7727 0
-7726 7724 7727 0
-7726 -7724 7728 0
7726 -7728 0
7724 -7728 0
-7471 -7725 7729 0
7471 -7729 0
7725 -7729 0
7728 7729 -7730 0
-7728 7730 0
-7729 7730 0
-58 -7685 7731 0
58 -7731 0
7685 -7731 0
-7477 -7731 -7732 0
7477 7731 -7732 0
7477 -7731 7732 0
-7477 7731 7732 0
-7732 -7730 -7733 0
7732 7730 -7733 0
7732 -7730 7733 0
-7732 7730 7733 0
-7732 -7730 7734 0
7732 -7734 0
7730 -7734 0
-7477 -7731 7735 0
7477 -7735 0
7731 -7735 0
7734 7735 -7736 0
-7734 7736 0
-7735 7736 0
-66 -7685 7737 0
66 -7737 0
7685 -7737 0
-7483 -7737 -7738 0
7483 7737 -7738 0
7483 -7737 7738 0
-7483 7737 7738 0
-7738 -7736 -7739 0
7738 7736 -7739 0
7738 -7736 7739 0
-7738 7736 7739 0
-7738 -7736 7740 0
7738 -7740 0
7736 -7740 0
-7483 -7737 7741 0
7483 -7741 0
7737 -7741 0
7740 7741 -7742 0
-7740 7742 0
-7741 7742 0
-74 -7685 7743 0
74 -7743 0
7685 -7743 0
-7489 -7743 -7744 0
7489 7743 -7744 0
7489 -7743 7744 0
-7489 7743 7744 0
-7744 -7742 -7745 0
7744 7742 -7745 0
7744 -7742 7745 0
-7744 7742 7745 0
-7744 -7742 7746 0
7744 -7746 0
7742 -7746 0
-7489 -7743 7747 0
7489 -7747 0
7743 -7747 0
7746 7747 -7748 0
-7746 7748 0
-7747 7748 0
-82 -7685 7749 0
82 -7749 0
7685 -7749 0
-7495 -7749 -7750 0
7495 7749 -7750 0
7495 -7749 7750 0
-7495 7749 7750 0
-7750 -7748 -7751 0
7750 7748 -7751 0
7750 -7748 7751 0
-7750 7748 7751 0
-7750 -7748 7752 0
7750 -7752 0
7748 -7752 0
-7495 -7749 7753 0
7495 -7753 0
7749 -7753 0
7752 7753 -7754 0
-7752 7754 0
-7753 7754 0
-90 -7685 7755 0
90 -7755 0
7685 -7755 0
-7501 -7755 -7756 0
7501 7755 -7756 0
7501 -7755 7756 0
-7501 7755 7756 0
-7756 -7754 -7757 0
7756 7754 -7757 0
7756 -7754 7757 0
-7756 7754 7757 0
-7756 -7754 7758 0
7756 -7758 0
7754 -7758 0
-7501 -7755 7759 0
7501 -7759 0
7755 -7759 0
7758 7759 -7760 0
-7758 7760 0
-7759 7760 0
-98 -7685 7761 0
98 -7761 0
7685 -7761 0
-7507 -7761 -7762 0
7507 7761 -7762 0
7507 -7761 7762 0
-7507 7761 7762 0
-7762 -7760 -7763 0
7762 7760 -7763 0
7762 -7760 7763 0
-7762 7760 7763 0
-7762 -7760 7764 0
7762 -7764 0
7760 -7764 0
-7507 -7761 7765 0
7507 -7765 0
7761 -7765 0
7764 7765 -7766 0
-7764 7766 0
-7765 7766 0
-106 -7685 7767 0
106 -7767 0
7685 -7767 0
-7513 -7767 -7768 0
7513 7767 -7768 0
7513 -7767 7768 0
-7513 7767 7768 0
-7768 -7766 -7769 0
7768 7766 -7769 0
7768 -7766 7769 0
-7768 7766 7769 0
-7768 -7766 7770 0
7768 -7770 0
7766 -7770 0
-7513 -7767 7771 0
7513 -7771 0
7767 -7771 0
7770 7771 -7772 0
-7770 7772 0
-7771 7772 0
-114 -7685 7773 0
114 -7773 0
7685 -7773 0
-7519 -7773 -7774 0
7519 7773 -7774 0
7519 -7773 7774 0
-7519 7773 7774 0
-7774 -7772 -7775 0
7774 7772 -7775 0
7774 -7772 7775 0
-7774 7772 7775 0
-7774 -7772 7776 0
7774 -7776 0
7772 -7776 0
-7519 -7773 7777 0
7519 -7777 0
7773 -7777 0
7776 7777 -7778 0
-7776 7778 0
-7777 7778 0
-122 -7685 7779 0
122 -7779 0
7685 -7779 0
-7525 -7779 -7780 0
7525 7779 -7780 0
7525 -7779 7780 0
-7525 7779 7780 0
-7780 -7778 -7781 0
7780 7778 -7781 0
7780 -7778 7781 0
-7780 7778 7781 0
-7780 -7778 7782 0
7780 -7782 0
7778 -7782 0
-7525 -7779 7783 0
7525 -7783 0
7779 -7783 0
7782 7783 -7784 0
-7782 7784 0
-7783 7784 0
-130 -7685 7785 0
130 -7785 0
7685 -7785 0
-7531 -7785 -7786 0
7531 7785 -7786 0
7531 -7785 7786 0
-7531 7785 7786 0
-7786 -7784 -7787 0
7786 7784 -7787 0
7786 -7784 7787 0
-7786 7784 7787 0
-7786 -7784 7788 0
7786 -7788 0
7784 -7788 0
-7531 -7785 7789 0
7531 -7789 0
7785 -7789 0
7788 7789 -7790 0
-7788 7790 0
-7789 7790 0
-138 -7685 7791 0
138 -7791 0
7685 -7791 0
-7537 -7791 -7792 0
7537 7791 -7792 0
7537 -7791 7792 0
-7537 7791 7792 0
-7792 -7790 -7793 0
7792 7790 -7793 0
7792 -7790 7793 0
-7792 7790 7793 0
-7792 -7790 7794 0
7792 -7794 0
7790 -7794 0
-7537 -7791 7795 0
7537 -7795 0
7791 -7795 0
7794 7795 -7796 0
-7794 7796 0
-7795 7796 0
-146 -7685 7797 0
146 -7797 0
7685 -7797 0
-7543 -7797 -7798 0
7543 7797 -7798 0
7543 -7797 7798 0
-7543 7797 7798 0
-7798 -7796 -7799 0
7798 7796 -7799 0
7798 -7796 7799 0
-7798 7796 7799 0
-7798 -7796 7800 0
7798 -7800 0
7796 -7800 0
-7543 -7797 7801 0
7543 -7801 0
7797 -7801 0
7800 7801 -7802 0
-7800 7802 0
-7801 7802 0
-154 -7685 7803 0
154 -7803 0
7685 -7803 0
-7549 -7803 -7804 0
7549 7803 -7804 0
7549 -7803 7804 0
-7549 7803 7804 0
-7804 -7802 -7805 0
7804 7802 -7805 0
7804 -7802 7805 0
-7804 7802 7805 0
-7804 -7802 7806 0
7804 -7806 0
7802 -7806 0
-7549 -7803 7807 0
7549 -7807 0
7803 -7807 0
7806 7807 -7808 0
-7806 7808 0
-7807 7808 0
-162 -7685 7809 0
162 -7809 0
7685 -7809 0
-7555 -7809 -7810 0
7555 7809 -7810 0
7555 -7809 7810 0
-7555 7809 7810 0
-7810 -7808 -7811 0
7810 7808 -7811 0
7810 -7808 7811 0
-7810 7808 7811 0
-7810 -7808 7812 0
7810 -7812 0
7808 -7812 0
-7555 -7809 7813 0
7555 -7813 0
7809 -7813 0
7812 7813 -7814 0
-7812 7814 0
-7813 7814 0
-170 -7685 7815 0
170 -7815 0
7685 -7815 0
-7561 -7815 -7816 0
7561 7815 -7816 0
7561 -7815 7816 0
-7561 7815 7816 0
-7816 -7814 -7817 0
7816 7814 -7817 0
7816 -7814 7817 0
-7816 7814 7817 0
-7816 -7814 7818 0
7816 -7818 0
7814 -7818 0
-7561 -7815 7819 0
7561 -7819 0
7815 -7819 0
7818 7819 -7820 0
-7818 7820 0
-7819 7820 0
-178 -7685 7821 0
178 -7821 0
7685 -7821 0
-7567 -7821 -7822 0
7567 7821 -7822 0
7567 -7821 7822 0
-7567 7821 7822 0
-7822 -7820 -7823 0
7822 7820 -7823 0
7822 -7820 7823 0
-7822 7820 7823 0
-7822 -7820 7824 0
7822 -7824 0
7820 -7824 0
-7567 -7821 7825 0
7567 -7825 0
7821 -7825 0
7824 7825 -7826 0
-7824 7826 0
-7825 7826 0
-186 -7685 7827 0
186 -7827 0
7685 -7827 0
-7573 -7827 -7828 0
7573 7827 -7828 0
7573 -7827 7828 0
-7573 7827 7828 0
-7828 -7826 -7829 0
7828 7826 -7829 0
7828 -7826 7829 0
-7828 7826 7829 0
-7828 -7826 7830 0
7828 -7830 0
7826 -7830 0
-7573 -7827 7831 0
7573 -7831 0
7827 -7831 0
7830 7831 -7832 0
-7830 7832 0
-7831 7832 0
-194 -7685 7833 0
194 -7833 0
7685 -7833 0
-7579 -7833 -7834 0
7579 7833 -7834 0
7579 -7833 7834 0
-7579 7833 7834 0
-7834 -7832 -7835 0
7834 7832 -7835 0
7834 -7832 7835 0
-7834 7832 7835 0
-7834 -7832 7836 0
7834 -7836 0
7832 -7836 0
-7579 -7833 7837 0
7579 -7837 0
7833 -7837 0
7836 7837 -7838 0
-7836 7838 0
-7837 7838 0
-202 -7685 7839 0
202 -7839 0
7685 -7839 0
-7585 -7839 -7840 0
7585 7839 -7840 0
7585 -7839 7840 0
-7585 7839 7840 0
-7840 -7838 -7841 0
7840 7838 -7841 0
7840 -7838 7841 0
-7840 7838 7841 0
-7840 -7838 7842 0
7840 -7842 0
7838 -7842 0
-7585 -7839 7843 0
7585 -7843 0
7839 -7843 0
7842 7843 -7844 0
-7842 7844 0
-7843 7844 0
-210 -7685 7845 0
210 -7845 0
7685 -7845 0
-7591 -7845 -7846 0
7591 7845 -7846 0
7591 -7845 7846 0
-7591 7845 7846 0
-7846 -7844 -7847 0
7846 7844 -7847 0
7846 -7844 7847 0
-7846 7844 7847 0
-7846 -7844 7848 0
7846 -7848 0
7844 -7848 0
-7591 -7845 7849 0
7591 -7849 0
7845 -7849 0
7848 7849 -7850 0
-7848 7850 0
-7849 7850 0
-218 -7685 7851 0
218 -7851 0
7685 -7851 0
-7597 -7851 -7852 0
7597 7851 -7852 0
7597 -7851 7852 0
-7597 7851 7852 0
-7852 -7850 -7853 0
7852 7850 -7853 0
7852 -7850 7853 0
-7852 7850 7853 0
-7852 -7850 7854 0
7852 -7854 0
7850 -7854 0
-7597 -7851 7855 0
7597 -7855 0
7851 -7855 0
7854 7855 -7856 0
-7854 7856 0
-7855 7856 0
-226 -7685 7857 0
226 -7857 0
7685 -7857 0
-7603 -7857 -7858 0
7603 7857 -7858 0
7603 -7857 7858 0
-7603 7857 7858 0
-7858 -7856 -7859 0
7858 7856 -7859 0
7858 -7856 7859 0
-7858 7856 7859 0
-7858 -7856 7860 0
7858 -7860 0
7856 -7860 0
-7603 -7857 7861 0
7603 -7861 0
7857 -7861 0
7860 7861 -7862 0
-7860 7862 0
-7861 7862 0
-234 -7685 7863 0
234 -7863 0
7685 -7863 0
-7609 -7863 -7864 0
7609 7863 -7864 0
7609 -7863 7864 0
-7609 7863 7864 0
-7864 -7862 -7865 0
7864 7862 -7865 0
7864 -7862 7865 0
-7864 7862 7865 0
-7864 -7862 7866 0
7864 -7866 0
7862 -7866 0
-7609 -7863 7867 0
7609 -7867 0
7863 -7867 0
7866 7867 -7868 0
-7866 7868 0
-7867 7868 0
-242 -7685 7869 0
242 -7869 0
7685 -7869 0
-7615 -7869 -7870 0
7615 7869 -7870 0
7615 -7869 7870 0
-7615 7869 7870 0
-7870 -7868 -7871 0
7870 7868 -7871 0
7870 -7868 7871 0
-7870 7868 7871 0
-7870 -7868 7872 0
7870 -7872 0
7868 -7872 0
-7615 -7869 7873 0
7615 -7873 0
7869 -7873 0
7872 7873 -7874 0
-7872 7874 0
-7873 7874 0
-250 -7685 7875 0
250 -7875 0
7685 -7875 0
-7621 -7875 -7876 0
7621 7875 -7876 0
7621 -7875 7876 0
-7621 7875 7876 0
-7876 -7874 -7877 0
7876 7874 -7877 0
7876 -7874 7877 0
-7876 7874 7877 0
-7876 -7874 7878 0
7876 -7878 0
7874 -7878 0
-7621 -7875 7879 0
7621 -7879 0
7875 -7879 0
7878 7879 -7880 0
-7878 7880 0
-7879 7880 0
-258 -7685 7881 0
258 -7881 0
7685 -7881 0
-7627 -7881 -7882 0
7627 7881 -7882 0
7627 -7881 7882 0
-7627 7881 7882 0
-7882 -7880 -7883 0
7882 7880 -7883 0
7882 -7880 7883 0
-7882 7880 7883 0
-7882 -7880 7884 0
7882 -7884 0
7880 -7884 0
-7627 -7881 7885 0
7627 -7885 0
7881 -7885 0
7884 7885 -7886 0
-7884 7886 0
-7885 7886 0
-266 -7685 7887 0
266 -7887 0
7685 -7887 0
-7633 -7887 -7888 0
7633 7887 -7888 0
7633 -7887 7888 0
-7633 7887 7888 0
-7888 -7886 -7889 0
7888 7886 -7889 0
7888 -7886 7889 0
-7888 7886 7889 0
-7888 -7886 7890 0
7888 -7890 0
7886 -7890 0
-7633 -7887 7891 0
7633 -7891 0
7887 -7891 0
7890 7891 -7892 0
-7890 7892 0
-7891 7892 0
-274 -7685 7893 0
274 -7893 0
7685 -7893 0
-7639 -7893 -7894 0
7639 7893 -7894 0
7639 -7893 7894 0
-7639 7893 7894 0
-7894 -7892 -7895 0
7894 7892 -7895 0
7894 -7892 7895 0
-7894 7892 7895 0
-7894 -7892 7896 0
7894 -7896 0
7892 -7896 0
-7639 -7893 7897 0
7639 -7897 0
7893 -7897 0
7896 7897 -7898 0
-7896 7898 0
-7897 7898 0
-282 -7685 7899 0
282 -7899 0
7685 -7899 0
-7645 -7899 -7900 0
7645 7899 -7900 0
7645 -7899 7900 0
-7645 7899 7900 0
-7900 -7898 -7901 0
7900 7898 -7901 0
7900 -7898 7901 0
-7900 7898 7901 0
-7900 -7898 7902 0
7900 -7902 0
7898 -7902 0
-7645 -7899 7903 0
7645 -7903 0
7899 -7903 0
7902 7903 -7904 0
-7902 7904 0
-7903 7904 0
-290 -7685 7905 0
290 -7905 0
7685 -7905 0
-7651 -7905 -7906 0
7651 7905 -7906 0
7651 -7905 7906 0
-7651 7905 7906 0
-7906 -7904 -7907 0
7906 7904 -7907 0
7906 -7904 7907 0
-7906 7904 7907 0
-7906 -7904 7908 0
7906 -7908 0
7904 -7908 0
-7651 -7905 7909 0
7651 -7909 0
7905 -7909 0
7908 7909 -7910 0
-7908 7910 0
-7909 7910 0
-298 -7685 7911 0
298 -7911 0
7685 -7911 0
-7657 -7911 -7912 0
7657 7911 -7912 0
7657 -7911 7912 0
-7657 7911 7912 0
-7912 -7910 -7913 0
7912 7910 -7913 0
7912 -7910 7913 0
-7912 7910 7913 0
-7912 -7910 7914 0
7912 -7914 0
7910 -7914 0
-7657 -7911 7915 0
7657 -7915 0
7911 -7915 0
7914 7915 -7916 0
-7914 7916 0
-7915 7916 0
-306 -7685 7917 0
306 -7917 0
7685 -7917 0
-7663 -7917 -7918 0
7663 7917 -7918 0
7663 -7917 7918 0
-7663 7917 7918 0
-7918 -7916 -7919 0
7918 7916 -7919 0
7918 -7916 7919 0
-7918 7916 7919 0
-7918 -7916 7920 0
7918 -7920 0
7916 -7920 0
-7663 -7917 7921 0
7663 -7921 0
7917 -7921 0
7920 7921 -7922 0
-7920 7922 0
-7921 7922 0
-314 -7685 7923 0
314 -7923 0
7685 -7923 0
-7669 -7923 -7924 0
7669 7923 -7924 0
7669 -7923 7924 0
-7669 7923 7924 0
-7924 -7922 -7925 0
7924 7922 -7925 0
7924 -7922 7925 0
-7924 7922 7925 0
-7924 -7922 7926 0
7924 -7926 0
7922 -7926 0
-7669 -7923 7927 0
7669 -7927 0
7923 -7927 0
7926 7927 -7928 0
-7926 7928 0
-7927 7928 0
-322 -7685 7929 0
322 -7929 0
7685 -7929 0
-7675 -7929 -7930 0
7675 7929 -7930 0
7675 -7929 7930 0
-7675 7929 7930 0
-7930 -7928 -7931 0
7930 7928 -7931 0
7930 -7928 7931 0
-7930 7928 7931 0
-7930 -7928 7932 0
7930 -7932 0
7928 -7932 0
-7675 -7929 7933 0
7675 -7933 0
7929 -7933 0
7932 7933 -7934 0
-7932 7934 0
-7933 7934 0
-330 -7685 7935 0
330 -7935 0
7685 -7935 0
-7681 -7935 -7936 0
7681 7935 -7936 0
7681 -7935 7936 0
-7681 7935 7936 0
-7936 -7934 -7937 0
7936 7934 -7937 0
7936 -7934 7937 0
-7936 7934 7937 0
-7936 -7934 7938 0
7936 -7938 0
7934 -7938 0
-7681 -7935 7939 0
7681 -7939 0
7935 -7939 0
7938 7939 -7940 0
-7938 7940 0
-7939 7940 0
-338 -7685 7941 0
338 -7941 0
7685 -7941 0
-7684 -7941 -7942 0
7684 7941 -7942 0
7684 -7941 7942 0
-7684 7941 7942 0
-7942 -7940 -7943 0
7942 7940 -7943 0
7942 -7940 7943 0
-7942 7940 7943 0
-7942 -7940 7944 0
7942 -7944 0
7940 -7944 0
-7684 -7941 7945 0
7684 -7945 0
7941 -7945 0
7944 7945 -7946 0
-7944 7946 0
-7945 7946 0
-1 -7947 7948 0
1 -7948 0
7947 -7948 0
-7691 -7948 -7949 0
7691 7948 -7949 0
7691 -7948 7949 0
-7691 7948 7949 0
-7691 -7948 7950 0
7691 -7950 0
7948 -7950 0
-4 -7947 7951 0
4 -7951 0
7947 -7951 0
-7697 -7951 -7952 0
7697 7951 -7952 0
7697 -7951 7952 0
-7697 7951 7952 0
-7952 -7950 -7953 0
7952 7950 -7953 0
7952 -7950 7953 0
-7952 7950 7953 0
-7952 -7950 7954 0
7952 -7954 0
7950 -7954 0
-7697 -7951 7955 0
7697 -7955 0
7951 -7955 0
7954 7955 -7956 0
-7954 7956 0
-7955 7956 0
-10 -7947 7957 0
10 -7957 0
7947 -7957 0
-7703 -7957 -7958 0
7703 7957 -7958 0
7703 -7957 7958 0
-7703 7957 7958 0
-7958 -7956 -7959 0
7958 7956 -7959 0
7958 -7956 7959 0
-7958 7956 7959 0
-7958 -7956 7960 0
7958 -7960 0
7956 -7960 0
-7703 -7957 7961 0
7703 -7961 0
7957 -7961 0
7960 7961 -7962 0
-7960 7962 0
-7961 7962 0
-18 -7947 7963 0
18 -7963 0
7947 -7963 0
-7709 -7963 -7964 0
7709 7963 -7964 0
7709 -7963 7964 0
-7709 7963 7964 0
-7964 -7962 -7965 0
7964 7962 -7965 0
7964 -7962 7965 0
-7964 7962 7965 0
-7964 -7962 7966 0
7964 -7966 0
7962 -7966 0
-7709 -7963 7967 0
7709 -7967 0
7963 -7967 0
7966 7967 -7968 0
-7966 7968 0
-7967 7968 0
-26 -7947 7969 0
26 -7969 0
7947 -7969 0
-7715 -7969 -7970 0
7715 7969 -7970 0
7715 -7969 7970 0
-7715 7969 7970 0
-7970 -7968 -7971 0
7970 7968 -7971 0
7970 -7968 7971 0
-7970 7968 7971 0
-7970 -7968 7972 0
7970 -7972 0
7968 -7972 0
-7715 -7969 7973 0
7715 -7973 0
7969 -7973 0
7972 7973 -7974 0
-7972 7974 0
-7973 7974 0
-34 -7947 7975 0
34 -7975 0
7947 -7975 0
-7721 -7975 -7976 0
7721 7975 -7976 0
7721 -7975 7976 0
-7721 7975 7976 0
-7976 -7974 -7977 0
7976 7974 -7977 0
7976 -7974 7977 0
-7976 7974 7977 0
-7976 -7974 7978 0
7976 -7978 0
7974 -7978 0
-7721 -7975 7979 0
7721 -7979 0
7975 -7979 0
7978 7979 -7980 0
-7978 7980 0
-7979 7980 0
-42 -7947 7981 0
42 -7981 0
7947 -7981 0
-7727 -7981 -7982 0
7727 7981 -7982 0
7727 -7981 7982 0
-7727 7981 7982 0
-7982 -7980 -7983 0
7982 7980 -7983 0
7982 -7980 7983 0
-7982 7980 7983 0
-7982 -7980 7984 0
7982 -7984 0
7980 -7984 0
-7727 -7981 7985 0
7727 -7985 0
7981 -7985 0
7984 7985 -7986 0
-7984 7986 0
-7985 7986 0
-50 -7947 7987 0
50 -7987 0
7947 -7987 0
-7733 -7987 -7988 0
7733 7987 -7988 0
7733 -7987 7988 0
-7733 7987 7988 0
-7988 -7986 -7989 0
7988 7986 -7989 0
7988 -7986 7989 0
-7988 7986 7989 0
-7988 -7986 7990 0
7988 -7990 0
7986 -7990 0
-7733 -7987 7991 0
7733 -7991 0
7987 -7991 0
7990 7991 -7992 0
-7990 7992 0
-7991 7992 0
-58 -7947 7993 0
58 -7993 0
7947 -7993 0
-7739 -7993 -7994 0
7739 7993 -7994 0
7739 -7993 7994 0
-7739 7993 7994 0
-7994 -7992 -7995 0
7994 7992 -7995 0
7994 -7992 7995 0
-7994 7992 7995 0
-7994 -7992 7996 0
7994 -7996 0
7992 -7996 0
-7739 -7993 7997 0
7739 -7997 0
7993 -7997 0
7996 7997 -7998 0
-7996 7998 0
-7997 7998 0
-66 -7947 7999 0
66 -7999 0
7947 -7999 0
-7745 -7999 -8000 0
7745 7999 -8000 0
7745 -7999 8000 0
-7745 7999 8000 0
-8000 -7998 -8001 0
8000 7998 -8001 0
8000 -7998 8001 0
-8000 7998 8001 0
-8000 -7998 8002 0
8000 -8002 0
7998 -8002 0
-7745 -7999 8003 0
7745 -8003 0
7999 -8003 0
8002 8003 -8004 0
-8002 8004 0
-8003 8004 0
-74 -7947 8005 0
74 -8005 0
7947 -8005 0
-7751 -8005 -8006 0
7751 8005 -8006 0
7751 -8005 8006 0
-7751 8005 8006 0
-8006 -8004 -8007 0
8006 8004 -8007 0
8006 -8004 8007 0
-8006 8004 8007 0
-8006 -8004 8008 0
8006 -8008 0
8004 -8008 0
-7751 -8005 8009 0
7751 -8009 0
8005 -8009 0
8008 8009 -8010 0
-8008 8010 0
-8009 8010 0
-82 -7947 8011 0
82 -8011 0
7947 -8011 0
-7757 -8011 -8012 0
7757 8011 -8012 0
7757 -8011 8012 0
-7757 8011 8012 0
-8012 -8010 -8013 0
8012 8010 -8013 0
8012 -8010 8013 0
-8012 8010 8013 0
-8012 -8010 8014 0
8012 -8014 0
8010 -8014 0
-7757 -8011 8015 0
7757 -8015 0
8011 -8015 0
8014 8015 -8016 0
-8014 8016 0
-8015 8016 0
-90 -7947 8017 0
90 -8017 0
7947 -8017 0
-7763 -8017 -8018 0
7763 8017 -8018 0
7763 -8017 8018 0
-7763 8017 8018 0
-8018 -8016 -8019 0
8018 8016 -8019 0
8018 -8016 8019 0
-8018 8016 8019 0
-8018 -8016 8020 0
8018 -8020 0
8016 -8020 0
-7763 -8017 8021 0
7763 -8021 0
8017 -8021 0
8020 8021 -8022 0
-8020 8022 0
-8021 8022 0
-98 -7947 8023 0
98 -8023 0
7947 -8023 0
-7769 -8023 -8024 0
7769 8023 -8024 0
7769 -8023 8024 0
-7769 8023 8024 0
-8024 -8022 -8025 0
8024 8022 -8025 0
8024 -8022 8025 0
-8024 8022 8025 0
-8024 -8022 8026 0
8024 -8026 0
8022 -8026 0
-7769 -8023 8027 0
7769 -8027 0
8023 -8027 0
8026 8027 -8028 0
-8026 8028 0
-8027 8028 0
-106 -7947 8029 0
106 -8029 0
7947 -8029 0
-7775 -8029 -8030 0
7775 8029 -8030 0
7775 -8029 8030 0
-7775 8029 8030 0
-8030 -8028 -8031 0
8030 8028 -8031 0
8030 -8028 8031 0
-8030 8028 8031 0
-8030 -8028 8032 0
8030 -8032 0
8028 -8032 0
-7775 -8029 8033 0
7775 -8033 0
8029 -8033 0
8032 8033 -8034 0
-8032 8034 0
-8033 8034 0
-114 -7947 8035 0
114 -8035 0
7947 -8035 0
-7781 -8035 -8036 0
7781 8035 -8036 0
7781 -8035 8036 0
-7781 8035 8036 0
-8036 -8034 -8037 0
8036 8034 -8037 0
8036 -8034 8037 0
-8036 8034 8037 0
-8036 -8034 8038 0
8036 -8038 0
8034 -8038 0
-7781 -8035 8039 0
7781 -8039 0
8035 -8039 0
8038 8039 -8040 0
-8038 8040 0
-8039 8040 0
-122 -7947 8041 0
122 -8041 0
7947 -8041 0
-7787 -8041 -8042 0
7787 8041 -8042 0
7787 -8041 8042 0
-7787 8041 8042 0
-8042 -8040 -8043 0
8042 8040 -8043 0
8042 -8040 8043 0
-8042 8040 8043 0
-8042 -8040 8044 0
8042 -8044 0
8040 -8044 0
-7787 -8041 8045 0
7787 -8045 0
8041 -8045 0
8044 8045 -8046 0
-8044 8046 0
-8045 8046 0
-130 -7947 8047 0
130 -8047 0
7947 -8047 0
-7793 -8047 -8048 0
7793 8047 -8048 0
7793 -8047 8048 0
-7793 8047 8048 0
-8048 -8046 -8049 0
8048 8046 -8049 0
8048 -8046 8049 0
-8048 8046 8049 0
-8048 -8046 8050 0
8048 -8050 0
8046 -8050 0
-7793 -8047 8051 0
7793 -8051 0
8047 -8051 0
8050 8051 -8052 0
-8050 8052 0
-8051 8052 0
-138 -7947 8053 0
138 -8053 0
7947 -8053 0
-7799 -8053 -8054 0
7799 8053 -8054 0
7799 -8053 8054 0
-7799 8053 8054 0
-8054 -8052 -8055 0
8054 8052 -8055 0
8054 -8052 8055 0
-8054 8052 8055 0
-8054 -8052 8056 0
8054 -8056 0
8052 -8056 0
-7799 -8053 8057 0
7799 -8057 0
8053 -8057 0
8056 8057 -8058 0
-8056 8058 0
-8057 8058 0
-146 -7947 8059 0
146 -8059 0
7947 -8059 0
-7805 -8059 -8060 0
7805 8059 -8060 0
7805 -8059 8060 0
-7805 8059 8060 0
-8060 -8058 -8061 0
8060 8058 -8061 0
8060 -8058 8061 0
-8060 8058 8061 0
-8060 -8058 8062 0
8060 -8062 0
8058 -8062 0
-7805 -8059 8063 0
7805 -8063 0
8059 -8063 0
8062 8063 -8064 0
-8062 8064 0
-8063 8064 0
-154 -7947 8065 0
154 -8065 0
7947 -8065 0
-7811 -8065 -8066 0
7811 8065 -8066 0
7811 -8065 8066 0
-7811 8065 8066 0
-8066 -8064 -8067 0
8066 8064 -8067 0
8066 -8064 8067 0
-8066 8064 8067 0
-8066 -8064 8068 0
8066 -8068 0
8064 -8068 0
-7811 -8065 8069 0
7811 -8069 0
8065 -8069 0
8068 8069 -8070 0
-8068 8070 0
-8069 8070 0
-162 -7947 8071 0
162 -8071 0
7947 -8071 0
-7817 -8071 -8072 0
7817 8071 -8072 0
7817 -8071 8072 0
-7817 8071 8072 0
-8072 -8070 -8073 0
8072 8070 -8073 0
8072 -8070 8073 0
-8072 8070 8073 0
-8072 -8070 8074 0
8072 -8074 0
8070 -8074 0
-7817 -8071 8075 0
7817 -8075 0
8071 -8075 0
8074 8075 -8076 0
-8074 8076 0
-8075 8076 0
-170 -7947 8077 0
170 -8077 0
7947 -8077 0
-7823 -8077 -8078 0
7823 8077 -8078 0
7823 -8077 8078 0
-7823 8077 8078 0
-8078 -8076 -8079 0
8078 8076 -8079 0
8078 -8076 8079 0
-8078 8076 8079 0
-8078 -8076 8080 0
8078 -8080 0
8076 -8080 0
-7823 -8077 8081 0
7823 -8081 0
8077 -8081 0
8080 8081 -8082 0
-8080 8082 0
-8081 8082 0
-178 -7947 8083 0
178 -8083 0
7947 -8083 0
-7829 -8083 -8084 0
7829 8083 -8084 0
7829 -8083 8084 0
-7829 8083 8084 0
-8084 -8082 -8085 0
8084 8082 -8085 0
8084 -8082 8085 0
-8084 8082 8085 0
-8084 -8082 8086 0
8084 -8086 0
8082 -8086 0
-7829 -8083 8087 0
7829 -8087 0
8083 -8087 0
8086 8087 -8088 0
-8086 8088 0
-8087 8088 0
-186 -7947 8089 0
186 -8089 0
7947 -8089 0
-7835 -8089 -8090 0
7835 8089 -8090 0
7835 -8089 8090 0
-7835 8089 8090 0
-8090 -8088 -8091 0
8090 8088 -8091 0
8090 -8088 8091 0
-8090 8088 8091 0
-8090 -8088 8092 0
8090 -8092 0
8088 -8092 0
-7835 -8089 8093 0
7835 -8093 0
8089 -8093 0
8092 8093 -8094 0
-8092 8094 0
-8093 8094 0
-194 -7947 8095 0
194 -8095 0
7947 -8095 0
-7841 -8095 -8096 0
7841 8095 -8096 0
7841 -8095 8096 0
-7841 8095 8096 0
-8096 -8094 -8097 0
8096 8094 -8097 0
8096 -8094 8097 0
-8096 8094 8097 0
-8096 -8094 8098 0
8096 -8098 0
8094 -8098 0
-7841 -8095 8099 0
7841 -8099 0
8095 -8099 0
8098 8099 -8100 0
-8098 8100 0
-8099 8100 0
-202 -7947 8101 0
202 -8101 0
7947 -8101 0
-7847 -8101 -8102 0
7847 8101 -8102 0
7847 -8101 8102 0
-7847 8101 8102 0
-8102 -8100 -8103 0
8102 8100 -8103 0
8102 -8100 8103 0
-8102 8100 8103 0
-8102 -8100 8104 0
8102 -8104 0
8100 -8104 0
-7847 -8101 8105 0
7847 -8105 0
8101 -8105 0
8104 8105 -8106 0
-8104 8106 0
-8105 8106 0
-210 -7947 8107 0
210 -8107 0
7947 -8107 0
-7853 -8107 -8108 0
7853 8107 -8108 0
7853 -8107 8108 0
-7853 8107 8108 0
-8108 -8106 -8109 0
8108 8106 -8109 0
8108 -8106 8109 0
-8108 8106 8109 0
-8108 -8106 8110 0
8108 -8110 0
8106 -8110 0
-7853 -8107 8111 0
7853 -8111 0
8107 -8111 0
8110 8111 -8112 0
-8110 8112 0
-8111 8112 0
-218 -7947 8113 0
218 -8113 0
7947 -8113 0
-7859 -8113 -8114 0
7859 8113 -8114 0
7859 -8113 8114 0
-7859 8113 8114 0
-8114 -8112 -8115 0
8114 8112 -8115 0
8114 -8112 8115 0
-8114 8112 8115 0
-8114 -8112 8116 0
8114 -8116 0
8112 -8116 0
-7859 -8113 8117 0
7859 -8117 0
8113 -8117 0
8116 8117 -8118 0
-8116 8118 0
-8117 8118 0
-226 -7947 8119 0
226 -8119 0
7947 -8119 0
-7865 -8119 -8120 0
7865 8119 -8120 0
7865 -8119 8120 0
-7865 8119 8120 0
-8120 -8118 -8121 0
8120 8118 -8121 0
8120 -8118 8121 0
-8120 8118 8121 0
-8120 -8118 8122 0
8120 -8122 0
8118 -8122 0
-7865 -8119 8123 0
7865 -8123 0
8119 -8123 0
8122 8123 -8124 0
-8122 8124 0
-8123 8124 0
-234 -7947 8125 0
234 -8125 0
7947 -8125 0
-7871 -8125 -8126 0
7871 8125 -8126 0
7871 -8125 8126 0
-7871 8125 8126 0
-8126 -8124 -8127 0
8126 8124 -8127 0
8126 -8124 8127 0
-8126 8124 8127 0
-8126 -8124 8128 0
8126 -8128 0
8124 -8128 0
-7871 -8125 8129 0
7871 -8129 0
8125 -8129 0
8128 8129 -8130 0
-8128 8130 0
-8129 8130 0
-242 -7947 8131 0
242 -8131 0
7947 -8131 0
-7877 -8131 -8132 0
7877 8131 -8132 0
7877 -8131 8132 0
-7877 8131 8132 0
-8132 -8130 -8133 0
8132 8130 -8133 0
8132 -8130 8133 0
-8132 8130 8133 0
-8132 -8130 8134 0
8132 -8134 0
8130 -8134 0
-7877 -8131 8135 0
7877 -8135 0
8131 -8135 0
8134 8135 -8136 0
-8134 8136 0
-8135 8136 0
-250 -7947 8137 0
250 -8137 0
7947 -8137 0
-7883 -8137 -8138 0
7883 8137 -8138 0
7883 -8137 8138 0
-7883 8137 8138 0
-8138 -8136 -8139 0
8138 8136 -8139 0
8138 -8136 8139 0
-8138 8136 8139 0
-8138 -8136 8140 0
8138 -8140 0
8136 -8140 0
-7883 -8137 8141 0
7883 -8141 0
8137 -8141 0
8140 8141 -8142 0
-8140 8142 0
-8141 8142 0
-258 -7947 8143 0
258 -8143 0
7947 -8143 0
-7889 -8143 -8144 0
7889 8143 -8144 0
7889 -8143 8144 0
-7889 8143 8144 0
-8144 -8142 -8145 0
8144 8142 -8145 0
8144 -8142 8145 0
-8144 8142 8145 0
-8144 -8142 8146 0
8144 -8146 0
8142 -8146 0
-7889 -8143 8147 0
7889 -8147 0
8143 -8147 0
8146 8147 -8148 0
-8146 8148 0
-8147 8148 0
-266 -7947 8149 0
266 -8149 0
7947 -8149 0
-7895 -8149 -8150 0
7895 8149 -8150 0
7895 -8149 8150 0
-7895 8149 8150 0
-8150 -8148 -8151 0
8150 8148 -8151 0
8150 -8148 8151 0
-8150 8148 8151 0
-8150 -8148 8152 0
8150 -8152 0
8148 -8152 0
-7895 -8149 8153 0
7895 -8153 0
8149 -8153 0
8152 8153 -8154 0
-8152 8154 0
-8153 8154 0
-274 -7947 8155 0
274 -8155 0
7947 -8155 0
-7901 -8155 -8156 0
7901 8155 -8156 0
7901 -8155 8156 0
-7901 8155 8156 0
-8156 -8154 -8157 0
8156 8154 -8157 0
8156 -8154 8157 0
-8156 8154 8157 0
-8156 -8154 8158 0
8156 -8158 0
8154 -8158 0
-7901 -8155 8159 0
7901 -8159 0
8155 -8159 0
8158 8159 -8160 0
-8158 8160 0
-8159 8160 0
-282 -7947 8161 0
282 -8161 0
7947 -8161 0
-7907 -8161 -8162 0
7907 8161 -8162 0
7907 -8161 8162 0
-7907 8161 8162 0
-8162 -8160 -8163 0
8162 8160 -8163 0
8162 -8160 8163 0
-8162 8160 8163 0
-8162 -8160 8164 0
8162 -8164 0
8160 -8164 0
-7907 -8161 8165 0
7907 -8165 0
8161 -8165 0
8164 8165 -8166 0
-8164 8166 0
-8165 8166 0
-290 -7947 8167 0
290 -8167 0
7947 -8167 0
-7913 -8167 -8168 0
7913 8167 -8168 0
7913 -8167 8168 0
-7913 8167 8168 0
-8168 -8166 -8169 0
8168 8166 -8169 0
8168 -8166 8169 0
-8168 8166 8169 0
-8168 -8166 8170 0
8168 -8170 0
8166 -8170 0
-7913 -8167 8171 0
7913 -8171 0
8167 -8171 0
8170 8171 -8172 0
-8170 8172 0
-8171 8172 0
-298 -7947 8173 0
298 -8173 0
7947 -8173 0
-7919 -8173 -8174 0
7919 8173 -8174 0
7919 -8173 8174 0
-7919 8173 8174 0
-8174 -8172 -8175 0
8174 8172 -8175 0
8174 -8172 8175 0
-8174 8172 8175 0
-8174 -8172 8176 0
8174 -8176 0
8172 -8176 0
-7919 -8173 8177 0
7919 -8177 0
8173 -8177 0
8176 8177 -8178 0
-8176 8178 0
-8177 8178 0
-306 -7947 8179 0
306 -8179 0
7947 -8179 0
-7925 -8179 -8180 0
7925 8179 -8180 0
7925 -8179 8180 0
-7925 8179 8180 0
-8180 -8178 -8181 0
8180 8178 -8181 0
8180 -8178 8181 0
-8180 8178 8181 0
-8180 -8178 8182 0
8180 -8182 0
8178 -8182 0
-7925 -8179 8183 0
7925 -8183 0
8179 -8183 0
8182 8183 -8184 0
-8182 8184 0
-8183 8184 0
-314 -7947 8185 0
314 -8185 0
7947 -8185 0
-7931 -8185 -8186 0
7931 8185 -8186 0
7931 -8185 8186 0
-7931 8185 8186 0
-8186 -8184 -8187 0
8186 8184 -8187 0
8186 -8184 8187 0
-8186 8184 8187 0
-8186 -8184 8188 0
8186 -8188 0
8184 -8188 0
-7931 -8185 8189 0
7931 -8189 0
8185 -8189 0
8188 8189 -8190 0
-8188 8190 0
-8189 8190 0
-322 -7947 8191 0
322 -8191 0
7947 -8191 0
-7937 -8191 -8192 0
7937 8191 -8192 0
7937 -8191 8192 0
-7937 8191 8192 0
-8192 -8190 -8193 0
8192 8190 -8193 0
8192 -8190 8193 0
-8192 8190 8193 0
-8192 -8190 8194 0
8192 -8194 0
8190 -8194 0
-7937 -8191 8195 0
7937 -8195 0
8191 -8195 0
8194 8195 -8196 0
-8194 8196 0
-8195 8196 0
-330 -7947 8197 0
330 -8197 0
7947 -8197 0
-7943 -8197 -8198 0
7943 8197 -8198 0
7943 -8197 8198 0
-7943 8197 8198 0
-8198 -8196 -8199 0
8198 8196 -8199 0
8198 -8196 8199 0
-8198 8196 8199 0
-8198 -8196 8200 0
8198 -8200 0
8196 -8200 0
-7943 -8197 8201 0
7943 -8201 0
8197 -8201 0
8200 8201 -8202 0
-8200 8202 0
-8201 8202 0
-338 -7947 8203 0
338 -8203 0
7947 -8203 0
-7946 -8203 -8204 0
7946 8203 -8204 0
7946 -8203 8204 0
-7946 8203 8204 0
-8204 -8202 -8205 0
8204 8202 -8205 0
8204 -8202 8205 0
-8204 8202 8205 0
-8204 -8202 8206 0
8204 -8206 0
8202 -8206 0
-7946 -8203 8207 0
7946 -8207 0
8203 -8207 0
8206 8207 -8208 0
-8206 8208 0
-8207 8208 0
-1 -8209 8210 0
1 -8210 0
8209 -8210 0
-7953 -8210 -8211 0
7953 8210 -8211 0
7953 -8210 8211 0
-7953 8210 8211 0
-7953 -8210 8212 0
7953 -8212 0
8210 -8212 0
-4 -8209 8213 0
4 -8213 0
8209 -8213 0
-7959 -8213 -8214 0
7959 8213 -8214 0
7959 -8213 8214 0
-7959 8213 8214 0
-8214 -8212 -8215 0
8214 8212 -8215 0
8214 -8212 8215 0
-8214 8212 8215 0
-8214 -8212 8216 0
8214 -8216 0
8212 -8216 0
-7959 -8213 8217 0
7959 -8217 0
8213 -8217 0
8216 8217 -8218 0
-8216 8218 0
-8217 8218 0
-10 -8209 8219 0
10 -8219 0
8209 -8219 0
-7965 -8219 -8220 0
7965 8219 -8220 0
7965 -8219 8220 0
-7965 8219 8220 0
-8220 -8218 -8221 0
8220 8218 -8221 0
8220 -8218 8221 0
-8220 8218 8221 0
-8220 -8218 8222 0
8220 -8222 0
8218 -8222 0
-7965 -8219 8223 0
7965 -8223 0
8219 -8223 0
8222 8223 -8224 0
-8222 8224 0
-8223 8224 0
-18 -8209 8225 0
18 -8225 0
8209 -8225 0
-7971 -8225 -8226 0
7971 8225 -8226 0
7971 -8225 8226 0
-7971 8225 8226 0
-8226 -8224 -8227 0
8226 8224 -8227 0
8226 -8224 8227 0
-8226 8224 8227 0
-8226 -8224 8228 0
8226 -8228 0
8224 -8228 0
-7971 -8225 8229 0
7971 -8229 0
8225 -8229 0
8228 8229 -8230 0
-8228 8230 0
-8229 8230 0
-26 -8209 8231 0
26 -8231 0
8209 -8231 0
-7977 -8231 -8232 0
7977 8231 -8232 0
7977 -8231 8232 0
-7977 8231 8232 0
-8232 -8230 -8233 0
8232 8230 -8233 0
8232 -8230 8233 0
-8232 8230 8233 0
-8232 -8230 8234 0
8232 -8234 0
8230 -8234 0
-7977 -8231 8235 0
7977 -8235 0
8231 -8235 0
8234 8235 -8236 0
-8234 8236 0
-8235 8236 0
-34 -8209 8237 0
34 -8237 0
8209 -8237 0
-7983 -8237 -8238 0
7983 8237 -8238 0
7983 -8237 8238 0
-7983 8237 8238 0
-8238 -8236 -8239 0
8238 8236 -8239 0
8238 -8236 8239 0
-8238 8236 8239 0
-8238 -8236 8240 0
8238 -8240 0
8236 -8240 0
-7983 -8237 8241 0
7983 -8241 0
8237 -8241 0
8240 8241 -8242 0
-8240 8242 0
-8241 8242 0
-42 -8209 8243 0
42 -8243 0
8209 -8243 0
-7989 -8243 -8244 0
7989 8243 -8244 0
7989 -8243 8244 0
-7989 8243 8244 0
-8244 -8242 -8245 0
8244 8242 -8245 0
8244 -8242 8245 0
-8244 8242 8245 0
-8244 -8242 8246 0
8244 -8246 0
8242 -8246 0
-7989 -8243 8247 0
7989 -8247 0
8243 -8247 0
8246 8247 -8248 0
-8246 8248 0
-8247 8248 0
-50 -8209 8249 0
50 -8249 0
8209 -8249 0
-7995 -8249 -8250 0
7995 8249 -8250 0
7995 -8249 8250 0
-7995 8249 8250 0
-8250 -8248 -8251 0
8250 8248 -8251 0
8250 -8248 8251 0
-8250 8248 8251 0
-8250 -8248 8252 0
8250 -8252 0
8248 -8252 0
-7995 -8249 8253 0
7995 -8253 0
8249 -8253 0
8252 8253 -8254 0
-8252 8254 0
-8253 8254 0
-58 -8209 8255 0
58 -8255 0
8209 -8255 0
-8001 -8255 -8256 0
8001 8255 -8256 0
8001 -8255 8256 0
-8001 8255 8256 0
-8256 -8254 -8257 0
8256 8254 -8257 0
8256 -8254 8257 0
-8256 8254 8257 0
-8256 -8254 8258 0
8256 -8258 0
8254 -8258 0
-8001 -8255 8259 0
8001 -8259 0
8255 -8259 0
8258 8259 -8260 0
-8258 8260 0
-8259 8260 0
-66 -8209 8261 0
66 -8261 0
8209 -8261 0
-8007 -8261 -8262 0
8007 8261 -8262 0
8007 -8261 8262 0
-8007 8261 8262 0
-8262 -8260 -8263 0
8262 8260 -8263 0
8262 -8260 8263 0
-8262 8260 8263 0
-8262 -8260 8264 0
8262 -8264 0
8260 -8264 0
-8007 -8261 8265 0
8007 -8265 0
8261 -8265 0
8264 8265 -8266 0
-8264 8266 0
-8265 8266 0
-74 -8209 8267 0
74 -8267 0
8209 -8267 0
-8013 -8267 -8268 0
8013 8267 -8268 0
8013 -8267 8268 0
-8013 8267 8268 0
-8268 -8266 -8269 0
8268 8266 -8269 0
8268 -8266 8269 0
-8268 8266 8269 0
-8268 -8266 8270 0
8268 -8270 0
8266 -8270 0
-8013 -8267 8271 0
8013 -8271 0
8267 -8271 0
8270 8271 -8272 0
-8270 8272 0
-8271 8272 0
-82 -8209 8273 0
82 -8273 0
8209 -8273 0
-8019 -8273 -8274 0
8019 8273 -8274 0
8019 -8273 8274 0
-8019 8273 8274 0
-8274 -8272 -8275 0
8274 8272 -8275 0
8274 -8272 8275 0
-8274 8272 8275 0
-8274 -8272 8276 0
8274 -8276 0
8272 -8276 0
-8019 -8273 8277 0
8019 -8277 0
8273 -8277 0
8276 8277 -8278 0
-8276 8278 0
-8277 8278 0
-90 -8209 8279 0
90 -8279 0
8209 -8279 0
-8025 -8279 -8280 0
8025 8279 -8280 0
8025 -8279 8280 0
-8025 8279 8280 0
-8280 -8278 -8281 0
8280 8278 -8281 0
8280 -8278 8281 0
-8280 8278 8281 0
-8280 -8278 8282 0
8280 -8282 0
8278 -8282 0
-8025 -8279 8283 0
8025 -8283 0
8279 -8283 0
8282 8283 -8284 0
-8282 8284 0
-8283 8284 0
-98 -8209 8285 0
98 -8285 0
8209 -8285 0
-8031 -8285 -8286 0
8031 8285 -8286 0
8031 -8285 8286 0
-8031 8285 8286 0
-8286 -8284 -8287 0
8286 8284 -8287 0
8286 -8284 8287 0
-8286 8284 8287 0
-8286 -8284 8288 0
8286 -8288 0
8284 -8288 0
-8031 -8285 8289 0
8031 -8289 0
8285 -8289 0
8288 8289 -8290 0
-8288 8290 0
-8289 8290 0
-106 -8209 8291 0
106 -8291 0
8209 -8291 0
-8037 -8291 -8292 0
8037 8291 -8292 0
8037 -8291 8292 0
-8037 8291 8292 0
-8292 -8290 -8293 0
8292 8290 -8293 0
8292 -8290 8293 0
-8292 8290 8293 0
-8292 -8290 8294 0
8292 -8294 0
8290 -8294 0
-8037 -8291 8295 0
8037 -8295 0
8291 -8295 0
8294 8295 -8296 0
-8294 8296 0
-8295 8296 0
-114 -8209 8297 0
114 -8297 0
8209 -8297 0
-8043 -8297 -8298 0
8043 8297 -8298 0
8043 -8297 8298 0
-8043 8297 8298 0
-8298 -8296 -8299 0
8298 8296 -8299 0
8298 -8296 8299 0
-8298 8296 8299 0
-8298 -8296 8300 0
8298 -8300 0
8296 -8300 0
-8043 -8297 8301 0
8043 -8301 0
8297 -8301 0
8300 8301 -8302 0
-8300 8302 0
-8301 8302 0
-122 -8209 8303 0
122 -8303 0
8209 -8303 0
-8049 -8303 -8304 0
8049 8303 -8304 0
8049 -8303 8304 0
-8049 8303 8304 0
-8304 -8302 -8305 0
8304 8302 -8305 0
8304 -8302 8305 0
-8304 8302 8305 0
-8304 -8302 8306 0
8304 -8306 0
8302 -8306 0
-8049 -8303 8307 0
8049 -8307 0
8303 -8307 0
8306 8307 -8308 0
-8306 8308 0
-8307 8308 0
-130 -8209 8309 0
130 -8309 0
8209 -8309 0
-8055 -8309 -8310 0
8055 8309 -8310 0
8055 -8309 8310 0
-8055 8309 8310 0
-8310 -8308 -8311 0
8310 8308 -8311 0
8310 -8308 8311 0
-8310 8308 8311 0
-8310 -8308 8312 0
8310 -8312 0
8308 -8312 0
-8055 -8309 8313 0
8055 -8313 0
8309 -8313 0
8312 8313 -8314 0
-8312 8314 0
-8313 8314 0
-138 -8209 8315 0
138 -8315 0
8209 -8315 0
-8061 -8315 -8316 0
8061 8315 -8316 0
8061 -8315 8316 0
-8061 8315 8316 0
-8316 -8314 -8317 0
8316 8314 -8317 0
8316 -8314 8317 0
-8316 8314 8317 0
-8316 -8314 8318 0
8316 -8318 0
8314 -8318 0
-8061 -8315 8319 0
8061 -8319 0
8315 -8319 0
8318 8319 -8320 0
-8318 8320 0
-8319 8320 0
-146 -8209 8321 0
146 -8321 0
8209 -8321 0
-8067 -8321 -8322 0
8067 8321 -8322 0
8067 -8321 8322 0
-8067 8321 8322 0
-8322 -8320 -8323 0
8322 8320 -8323 0
8322 -8320 8323 0
-8322 8320 8323 0
-8322 -8320 8324 0
8322 -8324 0
8320 -8324 0
-8067 -8321 8325 0
8067 -8325 0
8321 -8325 0
8324 8325 -8326 0
-8324 8326 0
-8325 8326 0
-154 -8209 8327 0
154 -8327 0
8209 -8327 0
-8073 -8327 -8328 0
8073 8327 -8328 0
8073 -8327 8328 0
-8073 8327 8328 0
-8328 -8326 -8329 0
8328 8326 -8329 0
8328 -8326 8329 0
-8328 8326 8329 0
-8328 -8326 8330 0
8328 -8330 0
8326 -8330 0
-8073 -8327 8331 0
8073 -8331 0
8327 -8331 0
8330 8331 -8332 0
-8330 8332 0
-8331 8332 0
-162 -8209 8333 0
162 -8333 0
8209 -8333 0
-8079 -8333 -8334 0
8079 8333 -8334 0
8079 -8333 8334 0
-8079 8333 8334 0
-8334 -8332 -8335 0
8334 8332 -8335 0
8334 -8332 8335 0
-8334 8332 8335 0
-8334 -8332 8336 0
8334 -8336 0
8332 -8336 0
-8079 -8333 8337 0
8079 -8337 0
8333 -8337 0
8336 8337 -8338 0
-8336 8338 0
-8337 8338 0
-170 -8209 8339 0
170 -8339 0
8209 -8339 0
-8085 -8339 -8340 0
8085 8339 -8340 0
8085 -8339 8340 0
-8085 8339 8340 0
-8340 -8338 -8341 0
8340 8338 -8341 0
8340 -8338 8341 0
-8340 8338 8341 0
-8340 -8338 8342 0
8340 -8342 0
8338 -8342 0
-8085 -8339 8343 0
8085 -8343 0
8339 -8343 0
8342 8343 -8344 0
-8342 8344 0
-8343 8344 0
-178 -8209 8345 0
178 -8345 0
8209 -8345 0
-8091 -8345 -8346 0
8091 8345 -8346 0
8091 -8345 8346 0
-8091 8345 8346 0
-8346 -8344 -8347 0
8346 8344 -8347 0
8346 -8344 8347 0
-8346 8344 8347 0
-8346 -8344 8348 0
8346 -8348 0
8344 -8348 0
-8091 -8345 8349 0
8091 -8349 0
8345 -8349 0
8348 8349 -8350 0
-8348 8350 0
-8349 8350 0
-186 -8209 8351 0
186 -8351 0
8209 -8351 0
-8097 -8351 -8352 0
8097 8351 -8352 0
8097 -8351 8352 0
-8097 8351 8352 0
-8352 -8350 -8353 0
8352 8350 -8353 0
8352 -8350 8353 0
-8352 8350 8353 0
-8352 -8350 8354 0
8352 -8354 0
8350 -8354 0
-8097 -8351 8355 0
8097 -8355 0
8351 -8355 0
8354 8355 -8356 0
-8354 8356 0
-8355 8356 0
-194 -8209 8357 0
194 -8357 0
8209 -8357 0
-8103 -8357 -8358 0
8103 8357 -8358 0
8103 -8357 8358 0
-8103 8357 8358 0
-8358 -8356 -8359 0
8358 8356 -8359 0
8358 -8356 8359 0
-8358 8356 8359 0
-8358 -8356 8360 0
8358 -8360 0
8356 -8360 0
-8103 -8357 8361 0
8103 -8361 0
8357 -8361 0
8360 8361 -8362 0
-8360 8362 0
-8361 8362 0
-202 -8209 8363 0
202 -8363 0
8209 -8363 0
-8109 -8363 -8364 0
8109 8363 -8364 0
8109 -8363 8364 0
-8109 8363 8364 0
-8364 -8362 -8365 0
8364 8362 -8365 0
8364 -8362 8365 0
-8364 8362 8365 0
-8364 -8362 8366 0
8364 -8366 0
8362 -8366 0
-8109 -8363 8367 0
8109 -8367 0
8363 -8367 0
8366 8367 -8368 0
-8366 8368 0
-8367 8368 0
-210 -8209 8369 0
210 -8369 0
8209 -8369 0
-8115 -8369 -8370 0
8115 8369 -8370 0
8115 -8369 8370 0
-8115 8369 8370 0
-8370 -8368 -8371 0
8370 8368 -8371 0
8370 -8368 8371 0
-8370 8368 8371 0
-8370 -8368 8372 0
8370 -8372 0
8368 -8372 0
-8115 -8369 8373 0
8115 -8373 0
8369 -8373 0
8372 8373 -8374 0
-8372 8374 0
-8373 8374 0
-218 -8209 8375 0
218 -8375 0
8209 -8375 0
-8121 -8375 -8376 0
8121 8375 -8376 0
8121 -8375 8376 0
-8121 8375 8376 0
-8376 -8374 -8377 0
8376 8374 -8377 0
8376 -8374 8377 0
-8376 8374 8377 0
-8376 -8374 8378 0
8376 -8378 0
8374 -8378 0
-8121 -8375 8379 0
8121 -8379 0
8375 -8379 0
8378 8379 -8380 0
-8378 8380 0
-8379 8380 0
-226 -8209 8381 0
226 -8381 0
8209 -8381 0
-8127 -8381 -8382 0
8127 8381 -8382 0
8127 -8381 8382 0
-8127 8381 8382 0
-8382 -8380 -8383 0
8382 8380 -8383 0
8382 -8380 8383 0
-8382 8380 8383 0
-8382 -8380 8384 0
8382 -8384 0
8380 -8384 0
-8127 -8381 8385 0
8127 -8385 0
8381 -8385 0
8384 8385 -8386 0
-8384 8386 0
-8385 8386 0
-234 -8209 8387 0
234 -8387 0
8209 -8387 0
-8133 -8387 -8388 0
8133 8387 -8388 0
8133 -8387 8388 0
-8133 8387 8388 0
-8388 -8386 -8389 0
8388 8386 -8389 0
8388 -8386 8389 0
-8388 8386 8389 0
-8388 -8386 8390 0
8388 -8390 0
8386 -8390 0
-8133 -8387 8391 0
8133 -8391 0
8387 -8391 0
8390 8391 -8392 0
-8390 8392 0
-8391 8392 0
-242 -8209 8393 0
242 -8393 0
8209 -8393 0
-8139 -8393 -8394 0
8139 8393 -8394 0
8139 -8393 8394 0
-8139 8393 8394 0
-8394 -8392 -8395 0
8394 8392 -8395 0
8394 -8392 8395 0
-8394 8392 8395 0
-8394 -8392 8396 0
8394 -8396 0
8392 -8396 0
-8139 -8393 8397 0
8139 -8397 0
8393 -8397 0
8396 8397 -8398 0
-8396 8398 0
-8397 8398 0
-250 -8209 8399 0
250 -8399 0
8209 -8399 0
-8145 -8399 -8400 0
8145 8399 -8400 0
8145 -8399 8400 0
-8145 8399 8400 0
-8400 -8398 -8401 0
8400 8398 -8401 0
8400 -8398 8401 0
-8400 8398 8401 0
-8400 -8398 8402 0
8400 -8402 0
8398 -8402 0
-8145 -8399 8403 0
8145 -8403 0
8399 -8403 0
8402 8403 -8404 0
-8402 8404 0
-8403 8404 0
-258 -8209 8405 0
258 -8405 0
8209 -8405 0
-8151 -8405 -8406 0
8151 8405 -8406 0
8151 -8405 8406 0
-8151 8405 8406 0
-8406 -8404 -8407 0
8406 8404 -8407 0
8406 -8404 8407 0
-8406 8404 8407 0
-8406 -8404 8408 0
8406 -8408 0
8404 -8408 0
-8151 -8405 8409 0
8151 -8409 0
8405 -8409 0
8408 8409 -8410 0
-8408 8410 0
-8409 8410 0
-266 -8209 8411 0
266 -8411 0
8209 -8411 0
-8157 -8411 -8412 0
8157 8411 -8412 0
8157 -8411 8412 0
-8157 8411 8412 0
-8412 -8410 -8413 0
8412 8410 -8413 0
8412 -8410 8413 0
-8412 8410 8413 0
-8412 -8410 8414 0
8412 -8414 0
8410 -8414 0
-8157 -8411 8415 0
8157 -8415 0
8411 -8415 0
8414 8415 -8416 0
-8414 8416 0
-8415 8416 0
-274 -8209 8417 0
274 -8417 0
8209 -8417 0
-8163 -8417 -8418 0
8163 8417 -8418 0
8163 -8417 8418 0
-8163 8417 8418 0
-8418 -8416 -8419 0
8418 8416 -8419 0
8418 -8416 8419 0
-8418 8416 8419 0
-8418 -8416 8420 0
8418 -8420 0
8416 -8420 0
-8163 -8417 8421 0
8163 -8421 0
8417 -8421 0
8420 8421 -8422 0
-8420 8422 0
-8421 8422 0
-282 -8209 8423 0
282 -8423 0
8209 -8423 0
-8169 -8423 -8424 0
8169 8423 -8424 0
8169 -8423 8424 0
-8169 8423 8424 0
-8424 -8422 -8425 0
8424 8422 -8425 0
8424 -8422 8425 0
-8424 8422 8425 0
-8424 -8422 8426 0
8424 -8426 0
8422 -8426 0
-8169 -8423 8427 0
8169 -8427 0
8423 -8427 0
8426 8427 -8428 0
-8426 8428 0
-8427 8428 0
-290 -8209 8429 0
290 -8429 0
8209 -8429 0
-8175 -8429 -8430 0
8175 8429 -8430 0
8175 -8429 8430 0
-8175 8429 8430 0
-8430 -8428 -8431 0
8430 8428 -8431 0
8430 -8428 8431 0
-8430 8428 8431 0
-8430 -8428 8432 0
8430 -8432 0
8428 -8432 0
-8175 -8429 8433 0
8175 -8433 0
8429 -8433 0
8432 8433 -8434 0
-8432 8434 0
-8433 8434 0
-298 -8209 8435 0
298 -8435 0
8209 -8435 0
-8181 -8435 -8436 0
8181 8435 -8436 0
8181 -8435 8436 0
-8181 8435 8436 0
-8436 -8434 -8437 0
8436 8434 -8437 0
8436 -8434 8437 0
-8436 8434 8437 0
-8436 -8434 8438 0
8436 -8438 0
8434 -8438 0
-8181 -8435 8439 0
8181 -8439 0
8435 -8439 0
8438 8439 -8440 0
-8438 8440 0
-8439 8440 0
-306 -8209 8441 0
306 -8441 0
8209 -8441 0
-8187 -8441 -8442 0
8187 8441 -8442 0
8187 -8441 8442 0
-8187 8441 8442 0
-8442 -8440 -8443 0
8442 8440 -8443 0
8442 -8440 8443 0
-8442 8440 8443 0
-8442 -8440 8444 0
8442 -8444 0
8440 -8444 0
-8187 -8441 8445 0
8187 -8445 0
8441 -8445 0
8444 8445 -8446 0
-8444 8446 0
-8445 8446 0
-314 -8209 8447 0
314 -8447 0
8209 -8447 0
-8193 -8447 -8448 0
8193 8447 -8448 0
8193 -8447 8448 0
-8193 8447 8448 0
-8448 -8446 -8449 0
8448 8446 -8449 0
8448 -8446 8449 0
-8448 8446 8449 0
-8448 -8446 8450 0
8448 -8450 0
8446 -8450 0
-8193 -8447 8451 0
8193 -8451 0
8447 -8451 0
8450 8451 -8452 0
-8450 8452 0
-8451 8452 0
-322 -8209 8453 0
322 -8453 0
8209 -8453 0
-8199 -8453 -8454 0
8199 8453 -8454 0
8199 -8453 8454 0
-8199 8453 8454 0
-8454 -8452 -8455 0
8454 8452 -8455 0
8454 -8452 8455 0
-8454 8452 8455 0
-8454 -8452 8456 0
8454 -8456 0
8452 -8456 0
-8199 -8453 8457 0
8199 -8457 0
8453 -8457 0
8456 8457 -8458 0
-8456 8458 0
-8457 8458 0
-330 -8209 8459 0
330 -8459 0
8209 -8459 0
-8205 -8459 -8460 0
8205 8459 -8460 0
8205 -8459 8460 0
-8205 8459 8460 0
-8460 -8458 -8461 0
8460 8458 -8461 0
8460 -8458 8461 0
-8460 8458 8461 0
-8460 -8458 8462 0
8460 -8462 0
8458 -8462 0
-8205 -8459 8463 0
8205 -8463 0
8459 -8463 0
8462 8463 -8464 0
-8462 8464 0
-8463 8464 0
-338 -8209 8465 0
338 -8465 0
8209 -8465 0
-8208 -8465 -8466 0
8208 8465 -8466 0
8208 -8465 8466 0
-8208 8465 8466 0
-8466 -8464 -8467 0
8466 8464 -8467 0
8466 -8464 8467 0
-8466 8464 8467 0
-8466 -8464 8468 0
8466 -8468 0
8464 -8468 0
-8208 -8465 8469 0
8208 -8469 0
8465 -8469 0
8468 8469 -8470 0
-8468 8470 0
-8469 8470 0
-1 -8471 8472 0
1 -8472 0
8471 -8472 0
-8215 -8472 -8473 0
8215 8472 -8473 0
8215 -8472 8473 0
-8215 8472 8473 0
-8215 -8472 8474 0
8215 -8474 0
8472 -8474 0
-4 -8471 8475 0
4 -8475 0
8471 -8475 0
-8221 -8475 -8476 0
8221 8475 -8476 0
8221 -8475 8476 0
-8221 8475 8476 0
-8476 -8474 -8477 0
8476 8474 -8477 0
8476 -8474 8477 0
-8476 8474 8477 0
-8476 -8474 8478 0
8476 -8478 0
8474 -8478 0
-8221 -8475 8479 0
8221 -8479 0
8475 -8479 0
8478 8479 -8480 0
-8478 8480 0
-8479 8480 0
-10 -8471 8481 0
10 -8481 0
8471 -8481 0
-8227 -8481 -8482 0
8227 8481 -8482 0
8227 -8481 8482 0
-8227 8481 8482 0
-8482 -8480 -8483 0
8482 8480 -8483 0
8482 -8480 8483 0
-8482 8480 8483 0
-8482 -8480 8484 0
8482 -8484 0
8480 -8484 0
-8227 -8481 8485 0
8227 -8485 0
8481 -8485 0
8484 8485 -8486 0
-8484 8486 0
-8485 8486 0
-18 -8471 8487 0
18 -8487 0
8471 -8487 0
-8233 -8487 -8488 0
8233 8487 -8488 0
8233 -8487 8488 0
-8233 8487 8488 0
-8488 -8486 -8489 0
8488 8486 -8489 0
8488 -8486 8489 0
-8488 8486 8489 0
-8488 -8486 8490 0
8488 -8490 0
8486 -8490 0
-8233 -8487 8491 0
8233 -8491 0
8487 -8491 0
8490 8491 -8492 0
-8490 8492 0
-8491 8492 0
-26 -8471 8493 0
26 -8493 0
8471 -8493 0
-8239 -8493 -8494 0
8239 8493 -8494 0
8239 -8493 8494 0
-8239 8493 8494 0
-8494 -8492 -8495 0
8494 8492 -8495 0
8494 -8492 8495 0
-8494 8492 8495 0
-8494 -8492 8496 0
8494 -8496 0
8492 -8496 0
-8239 -8493 8497 0
8239 -8497 0
8493 -8497 0
8496 8497 -8498 0
-8496 8498 0
-8497 8498 0
-34 -8471 8499 0
34 -8499 0
8471 -8499 0
-8245 -8499 -8500 0
8245 8499 -8500 0
8245 -8499 8500 0
-8245 8499 8500 0
-8500 -8498 -8501 0
8500 8498 -8501 0
8500 -8498 8501 0
-8500 8498 8501 0
-8500 -8498 8502 0
8500 -8502 0
8498 -8502 0
-8245 -8499 8503 0
8245 -8503 0
8499 -8503 0
8502 8503 -8504 0
-8502 8504 0
-8503 8504 0
-42 -8471 8505 0
42 -8505 0
8471 -8505 0
-8251 -8505 -8506 0
8251 8505 -8506 0
8251 -8505 8506 0
-8251 8505 8506 0
-8506 -8504 -8507 0
8506 8504 -8507 0
8506 -8504 8507 0
-8506 8504 8507 0
-8506 -8504 8508 0
8506 -8508 0
8504 -8508 0
-8251 -8505 8509 0
8251 -8509 0
8505 -8509 0
8508 8509 -8510 0
-8508 8510 0
-8509 8510 0
-50 -8471 8511 0
50 -8511 0
8471 -8511 0
-8257 -8511 -8512 0
8257 8511 -8512 0
8257 -8511 8512 0
-8257 8511 8512 0
-8512 -8510 -8513 0
8512 8510 -8513 0
8512 -8510 8513 0
-8512 8510 8513 0
-8512 -8510 8514 0
8512 -8514 0
8510 -8514 0
-8257 -8511 8515 0
8257 -8515 0
8511 -8515 0
8514 8515 -8516 0
-8514 8516 0
-8515 8516 0
-58 -8471 8517 0
58 -8517 0
8471 -8517 0
-8263 -8517 -8518 0
8263 8517 -8518 0
8263 -8517 8518 0
-8263 8517 8518 0
-8518 -8516 -8519 0
8518 8516 -8519 0
8518 -8516 8519 0
-8518 8516 8519 0
-8518 -8516 8520 0
8518 -8520 0
8516 -8520 0
-8263 -8517 8521 0
8263 -8521 0
8517 -8521 0
8520 8521 -8522 0
-8520 8522 0
-8521 8522 0
-66 -8471 8523 0
66 -8523 0
8471 -8523 0
-8269 -8523 -8524 0
8269 8523 -8524 0
8269 -8523 8524 0
-8269 8523 8524 0
-8524 -8522 -8525 0
8524 8522 -8525 0
8524 -8522 8525 0
-8524 8522 8525 0
-8524 -8522 8526 0
8524 -8526 0
8522 -8526 0
-8269 -8523 8527 0
8269 -8527 0
8523 -8527 0
8526 8527 -8528 0
-8526 8528 0
-8527 8528 0
-74 -8471 8529 0
74 -8529 0
8471 -8529 0
-8275 -8529 -8530 0
8275 8529 -8530 0
8275 -8529 8530 0
-8275 8529 8530 0
-8530 -8528 -8531 0
8530 8528 -8531 0
8530 -8528 8531 0
-8530 8528 8531 0
-8530 -8528 8532 0
8530 -8532 0
8528 -8532 0
-8275 -8529 8533 0
8275 -8533 0
8529 -8533 0
8532 8533 -8534 0
-8532 8534 0
-8533 8534 0
-82 -8471 8535 0
82 -8535 0
8471 -8535 0
-8281 -8535 -8536 0
8281 8535 -8536 0
8281 -8535 8536 0
-8281 8535 8536 0
-8536 -8534 -8537 0
8536 8534 -8537 0
8536 -8534 8537 0
-8536 8534 8537 0
-8536 -8534 8538 0
8536 -8538 0
8534 -8538 0
-8281 -8535 8539 0
8281 -8539 0
8535 -8539 0
8538 8539 -8540 0
-8538 8540 0
-8539 8540 0
-90 -8471 8541 0
90 -8541 0
8471 -8541 0
-8287 -8541 -8542 0
8287 8541 -8542 0
8287 -8541 8542 0
-8287 8541 8542 0
-8542 -8540 -8543 0
8542 8540 -8543 0
8542 -8540 8543 0
-8542 8540 8543 0
-8542 -8540 8544 0
8542 -8544 0
8540 -8544 0
-8287 -8541 8545 0
8287 -8545 0
8541 -8545 0
8544 8545 -8546 0
-8544 8546 0
-8545 8546 0
-98 -8471 8547 0
98 -8547 0
8471 -8547 0
-8293 -8547 -8548 0
8293 8547 -8548 0
8293 -8547 8548 0
-8293 8547 8548 0
-8548 -8546 -8549 0
8548 8546 -8549 0
8548 -8546 8549 0
-8548 8546 8549 0
-8548 -8546 8550 0
8548 -8550 0
8546 -8550 0
-8293 -8547 8551 0
8293 -8551 0
8547 -8551 0
8550 8551 -8552 0
-8550 8552 0
-8551 8552 0
-106 -8471 8553 0
106 -8553 0
8471 -8553 0
-8299 -8553 -8554 0
8299 8553 -8554 0
8299 -8553 8554 0
-8299 8553 8554 0
-8554 -8552 -8555 0
8554 8552 -8555 0
8554 -8552 8555 0
-8554 8552 8555 0
-8554 -8552 8556 0
8554 -8556 0
8552 -8556 0
-8299 -8553 8557 0
8299 -8557 0
8553 -8557 0
8556 8557 -8558 0
-8556 8558 0
-8557 8558 0
-114 -8471 8559 0
114 -8559 0
8471 -8559 0
-8305 -8559 -8560 0
8305 8559 -8560 0
8305 -8559 8560 0
-8305 8559 8560 0
-8560 -8558 -8561 0
8560 8558 -8561 0
8560 -8558 8561 0
-8560 8558 8561 0
-8560 -8558 8562 0
8560 -8562 0
8558 -8562 0
-8305 -8559 8563 0
8305 -8563 0
8559 -8563 0
8562 8563 -8564 0
-8562 8564 0
-8563 8564 0
-122 -8471 8565 0
122 -8565 0
8471 -8565 0
-8311 -8565 -8566 0
8311 8565 -8566 0
8311 -8565 8566 0
-8311 8565 8566 0
-8566 -8564 -8567 0
8566 8564 -8567 0
8566 -8564 8567 0
-8566 8564 8567 0
-8566 -8564 8568 0
8566 -8568 0
8564 -8568 0
-8311 -8565 8569 0
8311 -8569 0
8565 -8569 0
8568 8569 -8570 0
-8568 8570 0
-8569 8570 0
-130 -8471 8571 0
130 -8571 0
8471 -8571 0
-8317 -8571 -8572 0
8317 8571 -8572 0
8317 -8571 8572 0
-8317 8571 8572 0
-8572 -8570 -8573 0
8572 8570 -8573 0
8572 -8570 8573 0
-8572 8570 8573 0
-8572 -8570 8574 0
8572 -8574 0
8570 -8574 0
-8317 -8571 8575 0
8317 -8575 0
8571 -8575 0
8574 8575 -8576 0
-8574 8576 0
-8575 8576 0
-138 -8471 8577 0
138 -8577 0
8471 -8577 0
-8323 -8577 -8578 0
8323 8577 -8578 0
8323 -8577 8578 0
-8323 8577 8578 0
-8578 -8576 -8579 0
8578 8576 -8579 0
8578 -8576 8579 0
-8578 8576 8579 0
-8578 -8576 8580 0
8578 -8580 0
8576 -8580 0
-8323 -8577 8581 0
8323 -8581 0
8577 -8581 0
8580 8581 -8582 0
-8580 8582 0
-8581 8582 0
-146 -8471 8583 0
146 -8583 0
8471 -8583 0
-8329 -8583 -8584 0
8329 8583 -8584 0
8329 -8583 8584 0
-8329 8583 8584 0
-8584 -8582 -8585 0
8584 8582 -8585 0
8584 -8582 8585 0
-8584 8582 8585 0
-8584 -8582 8586 0
8584 -8586 0
8582 -8586 0
-8329 -8583 8587 0
8329 -8587 0
8583 -8587 0
8586 8587 -8588 0
-8586 8588 0
-8587 8588 0
-154 -8471 8589 0
154 -8589 0
8471 -8589 0
-8335 -8589 -8590 0
8335 8589 -8590 0
8335 -8589 8590 0
-8335 8589 8590 0
-8590 -8588 -8591 0
8590 8588 -8591 0
8590 -8588 8591 0
-8590 8588 8591 0
-8590 -8588 8592 0
8590 -8592 0
8588 -8592 0
-8335 -8589 8593 0
8335 -8593 0
8589 -8593 0
8592 8593 -8594 0
-8592 8594 0
-8593 8594 0
-162 -8471 8595 0
162 -8595 0
8471 -8595 0
-8341 -8595 -8596 0
8341 8595 -8596 0
8341 -8595 8596 0
-8341 8595 8596 0
-8596 -8594 -8597 0
8596 8594 -8597 0
8596 -8594 8597 0
-8596 8594 8597 0
-8596 -8594 8598 0
8596 -8598 0
8594 -8598 0
-8341 -8595 8599 0
8341 -8599 0
8595 -8599 0
8598 8599 -8600 0
-8598 8600 0
-8599 8600 0
-170 -8471 8601 0
170 -8601 0
8471 -8601 0
-8347 -8601 -8602 0
8347 8601 -8602 0
8347 -8601 8602 0
-8347 8601 8602 0
-8602 -8600 -8603 0
8602 8600 -8603 0
8602 -8600 8603 0
-8602 8600 8603 0
-8602 -8600 8604 0
8602 -8604 0
8600 -8604 0
-8347 -8601 8605 0
8347 -8605 0
8601 -8605 0
8604 8605 -8606 0
-8604 8606 0
-8605 8606 0
-178 -8471 8607 0
178 -8607 0
8471 -8607 0
-8353 -8607 -8608 0
8353 8607 -8608 0
8353 -8607 8608 0
-8353 8607 8608 0
-8608 -8606 -8609 0
8608 8606 -8609 0
8608 -8606 8609 0
-8608 8606 8609 0
-8608 -8606 8610 0
8608 -8610 0
8606 -8610 0
-8353 -8607 8611 0
8353 -8611 0
8607 -8611 0
8610 8611 -8612 0
-8610 8612 0
-8611 8612 0
-186 -8471 8613 0
186 -8613 0
8471 -8613 0
-8359 -8613 -8614 0
8359 8613 -8614 0
8359 -8613 8614 0
-8359 8613 8614 0
-8614 -8612 -8615 0
8614 8612 -8615 0
8614 -8612 8615 0
-8614 8612 8615 0
-8614 -8612 8616 0
8614 -8616 0
8612 -8616 0
-8359 -8613 8617 0
8359 -8617 0
8613 -8617 0
8616 8617 -8618 0
-8616 8618 0
-8617 8618 0
-194 -8471 8619 0
194 -8619 0
8471 -8619 0
-8365 -8619 -8620 0
8365 8619 -8620 0
8365 -8619 8620 0
-8365 8619 8620 0
-8620 -8618 -8621 0
8620 8618 -8621 0
8620 -8618 8621 0
-8620 8618 8621 0
-8620 -8618 8622 0
8620 -8622 0
8618 -8622 0
-8365 -8619 8623 0
8365 -8623 0
8619 -8623 0
8622 8623 -8624 0
-8622 8624 0
-8623 8624 0
-202 -8471 8625 0
202 -8625 0
8471 -8625 0
-8371 -8625 -8626 0
8371 8625 -8626 0
8371 -8625 8626 0
-8371 8625 8626 0
-8626 -8624 -8627 0
8626 8624 -8627 0
8626 -8624 8627 0
-8626 8624 8627 0
-8626 -8624 8628 0
8626 -8628 0
8624 -8628 0
-8371 -8625 8629 0
8371 -8629 0
8625 -8629 0
8628 8629 -8630 0
-8628 8630 0
-8629 8630 0
-210 -8471 8631 0
210 -8631 0
8471 -8631 0
-8377 -8631 -8632 0
8377 8631 -8632 0
8377 -8631 8632 0
-8377 8631 8632 0
-8632 -8630 -8633 0
8632 8630 -8633 0
8632 -8630 8633 0
-8632 8630 8633 0
-8632 -8630 8634 0
8632 -8634 0
8630 -8634 0
-8377 -8631 8635 0
8377 -8635 0
8631 -8635 0
8634 8635 -8636 0
-8634 8636 0
-8635 8636 0
-218 -8471 8637 0
218 -8637 0
8471 -8637 0
-8383 -8637 -8638 0
8383 8637 -8638 0
8383 -8637 8638 0
-8383 8637 8638 0
-8638 -8636 -8639 0
8638 8636 -8639 0
8638 -8636 8639 0
-8638 8636 8639 0
-8638 -8636 8640 0
8638 -8640 0
8636 -8640 0
-8383 -8637 8641 0
8383 -8641 0
8637 -8641 0
8640 8641 -8642 0
-8640 8642 0
-8641 8642 0
-226 -8471 8643 0
226 -8643 0
8471 -8643 0
-8389 -8643 -8644 0
8389 8643 -8644 0
8389 -8643 8644 0
-8389 8643 8644 0
-8644 -8642 -8645 0
8644 8642 -8645 0
8644 -8642 8645 0
-8644 8642 8645 0
-8644 -8642 8646 0
8644 -8646 0
8642 -8646 0
-8389 -8643 8647 0
8389 -8647 0
8643 -8647 0
8646 8647 -8648 0
-8646 8648 0
-8647 8648 0
-234 -8471 8649 0
234 -8649 0
8471 -8649 0
-8395 -8649 -8650 0
8395 8649 -8650 0
8395 -8649 8650 0
-8395 8649 8650 0
-8650 -8648 -8651 0
8650 8648 -8651 0
8650 -8648 8651 0
-8650 8648 8651 0
-8650 -8648 8652 0
8650 -8652 0
8648 -8652 0
-8395 -8649 8653 0
8395 -8653 0
8649 -8653 0
8652 8653 -8654 0
-8652 8654 0
-8653 8654 0
-242 -8471 8655 0
242 -8655 0
8471 -8655 0
-8401 -8655 -8656 0
8401 8655 -8656 0
8401 -8655 8656 0
-8401 8655 8656 0
-8656 -8654 -8657 0
8656 8654 -8657 0
8656 -8654 8657 0
-8656 8654 8657 0
-8656 -8654 8658 0
8656 -8658 0
8654 -8658 0
-8401 -8655 8659 0
8401 -8659 0
8655 -8659 0
8658 8659 -8660 0
-8658 8660 0
-8659 8660 0
-250 -8471 8661 0
250 -8661 0
8471 -8661 0
-8407 -8661 -8662 0
8407 8661 -8662 0
8407 -8661 8662 0
-8407 8661 8662 0
-8662 -8660 -8663 0
8662 8660 -8663 0
8662 -8660 8663 0
-8662 8660 8663 0
-8662 -8660 8664 0
8662 -8664 0
8660 -8664 0
-8407 -8661 8665 0
8407 -8665 0
8661 -8665 0
8664 8665 -8666 0
-8664 8666 0
-8665 8666 0
-258 -8471 8667 0
258 -8667 0
8471 -8667 0
-8413 -8667 -8668 0
8413 8667 -8668 0
8413 -8667 8668 0
-8413 8667 8668 0
-8668 -8666 -8669 0
8668 8666 -8669 0
8668 -8666 8669 0
-8668 8666 8669 0
-8668 -8666 8670 0
8668 -8670 0
8666 -8670 0
-8413 -8667 8671 0
8413 -8671 0
8667 -8671 0
8670 8671 -8672 0
-8670 8672 0
-8671 8672 0
-266 -8471 8673 0
266 -8673 0
8471 -8673 0
-8419 -8673 -8674 0
8419 8673 -8674 0
8419 -8673 8674 0
-8419 8673 8674 0
-8674 -8672 -8675 0
8674 8672 -8675 0
8674 -8672 8675 0
-8674 8672 8675 0
-8674 -8672 8676 0
8674 -8676 0
8672 -8676 0
-8419 -8673 8677 0
8419 -8677 0
8673 -8677 0
8676 8677 -8678 0
-8676 8678 0
-8677 8678 0
-274 -8471 8679 0
274 -8679 0
8471 -8679 0
-8425 -8679 -8680 0
8425 8679 -8680 0
8425 -8679 8680 0
-8425 8679 8680 0
-8680 -8678 -8681 0
8680 8678 -8681 0
8680 -8678 8681 0
-8680 8678 8681 0
-8680 -8678 8682 0
8680 -8682 0
8678 -8682 0
-8425 -8679 8683 0
8425 -8683 0
8679 -8683 0
8682 8683 -8684 0
-8682 8684 0
-8683 8684 0
-282 -8471 8685 0
282 -8685 0
8471 -8685 0
-8431 -8685 -8686 0
8431 8685 -8686 0
8431 -8685 8686 0
-8431 8685 8686 0
-8686 -8684 -8687 0
8686 8684 -8687 0
8686 -8684 8687 0
-8686 8684 8687 0
-8686 -8684 8688 0
8686 -8688 0
8684 -8688 0
-8431 -8685 8689 0
8431 -8689 0
8685 -8689 0
8688 8689 -8690 0
-8688 8690 0
-8689 8690 0
-290 -8471 8691 0
290 -8691 0
8471 -8691 0
-8437 -8691 -8692 0
8437 8691 -8692 0
8437 -8691 8692 0
-8437 8691 8692 0
-8692 -8690 -8693 0
8692 8690 -8693 0
8692 -8690 8693 0
-8692 8690 8693 0
-8692 -8690 8694 0
8692 -8694 0
8690 -8694 0
-8437 -8691 8695 0
8437 -8695 0
8691 -8695 0
8694 8695 -8696 0
-8694 8696 0
-8695 8696 0
-298 -8471 8697 0
298 -8697 0
8471 -8697 0
-8443 -8697 -8698 0
8443 8697 -8698 0
8443 -8697 8698 0
-8443 8697 8698 0
-8698 -8696 -8699 0
8698 8696 -8699 0
8698 -8696 8699 0
-8698 8696 8699 0
-8698 -8696 8700 0
8698 -8700 0
8696 -8700 0
-8443 -8697 8701 0
8443 -8701 0
8697 -8701 0
8700 8701 -8702 0
-8700 8702 0
-8701 8702 0
-306 -8471 8703 0
306 -8703 0
8471 -8703 0
-8449 -8703 -8704 0
8449 8703 -8704 0
8449 -8703 8704 0
-8449 8703 8704 0
-8704 -8702 -8705 0
8704 8702 -8705 0
8704 -8702 8705 0
-8704 8702 8705 0
-8704 -8702 8706 0
8704 -8706 0
8702 -8706 0
-8449 -8703 8707 0
8449 -8707 0
8703 -8707 0
8706 8707 -8708 0
-8706 8708 0
-8707 8708 0
-314 -8471 8709 0
314 -8709 0
8471 -8709 0
-8455 -8709 -8710 0
8455 8709 -8710 0
8455 -8709 8710 0
-8455 8709 8710 0
-8710 -8708 -8711 0
8710 8708 -8711 0
8710 -8708 8711 0
-8710 8708 8711 0
-8710 -8708 8712 0
8710 -8712 0
8708 -8712 0
-8455 -8709 8713 0
8455 -8713 0
8709 -8713 0
8712 8713 -8714 0
-8712 8714 0
-8713 8714 0
-322 -8471 8715 0
322 -8715 0
8471 -8715 0
-8461 -8715 -8716 0
8461 8715 -8716 0
8461 -8715 8716 0
-8461 8715 8716 0
-8716 -8714 -8717 0
8716 8714 -8717 0
8716 -8714 8717 0
-8716 8714 8717 0
-8716 -8714 8718 0
8716 -8718 0
8714 -8718 0
-8461 -8715 8719 0
8461 -8719 0
8715 -8719 0
8718 8719 -8720 0
-8718 8720 0
-8719 8720 0
-330 -8471 8721 0
330 -8721 0
8471 -8721 0
-8467 -8721 -8722 0
8467 8721 -8722 0
8467 -8721 8722 0
-8467 8721 8722 0
-8722 -8720 -8723 0
8722 8720 -8723 0
8722 -8720 8723 0
-8722 8720 8723 0
-8722 -8720 8724 0
8722 -8724 0
8720 -8724 0
-8467 -8721 8725 0
8467 -8725 0
8721 -8725 0
8724 8725 -8726 0
-8724 8726 0
-8725 8726 0
-338 -8471 8727 0
338 -8727 0
8471 -8727 0
-8470 -8727 -8728 0
8470 8727 -8728 0
8470 -8727 8728 0
-8470 8727 8728 0
-8728 -8726 -8729 0
8728 8726 -8729 0
8728 -8726 8729 0
-8728 8726 8729 0
-8728 -8726 8730 0
8728 -8730 0
8726 -8730 0
-8470 -8727 8731 0
8470 -8731 0
8727 -8731 0
8730 8731 -8732 0
-8730 8732 0
-8731 8732 0
-1 -8733 8734 0
1 -8734 0
8733 -8734 0
-8477 -8734 -8735 0
8477 8734 -8735 0
8477 -8734 8735 0
-8477 8734 8735 0
-8477 -8734 8736 0
8477 -8736 0
8734 -8736 0
-4 -8733 8737 0
4 -8737 0
8733 -8737 0
-8483 -8737 -8738 0
8483 8737 -8738 0
8483 -8737 8738 0
-8483 8737 8738 0
-8738 -8736 -8739 0
8738 8736 -8739 0
8738 -8736 8739 0
-8738 8736 8739 0
-8738 -8736 8740 0
8738 -8740 0
8736 -8740 0
-8483 -8737 8741 0
8483 -8741 0
8737 -8741 0
8740 8741 -8742 0
-8740 8742 0
-8741 8742 0
-10 -8733 8743 0
10 -8743 0
8733 -8743 0
-8489 -8743 -8744 0
8489 8743 -8744 0
8489 -8743 8744 0
-8489 8743 8744 0
-8744 -8742 -8745 0
8744 8742 -8745 0
8744 -8742 8745 0
-8744 8742 8745 0
-8744 -8742 8746 0
8744 -8746 0
8742 -8746 0
-8489 -8743 8747 0
8489 -8747 0
8743 -8747 0
8746 8747 -8748 0
-8746 8748 0
-8747 8748 0
-18 -8733 8749 0
18 -8749 0
8733 -8749 0
-8495 -8749 -8750 0
8495 8749 -8750 0
8495 -8749 8750 0
-8495 8749 8750 0
-8750 -8748 -8751 0
8750 8748 -8751 0
8750 -8748 8751 0
-8750 8748 8751 0
-8750 -8748 8752 0
8750 -8752 0
8748 -8752 0
-8495 -8749 8753 0
8495 -8753 0
8749 -8753 0
8752 8753 -8754 0
-8752 8754 0
-8753 8754 0
-26 -8733 8755 0
26 -8755 0
8733 -8755 0
-8501 -8755 -8756 0
8501 8755 -8756 0
8501 -8755 8756 0
-8501 8755 8756 0
-8756 -8754 -8757 0
8756 8754 -8757 0
8756 -8754 8757 0
-8756 8754 8757 0
-8756 -8754 8758 0
8756 -8758 0
8754 -8758 0
-8501 -8755 8759 0
8501 -8759 0
8755 -8759 0
8758 8759 -8760 0
-8758 8760 0
-8759 8760 0
-34 -8733 8761 0
34 -8761 0
8733 -8761 0
-8507 -8761 -8762 0
8507 8761 -8762 0
8507 -8761 8762 0
-8507 8761 8762 0
-8762 -8760 -8763 0
8762 8760 -8763 0
8762 -8760 8763 0
-8762 8760 8763 0
-8762 -8760 8764 0
8762 -8764 0
8760 -8764 0
-8507 -8761 8765 0
8507 -8765 0
8761 -8765 0
8764 8765 -8766 0
-8764 8766 0
-8765 8766 0
-42 -8733 8767 0
42 -8767 0
8733 -8767 0
-8513 -8767 -8768 0
8513 8767 -8768 0
8513 -8767 8768 0
-8513 8767 8768 0
-8768 -8766 -8769 0
8768 8766 -8769 0
8768 -8766 8769 0
-8768 8766 8769 0
-8768 -8766 8770 0
8768 -8770 0
8766 -8770 0
-8513 -8767 8771 0
8513 -8771 0
8767 -8771 0
8770 8771 -8772 0
-8770 8772 0
-8771 8772 0
-50 -8733 8773 0
50 -8773 0
8733 -8773 0
-8519 -8773 -8774 0
8519 8773 -8774 0
8519 -8773 8774 0
-8519 8773 8774 0
-8774 -8772 -8775 0
8774 8772 -8775 0
8774 -8772 8775 0
-8774 8772 8775 0
-8774 -8772 8776 0
8774 -8776 0
8772 -8776 0
-8519 -8773 8777 0
8519 -8777 0
8773 -8777 0
8776 8777 -8778 0
-8776 8778 0
-8777 8778 0
-58 -8733 8779 0
58 -8779 0
8733 -8779 0
-8525 -8779 -8780 0
8525 8779 -8780 0
8525 -8779 8780 0
-8525 8779 8780 0
-8780 -8778 -8781 0
8780 8778 -8781 0
8780 -8778 8781 0
-8780 8778 8781 0
-8780 -8778 8782 0
8780 -8782 0
8778 -8782 0
-8525 -8779 8783 0
8525 -8783 0
8779 -8783 0
8782 8783 -8784 0
-8782 8784 0
-8783 8784 0
-66 -8733 8785 0
66 -8785 0
8733 -8785 0
-8531 -8785 -8786 0
8531 8785 -8786 0
8531 -8785 8786 0
-8531 8785 8786 0
-8786 -8784 -8787 0
8786 8784 -8787 0
8786 -8784 8787 0
-8786 8784 8787 0
-8786 -8784 8788 0
8786 -8788 0
8784 -8788 0
-8531 -8785 8789 0
8531 -8789 0
8785 -8789 0
8788 8789 -8790 0
-8788 8790 0
-8789 8790 0
-74 -8733 8791 0
74 -8791 0
8733 -8791 0
-8537 -8791 -8792 0
8537 8791 -8792 0
8537 -8791 8792 0
-8537 8791 8792 0
-8792 -8790 -8793 0
8792 8790 -8793 0
8792 -8790 8793 0
-8792 8790 8793 0
-8792 -8790 8794 0
8792 -8794 0
8790 -8794 0
-8537 -8791 8795 0
8537 -8795 0
8791 -8795 0
8794 8795 -8796 0
-8794 8796 0
-8795 8796 0
-82 -8733 8797 0
82 -8797 0
8733 -8797 0
-8543 -8797 -8798 0
8543 8797 -8798 0
8543 -8797 8798 0
-8543 8797 8798 0
-8798 -8796 -8799 0
8798 8796 -8799 0
8798 -8796 8799 0
-8798 8796 8799 0
-8798 -8796 8800 0
8798 -8800 0
8796 -8800 0
-8543 -8797 8801 0
8543 -8801 0
8797 -8801 0
8800 8801 -8802 0
-8800 8802 0
-8801 8802 0
-90 -8733 8803 0
90 -8803 0
8733 -8803 0
-8549 -8803 -8804 0
8549 8803 -8804 0
8549 -8803 8804 0
-8549 8803 8804 0
-8804 -8802 -8805 0
8804 8802 -8805 0
8804 -8802 8805 0
-8804 8802 8805 0
-8804 -8802 8806 0
8804 -8806 0
8802 -8806 0
-8549 -8803 8807 0
8549 -8807 0
8803 -8807 0
8806 8807 -8808 0
-8806 8808 0
-8807 8808 0
-98 -8733 8809 0
98 -8809 0
8733 -8809 0
-8555 -8809 -8810 0
8555 8809 -8810 0
8555 -8809 8810 0
-8555 8809 8810 0
-8810 -8808 -8811 0
8810 8808 -8811 0
8810 -8808 8811 0
-8810 8808 8811 0
-8810 -8808 8812 0
8810 -8812 0
8808 -8812 0
-8555 -8809 8813 0
8555 -8813 0
8809 -8813 0
8812 8813 -8814 0
-8812 8814 0
-8813 8814 0
-106 -8733 8815 0
106 -8815 0
8733 -8815 0
-8561 -8815 -8816 0
8561 8815 -8816 0
8561 -8815 8816 0
-8561 8815 8816 0
-8816 -8814 -8817 0
8816 8814 -8817 0
8816 -8814 8817 0
-8816 8814 8817 0
-8816 -8814 8818 0
8816 -8818 0
8814 -8818 0
-8561 -8815 8819 0
8561 -8819 0
8815 -8819 0
8818 8819 -8820 0
-8818 8820 0
-8819 8820 0
-114 -8733 8821 0
114 -8821 0
8733 -8821 0
-8567 -8821 -8822 0
8567 8821 -8822 0
8567 -8821 8822 0
-8567 8821 8822 0
-8822 -8820 -8823 0
8822 8820 -8823 0
8822 -8820 8823 0
-8822 8820 8823 0
-8822 -8820 8824 0
8822 -8824 0
8820 -8824 0
-8567 -8821 8825 0
8567 -8825 0
8821 -8825 0
8824 8825 -8826 0
-8824 8826 0
-8825 8826 0
-122 -8733 8827 0
122 -8827 0
8733 -8827 0
-8573 -8827 -8828 0
8573 8827 -8828 0
8573 -8827 8828 0
-8573 8827 8828 0
-8828 -8826 -8829 0
8828 8826 -8829 0
8828 -8826 8829 0
-8828 8826 8829 0
-8828 -8826 8830 0
8828 -8830 0
8826 -8830 0
-8573 -8827 8831 0
8573 -8831 0
8827 -8831 0
8830 8831 -8832 0
-8830 8832 0
-8831 8832 0
-130 -8733 8833 0
130 -8833 0
8733 -8833 0
-8579 -8833 -8834 0
8579 8833 -8834 0
8579 -8833 8834 0
-8579 8833 8834 0
-8834 -8832 -8835 0
8834 8832 -8835 0
8834 -8832 8835 0
-8834 8832 8835 0
-8834 -8832 8836 0
8834 -8836 0
8832 -8836 0
-8579 -8833 8837 0
8579 -8837 0
8833 -8837 0
8836 8837 -8838 0
-8836 8838 0
-8837 8838 0
-138 -8733 8839 0
138 -8839 0
8733 -8839 0
-8585 -8839 -8840 0
8585 8839 -8840 0
8585 -8839 8840 0
-8585 8839 8840 0
-8840 -8838 -8841 0
8840 8838 -8841 0
8840 -8838 8841 0
-8840 8838 8841 0
-8840 -8838 8842 0
8840 -8842 0
8838 -8842 0
-8585 -8839 8843 0
8585 -8843 0
8839 -8843 0
8842 8843 -8844 0
-8842 8844 0
-8843 8844 0
-146 -8733 8845 0
146 -8845 0
8733 -8845 0
-8591 -8845 -8846 0
8591 8845 -8846 0
8591 -8845 8846 0
-8591 8845 8846 0
-8846 -8844 -8847 0
8846 8844 -8847 0
8846 -8844 8847 0
-8846 8844 8847 0
-8846 -8844 8848 0
8846 -8848 0
8844 -8848 0
-8591 -8845 8849 0
8591 -8849 0
8845 -8849 0
8848 8849 -8850 0
-8848 8850 0
-8849 8850 0
-154 -8733 8851 0
154 -8851 0
8733 -8851 0
-8597 -8851 -8852 0
8597 8851 -8852 0
8597 -8851 8852 0
-8597 8851 8852 0
-8852 -8850 -8853 0
8852 8850 -8853 0
8852 -8850 8853 0
-8852 8850 8853 0
-8852 -8850 8854 0
8852 -8854 0
8850 -8854 0
-8597 -8851 8855 0
8597 -8855 0
8851 -8855 0
8854 8855 -8856 0
-8854 8856 0
-8855 8856 0
-162 -8733 8857 0
162 -8857 0
8733 -8857 0
-8603 -8857 -8858 0
8603 8857 -8858 0
8603 -8857 8858 0
-8603 8857 8858 0
-8858 -8856 -8859 0
8858 8856 -8859 0
8858 -8856 8859 0
-8858 8856 8859 0
-8858 -8856 8860 0
8858 -8860 0
8856 -8860 0
-8603 -8857 8861 0
8603 -8861 0
8857 -8861 0
8860 8861 -8862 0
-8860 8862 0
-8861 8862 0
-170 -8733 8863 0
170 -8863 0
8733 -8863 0
-8609 -8863 -8864 0
8609 8863 -8864 0
8609 -8863 8864 0
-8609 8863 8864 0
-8864 -8862 -8865 0
8864 8862 -8865 0
8864 -8862 8865 0
-8864 8862 8865 0
-8864 -8862 8866 0
8864 -8866 0
8862 -8866 0
-8609 -8863 8867 0
8609 -8867 0
8863 -8867 0
8866 8867 -8868 0
-8866 8868 0
-8867 8868 0
-178 -8733 8869 0
178 -8869 0
8733 -8869 0
-8615 -8869 -8870 0
8615 8869 -8870 0
8615 -8869 8870 0
-8615 8869 8870 0
-8870 -8868 -8871 0
8870 8868 -8871 0
8870 -8868 8871 0
-8870 8868 8871 0
-8870 -8868 8872 0
8870 -8872 0
8868 -8872 0
-8615 -8869 8873 0
8615 -8873 0
8869 -8873 0
8872 8873 -8874 0
-8872 8874 0
-8873 8874 0
-186 -8733 8875 0
186 -8875 0
8733 -8875 0
-8621 -8875 -8876 0
8621 8875 -8876 0
8621 -8875 8876 0
-8621 8875 8876 0
-8876 -8874 -8877 0
8876 8874 -8877 0
8876 -8874 8877 0
-8876 8874 8877 0
-8876 -8874 8878 0
8876 -8878 0
8874 -8878 0
-8621 -8875 8879 0
8621 -8879 0
8875 -8879 0
8878 8879 -8880 0
-8878 8880 0
-8879 8880 0
-194 -8733 8881 0
194 -8881 0
8733 -8881 0
-8627 -8881 -8882 0
8627 8881 -8882 0
8627 -8881 8882 0
-8627 8881 8882 0
-8882 -8880 -8883 0
8882 8880 -8883 0
8882 -8880 8883 0
-8882 8880 8883 0
-8882 -8880 8884 0
8882 -8884 0
8880 -8884 0
-8627 -8881 8885 0
8627 -8885 0
8881 -8885 0
8884 8885 -8886 0
-8884 8886 0
-8885 8886 0
-202 -8733 8887 0
202 -8887 0
8733 -8887 0
-8633 -8887 -8888 0
8633 8887 -8888 0
8633 -8887 8888 0
-8633 8887 8888 0
-8888 -8886 -8889 0
8888 8886 -8889 0
8888 -8886 8889 0
-8888 8886 8889 0
-8888 -8886 8890 0
8888 -8890 0
8886 -8890 0
-8633 -8887 8891 0
8633 -8891 0
8887 -8891 0
8890 8891 -8892 0
-8890 8892 0
-8891 8892 0
-210 -8733 8893 0
210 -8893 0
8733 -8893 0
-8639 -8893 -8894 0
8639 8893 -8894 0
8639 -8893 8894 0
-8639 8893 8894 0
-8894 -8892 -8895 0
8894 8892 -8895 0
8894 -8892 8895 0
-8894 8892 8895 0
-8894 -8892 8896 0
8894 -8896 0
8892 -8896 0
-8639 -8893 8897 0
8639 -8897 0
8893 -8897 0
8896 8897 -8898 0
-8896 8898 0
-8897 8898 0
-218 -8733 8899 0
218 -8899 0
8733 -8899 0
-8645 -8899 -8900 0
8645 8899 -8900 0
8645 -8899 8900 0
-8645 8899 8900 0
-8900 -8898 -8901 0
8900 8898 -8901 0
8900 -8898 8901 0
-8900 8898 8901 0
-8900 -8898 8902 0
8900 -8902 0
8898 -8902 0
-8645 -8899 8903 0
8645 -8903 0
8899 -8903 0
8902 8903 -8904 0
-8902 8904 0
-8903 8904 0
-226 -8733 8905 0
226 -8905 0
8733 -8905 0
-8651 -8905 -8906 0
8651 8905 -8906 0
8651 -8905 8906 0
-8651 8905 8906 0
-8906 -8904 -8907 0
8906 8904 -8907 0
8906 -8904 8907 0
-8906 8904 8907 0
-8906 -8904 8908 0
8906 -8908 0
8904 -8908 0
-8651 -8905 8909 0
8651 -8909 0
8905 -8909 0
8908 8909 -8910 0
-8908 8910 0
-8909 8910 0
-234 -8733 8911 0
234 -8911 0
8733 -8911 0
-8657 -8911 -8912 0
8657 8911 -8912 0
8657 -8911 8912 0
-8657 8911 8912 0
-8912 -8910 -8913 0
8912 8910 -8913 0
8912 -8910 8913 0
-8912 8910 8913 0
-8912 -8910 8914 0
8912 -8914 0
8910 -8914 0
-8657 -8911 8915 0
8657 -8915 0
8911 -8915 0
8914 8915 -8916 0
-8914 8916 0
-8915 8916 0
-242 -8733 8917 0
242 -8917 0
8733 -8917 0
-8663 -8917 -8918 0
8663 8917 -8918 0
8663 -8917 8918 0
-8663 8917 8918 0
-8918 -8916 -8919 0
8918 8916 -8919 0
8918 -8916 8919 0
-8918 8916 8919 0
-8918 -8916 8920 0
8918 -8920 0
8916 -8920 0
-8663 -8917 8921 0
8663 -8921 0
8917 -8921 0
8920 8921 -8922 0
-8920 8922 0
-8921 8922 0
-250 -8733 8923 0
250 -8923 0
8733 -8923 0
-8669 -8923 -8924 0
8669 8923 -8924 0
8669 -8923 8924 0
-8669 8923 8924 0
-8924 -8922 -8925 0
8924 8922 -8925 0
8924 -8922 8925 0
-8924 8922 8925 0
-8924 -8922 8926 0
8924 -8926 0
8922 -8926 0
-8669 -8923 8927 0
8669 -8927 0
8923 -8927 0
8926 8927 -8928 0
-8926 8928 0
-8927 8928 0
-258 -8733 8929 0
258 -8929 0
8733 -8929 0
-8675 -8929 -8930 0
8675 8929 -8930 0
8675 -8929 8930 0
-8675 8929 8930 0
-8930 -8928 -8931 0
8930 8928 -8931 0
8930 -8928 8931 0
-8930 8928 8931 0
-8930 -8928 8932 0
8930 -8932 0
8928 -8932 0
-8675 -8929 8933 0
8675 -8933 0
8929 -8933 0
8932 8933 -8934 0
-8932 8934 0
-8933 8934 0
-266 -8733 8935 0
266 -8935 0
8733 -8935 0
-8681 -8935 -8936 0
8681 8935 -8936 0
8681 -8935 8936 0
-8681 8935 8936 0
-8936 -8934 -8937 0
8936 8934 -8937 0
8936 -8934 8937 0
-8936 8934 8937 0
-8936 -8934 8938 0
8936 -8938 0
8934 -8938 0
-8681 -8935 8939 0
8681 -8939 0
8935 -8939 0
8938 8939 -8940 0
-8938 8940 0
-8939 8940 0
-274 -8733 8941 0
274 -8941 0
8733 -8941 0
-8687 -8941 -8942 0
8687 8941 -8942 0
8687 -8941 8942 0
-8687 8941 8942 0
-8942 -8940 -8943 0
8942 8940 -8943 0
8942 -8940 8943 0
-8942 8940 8943 0
-8942 -8940 8944 0
8942 -8944 0
8940 -8944 0
-8687 -8941 8945 0
8687 -8945 0
8941 -8945 0
8944 8945 -8946 0
-8944 8946 0
-8945 8946 0
-282 -8733 8947 0
282 -8947 0
8733 -8947 0
-8693 -8947 -8948 0
8693 8947 -8948 0
8693 -8947 8948 0
-8693 8947 8948 0
-8948 -8946 -8949 0
8948 8946 -8949 0
8948 -8946 8949 0
-8948 8946 8949 0
-8948 -8946 8950 0
8948 -8950 0
8946 -8950 0
-8693 -8947 8951 0
8693 -8951 0
8947 -8951 0
8950 8951 -8952 0
-8950 8952 0
-8951 8952 0
-290 -8733 8953 0
290 -8953 0
8733 -8953 0
-8699 -8953 -8954 0
8699 8953 -8954 0
8699 -8953 8954 0
-8699 8953 8954 0
-8954 -8952 -8955 0
8954 8952 -8955 0
8954 -8952 8955 0
-8954 8952 8955 0
-8954 -8952 8956 0
8954 -8956 0
8952 -8956 0
-8699 -8953 8957 0
8699 -8957 0
8953 -8957 0
8956 8957 -8958 0
-8956 8958 0
-8957 8958 0
-298 -8733 8959 0
298 -8959 0
8733 -8959 0
-8705 -8959 -8960 0
8705 8959 -8960 0
8705 -8959 8960 0
-8705 8959 8960 0
-8960 -8958 -8961 0
8960 8958 -8961 0
8960 -8958 8961 0
-8960 8958 8961 0
-8960 -8958 8962 0
8960 -8962 0
8958 -8962 0
-8705 -8959 8963 0
8705 -8963 0
8959 -8963 0
8962 8963 -8964 0
-8962 8964 0
-8963 8964 0
-306 -8733 8965 0
306 -8965 0
8733 -8965 0
-8711 -8965 -8966 0
8711 8965 -8966 0
8711 -8965 8966 0
-8711 8965 8966 0
-8966 -8964 -8967 0
8966 8964 -8967 0
8966 -8964 8967 0
-8966 8964 8967 0
-8966 -8964 8968 0
8966 -8968 0
8964 -8968 0
-8711 -8965 8969 0
8711 -8969 0
8965 -8969 0
8968 8969 -8970 0
-8968 8970 0
-8969 8970 0
-314 -8733 8971 0
314 -8971 0
8733 -8971 0
-8717 -8971 -8972 0
8717 8971 -8972 0
8717 -8971 8972 0
-8717 8971 8972 0
-8972 -8970 -8973 0
8972 8970 -8973 0
8972 -8970 8973 0
-8972 8970 8973 0
-8972 -8970 8974 0
8972 -8974 0
8970 -8974 0
-8717 -8971 8975 0
8717 -8975 0
8971 -8975 0
8974 8975 -8976 0
-8974 8976 0
-8975 8976 0
-322 -8733 8977 0
322 -8977 0
8733 -8977 0
-8723 -8977 -8978 0
8723 8977 -8978 0
8723 -8977 8978 0
-8723 8977 8978 0
-8978 -8976 -8979 0
8978 8976 -8979 0
8978 -8976 8979 0
-8978 8976 8979 0
-8978 -8976 8980 0
8978 -8980 0
8976 -8980 0
-8723 -8977 8981 0
8723 -8981 0
8977 -8981 0
8980 8981 -8982 0
-8980 8982 0
-8981 8982 0
-330 -8733 8983 0
330 -8983 0
8733 -8983 0
-8729 -8983 -8984 0
8729 8983 -8984 0
8729 -8983 8984 0
-8729 8983 8984 0
-8984 -8982 -8985 0
8984 8982 -8985 0
8984 -8982 8985 0
-8984 8982 8985 0
-8984 -8982 8986 0
8984 -8986 0
8982 -8986 0
-8729 -8983 8987 0
8729 -8987 0
8983 -8987 0
8986 8987 -8988 0
-8986 8988 0
-8987 8988 0
-338 -8733 8989 0
338 -8989 0
8733 -8989 0
-8732 -8989 -8990 0
8732 8989 -8990 0
8732 -8989 8990 0
-8732 8989 8990 0
-8990 -8988 -8991 0
8990 8988 -8991 0
8990 -8988 8991 0
-8990 8988 8991 0
-8990 -8988 8992 0
8990 -8992 0
8988 -8992 0
-8732 -8989 8993 0
8732 -8993 0
8989 -8993 0
8992 8993 -8994 0
-8992 8994 0
-8993 8994 0
-1 -8995 8996 0
1 -8996 0
8995 -8996 0
-8739 -8996 -8997 0
8739 8996 -8997 0
8739 -8996 8997 0
-8739 8996 8997 0
-8739 -8996 8998 0
8739 -8998 0
8996 -8998 0
-4 -8995 8999 0
4 -8999 0
8995 -8999 0
-8745 -8999 -9000 0
8745 8999 -9000 0
8745 -8999 9000 0
-8745 8999 9000 0
-9000 -8998 -9001 0
9000 8998 -9001 0
9000 -8998 9001 0
-9000 8998 9001 0
-9000 -8998 9002 0
9000 -9002 0
8998 -9002 0
-8745 -8999 9003 0
8745 -9003 0
8999 -9003 0
9002 9003 -9004 0
-9002 9004 0
-9003 9004 0
-10 -8995 9005 0
10 -9005 0
8995 -9005 0
-8751 -9005 -9006 0
8751 9005 -9006 0
8751 -9005 9006 0
-8751 9005 9006 0
-9006 -9004 -9007 0
9006 9004 -9007 0
9006 -9004 9007 0
-9006 9004 9007 0
-9006 -9004 9008 0
9006 -9008 0
9004 -9008 0
-8751 -9005 9009 0
8751 -9009 0
9005 -9009 0
9008 9009 -9010 0
-9008 9010 0
-9009 9010 0
-18 -8995 9011 0
18 -9011 0
8995 -9011 0
-8757 -9011 -9012 0
8757 9011 -9012 0
8757 -9011 9012 0
-8757 9011 9012 0
-9012 -9010 -9013 0
9012 9010 -9013 0
9012 -9010 9013 0
-9012 9010 9013 0
-9012 -9010 9014 0
9012 -9014 0
9010 -9014 0
-8757 -9011 9015 0
8757 -9015 0
9011 -9015 0
9014 9015 -9016 0
-9014 9016 0
-9015 9016 0
-26 -8995 9017 0
26 -9017 0
8995 -9017 0
-8763 -9017 -9018 0
8763 9017 -9018 0
8763 -9017 9018 0
-8763 9017 9018 0
-9018 -9016 -9019 0
9018 9016 -9019 0
9018 -9016 9019 0
-9018 9016 9019 0
-9018 -9016 9020 0
9018 -9020 0
9016 -9020 0
-8763 -9017 9021 0
8763 -9021 0
9017 -9021 0
9020 9021 -9022 0
-9020 9022 0
-9021 9022 0
-34 -8995 9023 0
34 -9023 0
8995 -9023 0
-8769 -9023 -9024 0
8769 9023 -9024 0
8769 -9023 9024 0
-8769 9023 9024 0
-9024 -9022 -9025 0
9024 9022 -9025 0
9024 -9022 9025 0
-9024 9022 9025 0
-9024 -9022 9026 0
9024 -9026 0
9022 -9026 0
-8769 -9023 9027 0
8769 -9027 0
9023 -9027 0
9026 9027 -9028 0
-9026 9028 0
-9027 9028 0
-42 -8995 9029 0
42 -9029 0
8995 -9029 0
-8775 -9029 -9030 0
8775 9029 -9030 0
8775 -9029 9030 0
-8775 9029 9030 0
-9030 -9028 -9031 0
9030 9028 -9031 0
9030 -9028 9031 0
-9030 9028 9031 0
-9030 -9028 9032 0
9030 -9032 0
9028 -9032 0
-8775 -9029 9033 0
8775 -9033 0
9029 -9033 0
9032 9033 -9034 0
-9032 9034 0
-9033 9034 0
-50 -8995 9035 0
50 -9035 0
8995 -9035 0
-8781 -9035 -9036 0
8781 9035 -9036 0
8781 -9035 9036 0
-8781 9035 9036 0
-9036 -9034 -9037 0
9036 9034 -9037 0
9036 -9034 9037 0
-9036 9034 9037 0
-9036 -9034 9038 0
9036 -9038 0
9034 -9038 0
-8781 -9035 9039 0
8781 -9039 0
9035 -9039 0
9038 9039 -9040 0
-9038 9040 0
-9039 9040 0
-58 -8995 9041 0
58 -9041 0
8995 -9041 0
-8787 -9041 -9042 0
8787 9041 -9042 0
8787 -9041 9042 0
-8787 9041 9042 0
-9042 -9040 -9043 0
9042 9040 -9043 0
9042 -9040 9043 0
-9042 9040 9043 0
-9042 -9040 9044 0
9042 -9044 0
9040 -9044 0
-8787 -9041 9045 0
8787 -9045 0
9041 -9045 0
9044 9045 -9046 0
-9044 9046 0
-9045 9046 0
-66 -8995 9047 0
66 -9047 0
8995 -9047 0
-8793 -9047 -9048 0
8793 9047 -9048 0
8793 -9047 9048 0
-8793 9047 9048 0
-9048 -9046 -9049 0
9048 9046 -9049 0
9048 -9046 9049 0
-9048 9046 9049 0
-9048 -9046 9050 0
9048 -9050 0
9046 -9050 0
-8793 -9047 9051 0
8793 -9051 0
9047 -9051 0
9050 9051 -9052 0
-9050 9052 0
-9051 9052 0
-74 -8995 9053 0
74 -9053 0
8995 -9053 0
-8799 -9053 -9054 0
8799 9053 -9054 0
8799 -9053 9054 0
-8799 9053 9054 0
-9054 -9052 -9055 0
9054 9052 -9055 0
9054 -9052 9055 0
-9054 9052 9055 0
-9054 -9052 9056 0
9054 -9056 0
9052 -9056 0
-8799 -9053 9057 0
8799 -9057 0
9053 -9057 0
9056 9057 -9058 0
-9056 9058 0
-9057 9058 0
-82 -8995 9059 0
82 -9059 0
8995 -9059 0
-8805 -9059 -9060 0
8805 9059 -9060 0
8805 -9059 9060 0
-8805 9059 9060 0
-9060 -9058 -9061 0
9060 9058 -9061 0
9060 -9058 9061 0
-9060 9058 9061 0
-9060 -9058 9062 0
9060 -9062 0
9058 -9062 0
-8805 -9059 9063 0
8805 -9063 0
9059 -9063 0
9062 9063 -9064 0
-9062 9064 0
-9063 9064 0
-90 -8995 9065 0
90 -9065 0
8995 -9065 0
-8811 -9065 -9066 0
8811 9065 -9066 0
8811 -9065 9066 0
-8811 9065 9066 0
-9066 -9064 -9067 0
9066 9064 -9067 0
9066 -9064 9067 0
-9066 9064 9067 0
-9066 -9064 9068 0
9066 -9068 0
9064 -9068 0
-8811 -9065 9069 0
8811 -9069 0
9065 -9069 0
9068 9069 -9070 0
-9068 9070 0
-9069 9070 0
-98 -8995 9071 0
98 -9071 0
8995 -9071 0
-8817 -9071 -9072 0
8817 9071 -9072 0
8817 -9071 9072 0
-8817 9071 9072 0
-9072 -9070 -9073 0
9072 9070 -9073 0
9072 -9070 9073 0
-9072 9070 9073 0
-9072 -9070 9074 0
9072 -9074 0
9070 -9074 0
-8817 -9071 9075 0
8817 -9075 0
9071 -9075 0
9074 9075 -9076 0
-9074 9076 0
-9075 9076 0
-106 -8995 9077 0
106 -9077 0
8995 -9077 0
-8823 -9077 -9078 0
8823 9077 -9078 0
8823 -9077 9078 0
-8823 9077 9078 0
-9078 -9076 -9079 0
9078 9076 -9079 0
9078 -9076 9079 0
-9078 9076 9079 0
-9078 -9076 9080 0
9078 -9080 0
9076 -9080 0
-8823 -9077 9081 0
8823 -9081 0
9077 -9081 0
9080 9081 -9082 0
-9080 9082 0
-9081 9082 0
-114 -8995 9083 0
114 -9083 0
8995 -9083 0
-8829 -9083 -9084 0
8829 9083 -9084 0
8829 -9083 9084 0
-8829 9083 9084 0
-9084 -9082 -9085 0
9084 9082 -9085 0
9084 -9082 9085 0
-9084 9082 9085 0
-9084 -9082 9086 0
9084 -9086 0
9082 -9086 0
-8829 -9083 9087 0
8829 -9087 0
9083 -9087 0
9086 9087 -9088 0
-9086 9088 0
-9087 9088 0
-122 -8995 9089 0
122 -9089 0
8995 -9089 0
-8835 -9089 -9090 0
8835 9089 -9090 0
8835 -9089 9090 0
-8835 9089 9090 0
-9090 -9088 -9091 0
9090 9088 -9091 0
9090 -9088 9091 0
-9090 9088 9091 0
-9090 -9088 9092 0
9090 -9092 0
9088 -9092 0
-8835 -9089 9093 0
8835 -9093 0
9089 -9093 0
9092 9093 -9094 0
-9092 9094 0
-9093 9094 0
-130 -8995 9095 0
130 -9095 0
8995 -9095 0
-8841 -9095 -9096 0
8841 9095 -9096 0
8841 -9095 9096 0
-8841 9095 9096 0
-9096 -9094 -9097 0
9096 9094 -9097 0
9096 -9094 9097 0
-9096 9094 9097 0
-9096 -9094 9098 0
9096 -9098 0
9094 -9098 0
-8841 -9095 9099 0
8841 -9099 0
9095 -9099 0
9098 9099 -9100 0
-9098 9100 0
-9099 9100 0
-138 -8995 9101 0
138 -9101 0
8995 -9101 0
-8847 -9101 -9102 0
8847 9101 -9102 0
8847 -9101 9102 0
-8847 9101 9102 0
-9102 -9100 -9103 0
9102 9100 -9103 0
9102 -9100 9103 0
-9102 9100 9103 0
-9102 -9100 9104 0
9102 -9104 0
9100 -9104 0
-8847 -9101 9105 0
8847 -9105 0
9101 -9105 0
9104 9105 -9106 0
-9104 9106 0
-9105 9106 0
-146 -8995 9107 0
146 -9107 0
8995 -9107 0
-8853 -9107 -9108 0
8853 9107 -9108 0
8853 -9107 9108 0
-8853 9107 9108 0
-9108 -9106 -9109 0
9108 9106 -9109 0
9108 -9106 9109 0
-9108 9106 9109 0
-9108 -9106 9110 0
9108 -9110 0
9106 -9110 0
-8853 -9107 9111 0
8853 -9111 0
9107 -9111 0
9110 9111 -9112 0
-9110 9112 0
-9111 9112 0
-154 -8995 9113 0
154 -9113 0
8995 -9113 0
-8859 -9113 -9114 0
8859 9113 -9114 0
8859 -9113 9114 0
-8859 9113 9114 0
-9114 -9112 -9115 0
9114 9112 -9115 0
9114 -9112 9115 0
-9114 9112 9115 0
-9114 -9112 9116 0
9114 -9116 0
9112 -9116 0
-8859 -9113 9117 0
8859 -9117 0
9113 -9117 0
9116 9117 -9118 0
-9116 9118 0
-9117 9118 0
-162 -8995 9119 0
162 -9119 0
8995 -9119 0
-8865 -9119 -9120 0
8865 9119 -9120 0
8865 -9119 9120 0
-8865 9119 9120 0
-9120 -9118 -9121 0
9120 9118 -9121 0
9120 -9118 9121 0
-9120 9118 9121 0
-9120 -9118 9122 0
9120 -9122 0
9118 -9122 0
-8865 -9119 9123 0
8865 -9123 0
9119 -9123 0
9122 9123 -9124 0
-9122 9124 0
-9123 9124 0
-170 -8995 9125 0
170 -9125 0
8995 -9125 0
-8871 -9125 -9126 0
8871 9125 -9126 0
8871 -9125 9126 0
-8871 9125 9126 0
-9126 -9124 -9127 0
9126 9124 -9127 0
9126 -9124 9127 0
-9126 9124 9127 0
-9126 -9124 9128 0
9126 -9128 0
9124 -9128 0
-8871 -9125 9129 0
8871 -9129 0
9125 -9129 0
9128 9129 -9130 0
-9128 9130 0
-9129 9130 0
-178 -8995 9131 0
178 -9131 0
8995 -9131 0
-8877 -9131 -9132 0
8877 9131 -9132 0
8877 -9131 9132 0
-8877 9131 9132 0
-9132 -9130 -9133 0
9132 9130 -9133 0
9132 -9130 9133 0
-9132 9130 9133 0
-9132 -9130 9134 0
9132 -9134 0
9130 -9134 0
-8877 -9131 9135 0
8877 -9135 0
9131 -9135 0
9134 9135 -9136 0
-9134 9136 0
-9135 9136 0
-186 -8995 9137 0
186 -9137 0
8995 -9137 0
-8883 -9137 -9138 0
8883 9137 -9138 0
8883 -9137 9138 0
-8883 9137 9138 0
-9138 -9136 -9139 0
9138 9136 -9139 0
9138 -9136 9139 0
-9138 9136 9139 0
-9138 -9136 9140 0
9138 -9140 0
9136 -9140 0
-8883 -9137 9141 0
8883 -9141 0
9137 -9141 0
9140 9141 -9142 0
-9140 9142 0
-9141 9142 0
-194 -8995 9143 0
194 -9143 0
8995 -9143 0
-8889 -9143 -9144 0
8889 9143 -9144 0
8889 -9143 9144 0
-8889 9143 9144 0
-9144 -9142 -9145 0
9144 9142 -9145 0
9144 -9142 9145 0
-9144 9142 9145 0
-9144 -9142 9146 0
9144 -9146 0
9142 -9146 0
-8889 -9143 9147 0
8889 -9147 0
9143 -9147 0
9146 9147 -9148 0
-9146 9148 0
-9147 9148 0
-202 -8995 9149 0
202 -9149 0
8995 -9149 0
-8895 -9149 -9150 0
8895 9149 -9150 0
8895 -9149 9150 0
-8895 9149 9150 0
-9150 -9148 -9151 0
9150 9148 -9151 0
9150 -9148 9151 0
-9150 9148 9151 0
-9150 -9148 9152 0
9150 -9152 0
9148 -9152 0
-8895 -9149 9153 0
8895 -9153 0
9149 -9153 0
9152 9153 -9154 0
-9152 9154 0
-9153 9154 0
-210 -8995 9155 0
210 -9155 0
8995 -9155 0
-8901 -9155 -9156 0
8901 9155 -9156 0
8901 -9155 9156 0
-8901 9155 9156 0
-9156 -9154 -9157 0
9156 9154 -9157 0
9156 -9154 9157 0
-9156 9154 9157 0
-9156 -9154 9158 0
9156 -9158 0
9154 -9158 0
-8901 -9155 9159 0
8901 -9159 0
9155 -9159 0
9158 9159 -9160 0
-9158 9160 0
-9159 9160 0
-218 -8995 9161 0
218 -9161 0
8995 -9161 0
-8907 -9161 -9162 0
8907 9161 -9162 0
8907 -9161 9162 0
-8907 9161 9162 0
-9162 -9160 -9163 0
9162 9160 -9163 0
9162 -9160 9163 0
-9162 9160 9163 0
-9162 -9160 9164 0
9162 -9164 0
9160 -9164 0
-8907 -9161 9165 0
8907 -9165 0
9161 -9165 0
9164 9165 -9166 0
-9164 9166 0
-9165 9166 0
-226 -8995 9167 0
226 -9167 0
8995 -9167 0
-8913 -9167 -9168 0
8913 9167 -9168 0
8913 -9167 9168 0
-8913 9167 9168 0
-9168 -9166 -9169 0
9168 9166 -9169 0
9168 -9166 9169 0
-9168 9166 9169 0
-9168 -9166 9170 0
9168 -9170 0
9166 -9170 0
-8913 -9167 9171 0
8913 -9171 0
9167 -9171 0
9170 9171 -9172 0
-9170 9172 0
-9171 9172 0
-234 -8995 9173 0
234 -9173 0
8995 -9173 0
-8919 -9173 -9174 0
8919 9173 -9174 0
8919 -9173 9174 0
-8919 9173 9174 0
-9174 -9172 -9175 0
9174 9172 -9175 0
9174 -9172 9175 0
-9174 9172 9175 0
-9174 -9172 9176 0
9174 -9176 0
9172 -9176 0
-8919 -9173 9177 0
8919 -9177 0
9173 -9177 0
9176 9177 -9178 0
-9176 9178 0
-9177 9178 0
-242 -8995 9179 0
242 -9179 0
8995 -9179 0
-8925 -9179 -9180 0
8925 9179 -9180 0
8925 -9179 9180 0
-8925 9179 9180 0
-9180 -9178 -9181 0
9180 9178 -9181 0
9180 -9178 9181 0
-9180 9178 9181 0
-9180 -9178 9182 0
9180 -9182 0
9178 -9182 0
-8925 -9179 9183 0
8925 -9183 0
9179 -9183 0
9182 9183 -9184 0
-9182 9184 0
-9183 9184 0
-250 -8995 9185 0
250 -9185 0
8995 -9185 0
-8931 -9185 -9186 0
8931 9185 -9186 0
8931 -9185 9186 0
-8931 9185 9186 0
-9186 -9184 -9187 0
9186 9184 -9187 0
9186 -9184 9187 0
-9186 9184 9187 0
-9186 -9184 9188 0
9186 -9188 0
9184 -9188 0
-8931 -9185 9189 0
8931 -9189 0
9185 -9189 0
9188 9189 -9190 0
-9188 9190 0
-9189 9190 0
-258 -8995 9191 0
258 -9191 0
8995 -9191 0
-8937 -9191 -9192 0
8937 9191 -9192 0
8937 -9191 9192 0
-8937 9191 9192 0
-9192 -9190 -9193 0
9192 9190 -9193 0
9192 -9190 9193 0
-9192 9190 9193 0
-9192 -9190 9194 0
9192 -9194 0
9190 -9194 0
-8937 -9191 9195 0
8937 -9195 0
9191 -9195 0
9194 9195 -9196 0
-9194 9196 0
-9195 9196 0
-266 -8995 9197 0
266 -9197 0
8995 -9197 0
-8943 -9197 -9198 0
8943 9197 -9198 0
8943 -9197 9198 0
-8943 9197 9198 0
-9198 -9196 -9199 0
9198 9196 -9199 0
9198 -9196 9199 0
-9198 9196 9199 0
-9198 -9196 9200 0
9198 -9200 0
9196 -9200 0
-8943 -9197 9201 0
8943 -9201 0
9197 -9201 0
9200 9201 -9202 0
-9200 9202 0
-9201 9202 0
-274 -8995 9203 0
274 -9203 0
8995 -9203 0
-8949 -9203 -9204 0
8949 9203 -9204 0
8949 -9203 9204 0
-8949 9203 9204 0
-9204 -9202 -9205 0
9204 9202 -9205 0
9204 -9202 9205 0
-9204 9202 9205 0
-9204 -9202 9206 0
9204 -9206 0
9202 -9206 0
-8949 -9203 9207 0
8949 -9207 0
9203 -9207 0
9206 9207 -9208 0
-9206 9208 0
-9207 9208 0
-282 -8995 9209 0
282 -9209 0
8995 -9209 0
-8955 -9209 -9210 0
8955 9209 -9210 0
8955 -9209 9210 0
-8955 9209 9210 0
-9210 -9208 -9211 0
9210 9208 -9211 0
9210 -9208 9211 0
-9210 9208 9211 0
-9210 -9208 9212 0
9210 -9212 0
9208 -9212 0
-8955 -9209 9213 0
8955 -9213 0
9209 -9213 0
9212 9213 -9214 0
-9212 9214 0
-9213 9214 0
-290 -8995 9215 0
290 -9215 0
8995 -9215 0
-8961 -9215 -9216 0
8961 9215 -9216 0
8961 -9215 9216 0
-8961 9215 9216 0
-9216 -9214 -9217 0
9216 9214 -9217 0
9216 -9214 9217 0
-9216 9214 9217 0
-9216 -9214 9218 0
9216 -9218 0
9214 -9218 0
-8961 -9215 9219 0
8961 -9219 0
9215 -9219 0
9218 9219 -9220 0
-9218 9220 0
-9219 9220 0
-298 -8995 9221 0
298 -9221 0
8995 -9221 0
-8967 -9221 -9222 0
8967 9221 -9222 0
8967 -9221 9222 0
-8967 9221 9222 0
-9222 -9220 -9223 0
9222 9220 -9223 0
9222 -9220 9223 0
-9222 9220 9223 0
-9222 -9220 9224 0
9222 -9224 0
9220 -9224 0
-8967 -9221 9225 0
8967 -9225 0
9221 -9225 0
9224 9225 -9226 0
-9224 9226 0
-9225 9226 0
-306 -8995 9227 0
306 -9227 0
8995 -9227 0
-8973 -9227 -9228 0
8973 9227 -9228 0
8973 -9227 9228 0
-8973 9227 9228 0
-9228 -9226 -9229 0
9228 9226 -9229 0
9228 -9226 9229 0
-9228 9226 9229 0
-9228 -9226 9230 0
9228 -9230 0
9226 -9230 0
-8973 -9227 9231 0
8973 -9231 0
9227 -9231 0
9230 9231 -9232 0
-9230 9232 0
-9231 9232 0
-314 -8995 9233 0
314 -9233 0
8995 -9233 0
-8979 -9233 -9234 0
8979 9233 -9234 0
8979 -9233 9234 0
-8979 9233 9234 0
-9234 -9232 -9235 0
9234 9232 -9235 0
9234 -9232 9235 0
-9234 9232 9235 0
-9234 -9232 9236 0
9234 -9236 0
9232 -9236 0
-8979 -9233 9237 0
8979 -9237 0
9233 -9237 0
9236 9237 -9238 0
-9236 9238 0
-9237 9238 0
-322 -8995 9239 0
322 -9239 0
8995 -9239 0
-8985 -9239 -9240 0
8985 9239 -9240 0
8985 -9239 9240 0
-8985 9239 9240 0
-9240 -9238 -9241 0
9240 9238 -9241 0
9240 -9238 9241 0
-9240 9238 9241 0
-9240 -9238 9242 0
9240 -9242 0
9238 -9242 0
-8985 -9239 9243 0
8985 -9243 0
9239 -9243 0
9242 9243 -9244 0
-9242 9244 0
-9243 9244 0
-330 -8995 9245 0
330 -9245 0
8995 -9245 0
-8991 -9245 -9246 0
8991 9245 -9246 0
8991 -9245 9246 0
-8991 9245 9246 0
-9246 -9244 -9247 0
9246 9244 -9247 0
9246 -9244 9247 0
-9246 9244 9247 0
-9246 -9244 9248 0
9246 -9248 0
9244 -9248 0
-8991 -9245 9249 0
8991 -9249 0
9245 -9249 0
9248 9249 -9250 0
-9248 9250 0
-9249 9250 0
-338 -8995 9251 0
338 -9251 0
8995 -9251 0
-8994 -9251 -9252 0
8994 9251 -9252 0
8994 -9251 9252 0
-8994 9251 9252 0
-9252 -9250 -9253 0
9252 9250 -9253 0
9252 -9250 9253 0
-9252 9250 9253 0
-9252 -9250 9254 0
9252 -9254 0
9250 -9254 0
-8994 -9251 9255 0
8994 -9255 0
9251 -9255 0
9254 9255 -9256 0
-9254 9256 0
-9255 9256 0
-1 -9257 9258 0
1 -9258 0
9257 -9258 0
-9001 -9258 -9259 0
9001 9258 -9259 0
9001 -9258 9259 0
-9001 9258 9259 0
-9001 -9258 9260 0
9001 -9260 0
9258 -9260 0
-4 -9257 9261 0
4 -9261 0
9257 -9261 0
-9007 -9261 -9262 0
9007 9261 -9262 0
9007 -9261 9262 0
-9007 9261 9262 0
-9262 -9260 -9263 0
9262 9260 -9263 0
9262 -9260 9263 0
-9262 9260 9263 0
-9262 -9260 9264 0
9262 -9264 0
9260 -9264 0
-9007 -9261 9265 0
9007 -9265 0
9261 -9265 0
9264 9265 -9266 0
-9264 9266 0
-9265 9266 0
-10 -9257 9267 0
10 -9267 0
9257 -9267 0
-9013 -9267 -9268 0
9013 9267 -9268 0
9013 -9267 9268 0
-9013 9267 9268 0
-9268 -9266 -9269 0
9268 9266 -9269 0
9268 -9266 9269 0
-9268 9266 9269 0
-9268 -9266 9270 0
9268 -9270 0
9266 -9270 0
-9013 -9267 9271 0
9013 -9271 0
9267 -9271 0
9270 9271 -9272 0
-9270 9272 0
-9271 9272 0
-18 -9257 9273 0
18 -9273 0
9257 -9273 0
-9019 -9273 -9274 0
9019 9273 -9274 0
9019 -9273 9274 0
-9019 9273 9274 0
-9274 -9272 -9275 0
9274 9272 -9275 0
9274 -9272 9275 0
-9274 9272 9275 0
-9274 -9272 9276 0
9274 -9276 0
9272 -9276 0
-9019 -9273 9277 0
9019 -9277 0
9273 -9277 0
9276 9277 -9278 0
-9276 9278 0
-9277 9278 0
-26 -9257 9279 0
26 -9279 0
9257 -9279 0
-9025 -9279 -9280 0
9025 9279 -9280 0
9025 -9279 9280 0
-9025 9279 9280 0
-9280 -9278 -9281 0
9280 9278 -9281 0
9280 -9278 9281 0
-9280 9278 9281 0
-9280 -9278 9282 0
9280 -9282 0
9278 -9282 0
-9025 -9279 9283 0
9025 -9283 0
9279 -9283 0
9282 9283 -9284 0
-9282 9284 0
-9283 9284 0
-34 -9257 9285 0
34 -9285 0
9257 -9285 0
-9031 -9285 -9286 0
9031 9285 -9286 0
9031 -9285 9286 0
-9031 9285 9286 0
-9286 -9284 -9287 0
9286 9284 -9287 0
9286 -9284 9287 0
-9286 9284 9287 0
-9286 -9284 9288 0
9286 -9288 0
9284 -9288 0
-9031 -9285 9289 0
9031 -9289 0
9285 -9289 0
9288 9289 -9290 0
-9288 9290 0
-9289 9290 0
-42 -9257 9291 0
42 -9291 0
9257 -9291 0
-9037 -9291 -9292 0
9037 9291 -9292 0
9037 -9291 9292 0
-9037 9291 9292 0
-9292 -9290 -9293 0
9292 9290 -9293 0
9292 -9290 9293 0
-9292 9290 9293 0
-9292 -9290 9294 0
9292 -9294 0
9290 -9294 0
-9037 -9291 9295 0
9037 -9295 0
9291 -9295 0
9294 9295 -9296 0
-9294 9296 0
-9295 9296 0
-50 -9257 9297 0
50 -9297 0
9257 -9297 0
-9043 -9297 -9298 0
9043 9297 -9298 0
9043 -9297 9298 0
-9043 9297 9298 0
-9298 -9296 -9299 0
9298 9296 -9299 0
9298 -9296 9299 0
-9298 9296 9299 0
-9298 -9296 9300 0
9298 -9300 0
9296 -9300 0
-9043 -9297 9301 0
9043 -9301 0
9297 -9301 0
9300 9301 -9302 0
-9300 9302 0
-9301 9302 0
-58 -9257 9303 0
58 -9303 0
9257 -9303 0
-9049 -9303 -9304 0
9049 9303 -9304 0
9049 -9303 9304 0
-9049 9303 9304 0
-9304 -9302 -9305 0
9304 9302 -9305 0
9304 -9302 9305 0
-9304 9302 9305 0
-9304 -9302 9306 0
9304 -9306 0
9302 -9306 0
-9049 -9303 9307 0
9049 -9307 0
9303 -9307 0
9306 9307 -9308 0
-9306 9308 0
-9307 9308 0
-66 -9257 9309 0
66 -9309 0
9257 -9309 0
-9055 -9309 -9310 0
9055 9309 -9310 0
9055 -9309 9310 0
-9055 9309 9310 0
-9310 -9308 -9311 0
9310 9308 -9311 0
9310 -9308 9311 0
-9310 9308 9311 0
-9310 -9308 9312 0
9310 -9312 0
9308 -9312 0
-9055 -9309 9313 0
9055 -9313 0
9309 -9313 0
9312 9313 -9314 0
-9312 9314 0
-9313 9314 0
-74 -9257 9315 0
74 -9315 0
9257 -9315 0
-9061 -9315 -9316 0
9061 9315 -9316 0
9061 -9315 9316 0
-9061 9315 9316 0
-9316 -9314 -9317 0
9316 9314 -9317 0
9316 -9314 9317 0
-9316 9314 9317 0
-9316 -9314 9318 0
9316 -9318 0
9314 -9318 0
-9061 -9315 9319 0
9061 -9319 0
9315 -9319 0
9318 9319 -9320 0
-9318 9320 0
-9319 9320 0
-82 -9257 9321 0
82 -9321 0
9257 -9321 0
-9067 -9321 -9322 0
9067 9321 -9322 0
9067 -9321 9322 0
-9067 9321 9322 0
-9322 -9320 -9323 0
9322 9320 -9323 0
9322 -9320 9323 0
-9322 9320 9323 0
-9322 -9320 9324 0
9322 -9324 0
9320 -9324 0
-9067 -9321 9325 0
9067 -9325 0
9321 -9325 0
9324 9325 -9326 0
-9324 9326 0
-9325 9326 0
-90 -9257 9327 0
90 -9327 0
9257 -9327 0
-9073 -9327 -9328 0
9073 9327 -9328 0
9073 -9327 9328 0
-9073 9327 9328 0
-9328 -9326 -9329 0
9328 9326 -9329 0
9328 -9326 9329 0
-9328 9326 9329 0
-9328 -9326 9330 0
9328 -9330 0
9326 -9330 0
-9073 -9327 9331 0
9073 -9331 0
9327 -9331 0
9330 9331 -9332 0
-9330 9332 0
-9331 9332 0
-98 -9257 9333 0
98 -9333 0
9257 -9333 0
-9079 -9333 -9334 0
9079 9333 -9334 0
9079 -9333 9334 0
-9079 9333 9334 0
-9334 -9332 -9335 0
9334 9332 -9335 0
9334 -9332 9335 0
-9334 9332 9335 0
-9334 -9332 9336 0
9334 -9336 0
9332 -9336 0
-9079 -9333 9337 0
9079 -9337 0
9333 -9337 0
9336 9337 -9338 0
-9336 9338 0
-9337 9338 0
-106 -9257 9339 0
106 -9339 0
9257 -9339 0
-9085 -9339 -9340 0
9085 9339 -9340 0
9085 -9339 9340 0
-9085 9339 9340 0
-9340 -9338 -9341 0
9340 9338 -9341 0
9340 -9338 9341 0
-9340 9338 9341 0
-9340 -9338 9342 0
9340 -9342 0
9338 -9342 0
-9085 -9339 9343 0
9085 -9343 0
9339 -9343 0
9342 9343 -9344 0
-9342 9344 0
-9343 9344 0
-114 -9257 9345 0
114 -9345 0
9257 -9345 0
-9091 -9345 -9346 0
9091 9345 -9346 0
9091 -9345 9346 0
-9091 9345 9346 0
-9346 -9344 -9347 0
9346 9344 -9347 0
9346 -9344 9347 0
-9346 9344 9347 0
-9346 -9344 9348 0
9346 -9348 0
9344 -9348 0
-9091 -9345 9349 0
9091 -9349 0
9345 -9349 0
9348 9349 -9350 0
-9348 9350 0
-9349 9350 0
-122 -9257 9351 0
122 -9351 0
9257 -9351 0
-9097 -9351 -9352 0
9097 9351 -9352 0
9097 -9351 9352 0
-9097 9351 9352 0
-9352 -9350 -9353 0
9352 9350 -9353 0
9352 -9350 9353 0
-9352 9350 9353 0
-9352 -9350 9354 0
9352 -9354 0
9350 -9354 0
-9097 -9351 9355 0
9097 -9355 0
9351 -9355 0
9354 9355 -9356 0
-9354 9356 0
-9355 9356 0
-130 -9257 9357 0
130 -9357 0
9257 -9357 0
-9103 -9357 -9358 0
9103 9357 -9358 0
9103 -9357 9358 0
-9103 9357 9358 0
-9358 -9356 -9359 0
9358 9356 -9359 0
9358 -9356 9359 0
-9358 9356 9359 0
-9358 -9356 9360 0
9358 -9360 0
9356 -9360 0
-9103 -9357 9361 0
9103 -9361 0
9357 -9361 0
9360 9361 -9362 0
-9360 9362 0
-9361 9362 0
-138 -9257 9363 0
138 -9363 0
9257 -9363 0
-9109 -9363 -9364 0
9109 9363 -9364 0
9109 -9363 9364 0
-9109 9363 9364 0
-9364 -9362 -9365 0
9364 9362 -9365 0
9364 -9362 9365 0
-9364 9362 9365 0
-9364 -9362 9366 0
9364 -9366 0
9362 -9366 0
-9109 -9363 9367 0
9109 -9367 0
9363 -9367 0
9366 9367 -9368 0
-9366 9368 0
-9367 9368 0
-146 -9257 9369 0
146 -9369 0
9257 -9369 0
-9115 -9369 -9370 0
9115 9369 -9370 0
9115 -9369 9370 0
-9115 9369 9370 0
-9370 -9368 -9371 0
9370 9368 -9371 0
9370 -9368 9371 0
-9370 9368 9371 0
-9370 -9368 9372 0
9370 -9372 0
9368 -9372 0
-9115 -9369 9373 0
9115 -9373 0
9369 -9373 0
9372 9373 -9374 0
-9372 9374 0
-9373 9374 0
-154 -9257 9375 0
154 -9375 0
9257 -9375 0
-9121 -9375 -9376 0
9121 9375 -9376 0
9121 -9375 9376 0
-9121 9375 9376 0
-9376 -9374 -9377 0
9376 9374 -9377 0
9376 -9374 9377 0
-9376 9374 9377 0
-9376 -9374 9378 0
9376 -9378 0
9374 -9378 0
-9121 -9375 9379 0
9121 -9379 0
9375 -9379 0
9378 9379 -9380 0
-9378 9380 0
-9379 9380 0
-162 -9257 9381 0
162 -9381 0
9257 -9381 0
-9127 -9381 -9382 0
9127 9381 -9382 0
9127 -9381 9382 0
-9127 9381 9382 0
-9382 -9380 -9383 0
9382 9380 -9383 0
9382 -9380 9383 0
-9382 9380 9383 0
-9382 -9380 9384 0
9382 -9384 0
9380 -9384 0
-9127 -9381 9385 0
9127 -9385 0
9381 -9385 0
9384 9385 -9386 0
-9384 9386 0
-9385 9386 0
-170 -9257 9387 0
170 -9387 0
9257 -9387 0
-9133 -9387 -9388 0
9133 9387 -9388 0
9133 -9387 9388 0
-9133 9387 9388 0
-9388 -9386 -9389 0
9388 9386 -9389 0
9388 -9386 9389 0
-9388 9386 9389 0
-9388 -9386 9390 0
9388 -9390 0
9386 -9390 0
-9133 -9387 9391 0
9133 -9391 0
9387 -9391 0
9390 9391 -9392 0
-9390 9392 0
-9391 9392 0
-178 -9257 9393 0
178 -9393 0
9257 -9393 0
-9139 -9393 -9394 0
9139 9393 -9394 0
9139 -9393 9394 0
-9139 9393 9394 0
-9394 -9392 -9395 0
9394 9392 -9395 0
9394 -9392 9395 0
-9394 9392 9395 0
-9394 -9392 9396 0
9394 -9396 0
9392 -9396 0
-9139 -9393 9397 0
9139 -9397 0
9393 -9397 0
9396 9397 -9398 0
-9396 9398 0
-9397 9398 0
-186 -9257 9399 0
186 -9399 0
9257 -9399 0
-9145 -9399 -9400 0
9145 9399 -9400 0
9145 -9399 9400 0
-9145 9399 9400 0
-9400 -9398 -9401 0
9400 9398 -9401 0
9400 -9398 9401 0
-9400 9398 9401 0
-9400 -9398 9402 0
9400 -9402 0
9398 -9402 0
-9145 -9399 9403 0
9145 -9403 0
9399 -9403 0
9402 9403 -9404 0
-9402 9404 0
-9403 9404 0
-194 -9257 9405 0
194 -9405 0
9257 -9405 0
-9151 -9405 -9406 0
9151 9405 -9406 0
9151 -9405 9406 0
-9151 9405 9406 0
-9406 -9404 -9407 0
9406 9404 -9407 0
9406 -9404 9407 0
-9406 9404 9407 0
-9406 -9404 9408 0
9406 -9408 0
9404 -9408 0
-9151 -9405 9409 0
9151 -9409 0
9405 -9409 0
9408 9409 -9410 0
-9408 9410 0
-9409 9410 0
-202 -9257 9411 0
202 -9411 0
9257 -9411 0
-9157 -9411 -9412 0
9157 9411 -9412 0
9157 -9411 9412 0
-9157 9411 9412 0
-9412 -9410 -9413 0
9412 9410 -9413 0
9412 -9410 9413 0
-9412 9410 9413 0
-9412 -9410 9414 0
9412 -9414 0
9410 -9414 0
-9157 -9411 9415 0
9157 -9415 0
9411 -9415 0
9414 9415 -9416 0
-9414 9416 0
-9415 9416 0
-210 -9257 9417 0
210 -9417 0
9257 -9417 0
-9163 -9417 -9418 0
9163 9417 -9418 0
9163 -9417 9418 0
-9163 9417 9418 0
-9418 -9416 -9419 0
9418 9416 -9419 0
9418 -9416 9419 0
-9418 9416 9419 0
-9418 -9416 9420 0
9418 -9420 0
9416 -9420 0
-9163 -9417 9421 0
9163 -9421 0
9417 -9421 0
9420 9421 -9422 0
-9420 9422 0
-9421 9422 0
-218 -9257 9423 0
218 -9423 0
9257 -9423 0
-9169 -9423 -9424 0
9169 9423 -9424 0
9169 -9423 9424 0
-9169 9423 9424 0
-9424 -9422 -9425 0
9424 9422 -9425 0
9424 -9422 9425 0
-9424 9422 9425 0
-9424 -9422 9426 0
9424 -9426 0
9422 -9426 0
-9169 -9423 9427 0
9169 -9427 0
9423 -9427 0
9426 9427 -9428 0
-9426 9428 0
-9427 9428 0
-226 -9257 9429 0
226 -9429 0
9257 -9429 0
-9175 -9429 -9430 0
9175 9429 -9430 0
9175 -9429 9430 0
-9175 9429 9430 0
-9430 -9428 -9431 0
9430 9428 -9431 0
9430 -9428 9431 0
-9430 9428 9431 0
-9430 -9428 9432 0
9430 -9432 0
9428 -9432 0
-9175 -9429 9433 0
9175 -9433 0
9429 -9433 0
9432 9433 -9434 0
-9432 9434 0
-9433 9434 0
-234 -9257 9435 0
234 -9435 0
9257 -9435 0
-9181 -9435 -9436 0
9181 9435 -9436 0
9181 -9435 9436 0
-9181 9435 9436 0
-9436 -9434 -9437 0
9436 9434 -9437 0
9436 -9434 9437 0
-9436 9434 9437 0
-9436 -9434 9438 0
9436 -9438 0
9434 -9438 0
-9181 -9435 9439 0
9181 -9439 0
9435 -9439 0
9438 9439 -9440 0
-9438 9440 0
-9439 9440 0
-242 -9257 9441 0
242 -9441 0
9257 -9441 0
-9187 -9441 -9442 0
9187 9441 -9442 0
9187 -9441 9442 0
-9187 9441 9442 0
-9442 -9440 -9443 0
9442 9440 -9443 0
9442 -9440 9443 0
-9442 9440 9443 0
-9442 -9440 9444 0
9442 -9444 0
9440 -9444 0
-9187 -9441 9445 0
9187 -9445 0
9441 -9445 0
9444 9445 -9446 0
-9444 9446 0
-9445 9446 0
-250 -9257 9447 0
250 -9447 0
9257 -9447 0
-9193 -9447 -9448 0
9193 9447 -9448 0
9193 -9447 9448 0
-9193 9447 9448 0
-9448 -9446 -9449 0
9448 9446 -9449 0
9448 -9446 9449 0
-9448 9446 9449 0
-9448 -9446 9450 0
9448 -9450 0
9446 -9450 0
-9193 -9447 9451 0
9193 -9451 0
9447 -9451 0
9450 9451 -9452 0
-9450 9452 0
-9451 9452 0
-258 -9257 9453 0
258 -9453 0
9257 -9453 0
-9199 -9453 -9454 0
9199 9453 -9454 0
9199 -9453 9454 0
-9199 9453 9454 0
-9454 -9452 -9455 0
9454 9452 -9455 0
9454 -9452 9455 0
-9454 9452 9455 0
-9454 -9452 9456 0
9454 -9456 0
9452 -9456 0
-9199 -9453 9457 0
9199 -9457 0
9453 -9457 0
9456 9457 -9458 0
-9456 9458 0
-9457 9458 0
-266 -9257 9459 0
266 -9459 0
9257 -9459 0
-9205 -9459 -9460 0
9205 9459 -9460 0
9205 -9459 9460 0
-9205 9459 9460 0
-9460 -9458 -9461 0
9460 9458 -9461 0
9460 -9458 9461 0
-9460 9458 9461 0
-9460 -9458 9462 0
9460 -9462 0
9458 -9462 0
-9205 -9459 9463 0
9205 -9463 0
9459 -9463 0
9462 9463 -9464 0
-9462 9464 0
-9463 9464 0
-274 -9257 9465 0
274 -9465 0
9257 -9465 0
-9211 -9465 -9466 0
9211 9465 -9466 0
9211 -9465 9466 0
-9211 9465 9466 0
-9466 -9464 -9467 0
9466 9464 -9467 0
9466 -9464 9467 0
-9466 9464 9467 0
-9466 -9464 9468 0
9466 -9468 0
9464 -9468 0
-9211 -9465 9469 0
9211 -9469 0
9465 -9469 0
9468 9469 -9470 0
-9468 9470 0
-9469 9470 0
-282 -9257 9471 0
282 -9471 0
9257 -9471 0
-9217 -9471 -9472 0
9217 9471 -9472 0
9217 -9471 9472 0
-9217 9471 9472 0
-9472 -9470 -9473 0
9472 9470 -9473 0
9472 -9470 9473 0
-9472 9470 9473 0
-9472 -9470 9474 0
9472 -9474 0
9470 -9474 0
-9217 -9471 9475 0
9217 -9475 0
9471 -9475 0
9474 9475 -9476 0
-9474 9476 0
-9475 9476 0
-290 -9257 9477 0
290 -9477 0
9257 -9477 0
-9223 -9477 -9478 0
9223 9477 -9478 0
9223 -9477 9478 0
-9223 9477 9478 0
-9478 -9476 -9479 0
9478 9476 -9479 0
9478 -9476 9479 0
-9478 9476 9479 0
-9478 -9476 9480 0
9478 -9480 0
9476 -9480 0
-9223 -9477 9481 0
9223 -9481 0
9477 -9481 0
9480 9481 -9482 0
-9480 9482 0
-9481 9482 0
-298 -9257 9483 0
298 -9483 0
9257 -9483 0
-9229 -9483 -9484 0
9229 9483 -9484 0
9229 -9483 9484 0
-9229 9483 9484 0
-9484 -9482 -9485 0
9484 9482 -9485 0
9484 -9482 9485 0
-9484 9482 9485 0
-9484 -9482 9486 0
9484 -9486 0
9482 -9486 0
-9229 -9483 9487 0
9229 -9487 0
9483 -9487 0
9486 9487 -9488 0
-9486 9488 0
-9487 9488 0
-306 -9257 9489 0
306 -9489 0
9257 -9489 0
-9235 -9489 -9490 0
9235 9489 -9490 0
9235 -9489 9490 0
-9235 9489 9490 0
-9490 -9488 -9491 0
9490 9488 -9491 0
9490 -9488 9491 0
-9490 9488 9491 0
-9490 -9488 9492 0
9490 -9492 0
9488 -9492 0
-9235 -9489 9493 0
9235 -9493 0
9489 -9493 0
9492 9493 -9494 0
-9492 9494 0
-9493 9494 0
-314 -9257 9495 0
314 -9495 0
9257 -9495 0
-9241 -9495 -9496 0
9241 9495 -9496 0
9241 -9495 9496 0
-9241 9495 9496 0
-9496 -9494 -9497 0
9496 9494 -9497 0
9496 -9494 9497 0
-9496 9494 9497 0
-9496 -9494 9498 0
9496 -9498 0
9494 -9498 0
-9241 -9495 9499 0
9241 -9499 0
9495 -9499 0
9498 9499 -9500 0
-9498 9500 0
-9499 9500 0
-322 -9257 9501 0
322 -9501 0
9257 -9501 0
-9247 -9501 -9502 0
9247 9501 -9502 0
9247 -9501 9502 0
-9247 9501 9502 0
-9502 -9500 -9503 0
9502 9500 -9503 0
9502 -9500 9503 0
-9502 9500 9503 0
-9502 -9500 9504 0
9502 -9504 0
9500 -9504 0
-9247 -9501 9505 0
9247 -9505 0
9501 -9505 0
9504 9505 -9506 0
-9504 9506 0
-9505 9506 0
-330 -9257 9507 0
330 -9507 0
9257 -9507 0
-9253 -9507 -9508 0
9253 9507 -9508 0
9253 -9507 9508 0
-9253 9507 9508 0
-9508 -9506 -9509 0
9508 9506 -9509 0
9508 -9506 9509 0
-9508 9506 9509 0
-9508 -9506 9510 0
9508 -9510 0
9506 -9510 0
-9253 -9507 9511 0
9253 -9511 0
9507 -9511 0
9510 9511 -9512 0
-9510 9512 0
-9511 9512 0
-338 -9257 9513 0
338 -9513 0
9257 -9513 0
-9256 -9513 -9514 0
9256 9513 -9514 0
9256 -9513 9514 0
-9256 9513 9514 0
-9514 -9512 -9515 0
9514 9512 -9515 0
9514 -9512 9515 0
-9514 9512 9515 0
-9514 -9512 9516 0
9514 -9516 0
9512 -9516 0
-9256 -9513 9517 0
9256 -9517 0
9513 -9517 0
9516 9517 -9518 0
-9516 9518 0
-9517 9518 0
-1 -9519 9520 0
1 -9520 0
9519 -9520 0
-9263 -9520 -9521 0
9263 9520 -9521 0
9263 -9520 9521 0
-9263 9520 9521 0
-9263 -9520 9522 0
9263 -9522 0
9520 -9522 0
-4 -9519 9523 0
4 -9523 0
9519 -9523 0
-9269 -9523 -9524 0
9269 9523 -9524 0
9269 -9523 9524 0
-9269 9523 9524 0
-9524 -9522 -9525 0
9524 9522 -9525 0
9524 -9522 9525 0
-9524 9522 9525 0
-9524 -9522 9526 0
9524 -9526 0
9522 -9526 0
-9269 -9523 9527 0
9269 -9527 0
9523 -9527 0
9526 9527 -9528 0
-9526 9528 0
-9527 9528 0
-10 -9519 9529 0
10 -9529 0
9519 -9529 0
-9275 -9529 -9530 0
9275 9529 -9530 0
9275 -9529 9530 0
-9275 9529 9530 0
-9530 -9528 -9531 0
9530 9528 -9531 0
9530 -9528 9531 0
-9530 9528 9531 0
-9530 -9528 9532 0
9530 -9532 0
9528 -9532 0
-9275 -9529 9533 0
9275 -9533 0
9529 -9533 0
9532 9533 -9534 0
-9532 9534 0
-9533 9534 0
-18 -9519 9535 0
18 -9535 0
9519 -9535 0
-9281 -9535 -9536 0
9281 9535 -9536 0
9281 -9535 9536 0
-9281 9535 9536 0
-9536 -9534 -9537 0
9536 9534 -9537 0
9536 -9534 9537 0
-9536 9534 9537 0
-9536 -9534 9538 0
9536 -9538 0
9534 -9538 0
-9281 -9535 9539 0
9281 -9539 0
9535 -9539 0
9538 9539 -9540 0
-9538 9540 0
-9539 9540 0
-26 -9519 9541 0
26 -9541 0
9519 -9541 0
-9287 -9541 -9542 0
9287 9541 -9542 0
9287 -9541 9542 0
-9287 9541 9542 0
-9542 -9540 -9543 0
9542 9540 -9543 0
9542 -9540 9543 0
-9542 9540 9543 0
-9542 -9540 9544 0
9542 -9544 0
9540 -9544 0
-9287 -9541 9545 0
9287 -9545 0
9541 -9545 0
9544 9545 -9546 0
-9544 9546 0
-9545 9546 0
-34 -9519 9547 0
34 -9547 0
9519 -9547 0
-9293 -9547 -9548 0
9293 9547 -9548 0
9293 -9547 9548 0
-9293 9547 9548 0
-9548 -9546 -9549 0
9548 9546 -9549 0
9548 -9546 9549 0
-9548 9546 9549 0
-9548 -9546 9550 0
9548 -9550 0
9546 -9550 0
-9293 -9547 9551 0
9293 -9551 0
9547 -9551 0
9550 9551 -9552 0
-9550 9552 0
-9551 9552 0
-42 -9519 9553 0
42 -9553 0
9519 -9553 0
-9299 -9553 -9554 0
9299 9553 -9554 0
9299 -9553 9554 0
-9299 9553 9554 0
-9554 -9552 -9555 0
9554 9552 -9555 0
9554 -9552 9555 0
-9554 9552 9555 0
-9554 -9552 9556 0
9554 -9556 0
9552 -9556 0
-9299 -9553 9557 0
9299 -9557 0
9553 -9557 0
9556 9557 -9558 0
-9556 9558 0
-9557 9558 0
-50 -9519 9559 0
50 -9559 0
9519 -9559 0
-9305 -9559 -9560 0
9305 9559 -9560 0
9305 -9559 9560 0
-9305 9559 9560 0
-9560 -9558 -9561 0
9560 9558 -9561 0
9560 -9558 9561 0
-9560 9558 9561 0
-9560 -9558 9562 0
9560 -9562 0
9558 -9562 0
-9305 -9559 9563 0
9305 -9563 0
9559 -9563 0
9562 9563 -9564 0
-9562 9564 0
-9563 9564 0
-58 -9519 9565 0
58 -9565 0
9519 -9565 0
-9311 -9565 -9566 0
9311 9565 -9566 0
9311 -9565 9566 0
-9311 9565 9566 0
-9566 -9564 -9567 0
9566 9564 -9567 0
9566 -9564 9567 0
-9566 9564 9567 0
-9566 -9564 9568 0
9566 -9568 0
9564 -9568 0
-9311 -9565 9569 0
9311 -9569 0
9565 -9569 0
9568 9569 -9570 0
-9568 9570 0
-9569 9570 0
-66 -9519 9571 0
66 -9571 0
9519 -9571 0
-9317 -9571 -9572 0
9317 9571 -9572 0
9317 -9571 9572 0
-9317 9571 9572 0
-9572 -9570 -9573 0
9572 9570 -9573 0
9572 -9570 9573 0
-9572 9570 9573 0
-9572 -9570 9574 0
9572 -9574 0
9570 -9574 0
-9317 -9571 9575 0
9317 -9575 0
9571 -9575 0
9574 9575 -9576 0
-9574 9576 0
-9575 9576 0
-74 -9519 9577 0
74 -9577 0
9519 -9577 0
-9323 -9577 -9578 0
9323 9577 -9578 0
9323 -9577 9578 0
-9323 9577 9578 0
-9578 -9576 -9579 0
9578 9576 -9579 0
9578 -9576 9579 0
-9578 9576 9579 0
-9578 -9576 9580 0
9578 -9580 0
9576 -9580 0
-9323 -9577 9581 0
9323 -9581 0
9577 -9581 0
9580 9581 -9582 0
-9580 9582 0
-9581 9582 0
-82 -9519 9583 0
82 -9583 0
9519 -9583 0
-9329 -9583 -9584 0
9329 9583 -9584 0
9329 -9583 9584 0
-9329 9583 9584 0
-9584 -9582 -9585 0
9584 9582 -9585 0
9584 -9582 9585 0
-9584 9582 9585 0
-9584 -9582 9586 0
9584 -9586 0
9582 -9586 0
-9329 -9583 9587 0
9329 -9587 0
9583 -9587 0
9586 9587 -9588 0
-9586 9588 0
-9587 9588 0
-90 -9519 9589 0
90 -9589 0
9519 -9589 0
-9335 -9589 -9590 0
9335 9589 -9590 0
9335 -9589 9590 0
-9335 9589 9590 0
-9590 -9588 -9591 0
9590 9588 -9591 0
9590 -9588 9591 0
-9590 9588 9591 0
-9590 -9588 9592 0
9590 -9592 0
9588 -9592 0
-9335 -9589 9593 0
9335 -9593 0
9589 -9593 0
9592 9593 -9594 0
-9592 9594 0
-9593 9594 0
-98 -9519 9595 0
98 -9595 0
9519 -9595 0
-9341 -9595 -9596 0
9341 9595 -9596 0
9341 -9595 9596 0
-9341 9595 9596 0
-9596 -9594 -9597 0
9596 9594 -9597 0
9596 -9594 9597 0
-9596 9594 9597 0
-9596 -9594 9598 0
9596 -9598 0
9594 -9598 0
-9341 -9595 9599 0
9341 -9599 0
9595 -9599 0
9598 9599 -9600 0
-9598 9600 0
-9599 9600 0
-106 -9519 9601 0
106 -9601 0
9519 -9601 0
-9347 -9601 -9602 0
9347 9601 -9602 0
9347 -9601 9602 0
-9347 9601 9602 0
-9602 -9600 -9603 0
9602 9600 -9603 0
9602 -9600 9603 0
-9602 9600 9603 0
-9602 -9600 9604 0
9602 -9604 0
9600 -9604 0
-9347 -9601 9605 0
9347 -9605 0
9601 -9605 0
9604 9605 -9606 0
-9604 9606 0
-9605 9606 0
-114 -9519 9607 0
114 -9607 0
9519 -9607 0
-9353 -9607 -9608 0
9353 9607 -9608 0
9353 -9607 9608 0
-9353 9607 9608 0
-9608 -9606 -9609 0
9608 9606 -9609 0
9608 -9606 9609 0
-9608 9606 9609 0
-9608 -9606 9610 0
9608 -9610 0
9606 -9610 0
-9353 -9607 9611 0
9353 -9611 0
9607 -9611 0
9610 9611 -9612 0
-9610 9612 0
-9611 9612 0
-122 -9519 9613 0
122 -9613 0
9519 -9613 0
-9359 -9613 -9614 0
9359 9613 -9614 0
9359 -9613 9614 0
-9359 9613 9614 0
-9614 -9612 -9615 0
9614 9612 -9615 0
9614 -9612 9615 0
-9614 9612 9615 0
-9614 -9612 9616 0
9614 -9616 0
9612 -9616 0
-9359 -9613 9617 0
9359 -9617 0
9613 -9617 0
9616 9617 -9618 0
-9616 9618 0
-9617 9618 0
-130 -9519 9619 0
130 -9619 0
9519 -9619 0
-9365 -9619 -9620 0
9365 9619 -9620 0
9365 -9619 9620 0
-9365 9619 9620 0
-9620 -9618 -9621 0
9620 9618 -9621 0
9620 -9618 9621 0
-9620 9618 9621 0
-9620 -9618 9622 0
9620 -9622 0
9618 -9622 0
-9365 -9619 9623 0
9365 -9623 0
9619 -9623 0
9622 9623 -9624 0
-9622 9624 0
-9623 9624 0
-138 -9519 9625 0
138 -9625 0
9519 -9625 0
-9371 -9625 -9626 0
9371 9625 -9626 0
9371 -9625 9626 0
-9371 9625 9626 0
-9626 -9624 -9627 0
9626 9624 -9627 0
9626 -9624 9627 0
-9626 9624 9627 0
-9626 -9624 9628 0
9626 -9628 0
9624 -9628 0
-9371 -9625 9629 0
9371 -9629 0
9625 -9629 0
9628 9629 -9630 0
-9628 9630 0
-9629 9630 0
-146 -9519 9631 0
146 -9631 0
9519 -9631 0
-9377 -9631 -9632 0
9377 9631 -9632 0
9377 -9631 9632 0
-9377 9631 9632 0
-9632 -9630 -9633 0
9632 9630 -9633 0
9632 -9630 9633 0
-9632 9630 9633 0
-9632 -9630 9634 0
9632 -9634 0
9630 -9634 0
-9377 -9631 9635 0
9377 -9635 0
9631 -9635 0
9634 9635 -9636 0
-9634 9636 0
-9635 9636 0
-154 -9519 9637 0
154 -9637 0
9519 -9637 0
-9383 -9637 -9638 0
9383 9637 -9638 0
9383 -9637 9638 0
-9383 9637 9638 0
-9638 -9636 -9639 0
9638 9636 -9639 0
9638 -9636 9639 0
-9638 9636 9639 0
-9638 -9636 9640 0
9638 -9640 0
9636 -9640 0
-9383 -9637 9641 0
9383 -9641 0
9637 -9641 0
9640 9641 -9642 0
-9640 9642 0
-9641 9642 0
-162 -9519 9643 0
162 -9643 0
9519 -9643 0
-9389 -9643 -9644 0
9389 9643 -9644 0
9389 -9643 9644 0
-9389 9643 9644 0
-9644 -9642 -9645 0
9644 9642 -9645 0
9644 -9642 9645 0
-9644 9642 9645 0
-9644 -9642 9646 0
9644 -9646 0
9642 -9646 0
-9389 -9643 9647 0
9389 -9647 0
9643 -9647 0
9646 9647 -9648 0
-9646 9648 0
-9647 9648 0
-170 -9519 9649 0
170 -9649 0
9519 -9649 0
-9395 -9649 -9650 0
9395 9649 -9650 0
9395 -9649 9650 0
-9395 9649 9650 0
-9650 -9648 -9651 0
9650 9648 -9651 0
9650 -9648 9651 0
-9650 9648 9651 0
-9650 -9648 9652 0
9650 -9652 0
9648 -9652 0
-9395 -9649 9653 0
9395 -9653 0
9649 -9653 0
9652 9653 -9654 0
-9652 9654 0
-9653 9654 0
-178 -9519 9655 0
178 -9655 0
9519 -9655 0
-9401 -9655 -9656 0
9401 9655 -9656 0
9401 -9655 9656 0
-9401 9655 9656 0
-9656 -9654 -9657 0
9656 9654 -9657 0
9656 -9654 9657 0
-9656 9654 9657 0
-9656 -9654 9658 0
9656 -9658 0
9654 -9658 0
-9401 -9655 9659 0
9401 -9659 0
9655 -9659 0
9658 9659 -9660 0
-9658 9660 0
-9659 9660 0
-186 -9519 9661 0
186 -9661 0
9519 -9661 0
-9407 -9661 -9662 0
9407 9661 -9662 0
9407 -9661 9662 0
-9407 9661 9662 0
-9662 -9660 -9663 0
9662 9660 -9663 0
9662 -9660 9663 0
-9662 9660 9663 0
-9662 -9660 9664 0
9662 -9664 0
9660 -9664 0
-9407 -9661 9665 0
9407 -9665 0
9661 -9665 0
9664 9665 -9666 0
-9664 9666 0
-9665 9666 0
-194 -9519 9667 0
194 -9667 0
9519 -9667 0
-9413 -9667 -9668 0
9413 9667 -9668 0
9413 -9667 9668 0
-9413 9667 9668 0
-9668 -9666 -9669 0
9668 9666 -9669 0
9668 -9666 9669 0
-9668 9666 9669 0
-9668 -9666 9670 0
9668 -9670 0
9666 -9670 0
-9413 -9667 9671 0
9413 -9671 0
9667 -9671 0
9670 9671 -9672 0
-9670 9672 0
-9671 9672 0
-202 -9519 9673 0
202 -9673 0
9519 -9673 0
-9419 -9673 -9674 0
9419 9673 -9674 0
9419 -9673 9674 0
-9419 9673 9674 0
-9674 -9672 -9675 0
9674 9672 -9675 0
9674 -9672 9675 0
-9674 9672 9675 0
-9674 -9672 9676 0
9674 -9676 0
9672 -9676 0
-9419 -9673 9677 0
9419 -9677 0
9673 -9677 0
9676 9677 -9678 0
-9676 9678 0
-9677 9678 0
-210 -9519 9679 0
210 -9679 0
9519 -9679 0
-9425 -9679 -9680 0
9425 9679 -9680 0
9425 -9679 9680 0
-9425 9679 9680 0
-9680 -9678 -9681 0
9680 9678 -9681 0
9680 -9678 9681 0
-9680 9678 9681 0
-9680 -9678 9682 0
9680 -9682 0
9678 -9682 0
-9425 -9679 9683 0
9425 -9683 0
9679 -9683 0
9682 9683 -9684 0
-9682 9684 0
-9683 9684 0
-218 -9519 9685 0
218 -9685 0
9519 -9685 0
-9431 -9685 -9686 0
9431 9685 -9686 0
9431 -9685 9686 0
-9431 9685 9686 0
-9686 -9684 -9687 0
9686 9684 -9687 0
9686 -9684 9687 0
-9686 9684 9687 0
-9686 -9684 9688 0
9686 -9688 0
9684 -9688 0
-9431 -9685 9689 0
9431 -9689 0
9685 -9689 0
9688 9689 -9690 0
-9688 9690 0
-9689 9690 0
-226 -9519 9691 0
226 -9691 0
9519 -9691 0
-9437 -9691 -9692 0
9437 9691 -9692 0
9437 -9691 9692 0
-9437 9691 9692 0
-9692 -9690 -9693 0
9692 9690 -9693 0
9692 -9690 9693 0
-9692 9690 9693 0
-9692 -9690 9694 0
9692 -9694 0
9690 -9694 0
-9437 -9691 9695 0
9437 -9695 0
9691 -9695 0
9694 9695 -9696 0
-9694 9696 0
-9695 9696 0
-234 -9519 9697 0
234 -9697 0
9519 -9697 0
-9443 -9697 -9698 0
9443 9697 -9698 0
9443 -9697 9698 0
-9443 9697 9698 0
-9698 -9696 -9699 0
9698 9696 -9699 0
9698 -9696 9699 0
-9698 9696 9699 0
-9698 -9696 9700 0
9698 -9700 0
9696 -9700 0
-9443 -9697 9701 0
9443 -9701 0
9697 -9701 0
9700 9701 -9702 0
-9700 9702 0
-9701 9702 0
-242 -9519 9703 0
242 -9703 0
9519 -9703 0
-9449 -9703 -9704 0
9449 9703 -9704 0
9449 -9703 9704 0
-9449 9703 9704 0
-9704 -9702 -9705 0
9704 9702 -9705 0
9704 -9702 9705 0
-9704 9702 9705 0
-9704 -9702 9706 0
9704 -9706 0
9702 -9706 0
-9449 -9703 9707 0
9449 -9707 0
9703 -9707 0
9706 9707 -9708 0
-9706 9708 0
-9707 9708 0
-250 -9519 9709 0
250 -9709 0
9519 -9709 0
-9455 -9709 -9710 0
9455 9709 -9710 0
9455 -9709 9710 0
-9455 9709 9710 0
-9710 -9708 -9711 0
9710 9708 -9711 0
9710 -9708 9711 0
-9710 9708 9711 0
-9710 -9708 9712 0
9710 -9712 0
9708 -9712 0
-9455 -9709 9713 0
9455 -9713 0
9709 -9713 0
9712 9713 -9714 0
-9712 9714 0
-9713 9714 0
-258 -9519 9715 0
258 -9715 0
9519 -9715 0
-9461 -9715 -9716 0
9461 9715 -9716 0
9461 -9715 9716 0
-9461 9715 9716 0
-9716 -9714 -9717 0
9716 9714 -9717 0
9716 -9714 9717 0
-9716 9714 9717 0
-9716 -9714 9718 0
9716 -9718 0
9714 -9718 0
-9461 -9715 9719 0
9461 -9719 0
9715 -9719 0
9718 9719 -9720 0
-9718 9720 0
-9719 9720 0
-266 -9519 9721 0
266 -9721 0
9519 -9721 0
-9467 -9721 -9722 0
9467 9721 -9722 0
9467 -9721 9722 0
-9467 9721 9722 0
-9722 -9720 -9723 0
9722 9720 -9723 0
9722 -9720 9723 0
-9722 9720 9723 0
-9722 -9720 9724 0
9722 -9724 0
9720 -9724 0
-9467 -9721 9725 0
9467 -9725 0
9721 -9725 0
9724 9725 -9726 0
-9724 9726 0
-9725 9726 0
-274 -9519 9727 0
274 -9727 0
9519 -9727 0
-9473 -9727 -9728 0
9473 9727 -9728 0
9473 -9727 9728 0
-9473 9727 9728 0
-9728 -9726 -9729 0
9728 9726 -9729 0
9728 -9726 9729 0
-9728 9726 9729 0
-9728 -9726 9730 0
9728 -9730 0
9726 -9730 0
-9473 -9727 9731 0
9473 -9731 0
9727 -9731 0
9730 9731 -9732 0
-9730 9732 0
-9731 9732 0
-282 -9519 9733 0
282 -9733 0
9519 -9733 0
-9479 -9733 -9734 0
9479 9733 -9734 0
9479 -9733 9734 0
-9479 9733 9734 0
-9734 -9732 -9735 0
9734 9732 -9735 0
9734 -9732 9735 0
-9734 9732 9735 0
-9734 -9732 9736 0
9734 -9736 0
9732 -9736 0
-9479 -9733 9737 0
9479 -9737 0
9733 -9737 0
9736 9737 -9738 0
-9736 9738 0
-9737 9738 0
-290 -9519 9739 0
290 -9739 0
9519 -9739 0
-9485 -9739 -9740 0
9485 9739 -9740 0
9485 -9739 9740 0
-9485 9739 9740 0
-9740 -9738 -9741 0
9740 9738 -9741 0
9740 -9738 9741 0
-9740 9738 9741 0
-9740 -9738 9742 0
9740 -9742 0
9738 -9742 0
-9485 -9739 9743 0
9485 -9743 0
9739 -9743 0
9742 9743 -9744 0
-9742 9744 0
-9743 9744 0
-298 -9519 9745 0
298 -9745 0
9519 -9745 0
-9491 -9745 -9746 0
9491 9745 -9746 0
9491 -9745 9746 0
-9491 9745 9746 0
-9746 -9744 -9747 0
9746 9744 -9747 0
9746 -9744 9747 0
-9746 9744 9747 0
-9746 -9744 9748 0
9746 -9748 0
9744 -9748 0
-9491 -9745 9749 0
9491 -9749 0
9745 -9749 0
9748 9749 -9750 0
-9748 9750 0
-9749 9750 0
-306 -9519 9751 0
306 -9751 0
9519 -9751 0
-9497 -9751 -9752 0
9497 9751 -9752 0
9497 -9751 9752 0
-9497 9751 9752 0
-9752 -9750 -9753 0
9752 9750 -9753 0
9752 -9750 9753 0
-9752 9750 9753 0
-9752 -9750 9754 0
9752 -9754 0
9750 -9754 0
-9497 -9751 9755 0
9497 -9755 0
9751 -9755 0
9754 9755 -9756 0
-9754 9756 0
-9755 9756 0
-314 -9519 9757 0
314 -9757 0
9519 -9757 0
-9503 -9757 -9758 0
9503 9757 -9758 0
9503 -9757 9758 0
-9503 9757 9758 0
-9758 -9756 -9759 0
9758 9756 -9759 0
9758 -9756 9759 0
-9758 9756 9759 0
-9758 -9756 9760 0
9758 -9760 0
9756 -9760 0
-9503 -9757 9761 0
9503 -9761 0
9757 -9761 0
9760 9761 -9762 0
-9760 9762 0
-9761 9762 0
-322 -9519 9763 0
322 -9763 0
9519 -9763 0
-9509 -9763 -9764 0
9509 9763 -9764 0
9509 -9763 9764 0
-9509 9763 9764 0
-9764 -9762 -9765 0
9764 9762 -9765 0
9764 -9762 9765 0
-9764 9762 9765 0
-9764 -9762 9766 0
9764 -9766 0
9762 -9766 0
-9509 -9763 9767 0
9509 -9767 0
9763 -9767 0
9766 9767 -9768 0
-9766 9768 0
-9767 9768 0
-330 -9519 9769 0
330 -9769 0
9519 -9769 0
-9515 -9769 -9770 0
9515 9769 -9770 0
9515 -9769 9770 0
-9515 9769 9770 0
-9770 -9768 -9771 0
9770 9768 -9771 0
9770 -9768 9771 0
-9770 9768 9771 0
-9770 -9768 9772 0
9770 -9772 0
9768 -9772 0
-9515 -9769 9773 0
9515 -9773 0
9769 -9773 0
9772 9773 -9774 0
-9772 9774 0
-9773 9774 0
-338 -9519 9775 0
338 -9775 0
9519 -9775 0
-9518 -9775 -9776 0
9518 9775 -9776 0
9518 -9775 9776 0
-9518 9775 9776 0
-9776 -9774 -9777 0
9776 9774 -9777 0
9776 -9774 9777 0
-9776 9774 9777 0
-9776 -9774 9778 0
9776 -9778 0
9774 -9778 0
-9518 -9775 9779 0
9518 -9779 0
9775 -9779 0
9778 9779 -9780 0
-9778 9780 0
-9779 9780 0
-1 -9781 9782 0
1 -9782 0
9781 -9782 0
-9525 -9782 -9783 0
9525 9782 -9783 0
9525 -9782 9783 0
-9525 9782 9783 0
-9525 -9782 9784 0
9525 -9784 0
9782 -9784 0
-4 -9781 9785 0
4 -9785 0
9781 -9785 0
-9531 -9785 -9786 0
9531 9785 -9786 0
9531 -9785 9786 0
-9531 9785 9786 0
-9786 -9784 -9787 0
9786 9784 -9787 0
9786 -9784 9787 0
-9786 9784 9787 0
-9786 -9784 9788 0
9786 -9788 0
9784 -9788 0
-9531 -9785 9789 0
9531 -9789 0
9785 -9789 0
9788 9789 -9790 0
-9788 9790 0
-9789 9790 0
-10 -9781 9791 0
10 -9791 0
9781 -9791 0
-9537 -9791 -9792 0
9537 9791 -9792 0
9537 -9791 9792 0
-9537 9791 9792 0
-9792 -9790 -9793 0
9792 9790 -9793 0
9792 -9790 9793 0
-9792 9790 9793 0
-9792 -9790 9794 0
9792 -9794 0
9790 -9794 0
-9537 -9791 9795 0
9537 -9795 0
9791 -9795 0
9794 9795 -9796 0
-9794 9796 0
-9795 9796 0
-18 -9781 9797 0
18 -9797 0
9781 -9797 0
-9543 -9797 -9798 0
9543 9797 -9798 0
9543 -9797 9798 0
-9543 9797 9798 0
-9798 -9796 -9799 0
9798 9796 -9799 0
9798 -9796 9799 0
-9798 9796 9799 0
-9798 -9796 9800 0
9798 -9800 0
9796 -9800 0
-9543 -9797 9801 0
9543 -9801 0
9797 -9801 0
9800 9801 -9802 0
-9800 9802 0
-9801 9802 0
-26 -9781 9803 0
26 -9803 0
9781 -9803 0
-9549 -9803 -9804 0
9549 9803 -9804 0
9549 -9803 9804 0
-9549 9803 9804 0
-9804 -9802 -9805 0
9804 9802 -9805 0
9804 -9802 9805 0
-9804 9802 9805 0
-9804 -9802 9806 0
9804 -9806 0
9802 -9806 0
-9549 -9803 9807 0
9549 -9807 0
9803 -9807 0
9806 9807 -9808 0
-9806 9808 0
-9807 9808 0
-34 -9781 9809 0
34 -9809 0
9781 -9809 0
-9555 -9809 -9810 0
9555 9809 -9810 0
9555 -9809 9810 0
-9555 9809 9810 0
-9810 -9808 -9811 0
9810 9808 -9811 0
9810 -9808 9811 0
-9810 9808 9811 0
-9810 -9808 9812 0
9810 -9812 0
9808 -9812 0
-9555 -9809 9813 0
9555 -9813 0
9809 -9813 0
9812 9813 -9814 0
-9812 9814 0
-9813 9814 0
-42 -9781 9815 0
42 -9815 0
9781 -9815 0
-9561 -9815 -9816 0
9561 9815 -9816 0
9561 -9815 9816 0
-9561 9815 9816 0
-9816 -9814 -9817 0
9816 9814 -9817 0
9816 -9814 9817 0
-9816 9814 9817 0
-9816 -9814 9818 0
9816 -9818 0
9814 -9818 0
-9561 -9815 9819 0
9561 -9819 0
9815 -9819 0
9818 9819 -9820 0
-9818 9820 0
-9819 9820 0
-50 -9781 9821 0
50 -9821 0
9781 -9821 0
-9567 -9821 -9822 0
9567 9821 -9822 0
9567 -9821 9822 0
-9567 9821 9822 0
-9822 -9820 -9823 0
9822 9820 -9823 0
9822 -9820 9823 0
-9822 9820 9823 0
-9822 -9820 9824 0
9822 -9824 0
9820 -9824 0
-9567 -9821 9825 0
9567 -9825 0
9821 -9825 0
9824 9825 -9826 0
-9824 9826 0
-9825 9826 0
-58 -9781 9827 0
58 -9827 0
9781 -9827 0
-9573 -9827 -9828 0
9573 9827 -9828 0
9573 -9827 9828 0
-9573 9827 9828 0
-9828 -9826 -9829 0
9828 9826 -9829 0
9828 -9826 9829 0
-9828 9826 9829 0
-9828 -9826 9830 0
9828 -9830 0
9826 -9830 0
-9573 -9827 9831 0
9573 -9831 0
9827 -9831 0
9830 9831 -9832 0
-9830 9832 0
-9831 9832 0
-66 -9781 9833 0
66 -9833 0
9781 -9833 0
-9579 -9833 -9834 0
9579 9833 -9834 0
9579 -9833 9834 0
-9579 9833 9834 0
-9834 -9832 -9835 0
9834 9832 -9835 0
9834 -9832 9835 0
-9834 9832 9835 0
-9834 -9832 9836 0
9834 -9836 0
9832 -9836 0
-9579 -9833 9837 0
9579 -9837 0
9833 -9837 0
9836 9837 -9838 0
-9836 9838 0
-9837 9838 0
-74 -9781 9839 0
74 -9839 0
9781 -9839 0
-9585 -9839 -9840 0
9585 9839 -9840 0
9585 -9839 9840 0
-9585 9839 9840 0
-9840 -9838 -9841 0
9840 9838 -9841 0
9840 -9838 9841 0
-9840 9838 9841 0
-9840 -9838 9842 0
9840 -9842 0
9838 -9842 0
-9585 -9839 9843 0
9585 -9843 0
9839 -9843 0
9842 9843 -9844 0
-9842 9844 0
-9843 9844 0
-82 -9781 9845 0
82 -9845 0
9781 -9845 0
-9591 -9845 -9846 0
9591 9845 -9846 0
9591 -9845 9846 0
-9591 9845 9846 0
-9846 -9844 -9847 0
9846 9844 -9847 0
9846 -9844 9847 0
-9846 9844 9847 0
-9846 -9844 9848 0
9846 -9848 0
9844 -9848 0
-9591 -9845 9849 0
9591 -9849 0
9845 -9849 0
9848 9849 -9850 0
-9848 9850 0
-9849 9850 0
-90 -9781 9851 0
90 -9851 0
9781 -9851 0
-9597 -9851 -9852 0
9597 9851 -9852 0
9597 -9851 9852 0
-9597 9851 9852 0
-9852 -9850 -9853 0
9852 9850 -9853 0
9852 -9850 9853 0
-9852 9850 9853 0
-9852 -9850 9854 0
9852 -9854 0
9850 -9854 0
-9597 -9851 9855 0
9597 -9855 0
9851 -9855 0
9854 9855 -9856 0
-9854 9856 0
-9855 9856 0
-98 -9781 9857 0
98 -9857 0
9781 -9857 0
-9603 -9857 -9858 0
9603 9857 -9858 0
9603 -9857 9858 0
-9603 9857 9858 0
-9858 -9856 -9859 0
9858 9856 -9859 0
9858 -9856 9859 0
-9858 9856 9859 0
-9858 -9856 9860 0
9858 -9860 0
9856 -9860 0
-9603 -9857 9861 0
9603 -9861 0
9857 -9861 0
9860 9861 -9862 0
-9860 9862 0
-9861 9862 0
-106 -9781 9863 0
106 -9863 0
9781 -9863 0
-9609 -9863 -9864 0
9609 9863 -9864 0
9609 -9863 9864 0
-9609 9863 9864 0
-9864 -9862 -9865 0
9864 9862 -9865 0
9864 -9862 9865 0
-9864 9862 9865 0
-9864 -9862 9866 0
9864 -9866 0
9862 -9866 0
-9609 -9863 9867 0
9609 -9867 0
9863 -9867 0
9866 9867 -9868 0
-9866 9868 0
-9867 9868 0
-114 -9781 9869 0
114 -9869 0
9781 -9869 0
-9615 -9869 -9870 0
9615 9869 -9870 0
9615 -9869 9870 0
-9615 9869 9870 0
-9870 -9868 -9871 0
9870 9868 -9871 0
9870 -9868 9871 0
-9870 9868 9871 0
-9870 -9868 9872 0
9870 -9872 0
9868 -9872 0
-9615 -9869 9873 0
9615 -9873 0
9869 -9873 0
9872 9873 -9874 0
-9872 9874 0
-9873 9874 0
-122 -9781 9875 0
122 -9875 0
9781 -9875 0
-9621 -9875 -9876 0
9621 9875 -9876 0
9621 -9875 9876 0
-9621 9875 9876 0
-9876 -9874 -9877 0
9876 9874 -9877 0
9876 -9874 9877 0
-9876 9874 9877 0
-9876 -9874 9878 0
9876 -9878 0
9874 -9878 0
-9621 -9875 9879 0
9621 -9879 0
9875 -9879 0
9878 9879 -9880 0
-9878 9880 0
-9879 9880 0
-130 -9781 9881 0
130 -9881 0
9781 -9881 0
-9627 -9881 -9882 0
9627 9881 -9882 0
9627 -9881 9882 0
-9627 9881 9882 0
-9882 -9880 -9883 0
9882 9880 -9883 0
9882 -9880 9883 0
-9882 9880 9883 0
-9882 -9880 9884 0
9882 -9884 0
9880 -9884 0
-9627 -9881 9885 0
9627 -9885 0
9881 -9885 0
9884 9885 -9886 0
-9884 9886 0
-9885 9886 0
-138 -9781 9887 0
138 -9887 0
9781 -9887 0
-9633 -9887 -9888 0
9633 9887 -9888 0
9633 -9887 9888 0
-9633 9887 9888 0
-9888 -9886 -9889 0
9888 9886 -9889 0
9888 -9886 9889 0
-9888 9886 9889 0
-9888 -9886 9890 0
9888 -9890 0
9886 -9890 0
-9633 -9887 9891 0
9633 -9891 0
9887 -9891 0
9890 9891 -9892 0
-9890 9892 0
-9891 9892 0
-146 -9781 9893 0
146 -9893 0
9781 -9893 0
-9639 -9893 -9894 0
9639 9893 -9894 0
9639 -9893 9894 0
-9639 9893 9894 0
-9894 -9892 -9895 0
9894 9892 -9895 0
9894 -9892 9895 0
-9894 9892 9895 0
-9894 -9892 9896 0
9894 -9896 0
9892 -9896 0
-9639 -9893 9897 0
9639 -9897 0
9893 -9897 0
9896 9897 -9898 0
-9896 9898 0
-9897 9898 0
-154 -9781 9899 0
154 -9899 0
9781 -9899 0
-9645 -9899 -9900 0
9645 9899 -9900 0
9645 -9899 9900 0
-9645 9899 9900 0
-9900 -9898 -9901 0
9900 9898 -9901 0
9900 -9898 9901 0
-9900 9898 9901 0
-9900 -9898 9902 0
9900 -9902 0
9898 -9902 0
-9645 -9899 9903 0
9645 -9903 0
9899 -9903 0
9902 9903 -9904 0
-9902 9904 0
-9903 9904 0
-162 -9781 9905 0
162 -9905 0
9781 -9905 0
-9651 -9905 -9906 0
9651 9905 -9906 0
9651 -9905 9906 0
-9651 9905 9906 0
-9906 -9904 -9907 0
9906 9904 -9907 0
9906 -9904 9907 0
-9906 9904 9907 0
-9906 -9904 9908 0
9906 -9908 0
9904 -9908 0
-9651 -9905 9909 0
9651 -9909 0
9905 -9909 0
9908 9909 -9910 0
-9908 9910 0
-9909 9910 0
-170 -9781 9911 0
170 -9911 0
9781 -9911 0
-9657 -9911 -9912 0
9657 9911 -9912 0
9657 -9911 9912 0
-9657 9911 9912 0
-9912 -9910 -9913 0
9912 9910 -9913 0
9912 -9910 9913 0
-9912 9910 9913 0
-9912 -9910 9914 0
9912 -9914 0
9910 -9914 0
-9657 -9911 9915 0
9657 -9915 0
9911 -9915 0
9914 9915 -9916 0
-9914 9916 0
-9915 9916 0
-178 -9781 9917 0
178 -9917 0
9781 -9917 0
-9663 -9917 -9918 0
9663 9917 -9918 0
9663 -9917 9918 0
-9663 9917 9918 0
-9918 -9916 -9919 0
9918 9916 -9919 0
9918 -9916 9919 0
-9918 9916 9919 0
-9918 -9916 9920 0
9918 -9920 0
9916 -9920 0
-9663 -9917 9921 0
9663 -9921 0
9917 -9921 0
9920 9921 -9922 0
-9920 9922 0
-9921 9922 0
-186 -9781 9923 0
186 -9923 0
9781 -9923 0
-9669 -9923 -9924 0
9669 9923 -9924 0
9669 -9923 9924 0
-9669 9923 9924 0
-9924 -9922 -9925 0
9924 9922 -9925 0
9924 -9922 9925 0
-9924 9922 9925 0
-9924 -9922 9926 0
9924 -9926 0
9922 -9926 0
-9669 -9923 9927 0
9669 -9927 0
9923 -9927 0
9926 9927 -9928 0
-9926 9928 0
-9927 9928 0
-194 -9781 9929 0
194 -9929 0
9781 -9929 0
-9675 -9929 -9930 0
9675 9929 -9930 0
9675 -9929 9930 0
-9675 9929 9930 0
-9930 -9928 -9931 0
9930 9928 -9931 0
9930 -9928 9931 0
-9930 9928 9931 0
-9930 -9928 9932 0
9930 -9932 0
9928 -9932 0
-9675 -9929 9933 0
9675 -9933 0
9929 -9933 0
9932 9933 -9934 0
-9932 9934 0
-9933 9934 0
-202 -9781 9935 0
202 -9935 0
9781 -9935 0
-9681 -9935 -9936 0
9681 9935 -9936 0
9681 -9935 9936 0
-9681 9935 9936 0
-9936 -9934 -9937 0
9936 9934 -9937 0
9936 -9934 9937 0
-9936 9934 9937 0
-9936 -9934 9938 0
9936 -9938 0
9934 -9938 0
-9681 -9935 9939 0
9681 -9939 0
9935 -9939 0
9938 9939 -9940 0
-9938 9940 0
-9939 9940 0
-210 -9781 9941 0
210 -9941 0
9781 -9941 0
-9687 -9941 -9942 0
9687 9941 -9942 0
9687 -9941 9942 0
-9687 9941 9942 0
-9942 -9940 -9943 0
9942 9940 -9943 0
9942 -9940 9943 0
-9942 9940 9943 0
-9942 -9940 9944 0
9942 -9944 0
9940 -9944 0
-9687 -9941 9945 0
9687 -9945 0
9941 -9945 0
9944 9945 -9946 0
-9944 9946 0
-9945 9946 0
-218 -9781 9947 0
218 -9947 0
9781 -9947 0
-9693 -9947 -9948 0
9693 9947 -9948 0
9693 -9947 9948 0
-9693 9947 9948 0
-9948 -9946 -9949 0
9948 9946 -9949 0
9948 -9946 9949 0
-9948 9946 9949 0
-9948 -9946 9950 0
9948 -9950 0
9946 -9950 0
-9693 -9947 9951 0
9693 -9951 0
9947 -9951 0
9950 9951 -9952 0
-9950 9952 0
-9951 9952 0
-226 -9781 9953 0
226 -9953 0
9781 -9953 0
-9699 -9953 -9954 0
9699 9953 -9954 0
9699 -9953 9954 0
-9699 9953 9954 0
-9954 -9952 -9955 0
9954 9952 -9955 0
9954 -9952 9955 0
-9954 9952 9955 0
-9954 -9952 9956 0
9954 -9956 0
9952 -9956 0
-9699 -9953 9957 0
9699 -9957 0
9953 -9957 0
9956 9957 -9958 0
-9956 9958 0
-9957 9958 0
-234 -9781 9959 0
234 -9959 0
9781 -9959 0
-9705 -9959 -9960 0
9705 9959 -9960 0
9705 -9959 9960 0
-9705 9959 9960 0
-9960 -9958 -9961 0
9960 9958 -9961 0
9960 -9958 9961 0
-9960 9958 9961 0
-9960 -9958 9962 0
9960 -9962 0
9958 -9962 0
-9705 -9959 9963 0
9705 -9963 0
9959 -9963 0
9962 9963 -9964 0
-9962 9964 0
-9963 9964 0
-242 -9781 9965 0
242 -9965 0
9781 -9965 0
-9711 -9965 -9966 0
9711 9965 -9966 0
9711 -9965 9966 0
-9711 9965 9966 0
-9966 -9964 -9967 0
9966 9964 -9967 0
9966 -9964 9967 0
-9966 9964 9967 0
-9966 -9964 9968 0
9966 -9968 0
9964 -9968 0
-9711 -9965 9969 0
9711 -9969 0
9965 -9969 0
9968 9969 -9970 0
-9968 9970 0
-9969 9970 0
-250 -9781 9971 0
250 -9971 0
9781 -9971 0
-9717 -9971 -9972 0
9717 9971 -9972 0
9717 -9971 9972 0
-9717 9971 9972 0
-9972 -9970 -9973 0
9972 9970 -9973 0
9972 -9970 9973 0
-9972 9970 9973 0
-9972 -9970 9974 0
9972 -9974 0
9970 -9974 0
-9717 -9971 9975 0
9717 -9975 0
9971 -9975 0
9974 9975 -9976 0
-9974 9976 0
-9975 9976 0
-258 -9781 9977 0
258 -9977 0
9781 -9977 0
-9723 -9977 -9978 0
9723 9977 -9978 0
9723 -9977 9978 0
-9723 9977 9978 0
-9978 -9976 -9979 0
9978 9976 -9979 0
9978 -9976 9979 0
-9978 9976 9979 0
-9978 -9976 9980 0
9978 -9980 0
9976 -9980 0
-9723 -9977 9981 0
9723 -9981 0
9977 -9981 0
9980 9981 -9982 0
-9980 9982 0
-9981 9982 0
-266 -9781 9983 0
266 -9983 0
9781 -9983 0
-9729 -9983 -9984 0
9729 9983 -9984 0
9729 -9983 9984 0
-9729 9983 9984 0
-9984 -9982 -9985 0
9984 9982 -9985 0
9984 -9982 9985 0
-9984 9982 9985 0
-9984 -9982 9986 0
9984 -9986 0
9982 -9986 0
-9729 -9983 9987 0
9729 -9987 0
9983 -9987 0
9986 9987 -9988 0
-9986 9988 0
-9987 9988 0
-274 -9781 9989 0
274 -9989 0
9781 -9989 0
-9735 -9989 -9990 0
9735 9989 -9990 0
9735 -9989 9990 0
-9735 9989 9990 0
-9990 -9988 -9991 0
9990 9988 -9991 0
9990 -9988 9991 0
-9990 9988 9991 0
-9990 -9988 9992 0
9990 -9992 0
9988 -9992 0
-9735 -9989 9993 0
9735 -9993 0
9989 -9993 0
9992 9993 -9994 0
-9992 9994 0
-9993 9994 0
-282 -9781 9995 0
282 -9995 0
9781 -9995 0
-9741 -9995 -9996 0
9741 9995 -9996 0
9741 -9995 9996 0
-9741 9995 9996 0
-9996 -9994 -9997 0
9996 9994 -9997 0
9996 -9994 9997 0
-9996 9994 9997 0
-9996 -9994 9998 0
9996 -9998 0
9994 -9998 0
-9741 -9995 9999 0
9741 -9999 0
9995 -9999 0
9998 9999 -10000 0
-9998 10000 0
-9999 10000 0
-290 -9781 10001 0
290 -10001 0
9781 -10001 0
-9747 -10001 -10002 0
9747 10001 -10002 0
9747 -10001 10002 0
-9747 10001 10002 0
-10002 -10000 -10003 0
10002 10000 -10003 0
10002 -10000 10003 0
-10002 10000 10003 0
-10002 -10000 10004 0
10002 -10004 0
10000 -10004 0
-9747 -10001 10005 0
9747 -10005 0
10001 -10005 0
10004 10005 -10006 0
-10004 10006 0
-10005 10006 0
-298 -9781 10007 0
298 -10007 0
9781 -10007 0
-9753 -10007 -10008 0
9753 10007 -10008 0
9753 -10007 10008 0
-9753 10007 10008 0
-10008 -10006 -10009 0
10008 10006 -10009 0
10008 -10006 10009 0
-10008 10006 10009 0
-10008 -10006 10010 0
10008 -10010 0
10006 -10010 0
-9753 -10007 10011 0
9753 -10011 0
10007 -10011 0
10010 10011 -10012 0
-10010 10012 0
-10011 10012 0
-306 -9781 10013 0
306 -10013 0
9781 -10013 0
-9759 -10013 -10014 0
9759 10013 -10014 0
9759 -10013 10014 0
-9759 10013 10014 0
-10014 -10012 -10015 0
10014 10012 -10015 0
10014 -10012 10015 0
-10014 10012 10015 0
-10014 -10012 10016 0
10014 -10016 0
10012 -10016 0
-9759 -10013 10017 0
9759 -10017 0
10013 -10017 0
10016 10017 -10018 0
-10016 10018 0
-10017 10018 0
-314 -9781 10019 0
314 -10019 0
9781 -10019 0
-9765 -10019 -10020 0
9765 10019 -10020 0
9765 -10019 10020 0
-9765 10019 10020 0
-10020 -10018 -10021 0
10020 10018 -10021 0
10020 -10018 10021 0
-10020 10018 10021 0
-10020 -10018 10022 0
10020 -10022 0
10018 -10022 0
-9765 -10019 10023 0
9765 -10023 0
10019 -10023 0
10022 10023 -10024 0
-10022 10024 0
-10023 10024 0
-322 -9781 10025 0
322 -10025 0
9781 -10025 0
-9771 -10025 -10026 0
9771 10025 -10026 0
9771 -10025 10026 0
-9771 10025 10026 0
-10026 -10024 -10027 0
10026 10024 -10027 0
10026 -10024 10027 0
-10026 10024 10027 0
-10026 -10024 10028 0
10026 -10028 0
10024 -10028 0
-9771 -10025 10029 0
9771 -10029 0
10025 -10029 0
10028 10029 -10030 0
-10028 10030 0
-10029 10030 0
-330 -9781 10031 0
330 -10031 0
9781 -10031 0
-9777 -10031 -10032 0
9777 10031 -10032 0
9777 -10031 10032 0
-9777 10031 10032 0
-10032 -10030 -10033 0
10032 10030 -10033 0
10032 -10030 10033 0
-10032 10030 10033 0
-10032 -10030 10034 0
10032 -10034 0
10030 -10034 0
-9777 -10031 10035 0
9777 -10035 0
10031 -10035 0
10034 10035 -10036 0
-10034 10036 0
-10035 10036 0
-338 -9781 10037 0
338 -10037 0
9781 -10037 0
-9780 -10037 -10038 0
9780 10037 -10038 0
9780 -10037 10038 0
-9780 10037 10038 0
-10038 -10036 -10039 0
10038 10036 -10039 0
10038 -10036 10039 0
-10038 10036 10039 0
-10038 -10036 10040 0
10038 -10040 0
10036 -10040 0
-9780 -10037 10041 0
9780 -10041 0
10037 -10041 0
10040 10041 -10042 0
-10040 10042 0
-10041 10042 0
-1 -10043 10044 0
1 -10044 0
10043 -10044 0
-9787 -10044 -10045 0
9787 10044 -10045 0
9787 -10044 10045 0
-9787 10044 10045 0
-9787 -10044 10046 0
9787 -10046 0
10044 -10046 0
-4 -10043 10047 0
4 -10047 0
10043 -10047 0
-9793 -10047 -10048 0
9793 10047 -10048 0
9793 -10047 10048 0
-9793 10047 10048 0
-10048 -10046 -10049 0
10048 10046 -10049 0
10048 -10046 10049 0
-10048 10046 10049 0
-10048 -10046 10050 0
10048 -10050 0
10046 -10050 0
-9793 -10047 10051 0
9793 -10051 0
10047 -10051 0
10050 10051 -10052 0
-10050 10052 0
-10051 10052 0
-10 -10043 10053 0
10 -10053 0
10043 -10053 0
-9799 -10053 -10054 0
9799 10053 -10054 0
9799 -10053 10054 0
-9799 10053 10054 0
-10054 -10052 -10055 0
10054 10052 -10055 0
10054 -10052 10055 0
-10054 10052 10055 0
-10054 -10052 10056 0
10054 -10056 0
10052 -10056 0
-9799 -10053 10057 0
9799 -10057 0
10053 -10057 0
10056 10057 -10058 0
-10056 10058 0
-10057 10058 0
-18 -10043 10059 0
18 -10059 0
10043 -10059 0
-9805 -10059 -10060 0
9805 10059 -10060 0
9805 -10059 10060 0
-9805 10059 10060 0
-10060 -10058 -10061 0
10060 10058 -10061 0
10060 -10058 10061 0
-10060 10058 10061 0
-10060 -10058 10062 0
10060 -10062 0
10058 -10062 0
-9805 -10059 10063 0
9805 -10063 0
10059 -10063 0
10062 10063 -10064 0
-10062 10064 0
-10063 10064 0
-26 -10043 10065 0
26 -10065 0
10043 -10065 0
-9811 -10065 -10066 0
9811 10065 -10066 0
9811 -10065 10066 0
-9811 10065 10066 0
-10066 -10064 -10067 0
10066 10064 -10067 0
10066 -10064 10067 0
-10066 10064 10067 0
-10066 -10064 10068 0
10066 -10068 0
10064 -10068 0
-9811 -10065 10069 0
9811 -10069 0
10065 -10069 0
10068 10069 -10070 0
-10068 10070 0
-10069 10070 0
-34 -10043 10071 0
34 -10071 0
10043 -10071 0
-9817 -10071 -10072 0
9817 10071 -10072 0
9817 -10071 10072 0
-9817 10071 10072 0
-10072 -10070 -10073 0
10072 10070 -10073 0
10072 -10070 10073 0
-10072 10070 10073 0
-10072 -10070 10074 0
10072 -10074 0
10070 -10074 0
-9817 -10071 10075 0
9817 -10075 0
10071 -10075 0
10074 10075 -10076 0
-10074 10076 0
-10075 10076 0
-42 -10043 10077 0
42 -10077 0
10043 -10077 0
-9823 -10077 -10078 0
9823 10077 -10078 0
9823 -10077 10078 0
-9823 10077 10078 0
-10078 -10076 -10079 0
10078 10076 -10079 0
10078 -10076 10079 0
-10078 10076 10079 0
-10078 -10076 10080 0
10078 -10080 0
10076 -10080 0
-9823 -10077 10081 0
9823 -10081 0
10077 -10081 0
10080 10081 -10082 0
-10080 10082 0
-10081 10082 0
-50 -10043 10083 0
50 -10083 0
10043 -10083 0
-9829 -10083 -10084 0
9829 10083 -10084 0
9829 -10083 10084 0
-9829 10083 10084 0
-10084 -10082 -10085 0
10084 10082 -10085 0
10084 -10082 10085 0
-10084 10082 10085 0
-10084 -10082 10086 0
10084 -10086 0
10082 -10086 0
-9829 -10083 10087 0
9829 -10087 0
10083 -10087 0
10086 10087 -10088 0
-10086 10088 0
-10087 10088 0
-58 -10043 10089 0
58 -10089 0
10043 -10089 0
-9835 -10089 -10090 0
9835 10089 -10090 0
9835 -10089 10090 0
-9835 10089 10090 0
-10090 -10088 -10091 0
10090 10088 -10091 0
10090 -10088 10091 0
-10090 10088 10091 0
-10090 -10088 10092 0
10090 -10092 0
10088 -10092 0
-9835 -10089 10093 0
9835 -10093 0
10089 -10093 0
10092 10093 -10094 0
-10092 10094 0
-10093 10094 0
-66 -10043 10095 0
66 -10095 0
10043 -10095 0
-9841 -10095 -10096 0
9841 10095 -10096 0
9841 -10095 10096 0
-9841 10095 10096 0
-10096 -10094 -10097 0
10096 10094 -10097 0
10096 -10094 10097 0
-10096 10094 10097 0
-10096 -10094 10098 0
10096 -10098 0
10094 -10098 0
-9841 -10095 10099 0
9841 -10099 0
10095 -10099 0
10098 10099 -10100 0
-10098 10100 0
-10099 10100 0
-74 -10043 10101 0
74 -10101 0
10043 -10101 0
-9847 -10101 -10102 0
9847 10101 -10102 0
9847 -10101 10102 0
-9847 10101 10102 0
-10102 -10100 -10103 0
10102 10100 -10103 0
10102 -10100 10103 0
-10102 10100 10103 0
-10102 -10100 10104 0
10102 -10104 0
10100 -10104 0
-9847 -10101 10105 0
9847 -10105 0
10101 -10105 0
10104 10105 -10106 0
-10104 10106 0
-10105 10106 0
-82 -10043 10107 0
82 -10107 0
10043 -10107 0
-9853 -10107 -10108 0
9853 10107 -10108 0
9853 -10107 10108 0
-9853 10107 10108 0
-10108 -10106 -10109 0
10108 10106 -10109 0
10108 -10106 10109 0
-10108 10106 10109 0
-10108 -10106 10110 0
10108 -10110 0
10106 -10110 0
-9853 -10107 10111 0
9853 -10111 0
10107 -10111 0
10110 10111 -10112 0
-10110 10112 0
-10111 10112 0
-90 -10043 10113 0
90 -10113 0
10043 -10113 0
-9859 -10113 -10114 0
9859 10113 -10114 0
9859 -10113 10114 0
-9859 10113 10114 0
-10114 -10112 -10115 0
10114 10112 -10115 0
10114 -10112 10115 0
-10114 10112 10115 0
-10114 -10112 10116 0
10114 -10116 0
10112 -10116 0
-9859 -10113 10117 0
9859 -10117 0
10113 -10117 0
10116 10117 -10118 0
-10116 10118 0
-10117 10118 0
-98 -10043 10119 0
98 -10119 0
10043 -10119 0
-9865 -10119 -10120 0
9865 10119 -10120 0
9865 -10119 10120 0
-9865 10119 10120 0
-10120 -10118 -10121 0
10120 10118 -10121 0
10120 -10118 10121 0
-10120 10118 10121 0
-10120 -10118 10122 0
10120 -10122 0
10118 -10122 0
-9865 -10119 10123 0
9865 -10123 0
10119 -10123 0
10122 10123 -10124 0
-10122 10124 0
-10123 10124 0
-106 -10043 10125 0
106 -10125 0
10043 -10125 0
-9871 -10125 -10126 0
9871 10125 -10126 0
9871 -10125 10126 0
-9871 10125 10126 0
-10126 -10124 -10127 0
10126 10124 -10127 0
10126 -10124 10127 0
-10126 10124 10127 0
-10126 -10124 10128 0
10126 -10128 0
10124 -10128 0
-9871 -10125 10129 0
9871 -10129 0
10125 -10129 0
10128 10129 -10130 0
-10128 10130 0
-10129 10130 0
-114 -10043 10131 0
114 -10131 0
10043 -10131 0
-9877 -10131 -10132 0
9877 10131 -10132 0
9877 -10131 10132 0
-9877 10131 10132 0
-10132 -10130 -10133 0
10132 10130 -10133 0
10132 -10130 10133 0
-10132 10130 10133 0
-10132 -10130 10134 0
10132 -10134 0
10130 -10134 0
-9877 -10131 10135 0
9877 -10135 0
10131 -10135 0
10134 10135 -10136 0
-10134 10136 0
-10135 10136 0
-122 -10043 10137 0
122 -10137 0
10043 -10137 0
-9883 -10137 -10138 0
9883 10137 -10138 0
9883 -10137 10138 0
-9883 10137 10138 0
-10138 -10136 -10139 0
10138 10136 -10139 0
10138 -10136 10139 0
-10138 10136 10139 0
-10138 -10136 10140 0
10138 -10140 0
10136 -10140 0
-9883 -10137 10141 0
9883 -10141 0
10137 -10141 0
10140 10141 -10142 0
-10140 10142 0
-10141 10142 0
-130 -10043 10143 0
130 -10143 0
10043 -10143 0
-9889 -10143 -10144 0
9889 10143 -10144 0
9889 -10143 10144 0
-9889 10143 10144 0
-10144 -10142 -10145 0
10144 10142 -10145 0
10144 -10142 10145 0
-10144 10142 10145 0
-10144 -10142 10146 0
10144 -10146 0
10142 -10146 0
-9889 -10143 10147 0
9889 -10147 0
10143 -10147 0
10146 10147 -10148 0
-10146 10148 0
-10147 10148 0
-138 -10043 10149 0
138 -10149 0
10043 -10149 0
-9895 -10149 -10150 0
9895 10149 -10150 0
9895 -10149 10150 0
-9895 10149 10150 0
-10150 -10148 -10151 0
10150 10148 -10151 0
10150 -10148 10151 0
-10150 10148 10151 0
-10150 -10148 10152 0
10150 -10152 0
10148 -10152 0
-9895 -10149 10153 0
9895 -10153 0
10149 -10153 0
10152 10153 -10154 0
-10152 10154 0
-10153 10154 0
-146 -10043 10155 0
146 -10155 0
10043 -10155 0
-9901 -10155 -10156 0
9901 10155 -10156 0
9901 -10155 10156 0
-9901 10155 10156 0
-10156 -10154 -10157 0
10156 10154 -10157 0
10156 -10154 10157 0
-10156 10154 10157 0
-10156 -10154 10158 0
10156 -10158 0
10154 -10158 0
-9901 -10155 10159 0
9901 -10159 0
10155 -10159 0
10158 10159 -10160 0
-10158 10160 0
-10159 10160 0
-154 -10043 10161 0
154 -10161 0
10043 -10161 0
-9907 -10161 -10162 0
9907 10161 -10162 0
9907 -10161 10162 0
-9907 10161 10162 0
-10162 -10160 -10163 0
10162 10160 -10163 0
10162 -10160 10163 0
-10162 10160 10163 0
-10162 -10160 10164 0
10162 -10164 0
10160 -10164 0
-9907 -10161 10165 0
9907 -10165 0
10161 -10165 0
10164 10165 -10166 0
-10164 10166 0
-10165 10166 0
-162 -10043 10167 0
162 -10167 0
10043 -10167 0
-9913 -10167 -10168 0
9913 10167 -10168 0
9913 -10167 10168 0
-9913 10167 10168 0
-10168 -10166 -10169 0
10168 10166 -10169 0
10168 -10166 10169 0
-10168 10166 10169 0
-10168 -10166 10170 0
10168 -10170 0
10166 -10170 0
-9913 -10167 10171 0
9913 -10171 0
10167 -10171 0
10170 10171 -10172 0
-10170 10172 0
-10171 10172 0
-170 -10043 10173 0
170 -10173 0
10043 -10173 0
-9919 -10173 -10174 0
9919 10173 -10174 0
9919 -10173 10174 0
-9919 10173 10174 0
-10174 -10172 -10175 0
10174 10172 -10175 0
10174 -10172 10175 0
-10174 10172 10175 0
-10174 -10172 10176 0
10174 -10176 0
10172 -10176 0
-9919 -10173 10177 0
9919 -10177 0
10173 -10177 0
10176 10177 -10178 0
-10176 10178 0
-10177 10178 0
-178 -10043 10179 0
178 -10179 0
10043 -10179 0
-9925 -10179 -10180 0
9925 10179 -10180 0
9925 -10179 10180 0
-9925 10179 10180 0
-10180 -10178 -10181 0
10180 10178 -10181 0
10180 -10178 10181 0
-10180 10178 10181 0
-10180 -10178 10182 0
10180 -10182 0
10178 -10182 0
-9925 -10179 10183 0
9925 -10183 0
10179 -10183 0
10182 10183 -10184 0
-10182 10184 0
-10183 10184 0
-186 -10043 10185 0
186 -10185 0
10043 -10185 0
-9931 -10185 -10186 0
9931 10185 -10186 0
9931 -10185 10186 0
-9931 10185 10186 0
-10186 -10184 -10187 0
10186 10184 -10187 0
10186 -10184 10187 0
-10186 10184 10187 0
-10186 -10184 10188 0
10186 -10188 0
10184 -10188 0
-9931 -10185 10189 0
9931 -10189 0
10185 -10189 0
10188 10189 -10190 0
-10188 10190 0
-10189 10190 0
-194 -10043 10191 0
194 -10191 0
10043 -10191 0
-9937 -10191 -10192 0
9937 10191 -10192 0
9937 -10191 10192 0
-9937 10191 10192 0
-10192 -10190 -10193 0
10192 10190 -10193 0
10192 -10190 10193 0
-10192 10190 10193 0
-10192 -10190 10194 0
10192 -10194 0
10190 -10194 0
-9937 -10191 10195 0
9937 -10195 0
10191 -10195 0
10194 10195 -10196 0
-10194 10196 0
-10195 10196 0
-202 -10043 10197 0
202 -10197 0
10043 -10197 0
-9943 -10197 -10198 0
9943 10197 -10198 0
9943 -10197 10198 0
-9943 10197 10198 0
-10198 -10196 -10199 0
10198 10196 -10199 0
10198 -10196 10199 0
-10198 10196 10199 0
-10198 -10196 10200 0
10198 -10200 0
10196 -10200 0
-9943 -10197 10201 0
9943 -10201 0
10197 -10201 0
10200 10201 -10202 0
-10200 10202 0
-10201 10202 0
-210 -10043 10203 0
210 -10203 0
10043 -10203 0
-9949 -10203 -10204 0
9949 10203 -10204 0
9949 -10203 10204 0
-9949 10203 10204 0
-10204 -10202 -10205 0
10204 10202 -10205 0
10204 -10202 10205 0
-10204 10202 10205 0
-10204 -10202 10206 0
10204 -10206 0
10202 -10206 0
-9949 -10203 10207 0
9949 -10207 0
10203 -10207 0
10206 10207 -10208 0
-10206 10208 0
-10207 10208 0
-218 -10043 10209 0
218 -10209 0
10043 -10209 0
-9955 -10209 -10210 0
9955 10209 -10210 0
9955 -10209 10210 0
-9955 10209 10210 0
-10210 -10208 -10211 0
10210 10208 -10211 0
10210 -10208 10211 0
-10210 10208 10211 0
-10210 -10208 10212 0
10210 -10212 0
10208 -10212 0
-9955 -10209 10213 0
9955 -10213 0
10209 -10213 0
10212 10213 -10214 0
-10212 10214 0
-10213 10214 0
-226 -10043 10215 0
226 -10215 0
10043 -10215 0
-9961 -10215 -10216 0
9961 10215 -10216 0
9961 -10215 10216 0
-9961 10215 10216 0
-10216 -10214 -10217 0
10216 10214 -10217 0
10216 -10214 10217 0
-10216 10214 10217 0
-10216 -10214 10218 0
10216 -10218 0
10214 -10218 0
-9961 -10215 10219 0
9961 -10219 0
10215 -10219 0
10218 10219 -10220 0
-10218 10220 0
-10219 10220 0
-234 -10043 10221 0
234 -10221 0
10043 -10221 0
-9967 -10221 -10222 0
9967 10221 -10222 0
9967 -10221 10222 0
-9967 10221 10222 0
-10222 -10220 -10223 0
10222 10220 -10223 0
10222 -10220 10223 0
-10222 10220 10223 0
-10222 -10220 10224 0
10222 -10224 0
10220 -10224 0
-9967 -10221 10225 0
9967 -10225 0
10221 -10225 0
10224 10225 -10226 0
-10224 10226 0
-10225 10226 0
-242 -10043 10227 0
242 -10227 0
10043 -10227 0
-9973 -10227 -10228 0
9973 10227 -10228 0
9973 -10227 10228 0
-9973 10227 10228 0
-10228 -10226 -10229 0
10228 10226 -10229 0
10228 -10226 10229 0
-10228 10226 10229 0
-10228 -10226 10230 0
10228 -10230 0
10226 -10230 0
-9973 -10227 10231 0
9973 -10231 0
10227 -10231 0
10230 10231 -10232 0
-10230 10232 0
-10231 10232 0
-250 -10043 10233 0
250 -10233 0
10043 -10233 0
-9979 -10233 -10234 0
9979 10233 -10234 0
9979 -10233 10234 0
-9979 10233 10234 0
-10234 -10232 -10235 0
10234 10232 -10235 0
10234 -10232 10235 0
-10234 10232 10235 0
-10234 -10232 10236 0
10234 -10236 0
10232 -10236 0
-9979 -10233 10237 0
9979 -10237 0
10233 -10237 0
10236 10237 -10238 0
-10236 10238 0
-10237 10238 0
-258 -10043 10239 0
258 -10239 0
10043 -10239 0
-9985 -10239 -10240 0
9985 10239 -10240 0
9985 -10239 10240 0
-9985 10239 10240 0
-10240 -10238 -10241 0
10240 10238 -10241 0
10240 -10238 10241 0
-10240 10238 10241 0
-10240 -10238 10242 0
10240 -10242 0
10238 -10242 0
-9985 -10239 10243 0
9985 -10243 0
10239 -10243 0
10242 10243 -10244 0
-10242 10244 0
-10243 10244 0
-266 -10043 10245 0
266 -10245 0
10043 -10245 0
-9991 -10245 -10246 0
9991 10245 -10246 0
9991 -10245 10246 0
-9991 10245 10246 0
-10246 -10244 -10247 0
10246 10244 -10247 0
10246 -10244 10247 0
-10246 10244 10247 0
-10246 -10244 10248 0
10246 -10248 0
10244 -10248 0
-9991 -10245 10249 0
9991 -10249 0
10245 -10249 0
10248 10249 -10250 0
-10248 10250 0
-10249 10250 0
-274 -10043 10251 0
274 -10251 0
10043 -10251 0
-9997 -10251 -10252 0
9997 10251 -10252 0
9997 -10251 10252 0
-9997 10251 10252 0
-10252 -10250 -10253 0
10252 10250 -10253 0
10252 -10250 10253 0
-10252 10250 10253 0
-10252 -10250 10254 0
10252 -10254 0
10250 -10254 0
-9997 -10251 10255 0
9997 -10255 0
10251 -10255 0
10254 10255 -10256 0
-10254 10256 0
-10255 10256 0
-282 -10043 10257 0
282 -10257 0
10043 -10257 0
-10003 -10257 -10258 0
10003 10257 -10258 0
10003 -10257 10258 0
-10003 10257 10258 0
-10258 -10256 -10259 0
10258 10256 -10259 0
10258 -10256 10259 0
-10258 10256 10259 0
-10258 -10256 10260 0
10258 -10260 0
10256 -10260 0
-10003 -10257 10261 0
10003 -10261 0
10257 -10261 0
10260 10261 -10262 0
-10260 10262 0
-10261 10262 0
-290 -10043 10263 0
290 -10263 0
10043 -10263 0
-10009 -10263 -10264 0
10009 10263 -10264 0
10009 -10263 10264 0
-10009 10263 10264 0
-10264 -10262 -10265 0
10264 10262 -10265 0
10264 -10262 10265 0
-10264 10262 10265 0
-10264 -10262 10266 0
10264 -10266 0
10262 -10266 0
-10009 -10263 10267 0
10009 -10267 0
10263 -10267 0
10266 10267 -10268 0
-10266 10268 0
-10267 10268 0
-298 -10043 10269 0
298 -10269 0
10043 -10269 0
-10015 -10269 -10270 0
10015 10269 -10270 0
10015 -10269 10270 0
-10015 10269 10270 0
-10270 -10268 -10271 0
10270 10268 -10271 0
10270 -10268 10271 0
-10270 10268 10271 0
-10270 -10268 10272 0
10270 -10272 0
10268 -10272 0
-10015 -10269 10273 0
10015 -10273 0
10269 -10273 0
10272 10273 -10274 0
-10272 10274 0
-10273 10274 0
-306 -10043 10275 0
306 -10275 0
10043 -10275 0
-10021 -10275 -10276 0
10021 10275 -10276 0
10021 -10275 10276 0
-10021 10275 10276 0
-10276 -10274 -10277 0
10276 10274 -10277 0
10276 -10274 10277 0
-10276 10274 10277 0
-10276 -10274 10278 0
10276 -10278 0
10274 -10278 0
-10021 -10275 10279 0
10021 -10279 0
10275 -10279 0
10278 10279 -10280 0
-10278 10280 0
-10279 10280 0
-314 -10043 10281 0
314 -10281 0
10043 -10281 0
-10027 -10281 -10282 0
10027 10281 -10282 0
10027 -10281 10282 0
-10027 10281 10282 0
-10282 -10280 -10283 0
10282 10280 -10283 0
10282 -10280 10283 0
-10282 10280 10283 0
-10282 -10280 10284 0
10282 -10284 0
10280 -10284 0
-10027 -10281 10285 0
10027 -10285 0
10281 -10285 0
10284 10285 -10286 0
-10284 10286 0
-10285 10286 0
-322 -10043 10287 0
322 -10287 0
10043 -10287 0
-10033 -10287 -10288 0
10033 10287 -10288 0
10033 -10287 10288 0
-10033 10287 10288 0
-10288 -10286 -10289 0
10288 10286 -10289 0
10288 -10286 10289 0
-10288 10286 10289 0
-10288 -10286 10290 0
10288 -10290 0
10286 -10290 0
-10033 -10287 10291 0
10033 -10291 0
10287 -10291 0
10290 10291 -10292 0
-10290 10292 0
-10291 10292 0
-330 -10043 10293 0
330 -10293 0
10043 -10293 0
-10039 -10293 -10294 0
10039 10293 -10294 0
10039 -10293 10294 0
-10039 10293 10294 0
-10294 -10292 -10295 0
10294 10292 -10295 0
10294 -10292 10295 0
-10294 10292 10295 0
-10294 -10292 10296 0
10294 -10296 0
10292 -10296 0
-10039 -10293 10297 0
10039 -10297 0
10293 -10297 0
10296 10297 -10298 0
-10296 10298 0
-10297 10298 0
-338 -10043 10299 0
338 -10299 0
10043 -10299 0
-10042 -10299 -10300 0
10042 10299 -10300 0
10042 -10299 10300 0
-10042 10299 10300 0
-10300 -10298 -10301 0
10300 10298 -10301 0
10300 -10298 10301 0
-10300 10298 10301 0
-10300 -10298 10302 0
10300 -10302 0
10298 -10302 0
-10042 -10299 10303 0
10042 -10303 0
10299 -10303 0
10302 10303 -10304 0
-10302 10304 0
-10303 10304 0
-1 -10305 10306 0
1 -10306 0
10305 -10306 0
-10049 -10306 -10307 0
10049 10306 -10307 0
10049 -10306 10307 0
-10049 10306 10307 0
-10049 -10306 10308 0
10049 -10308 0
10306 -10308 0
-4 -10305 10309 0
4 -10309 0
10305 -10309 0
-10055 -10309 -10310 0
10055 10309 -10310 0
10055 -10309 10310 0
-10055 10309 10310 0
-10310 -10308 -10311 0
10310 10308 -10311 0
10310 -10308 10311 0
-10310 10308 10311 0
-10310 -10308 10312 0
10310 -10312 0
10308 -10312 0
-10055 -10309 10313 0
10055 -10313 0
10309 -10313 0
10312 10313 -10314 0
-10312 10314 0
-10313 10314 0
-10 -10305 10315 0
10 -10315 0
10305 -10315 0
-10061 -10315 -10316 0
10061 10315 -10316 0
10061 -10315 10316 0
-10061 10315 10316 0
-10316 -10314 -10317 0
10316 10314 -10317 0
10316 -10314 10317 0
-10316 10314 10317 0
-10316 -10314 10318 0
10316 -10318 0
10314 -10318 0
-10061 -10315 10319 0
10061 -10319 0
10315 -10319 0
10318 10319 -10320 0
-10318 10320 0
-10319 10320 0
-18 -10305 10321 0
18 -10321 0
10305 -10321 0
-10067 -10321 -10322 0
10067 10321 -10322 0
10067 -10321 10322 0
-10067 10321 10322 0
-10322 -10320 -10323 0
10322 10320 -10323 0
10322 -10320 10323 0
-10322 10320 10323 0
-10322 -10320 10324 0
10322 -10324 0
10320 -10324 0
-10067 -10321 10325 0
10067 -10325 0
10321 -10325 0
10324 10325 -10326 0
-10324 10326 0
-10325 10326 0
-26 -10305 10327 0
26 -10327 0
10305 -10327 0
-10073 -10327 -10328 0
10073 10327 -10328 0
10073 -10327 10328 0
-10073 10327 10328 0
-10328 -10326 -10329 0
10328 10326 -10329 0
10328 -10326 10329 0
-10328 10326 10329 0
-10328 -10326 10330 0
10328 -10330 0
10326 -10330 0
-10073 -10327 10331 0
10073 -10331 0
10327 -10331 0
10330 10331 -10332 0
-10330 10332 0
-10331 10332 0
-34 -10305 10333 0
34 -10333 0
10305 -10333 0
-10079 -10333 -10334 0
10079 10333 -10334 0
10079 -10333 10334 0
-10079 10333 10334 0
-10334 -10332 -10335 0
10334 10332 -10335 0
10334 -10332 10335 0
-10334 10332 10335 0
-10334 -10332 10336 0
10334 -10336 0
10332 -10336 0
-10079 -10333 10337 0
10079 -10337 0
10333 -10337 0
10336 10337 -10338 0
-10336 10338 0
-10337 10338 0
-42 -10305 10339 0
42 -10339 0
10305 -10339 0
-10085 -10339 -10340 0
10085 10339 -10340 0
10085 -10339 10340 0
-10085 10339 10340 0
-10340 -10338 -10341 0
10340 10338 -10341 0
10340 -10338 10341 0
-10340 10338 10341 0
-10340 -10338 10342 0
10340 -10342 0
10338 -10342 0
-10085 -10339 10343 0
10085 -10343 0
10339 -10343 0
10342 10343 -10344 0
-10342 10344 0
-10343 10344 0
-50 -10305 10345 0
50 -10345 0
10305 -10345 0
-10091 -10345 -10346 0
10091 10345 -10346 0
10091 -10345 10346 0
-10091 10345 10346 0
-10346 -10344 -10347 0
10346 10344 -10347 0
10346 -10344 10347 0
-10346 10344 10347 0
-10346 -10344 10348 0
10346 -10348 0
10344 -10348 0
-10091 -10345 10349 0
10091 -10349 0
10345 -10349 0
10348 10349 -10350 0
-10348 10350 0
-10349 10350 0
-58 -10305 10351 0
58 -10351 0
10305 -10351 0
-10097 -10351 -10352 0
10097 10351 -10352 0
10097 -10351 10352 0
-10097 10351 10352 0
-10352 -10350 -10353 0
10352 10350 -10353 0
10352 -10350 10353 0
-10352 10350 10353 0
-10352 -10350 10354 0
10352 -10354 0
10350 -10354 0
-10097 -10351 10355 0
10097 -10355 0
10351 -10355 0
10354 10355 -10356 0
-10354 10356 0
-10355 10356 0
-66 -10305 10357 0
66 -10357 0
10305 -10357 0
-10103 -10357 -10358 0
10103 10357 -10358 0
10103 -10357 10358 0
-10103 10357 10358 0
-10358 -10356 -10359 0
10358 10356 -10359 0
10358 -10356 10359 0
-10358 10356 10359 0
-10358 -10356 10360 0
10358 -10360 0
10356 -10360 0
-10103 -10357 10361 0
10103 -10361 0
10357 -10361 0
10360 10361 -10362 0
-10360 10362 0
-10361 10362 0
-74 -10305 10363 0
74 -10363 0
10305 -10363 0
-10109 -10363 -10364 0
10109 10363 -10364 0
10109 -10363 10364 0
-10109 10363 10364 0
-10364 -10362 -10365 0
10364 10362 -10365 0
10364 -10362 10365 0
-10364 10362 10365 0
-10364 -10362 10366 0
10364 -10366 0
10362 -10366 0
-10109 -10363 10367 0
10109 -10367 0
10363 -10367 0
10366 10367 -10368 0
-10366 10368 0
-10367 10368 0
-82 -10305 10369 0
82 -10369 0
10305 -10369 0
-10115 -10369 -10370 0
10115 10369 -10370 0
10115 -10369 10370 0
-10115 10369 10370 0
-10370 -10368 -10371 0
10370 10368 -10371 0
10370 -10368 10371 0
-10370 10368 10371 0
-10370 -10368 10372 0
10370 -10372 0
10368 -10372 0
-10115 -10369 10373 0
10115 -10373 0
10369 -10373 0
10372 10373 -10374 0
-10372 10374 0
-10373 10374 0
-90 -10305 10375 0
90 -10375 0
10305 -10375 0
-10121 -10375 -10376 0
10121 10375 -10376 0
10121 -10375 10376 0
-10121 10375 10376 0
-10376 -10374 -10377 0
10376 10374 -10377 0
10376 -10374 10377 0
-10376 10374 10377 0
-10376 -10374 10378 0
10376 -10378 0
10374 -10378 0
-10121 -10375 10379 0
10121 -10379 0
10375 -10379 0
10378 10379 -10380 0
-10378 10380 0
-10379 10380 0
-98 -10305 10381 0
98 -10381 0
10305 -10381 0
-10127 -10381 -10382 0
10127 10381 -10382 0
10127 -10381 10382 0
-10127 10381 10382 0
-10382 -10380 -10383 0
10382 10380 -10383 0
10382 -10380 10383 0
-10382 10380 10383 0
-10382 -10380 10384 0
10382 -10384 0
10380 -10384 0
-10127 -10381 10385 0
10127 -10385 0
10381 -10385 0
10384 10385 -10386 0
-10384 10386 0
-10385 10386 0
-106 -10305 10387 0
106 -10387 0
10305 -10387 0
-10133 -10387 -10388 0
10133 10387 -10388 0
10133 -10387 10388 0
-10133 10387 10388 0
-10388 -10386 -10389 0
10388 10386 -10389 0
10388 -10386 10389 0
-10388 10386 10389 0
-10388 -10386 10390 0
10388 -10390 0
10386 -10390 0
-10133 -10387 10391 0
10133 -10391 0
10387 -10391 0
10390 10391 -10392 0
-10390 10392 0
-10391 10392 0
-114 -10305 10393 0
114 -10393 0
10305 -10393 0
-10139 -10393 -10394 0
10139 10393 -10394 0
10139 -10393 10394 0
-10139 10393 10394 0
-10394 -10392 -10395 0
10394 10392 -10395 0
10394 -10392 10395 0
-10394 10392 10395 0
-10394 -10392 10396 0
10394 -10396 0
10392 -10396 0
-10139 -10393 10397 0
10139 -10397 0
10393 -10397 0
10396 10397 -10398 0
-10396 10398 0
-10397 10398 0
-122 -10305 10399 0
122 -10399 0
10305 -10399 0
-10145 -10399 -10400 0
10145 10399 -10400 0
10145 -10399 10400 0
-10145 10399 10400 0
-10400 -10398 -10401 0
10400 10398 -10401 0
10400 -10398 10401 0
-10400 10398 10401 0
-10400 -10398 10402 0
10400 -10402 0
10398 -10402 0
-10145 -10399 10403 0
10145 -10403 0
10399 -10403 0
10402 10403 -10404 0
-10402 10404 0
-10403 10404 0
-130 -10305 10405 0
130 -10405 0
10305 -10405 0
-10151 -10405 -10406 0
10151 10405 -10406 0
10151 -10405 10406 0
-10151 10405 10406 0
-10406 -10404 -10407 0
10406 10404 -10407 0
10406 -10404 10407 0
-10406 10404 10407 0
-10406 -10404 10408 0
10406 -10408 0
10404 -10408 0
-10151 -10405 10409 0
10151 -10409 0
10405 -10409 0
10408 10409 -10410 0
-10408 10410 0
-10409 10410 0
-138 -10305 10411 0
138 -10411 0
10305 -10411 0
-10157 -10411 -10412 0
10157 10411 -10412 0
10157 -10411 10412 0
-10157 10411 10412 0
-10412 -10410 -10413 0
10412 10410 -10413 0
10412 -10410 10413 0
-10412 10410 10413 0
-10412 -10410 10414 0
10412 -10414 0
10410 -10414 0
-10157 -10411 10415 0
10157 -10415 0
10411 -10415 0
10414 10415 -10416 0
-10414 10416 0
-10415 10416 0
-146 -10305 10417 0
146 -10417 0
10305 -10417 0
-10163 -10417 -10418 0
10163 10417 -10418 0
10163 -10417 10418 0
-10163 10417 10418 0
-10418 -10416 -10419 0
10418 10416 -10419 0
10418 -10416 10419 0
-10418 10416 10419 0
-10418 -10416 10420 0
10418 -10420 0
10416 -10420 0
-10163 -10417 10421 0
10163 -10421 0
10417 -10421 0
10420 10421 -10422 0
-10420 10422 0
-10421 10422 0
-154 -10305 10423 0
154 -10423 0
10305 -10423 0
-10169 -10423 -10424 0
10169 10423 -10424 0
10169 -10423 10424 0
-10169 10423 10424 0
-10424 -10422 -10425 0
10424 10422 -10425 0
10424 -10422 10425 0
-10424 10422 10425 0
-10424 -10422 10426 0
10424 -10426 0
10422 -10426 0
-10169 -10423 10427 0
10169 -10427 0
10423 -10427 0
10426 10427 -10428 0
-10426 10428 0
-10427 10428 0
-162 -10305 10429 0
162 -10429 0
10305 -10429 0
-10175 -10429 -10430 0
10175 10429 -10430 0
10175 -10429 10430 0
-10175 10429 10430 0
-10430 -10428 -10431 0
10430 10428 -10431 0
10430 -10428 10431 0
-10430 10428 10431 0
-10430 -10428 10432 0
10430 -10432 0
10428 -10432 0
-10175 -10429 10433 0
10175 -10433 0
10429 -10433 0
10432 10433 -10434 0
-10432 10434 0
-10433 10434 0
-170 -10305 10435 0
170 -10435 0
10305 -10435 0
-10181 -10435 -10436 0
10181 10435 -10436 0
10181 -10435 10436 0
-10181 10435 10436 0
-10436 -10434 -10437 0
10436 10434 -10437 0
10436 -10434 10437 0
-10436 10434 10437 0
-10436 -10434 10438 0
10436 -10438 0
10434 -10438 0
-10181 -10435 10439 0
10181 -10439 0
10435 -10439 0
10438 10439 -10440 0
-10438 10440 0
-10439 10440 0
-178 -10305 10441 0
178 -10441 0
10305 -10441 0
-10187 -10441 -10442 0
10187 10441 -10442 0
10187 -10441 10442 0
-10187 10441 10442 0
-10442 -10440 -10443 0
10442 10440 -10443 0
10442 -10440 10443 0
-10442 10440 10443 0
-10442 -10440 10444 0
10442 -10444 0
10440 -10444 0
-10187 -10441 10445 0
10187 -10445 0
10441 -10445 0
10444 10445 -10446 0
-10444 10446 0
-10445 10446 0
-186 -10305 10447 0
186 -10447 0
10305 -10447 0
-10193 -10447 -10448 0
10193 10447 -10448 0
10193 -10447 10448 0
-10193 10447 10448 0
-10448 -10446 -10449 0
10448 10446 -10449 0
10448 -10446 10449 0
-10448 10446 10449 0
-10448 -10446 10450 0
10448 -10450 0
10446 -10450 0
-10193 -10447 10451 0
10193 -10451 0
10447 -10451 0
10450 10451 -10452 0
-10450 10452 0
-10451 10452 0
-194 -10305 10453 0
194 -10453 0
10305 -10453 0
-10199 -10453 -10454 0
10199 10453 -10454 0
10199 -10453 10454 0
-10199 10453 10454 0
-10454 -10452 -10455 0
10454 10452 -10455 0
10454 -10452 10455 0
-10454 10452 10455 0
-10454 -10452 10456 0
10454 -10456 0
10452 -10456 0
-10199 -10453 10457 0
10199 -10457 0
10453 -10457 0
10456 10457 -10458 0
-10456 10458 0
-10457 10458 0
-202 -10305 10459 0
202 -10459 0
10305 -10459 0
-10205 -10459 -10460 0
10205 10459 -10460 0
10205 -10459 10460 0
-10205 10459 10460 0
-10460 -10458 -10461 0
10460 10458 -10461 0
10460 -10458 10461 0
-10460 10458 10461 0
-10460 -10458 10462 0
10460 -10462 0
10458 -10462 0
-10205 -10459 10463 0
10205 -10463 0
10459 -10463 0
10462 10463 -10464 0
-10462 10464 0
-10463 10464 0
-210 -10305 10465 0
210 -10465 0
10305 -10465 0
-10211 -10465 -10466 0
10211 10465 -10466 0
10211 -10465 10466 0
-10211 10465 10466 0
-10466 -10464 -10467 0
10466 10464 -10467 0
10466 -10464 10467 0
-10466 10464 10467 0
-10466 -10464 10468 0
10466 -10468 0
10464 -10468 0
-10211 -10465 10469 0
10211 -10469 0
10465 -10469 0
10468 10469 -10470 0
-10468 10470 0
-10469 10470 0
-218 -10305 10471 0
218 -10471 0
10305 -10471 0
-10217 -10471 -10472 0
10217 10471 -10472 0
10217 -10471 10472 0
-10217 10471 10472 0
-10472 -10470 -10473 0
10472 10470 -10473 0
10472 -10470 10473 0
-10472 10470 10473 0
-10472 -10470 10474 0
10472 -10474 0
10470 -10474 0
-10217 -10471 10475 0
10217 -10475 0
10471 -10475 0
10474 10475 -10476 0
-10474 10476 0
-10475 10476 0
-226 -10305 10477 0
226 -10477 0
10305 -10477 0
-10223 -10477 -10478 0
10223 10477 -10478 0
10223 -10477 10478 0
-10223 10477 10478 0
-10478 -10476 -10479 0
10478 10476 -10479 0
10478 -10476 10479 0
-10478 10476 10479 0
-10478 -10476 10480 0
10478 -10480 0
10476 -10480 0
-10223 -10477 10481 0
10223 -10481 0
10477 -10481 0
10480 10481 -10482 0
-10480 10482 0
-10481 10482 0
-234 -10305 10483 0
234 -10483 0
10305 -10483 0
-10229 -10483 -10484 0
10229 10483 -10484 0
10229 -10483 10484 0
-10229 10483 10484 0
-10484 -10482 -10485 0
10484 10482 -10485 0
10484 -10482 10485 0
-10484 10482 10485 0
-10484 -10482 10486 0
10484 -10486 0
10482 -10486 0
-10229 -10483 10487 0
10229 -10487 0
10483 -10487 0
10486 10487 -10488 0
-10486 10488 0
-10487 10488 0
-242 -10305 10489 0
242 -10489 0
10305 -10489 0
-10235 -10489 -10490 0
10235 10489 -10490 0
10235 -10489 10490 0
-10235 10489 10490 0
-10490 -10488 -10491 0
10490 10488 -10491 0
10490 -10488 10491 0
-10490 10488 10491 0
-10490 -10488 10492 0
10490 -10492 0
10488 -10492 0
-10235 -10489 10493 0
10235 -10493 0
10489 -10493 0
10492 10493 -10494 0
-10492 10494 0
-10493 10494 0
-250 -10305 10495 0
250 -10495 0
10305 -10495 0
-10241 -10495 -10496 0
10241 10495 -10496 0
10241 -10495 10496 0
-10241 10495 10496 0
-10496 -10494 -10497 0
10496 10494 -10497 0
10496 -10494 10497 0
-10496 10494 10497 0
-10496 -10494 10498 0
10496 -10498 0
10494 -10498 0
-10241 -10495 10499 0
10241 -10499 0
10495 -10499 0
10498 10499 -10500 0
-10498 10500 0
-10499 10500 0
-258 -10305 10501 0
258 -10501 0
10305 -10501 0
-10247 -10501 -10502 0
10247 10501 -10502 0
10247 -10501 10502 0
-10247 10501 10502 0
-10502 -10500 -10503 0
10502 10500 -10503 0
10502 -10500 10503 0
-10502 10500 10503 0
-10502 -10500 10504 0
10502 -10504 0
10500 -10504 0
-10247 -10501 10505 0
10247 -10505 0
10501 -10505 0
10504 10505 -10506 0
-10504 10506 0
-10505 10506 0
-266 -10305 10507 0
266 -10507 0
10305 -10507 0
-10253 -10507 -10508 0
10253 10507 -10508 0
10253 -10507 10508 0
-10253 10507 10508 0
-10508 -10506 -10509 0
10508 10506 -10509 0
10508 -10506 10509 0
-10508 10506 10509 0
-10508 -10506 10510 0
10508 -10510 0
10506 -10510 0
-10253 -10507 10511 0
10253 -10511 0
10507 -10511 0
10510 10511 -10512 0
-10510 10512 0
-10511 10512 0
-274 -10305 10513 0
274 -10513 0
10305 -10513 0
-10259 -10513 -10514 0
10259 10513 -10514 0
10259 -10513 10514 0
-10259 10513 10514 0
-10514 -10512 -10515 0
10514 10512 -10515 0
10514 -10512 10515 0
-10514 10512 10515 0
-10514 -10512 10516 0
10514 -10516 0
10512 -10516 0
-10259 -10513 10517 0
10259 -10517 0
10513 -10517 0
10516 10517 -10518 0
-10516 10518 0
-10517 10518 0
-282 -10305 10519 0
282 -10519 0
10305 -10519 0
-10265 -10519 -10520 0
10265 10519 -10520 0
10265 -10519 10520 0
-10265 10519 10520 0
-10520 -10518 -10521 0
10520 10518 -10521 0
10520 -10518 10521 0
-10520 10518 10521 0
-10520 -10518 10522 0
10520 -10522 0
10518 -10522 0
-10265 -10519 10523 0
10265 -10523 0
10519 -10523 0
10522 10523 -10524 0
-10522 10524 0
-10523 10524 0
-290 -10305 10525 0
290 -10525 0
10305 -10525 0
-10271 -10525 -10526 0
10271 10525 -10526 0
10271 -10525 10526 0
-10271 10525 10526 0
-10526 -10524 -10527 0
10526 10524 -10527 0
10526 -10524 10527 0
-10526 10524 10527 0
-10526 -10524 10528 0
10526 -10528 0
10524 -10528 0
-10271 -10525 10529 0
10271 -10529 0
10525 -10529 0
10528 10529 -10530 0
-10528 10530 0
-10529 10530 0
-298 -10305 10531 0
298 -10531 0
10305 -10531 0
-10277 -10531 -10532 0
10277 10531 -10532 0
10277 -10531 10532 0
-10277 10531 10532 0
-10532 -10530 -10533 0
10532 10530 -10533 0
10532 -10530 10533 0
-10532 10530 10533 0
-10532 -10530 10534 0
10532 -10534 0
10530 -10534 0
-10277 -10531 10535 0
10277 -10535 0
10531 -10535 0
10534 10535 -10536 0
-10534 10536 0
-10535 10536 0
-306 -10305 10537 0
306 -10537 0
10305 -10537 0
-10283 -10537 -10538 0
10283 10537 -10538 0
10283 -10537 10538 0
-10283 10537 10538 0
-10538 -10536 -10539 0
10538 10536 -10539 0
10538 -10536 10539 0
-10538 10536 10539 0
-10538 -10536 10540 0
10538 -10540 0
10536 -10540 0
-10283 -10537 10541 0
10283 -10541 0
10537 -10541 0
10540 10541 -10542 0
-10540 10542 0
-10541 10542 0
-314 -10305 10543 0
314 -10543 0
10305 -10543 0
-10289 -10543 -10544 0
10289 10543 -10544 0
10289 -10543 10544 0
-10289 10543 10544 0
-10544 -10542 -10545 0
10544 10542 -10545 0
10544 -10542 10545 0
-10544 10542 10545 0
-10544 -10542 10546 0
10544 -10546 0
10542 -10546 0
-10289 -10543 10547 0
10289 -10547 0
10543 -10547 0
10546 10547 -10548 0
-10546 10548 0
-10547 10548 0
-322 -10305 10549 0
322 -10549 0
10305 -10549 0
-10295 -10549 -10550 0
10295 10549 -10550 0
10295 -10549 10550 0
-10295 10549 10550 0
-10550 -10548 -10551 0
10550 10548 -10551 0
10550 -10548 10551 0
-10550 10548 10551 0
-10550 -10548 10552 0
10550 -10552 0
10548 -10552 0
-10295 -10549 10553 0
10295 -10553 0
10549 -10553 0
10552 10553 -10554 0
-10552 10554 0
-10553 10554 0
-330 -10305 10555 0
330 -10555 0
10305 -10555 0
-10301 -10555 -10556 0
10301 10555 -10556 0
10301 -10555 10556 0
-10301 10555 10556 0
-10556 -10554 -10557 0
10556 10554 -10557 0
10556 -10554 10557 0
-10556 10554 10557 0
-10556 -10554 10558 0
10556 -10558 0
10554 -10558 0
-10301 -10555 10559 0
10301 -10559 0
10555 -10559 0
10558 10559 -10560 0
-10558 10560 0
-10559 10560 0
-338 -10305 10561 0
338 -10561 0
10305 -10561 0
-10304 -10561 -10562 0
10304 10561 -10562 0
10304 -10561 10562 0
-10304 10561 10562 0
-10562 -10560 -10563 0
10562 10560 -10563 0
10562 -10560 10563 0
-10562 10560 10563 0
-10562 -10560 10564 0
10562 -10564 0
10560 -10564 0
-10304 -10561 10565 0
10304 -10565 0
10561 -10565 0
10564 10565 -10566 0
-10564 10566 0
-10565 10566 0
-1 -10567 10568 0
1 -10568 0
10567 -10568 0
-10311 -10568 -10569 0
10311 10568 -10569 0
10311 -10568 10569 0
-10311 10568 10569 0
-10311 -10568 10570 0
10311 -10570 0
10568 -10570 0
-4 -10567 10571 0
4 -10571 0
10567 -10571 0
-10317 -10571 -10572 0
10317 10571 -10572 0
10317 -10571 10572 0
-10317 10571 10572 0
-10572 -10570 -10573 0
10572 10570 -10573 0
10572 -10570 10573 0
-10572 10570 10573 0
-10572 -10570 10574 0
10572 -10574 0
10570 -10574 0
-10317 -10571 10575 0
10317 -10575 0
10571 -10575 0
10574 10575 -10576 0
-10574 10576 0
-10575 10576 0
-10 -10567 10577 0
10 -10577 0
10567 -10577 0
-10323 -10577 -10578 0
10323 10577 -10578 0
10323 -10577 10578 0
-10323 10577 10578 0
-10578 -10576 -10579 0
10578 10576 -10579 0
10578 -10576 10579 0
-10578 10576 10579 0
-10578 -10576 10580 0
10578 -10580 0
10576 -10580 0
-10323 -10577 10581 0
10323 -10581 0
10577 -10581 0
10580 10581 -10582 0
-10580 10582 0
-10581 10582 0
-18 -10567 10583 0
18 -10583 0
10567 -10583 0
-10329 -10583 -10584 0
10329 10583 -10584 0
10329 -10583 10584 0
-10329 10583 10584 0
-10584 -10582 -10585 0
10584 10582 -10585 0
10584 -10582 10585 0
-10584 10582 10585 0
-10584 -10582 10586 0
10584 -10586 0
10582 -10586 0
-10329 -10583 10587 0
10329 -10587 0
10583 -10587 0
10586 10587 -10588 0
-10586 10588 0
-10587 10588 0
-26 -10567 10589 0
26 -10589 0
10567 -10589 0
-10335 -10589 -10590 0
10335 10589 -10590 0
10335 -10589 10590 0
-10335 10589 10590 0
-10590 -10588 -10591 0
10590 10588 -10591 0
10590 -10588 10591 0
-10590 10588 10591 0
-10590 -10588 10592 0
10590 -10592 0
10588 -10592 0
-10335 -10589 10593 0
10335 -10593 0
10589 -10593 0
10592 10593 -10594 0
-10592 10594 0
-10593 10594 0
-34 -10567 10595 0
34 -10595 0
10567 -10595 0
-10341 -10595 -10596 0
10341 10595 -10596 0
10341 -10595 10596 0
-10341 10595 10596 0
-10596 -10594 -10597 0
10596 10594 -10597 0
10596 -10594 10597 0
-10596 10594 10597 0
-10596 -10594 10598 0
10596 -10598 0
10594 -10598 0
-10341 -10595 10599 0
10341 -10599 0
10595 -10599 0
10598 10599 -10600 0
-10598 10600 0
-10599 10600 0
-42 -10567 10601 0
42 -10601 0
10567 -10601 0
-10347 -10601 -10602 0
10347 10601 -10602 0
10347 -10601 10602 0
-10347 10601 10602 0
-10602 -10600 -10603 0
10602 10600 -10603 0
10602 -10600 10603 0
-10602 10600 10603 0
-10602 -10600 10604 0
10602 -10604 0
10600 -10604 0
-10347 -10601 10605 0
10347 -10605 0
10601 -10605 0
10604 10605 -10606 0
-10604 10606 0
-10605 10606 0
-50 -10567 10607 0
50 -10607 0
10567 -10607 0
-10353 -10607 -10608 0
10353 10607 -10608 0
10353 -10607 10608 0
-10353 10607 10608 0
-10608 -10606 -10609 0
10608 10606 -10609 0
10608 -10606 10609 0
-10608 10606 10609 0
-10608 -10606 10610 0
10608 -10610 0
10606 -10610 0
-10353 -10607 10611 0
10353 -10611 0
10607 -10611 0
10610 10611 -10612 0
-10610 10612 0
-10611 10612 0
-58 -10567 10613 0
58 -10613 0
10567 -10613 0
-10359 -10613 -10614 0
10359 10613 -10614 0
10359 -10613 10614 0
-10359 10613 10614 0
-10614 -10612 -10615 0
10614 10612 -10615 0
10614 -10612 10615 0
-10614 10612 10615 0
-10614 -10612 10616 0
10614 -10616 0
10612 -10616 0
-10359 -10613 10617 0
10359 -10617 0
10613 -10617 0
10616 10617 -10618 0
-10616 10618 0
-10617 10618 0
-66 -10567 10619 0
66 -10619 0
10567 -10619 0
-10365 -10619 -10620 0
10365 10619 -10620 0
10365 -10619 10620 0
-10365 10619 10620 0
-10620 -10618 -10621 0
10620 10618 -10621 0
10620 -10618 10621 0
-10620 10618 10621 0
-10620 -10618 10622 0
10620 -10622 0
10618 -10622 0
-10365 -10619 10623 0
10365 -10623 0
10619 -10623 0
10622 10623 -10624 0
-10622 10624 0
-10623 10624 0
-74 -10567 10625 0
74 -10625 0
10567 -10625 0
-10371 -10625 -10626 0
10371 10625 -10626 0
10371 -10625 10626 0
-10371 10625 10626 0
-10626 -10624 -10627 0
10626 10624 -10627 0
10626 -10624 10627 0
-10626 10624 10627 0
-10626 -10624 10628 0
10626 -10628 0
10624 -10628 0
-10371 -10625 10629 0
10371 -10629 0
10625 -10629 0
10628 10629 -10630 0
-10628 10630 0
-10629 10630 0
-82 -10567 10631 0
82 -10631 0
10567 -10631 0
-10377 -10631 -10632 0
10377 10631 -10632 0
10377 -10631 10632 0
-10377 10631 10632 0
-10632 -10630 -10633 0
10632 10630 -10633 0
10632 -10630 10633 0
-10632 10630 10633 0
-10632 -10630 10634 0
10632 -10634 0
10630 -10634 0
-10377 -10631 10635 0
10377 -10635 0
10631 -10635 0
10634 10635 -10636 0
-10634 10636 0
-10635 10636 0
-90 -10567 10637 0
90 -10637 0
10567 -10637 0
-10383 -10637 -10638 0
10383 10637 -10638 0
10383 -10637 10638 0
-10383 10637 10638 0
-10638 -10636 -10639 0
10638 10636 -10639 0
10638 -10636 10639 0
-10638 10636 10639 0
-10638 -10636 10640 0
10638 -10640 0
10636 -10640 0
-10383 -10637 10641 0
10383 -10641 0
10637 -10641 0
10640 10641 -10642 0
-10640 10642 0
-10641 10642 0
-98 -10567 10643 0
98 -10643 0
10567 -10643 0
-10389 -10643 -10644 0
10389 10643 -10644 0
10389 -10643 10644 0
-10389 10643 10644 0
-10644 -10642 -10645 0
10644 10642 -10645 0
10644 -10642 10645 0
-10644 10642 10645 0
-10644 -10642 10646 0
10644 -10646 0
10642 -10646 0
-10389 -10643 10647 0
10389 -10647 0
10643 -10647 0
10646 10647 -10648 0
-10646 10648 0
-10647 10648 0
-106 -10567 10649 0
106 -10649 0
10567 -10649 0
-10395 -10649 -10650 0
10395 10649 -10650 0
10395 -10649 10650 0
-10395 10649 10650 0
-10650 -10648 -10651 0
10650 10648 -10651 0
10650 -10648 10651 0
-10650 10648 10651 0
-10650 -10648 10652 0
10650 -10652 0
10648 -10652 0
-10395 -10649 10653 0
10395 -10653 0
10649 -10653 0
10652 10653 -10654 0
-10652 10654 0
-10653 10654 0
-114 -10567 10655 0
114 -10655 0
10567 -10655 0
-10401 -10655 -10656 0
10401 10655 -10656 0
10401 -10655 10656 0
-10401 10655 10656 0
-10656 -10654 -10657 0
10656 10654 -10657 0
10656 -10654 10657 0
-10656 10654 10657 0
-10656 -10654 10658 0
10656 -10658 0
10654 -10658 0
-10401 -10655 10659 0
10401 -10659 0
10655 -10659 0
10658 10659 -10660 0
-10658 10660 0
-10659 10660 0
-122 -10567 10661 0
122 -10661 0
10567 -10661 0
-10407 -10661 -10662 0
10407 10661 -10662 0
10407 -10661 10662 0
-10407 10661 10662 0
-10662 -10660 -10663 0
10662 10660 -10663 0
10662 -10660 10663 0
-10662 10660 10663 0
-10662 -10660 10664 0
10662 -10664 0
10660 -10664 0
-10407 -10661 10665 0
10407 -10665 0
10661 -10665 0
10664 10665 -10666 0
-10664 10666 0
-10665 10666 0
-130 -10567 10667 0
130 -10667 0
10567 -10667 0
-10413 -10667 -10668 0
10413 10667 -10668 0
10413 -10667 10668 0
-10413 10667 10668 0
-10668 -10666 -10669 0
10668 10666 -10669 0
10668 -10666 10669 0
-10668 10666 10669 0
-10668 -10666 10670 0
10668 -10670 0
10666 -10670 0
-10413 -10667 10671 0
10413 -10671 0
10667 -10671 0
10670 10671 -10672 0
-10670 10672 0
-10671 10672 0
-138 -10567 10673 0
138 -10673 0
10567 -10673 0
-10419 -10673 -10674 0
10419 10673 -10674 0
10419 -10673 10674 0
-10419 10673 10674 0
-10674 -10672 -10675 0
10674 10672 -10675 0
10674 -10672 10675 0
-10674 10672 10675 0
-10674 -10672 10676 0
10674 -10676 0
10672 -10676 0
-10419 -10673 10677 0
10419 -10677 0
10673 -10677 0
10676 10677 -10678 0
-10676 10678 0
-10677 10678 0
-146 -10567 10679 0
146 -10679 0
10567 -10679 0
-10425 -10679 -10680 0
10425 10679 -10680 0
10425 -10679 10680 0
-10425 10679 10680 0
-10680 -10678 -10681 0
10680 10678 -10681 0
10680 -10678 10681 0
-10680 10678 10681 0
-10680 -10678 10682 0
10680 -10682 0
10678 -10682 0
-10425 -10679 10683 0
10425 -10683 0
10679 -10683 0
10682 10683 -10684 0
-10682 10684 0
-10683 10684 0
-154 -10567 10685 0
154 -10685 0
10567 -10685 0
-10431 -10685 -10686 0
10431 10685 -10686 0
10431 -10685 10686 0
-10431 10685 10686 0
-10686 -10684 -10687 0
10686 10684 -10687 0
10686 -10684 10687 0
-10686 10684 10687 0
-10686 -10684 10688 0
10686 -10688 0
10684 -10688 0
-10431 -10685 10689 0
10431 -10689 0
10685 -10689 0
10688 10689 -10690 0
-10688 10690 0
-10689 10690 0
-162 -10567 10691 0
162 -10691 0
10567 -10691 0
-10437 -10691 -10692 0
10437 10691 -10692 0
10437 -10691 10692 0
-10437 10691 10692 0
-10692 -10690 -10693 0
10692 10690 -10693 0
10692 -10690 10693 0
-10692 10690 10693 0
-10692 -10690 10694 0
10692 -10694 0
10690 -10694 0
-10437 -10691 10695 0
10437 -10695 0
10691 -10695 0
10694 10695 -10696 0
-10694 10696 0
-10695 10696 0
-170 -10567 10697 0
170 -10697 0
10567 -10697 0
-10443 -10697 -10698 0
10443 10697 -10698 0
10443 -10697 10698 0
-10443 10697 10698 0
-10698 -10696 -10699 0
10698 10696 -10699 0
10698 -10696 10699 0
-10698 10696 10699 0
-10698 -10696 10700 0
10698 -10700 0
10696 -10700 0
-10443 -10697 10701 0
10443 -10701 0
10697 -10701 0
10700 10701 -10702 0
-10700 10702 0
-10701 10702 0
-178 -10567 10703 0
178 -10703 0
10567 -10703 0
-10449 -10703 -10704 0
10449 10703 -10704 0
10449 -10703 10704 0
-10449 10703 10704 0
-10704 -10702 -10705 0
10704 10702 -10705 0
10704 -10702 10705 0
-10704 10702 10705 0
-10704 -10702 10706 0
10704 -10706 0
10702 -10706 0
-10449 -10703 10707 0
10449 -10707 0
10703 -10707 0
10706 10707 -10708 0
-10706 10708 0
-10707 10708 0
-186 -10567 10709 0
186 -10709 0
10567 -10709 0
-10455 -10709 -10710 0
10455 10709 -10710 0
10455 -10709 10710 0
-10455 10709 10710 0
-10710 -10708 -10711 0
10710 10708 -10711 0
10710 -10708 10711 0
-10710 10708 10711 0
-10710 -10708 10712 0
10710 -10712 0
10708 -10712 0
-10455 -10709 10713 0
10455 -10713 0
10709 -10713 0
10712 10713 -10714 0
-10712 10714 0
-10713 10714 0
-194 -10567 10715 0
194 -10715 0
10567 -10715 0
-10461 -10715 -10716 0
10461 10715 -10716 0
10461 -10715 10716 0
-10461 10715 10716 0
-10716 -10714 -10717 0
10716 10714 -10717 0
10716 -10714 10717 0
-10716 10714 10717 0
-10716 -10714 10718 0
10716 -10718 0
10714 -10718 0
-10461 -10715 10719 0
10461 -10719 0
10715 -10719 0
10718 10719 -10720 0
-10718 10720 0
-10719 10720 0
-202 -10567 10721 0
202 -10721 0
10567 -10721 0
-10467 -10721 -10722 0
10467 10721 -10722 0
10467 -10721 10722 0
-10467 10721 10722 0
-10722 -10720 -10723 0
10722 10720 -10723 0
10722 -10720 10723 0
-10722 10720 10723 0
-10722 -10720 10724 0
10722 -10724 0
10720 -10724 0
-10467 -10721 10725 0
10467 -10725 0
10721 -10725 0
10724 10725 -10726 0
-10724 10726 0
-10725 10726 0
-210 -10567 10727 0
210 -10727 0
10567 -10727 0
-10473 -10727 -10728 0
10473 10727 -10728 0
10473 -10727 10728 0
-10473 10727 10728 0
-10728 -10726 -10729 0
10728 10726 -10729 0
10728 -10726 10729 0
-10728 10726 10729 0
-10728 -10726 10730 0
10728 -10730 0
10726 -10730 0
-10473 -10727 10731 0
10473 -10731 0
10727 -10731 0
10730 10731 -10732 0
-10730 10732 0
-10731 10732 0
-218 -10567 10733 0
218 -10733 0
10567 -10733 0
-10479 -10733 -10734 0
10479 10733 -10734 0
10479 -10733 10734 0
-10479 10733 10734 0
-10734 -10732 -10735 0
10734 10732 -10735 0
10734 -10732 10735 0
-10734 10732 10735 0
-10734 -10732 10736 0
10734 -10736 0
10732 -10736 0
-10479 -10733 10737 0
10479 -10737 0
10733 -10737 0
10736 10737 -10738 0
-10736 10738 0
-10737 10738 0
-226 -10567 10739 0
226 -10739 0
10567 -10739 0
-10485 -10739 -10740 0
10485 10739 -10740 0
10485 -10739 10740 0
-10485 10739 10740 0
-10740 -10738 -10741 0
10740 10738 -10741 0
10740 -10738 10741 0
-10740 10738 10741 0
-10740 -10738 10742 0
10740 -10742 0
10738 -10742 0
-10485 -10739 10743 0
10485 -10743 0
10739 -10743 0
10742 10743 -10744 0
-10742 10744 0
-10743 10744 0
-234 -10567 10745 0
234 -10745 0
10567 -10745 0
-10491 -10745 -10746 0
10491 10745 -10746 0
10491 -10745 10746 0
-10491 10745 10746 0
-10746 -10744 -10747 0
10746 10744 -10747 0
10746 -10744 10747 0
-10746 10744 10747 0
-10746 -10744 10748 0
10746 -10748 0
10744 -10748 0
-10491 -10745 10749 0
10491 -10749 0
10745 -10749 0
10748 10749 -10750 0
-10748 10750 0
-10749 10750 0
-242 -10567 10751 0
242 -10751 0
10567 -10751 0
-10497 -10751 -10752 0
10497 10751 -10752 0
10497 -10751 10752 0
-10497 10751 10752 0
-10752 -10750 -10753 0
10752 10750 -10753 0
10752 -10750 10753 0
-10752 10750 10753 0
-10752 -10750 10754 0
10752 -10754 0
10750 -10754 0
-10497 -10751 10755 0
10497 -10755 0
10751 -10755 0
10754 10755 -10756 0
-10754 10756 0
-10755 10756 0
-250 -10567 10757 0
250 -10757 0
10567 -10757 0
-10503 -10757 -10758 0
10503 10757 -10758 0
10503 -10757 10758 0
-10503 10757 10758 0
-10758 -10756 -10759 0
10758 10756 -10759 0
10758 -10756 10759 0
-10758 10756 10759 0
-10758 -10756 10760 0
10758 -10760 0
10756 -10760 0
-10503 -10757 10761 0
10503 -10761 0
10757 -10761 0
10760 10761 -10762 0
-10760 10762 0
-10761 10762 0
-258 -10567 10763 0
258 -10763 0
10567 -10763 0
-10509 -10763 -10764 0
10509 10763 -10764 0
10509 -10763 10764 0
-10509 10763 10764 0
-10764 -10762 -10765 0
10764 10762 -10765 0
10764 -10762 10765 0
-10764 10762 10765 0
-10764 -10762 10766 0
10764 -10766 0
10762 -10766 0
-10509 -10763 10767 0
10509 -10767 0
10763 -10767 0
10766 10767 -10768 0
-10766 10768 0
-10767 10768 0
-266 -10567 10769 0
266 -10769 0
10567 -10769 0
-10515 -10769 -10770 0
10515 10769 -10770 0
10515 -10769 10770 0
-10515 10769 10770 0
-10770 -10768 -10771 0
10770 10768 -10771 0
10770 -10768 10771 0
-10770 10768 10771 0
-10770 -10768 10772 0
10770 -10772 0
10768 -10772 0
-10515 -10769 10773 0
10515 -10773 0
10769 -10773 0
10772 10773 -10774 0
-10772 10774 0
-10773 10774 0
-274 -10567 10775 0
274 -10775 0
10567 -10775 0
-10521 -10775 -10776 0
10521 10775 -10776 0
10521 -10775 10776 0
-10521 10775 10776 0
-10776 -10774 -10777 0
10776 10774 -10777 0
10776 -10774 10777 0
-10776 10774 10777 0
-10776 -10774 10778 0
10776 -10778 0
10774 -10778 0
-10521 -10775 10779 0
10521 -10779 0
10775 -10779 0
10778 10779 -10780 0
-10778 10780 0
-10779 10780 0
-282 -10567 10781 0
282 -10781 0
10567 -10781 0
-10527 -10781 -10782 0
10527 10781 -10782 0
10527 -10781 10782 0
-10527 10781 10782 0
-10782 -10780 -10783 0
10782 10780 -10783 0
10782 -10780 10783 0
-10782 10780 10783 0
-10782 -10780 10784 0
10782 -10784 0
10780 -10784 0
-10527 -10781 10785 0
10527 -10785 0
10781 -10785 0
10784 10785 -10786 0
-10784 10786 0
-10785 10786 0
-290 -10567 10787 0
290 -10787 0
10567 -10787 0
-10533 -10787 -10788 0
10533 10787 -10788 0
10533 -10787 10788 0
-10533 10787 10788 0
-10788 -10786 -10789 0
10788 10786 -10789 0
10788 -10786 10789 0
-10788 10786 10789 0
-10788 -10786 10790 0
10788 -10790 0
10786 -10790 0
-10533 -10787 10791 0
10533 -10791 0
10787 -10791 0
10790 10791 -10792 0
-10790 10792 0
-10791 10792 0
-298 -10567 10793 0
298 -10793 0
10567 -10793 0
-10539 -10793 -10794 0
10539 10793 -10794 0
10539 -10793 10794 0
-10539 10793 10794 0
-10794 -10792 -10795 0
10794 10792 -10795 0
10794 -10792 10795 0
-10794 10792 10795 0
-10794 -10792 10796 0
10794 -10796 0
10792 -10796 0
-10539 -10793 10797 0
10539 -10797 0
10793 -10797 0
10796 10797 -10798 0
-10796 10798 0
-10797 10798 0
-306 -10567 10799 0
306 -10799 0
10567 -10799 0
-10545 -10799 -10800 0
10545 10799 -10800 0
10545 -10799 10800 0
-10545 10799 10800 0
-10800 -10798 -10801 0
10800 10798 -10801 0
10800 -10798 10801 0
-10800 10798 10801 0
-10800 -10798 10802 0
10800 -10802 0
10798 -10802 0
-10545 -10799 10803 0
10545 -10803 0
10799 -10803 0
10802 10803 -10804 0
-10802 10804 0
-10803 10804 0
-314 -10567 10805 0
314 -10805 0
10567 -10805 0
-10551 -10805 -10806 0
10551 10805 -10806 0
10551 -10805 10806 0
-10551 10805 10806 0
-10806 -10804 -10807 0
10806 10804 -10807 0
10806 -10804 10807 0
-10806 10804 10807 0
-10806 -10804 10808 0
10806 -10808 0
10804 -10808 0
-10551 -10805 10809 0
10551 -10809 0
10805 -10809 0
10808 10809 -10810 0
-10808 10810 0
-10809 10810 0
-322 -10567 10811 0
322 -10811 0
10567 -10811 0
-10557 -10811 -10812 0
10557 10811 -10812 0
10557 -10811 10812 0
-10557 10811 10812 0
-10812 -10810 -10813 0
10812 10810 -10813 0
10812 -10810 10813 0
-10812 10810 10813 0
-10812 -10810 10814 0
10812 -10814 0
10810 -10814 0
-10557 -10811 10815 0
10557 -10815 0
10811 -10815 0
10814 10815 -10816 0
-10814 10816 0
-10815 10816 0
-330 -10567 10817 0
330 -10817 0
10567 -10817 0
-10563 -10817 -10818 0
10563 10817 -10818 0
10563 -10817 10818 0
-10563 10817 10818 0
-10818 -10816 -10819 0
10818 10816 -10819 0
10818 -10816 10819 0
-10818 10816 10819 0
-10818 -10816 10820 0
10818 -10820 0
10816 -10820 0
-10563 -10817 10821 0
10563 -10821 0
10817 -10821 0
10820 10821 -10822 0
-10820 10822 0
-10821 10822 0
-338 -10567 10823 0
338 -10823 0
10567 -10823 0
-10566 -10823 -10824 0
10566 10823 -10824 0
10566 -10823 10824 0
-10566 10823 10824 0
-10824 -10822 -10825 0
10824 10822 -10825 0
10824 -10822 10825 0
-10824 10822 10825 0
-10824 -10822 10826 0
10824 -10826 0
10822 -10826 0
-10566 -10823 10827 0
10566 -10827 0
10823 -10827 0
10826 10827 -10828 0
-10826 10828 0
-10827 10828 0
-1 -10829 10830 0
1 -10830 0
10829 -10830 0
-10573 -10830 -10831 0
10573 10830 -10831 0
10573 -10830 10831 0
-10573 10830 10831 0
-10573 -10830 10832 0
10573 -10832 0
10830 -10832 0
-4 -10829 10833 0
4 -10833 0
10829 -10833 0
-10579 -10833 -10834 0
10579 10833 -10834 0
10579 -10833 10834 0
-10579 10833 10834 0
-10834 -10832 -10835 0
10834 10832 -10835 0
10834 -10832 10835 0
-10834 10832 10835 0
-10834 -10832 10836 0
10834 -10836 0
10832 -10836 0
-10579 -10833 10837 0
10579 -10837 0
10833 -10837 0
10836 10837 -10838 0
-10836 10838 0
-10837 10838 0
-10 -10829 10839 0
10 -10839 0
10829 -10839 0
-10585 -10839 -10840 0
10585 10839 -10840 0
10585 -10839 10840 0
-10585 10839 10840 0
-10840 -10838 -10841 0
10840 10838 -10841 0
10840 -10838 10841 0
-10840 10838 10841 0
-10840 -10838 10842 0
10840 -10842 0
10838 -10842 0
-10585 -10839 10843 0
10585 -10843 0
10839 -10843 0
10842 10843 -10844 0
-10842 10844 0
-10843 10844 0
-18 -10829 10845 0
18 -10845 0
10829 -10845 0
-10591 -10845 -10846 0
10591 10845 -10846 0
10591 -10845 10846 0
-10591 10845 10846 0
-10846 -10844 -10847 0
10846 10844 -10847 0
10846 -10844 10847 0
-10846 10844 10847 0
-10846 -10844 10848 0
10846 -10848 0
10844 -10848 0
-10591 -10845 10849 0
10591 -10849 0
10845 -10849 0
10848 10849 -10850 0
-10848 10850 0
-10849 10850 0
-26 -10829 10851 0
26 -10851 0
10829 -10851 0
-10597 -10851 -10852 0
10597 10851 -10852 0
10597 -10851 10852 0
-10597 10851 10852 0
-10852 -10850 -10853 0
10852 10850 -10853 0
10852 -10850 10853 0
-10852 10850 10853 0
-10852 -10850 10854 0
10852 -10854 0
10850 -10854 0
-10597 -10851 10855 0
10597 -10855 0
10851 -10855 0
10854 10855 -10856 0
-10854 10856 0
-10855 10856 0
-34 -10829 10857 0
34 -10857 0
10829 -10857 0
-10603 -10857 -10858 0
10603 10857 -10858 0
10603 -10857 10858 0
-10603 10857 10858 0
-10858 -10856 -10859 0
10858 10856 -10859 0
10858 -10856 10859 0
-10858 10856 10859 0
-10858 -10856 10860 0
10858 -10860 0
10856 -10860 0
-10603 -10857 10861 0
10603 -10861 0
10857 -10861 0
10860 10861 -10862 0
-10860 10862 0
-10861 10862 0
-42 -10829 10863 0
42 -10863 0
10829 -10863 0
-10609 -10863 -10864 0
10609 10863 -10864 0
10609 -10863 10864 0
-10609 10863 10864 0
-10864 -10862 -10865 0
10864 10862 -10865 0
10864 -10862 10865 0
-10864 10862 10865 0
-10864 -10862 10866 0
10864 -10866 0
10862 -10866 0
-10609 -10863 10867 0
10609 -10867 0
10863 -10867 0
10866 10867 -10868 0
-10866 10868 0
-10867 10868 0
-50 -10829 10869 0
50 -10869 0
10829 -10869 0
-10615 -10869 -10870 0
10615 10869 -10870 0
10615 -10869 10870 0
-10615 10869 10870 0
-10870 -10868 -10871 0
10870 10868 -10871 0
10870 -10868 10871 0
-10870 10868 10871 0
-10870 -10868 10872 0
10870 -10872 0
10868 -10872 0
-10615 -10869 10873 0
10615 -10873 0
10869 -10873 0
10872 10873 -10874 0
-10872 10874 0
-10873 10874 0
-58 -10829 10875 0
58 -10875 0
10829 -10875 0
-10621 -10875 -10876 0
10621 10875 -10876 0
10621 -10875 10876 0
-10621 10875 10876 0
-10876 -10874 -10877 0
10876 10874 -10877 0
10876 -10874 10877 0
-10876 10874 10877 0
-10876 -10874 10878 0
10876 -10878 0
10874 -10878 0
-10621 -10875 10879 0
10621 -10879 0
10875 -10879 0
10878 10879 -10880 0
-10878 10880 0
-10879 10880 0
-66 -10829 10881 0
66 -10881 0
10829 -10881 0
-10627 -10881 -10882 0
10627 10881 -10882 0
10627 -10881 10882 0
-10627 10881 10882 0
-10882 -10880 -10883 0
10882 10880 -10883 0
10882 -10880 10883 0
-10882 10880 10883 0
-10882 -10880 10884 0
10882 -10884 0
10880 -10884 0
-10627 -10881 10885 0
10627 -10885 0
10881 -10885 0
10884 10885 -10886 0
-10884 10886 0
-10885 10886 0
-74 -10829 10887 0
74 -10887 0
10829 -10887 0
-10633 -10887 -10888 0
10633 10887 -10888 0
10633 -10887 10888 0
-10633 10887 10888 0
-10888 -10886 -10889 0
10888 10886 -10889 0
10888 -10886 10889 0
-10888 10886 10889 0
-10888 -10886 10890 0
10888 -10890 0
10886 -10890 0
-10633 -10887 10891 0
10633 -10891 0
10887 -10891 0
10890 10891 -10892 0
-10890 10892 0
-10891 10892 0
-82 -10829 10893 0
82 -10893 0
10829 -10893 0
-10639 -10893 -10894 0
10639 10893 -10894 0
10639 -10893 10894 0
-10639 10893 10894 0
-10894 -10892 -10895 0
10894 10892 -10895 0
10894 -10892 10895 0
-10894 10892 10895 0
-10894 -10892 10896 0
10894 -10896 0
10892 -10896 0
-10639 -10893 10897 0
10639 -10897 0
10893 -10897 0
10896 10897 -10898 0
-10896 10898 0
-10897 10898 0
-90 -10829 10899 0
90 -10899 0
10829 -10899 0
-10645 -10899 -10900 0
10645 10899 -10900 0
10645 -10899 10900 0
-10645 10899 10900 0
-10900 -10898 -10901 0
10900 10898 -10901 0
10900 -10898 10901 0
-10900 10898 10901 0
-10900 -10898 10902 0
10900 -10902 0
10898 -10902 0
-10645 -10899 10903 0
10645 -10903 0
10899 -10903 0
10902 10903 -10904 0
-10902 10904 0
-10903 10904 0
-98 -10829 10905 0
98 -10905 0
10829 -10905 0
-10651 -10905 -10906 0
10651 10905 -10906 0
10651 -10905 10906 0
-10651 10905 10906 0
-10906 -10904 -10907 0
10906 10904 -10907 0
10906 -10904 10907 0
-10906 10904 10907 0
-10906 -10904 10908 0
10906 -10908 0
10904 -10908 0
-10651 -10905 10909 0
10651 -10909 0
10905 -10909 0
10908 10909 -10910 0
-10908 10910 0
-10909 10910 0
-106 -10829 10911 0
106 -10911 0
10829 -10911 0
-10657 -10911 -10912 0
10657 10911 -10912 0
10657 -10911 10912 0
-10657 10911 10912 0
-10912 -10910 -10913 0
10912 10910 -10913 0
10912 -10910 10913 0
-10912 10910 10913 0
-10912 -10910 10914 0
10912 -10914 0
10910 -10914 0
-10657 -10911 10915 0
10657 -10915 0
10911 -10915 0
10914 10915 -10916 0
-10914 10916 0
-10915 10916 0
-114 -10829 10917 0
114 -10917 0
10829 -10917 0
-10663 -10917 -10918 0
10663 10917 -10918 0
10663 -10917 10918 0
-10663 10917 10918 0
-10918 -10916 -10919 0
10918 10916 -10919 0
10918 -10916 10919 0
-10918 10916 10919 0
-10918 -10916 10920 0
10918 -10920 0
10916 -10920 0
-10663 -10917 10921 0
10663 -10921 0
10917 -10921 0
10920 10921 -10922 0
-10920 10922 0
-10921 10922 0
-122 -10829 10923 0
122 -10923 0
10829 -10923 0
-10669 -10923 -10924 0
10669 10923 -10924 0
10669 -10923 10924 0
-10669 10923 10924 0
-10924 -10922 -10925 0
10924 10922 -10925 0
10924 -10922 10925 0
-10924 10922 10925 0
-10924 -10922 10926 0
10924 -10926 0
10922 -10926 0
-10669 -10923 10927 0
10669 -10927 0
10923 -10927 0
10926 10927 -10928 0
-10926 10928 0
-10927 10928 0
-130 -10829 10929 0
130 -10929 0
10829 -10929 0
-10675 -10929 -10930 0
10675 10929 -10930 0
10675 -10929 10930 0
-10675 10929 10930 0
-10930 -10928 -10931 0
10930 10928 -10931 0
10930 -10928 10931 0
-10930 10928 10931 0
-10930 -10928 10932 0
10930 -10932 0
10928 -10932 0
-10675 -10929 10933 0
10675 -10933 0
10929 -10933 0
10932 10933 -10934 0
-10932 10934 0
-10933 10934 0
-138 -10829 10935 0
138 -10935 0
10829 -10935 0
-10681 -10935 -10936 0
10681 10935 -10936 0
10681 -10935 10936 0
-10681 10935 10936 0
-10936 -10934 -10937 0
10936 10934 -10937 0
10936 -10934 10937 0
-10936 10934 10937 0
-10936 -10934 10938 0
10936 -10938 0
10934 -10938 0
-10681 -10935 10939 0
10681 -10939 0
10935 -10939 0
10938 10939 -10940 0
-10938 10940 0
-10939 10940 0
-146 -10829 10941 0
146 -10941 0
10829 -10941 0
-10687 -10941 -10942 0
10687 10941 -10942 0
10687 -10941 10942 0
-10687 10941 10942 0
-10942 -10940 -10943 0
10942 10940 -10943 0
10942 -10940 10943 0
-10942 10940 10943 0
-10942 -10940 10944 0
10942 -10944 0
10940 -10944 0
-10687 -10941 10945 0
10687 -10945 0
10941 -10945 0
10944 10945 -10946 0
-10944 10946 0
-10945 10946 0
-154 -10829 10947 0
154 -10947 0
10829 -10947 0
-10693 -10947 -10948 0
10693 10947 -10948 0
10693 -10947 10948 0
-10693 10947 10948 0
-10948 -10946 -10949 0
10948 10946 -10949 0
10948 -10946 10949 0
-10948 10946 10949 0
-10948 -10946 10950 0
10948 -10950 0
10946 -10950 0
-10693 -10947 10951 0
10693 -10951 0
10947 -10951 0
10950 10951 -10952 0
-10950 10952 0
-10951 10952 0
-162 -10829 10953 0
162 -10953 0
10829 -10953 0
-10699 -10953 -10954 0
10699 10953 -10954 0
10699 -10953 10954 0
-10699 10953 10954 0
-10954 -10952 -10955 0
10954 10952 -10955 0
10954 -10952 10955 0
-10954 10952 10955 0
-10954 -10952 10956 0
10954 -10956 0
10952 -10956 0
-10699 -10953 10957 0
10699 -10957 0
10953 -10957 0
10956 10957 -10958 0
-10956 10958 0
-10957 10958 0
-170 -10829 10959 0
170 -10959 0
10829 -10959 0
-10705 -10959 -10960 0
10705 10959 -10960 0
10705 -10959 10960 0
-10705 10959 10960 0
-10960 -10958 -10961 0
10960 10958 -10961 0
10960 -10958 10961 0
-10960 10958 10961 0
-10960 -10958 10962 0
10960 -10962 0
10958 -10962 0
-10705 -10959 10963 0
10705 -10963 0
10959 -10963 0
10962 10963 -10964 0
-10962 10964 0
-10963 10964 0
-178 -10829 10965 0
178 -10965 0
10829 -10965 0
-10711 -10965 -10966 0
10711 10965 -10966 0
10711 -10965 10966 0
-10711 10965 10966 0
-10966 -10964 -10967 0
10966 10964 -10967 0
10966 -10964 10967 0
-10966 10964 10967 0
-10966 -10964 10968 0
10966 -10968 0
10964 -10968 0
-10711 -10965 10969 0
10711 -10969 0
10965 -10969 0
10968 10969 -10970 0
-10968 10970 0
-10969 10970 0
-186 -10829 10971 0
186 -10971 0
10829 -10971 0
-10717 -10971 -10972 0
10717 10971 -10972 0
10717 -10971 10972 0
-10717 10971 10972 0
-10972 -10970 -10973 0
10972 10970 -10973 0
10972 -10970 10973 0
-10972 10970 10973 0
-10972 -10970 10974 0
10972 -10974 0
10970 -10974 0
-10717 -10971 10975 0
10717 -10975 0
10971 -10975 0
10974 10975 -10976 0
-10974 10976 0
-10975 10976 0
-194 -10829 10977 0
194 -10977 0
10829 -10977 0
-10723 -10977 -10978 0
10723 10977 -10978 0
10723 -10977 10978 0
-10723 10977 10978 0
-10978 -10976 -10979 0
10978 10976 -10979 0
10978 -10976 10979 0
-10978 10976 10979 0
-10978 -10976 10980 0
10978 -10980 0
10976 -10980 0
-10723 -10977 10981 0
10723 -10981 0
10977 -10981 0
10980 10981 -10982 0
-10980 10982 0
-10981 10982 0
-202 -10829 10983 0
202 -10983 0
10829 -10983 0
-10729 -10983 -10984 0
10729 10983 -10984 0
10729 -10983 10984 0
-10729 10983 10984 0
-10984 -10982 -10985 0
10984 10982 -10985 0
10984 -10982 10985 0
-10984 10982 10985 0
-10984 -10982 10986 0
10984 -10986 0
10982 -10986 0
-10729 -10983 10987 0
10729 -10987 0
10983 -10987 0
10986 10987 -10988 0
-10986 10988 0
-10987 10988 0
-210 -10829 10989 0
210 -10989 0
10829 -10989 0
-10735 -10989 -10990 0
10735 10989 -10990 0
10735 -10989 10990 0
-10735 10989 10990 0
-10990 -10988 -10991 0
10990 10988 -10991 0
10990 -10988 10991 0
-10990 10988 10991 0
-10990 -10988 10992 0
10990 -10992 0
10988 -10992 0
-10735 -10989 10993 0
10735 -10993 0
10989 -10993 0
10992 10993 -10994 0
-10992 10994 0
-10993 10994 0
-218 -10829 10995 0
218 -10995 0
10829 -10995 0
-10741 -10995 -10996 0
10741 10995 -10996 0
10741 -10995 10996 0
-10741 10995 10996 0
-10996 -10994 -10997 0
10996 10994 -10997 0
10996 -10994 10997 0
-10996 10994 10997 0
-10996 -10994 10998 0
10996 -10998 0
10994 -10998 0
-10741 -10995 10999 0
10741 -10999 0
10995 -10999 0
10998 10999 -11000 0
-10998 11000 0
-10999 11000 0
-226 -10829 11001 0
226 -11001 0
10829 -11001 0
-10747 -11001 -11002 0
10747 11001 -11002 0
10747 -11001 11002 0
-10747 11001 11002 0
-11002 -11000 -11003 0
11002 11000 -11003 0
11002 -11000 11003 0
-11002 11000 11003 0
-11002 -11000 11004 0
11002 -11004 0
11000 -11004 0
-10747 -11001 11005 0
10747 -11005 0
11001 -11005 0
11004 11005 -11006 0
-11004 11006 0
-11005 11006 0
-234 -10829 11007 0
234 -11007 0
10829 -11007 0
-10753 -11007 -11008 0
10753 11007 -11008 0
10753 -11007 11008 0
-10753 11007 11008 0
-11008 -11006 -11009 0
11008 11006 -11009 0
11008 -11006 11009 0
-11008 11006 11009 0
-11008 -11006 11010 0
11008 -11010 0
11006 -11010 0
-10753 -11007 11011 0
10753 -11011 0
11007 -11011 0
11010 11011 -11012 0
-11010 11012 0
-11011 11012 0
-242 -10829 11013 0
242 -11013 0
10829 -11013 0
-10759 -11013 -11014 0
10759 11013 -11014 0
10759 -11013 11014 0
-10759 11013 11014 0
-11014 -11012 -11015 0
11014 11012 -11015 0
11014 -11012 11015 0
-11014 11012 11015 0
-11014 -11012 11016 0
11014 -11016 0
11012 -11016 0
-10759 -11013 11017 0
10759 -11017 0
11013 -11017 0
11016 11017 -11018 0
-11016 11018 0
-11017 11018 0
-250 -10829 11019 0
250 -11019 0
10829 -11019 0
-10765 -11019 -11020 0
10765 11019 -11020 0
10765 -11019 11020 0
-10765 11019 11020 0
-11020 -11018 -11021 0
11020 11018 -11021 0
11020 -11018 11021 0
-11020 11018 11021 0
-11020 -11018 11022 0
11020 -11022 0
11018 -11022 0
-10765 -11019 11023 0
10765 -11023 0
11019 -11023 0
11022 11023 -11024 0
-11022 11024 0
-11023 11024 0
-258 -10829 11025 0
258 -11025 0
10829 -11025 0
-10771 -11025 -11026 0
10771 11025 -11026 0
10771 -11025 11026 0
-10771 11025 11026 0
-11026 -11024 -11027 0
11026 11024 -11027 0
11026 -11024 11027 0
-11026 11024 11027 0
-11026 -11024 11028 0
11026 -11028 0
11024 -11028 0
-10771 -11025 11029 0
10771 -11029 0
11025 -11029 0
11028 11029 -11030 0
-11028 11030 0
-11029 11030 0
-266 -10829 11031 0
266 -11031 0
10829 -11031 0
-10777 -11031 -11032 0
10777 11031 -11032 0
10777 -11031 11032 0
-10777 11031 11032 0
-11032 -11030 -11033 0
11032 11030 -11033 0
11032 -11030 11033 0
-11032 11030 11033 0
-11032 -11030 11034 0
11032 -11034 0
11030 -11034 0
-10777 -11031 11035 0
10777 -11035 0
11031 -11035 0
11034 11035 -11036 0
-11034 11036 0
-11035 11036 0
-274 -10829 11037 0
274 -11037 0
10829 -11037 0
-10783 -11037 -11038 0
10783 11037 -11038 0
10783 -11037 11038 0
-10783 11037 11038 0
-11038 -11036 -11039 0
11038 11036 -11039 0
11038 -11036 11039 0
-11038 11036 11039 0
-11038 -11036 11040 0
11038 -11040 0
11036 -11040 0
-10783 -11037 11041 0
10783 -11041 0
11037 -11041 0
11040 11041 -11042 0
-11040 11042 0
-11041 11042 0
-282 -10829 11043 0
282 -11043 0
10829 -11043 0
-10789 -11043 -11044 0
10789 11043 -11044 0
10789 -11043 11044 0
-10789 11043 11044 0
-11044 -11042 -11045 0
11044 11042 -11045 0
11044 -11042 11045 0
-11044 11042 11045 0
-11044 -11042 11046 0
11044 -11046 0
11042 -11046 0
-10789 -11043 11047 0
10789 -11047 0
11043 -11047 0
11046 11047 -11048 0
-11046 11048 0
-11047 11048 0
-290 -10829 11049 0
290 -11049 0
10829 -11049 0
-10795 -11049 -11050 0
10795 11049 -11050 0
10795 -11049 11050 0
-10795 11049 11050 0
-11050 -11048 -11051 0
11050 11048 -11051 0
11050 -11048 11051 0
-11050 11048 11051 0
-11050 -11048 11052 0
11050 -11052 0
11048 -11052 0
-10795 -11049 11053 0
10795 -11053 0
11049 -11053 0
11052 11053 -11054 0
-11052 11054 0
-11053 11054 0
-298 -10829 11055 0
298 -11055 0
10829 -11055 0
-10801 -11055 -11056 0
10801 11055 -11056 0
10801 -11055 11056 0
-10801 11055 11056 0
-11056 -11054 -11057 0
11056 11054 -11057 0
11056 -11054 11057 0
-11056 11054 11057 0
-11056 -11054 11058 0
11056 -11058 0
11054 -11058 0
-10801 -11055 11059 0
10801 -11059 0
11055 -11059 0
11058 11059 -11060 0
-11058 11060 0
-11059 11060 0
-306 -10829 11061 0
306 -11061 0
10829 -11061 0
-10807 -11061 -11062 0
10807 11061 -11062 0
10807 -11061 11062 0
-10807 11061 11062 0
-11062 -11060 -11063 0
11062 11060 -11063 0
11062 -11060 11063 0
-11062 11060 11063 0
-11062 -11060 11064 0
11062 -11064 0
11060 -11064 0
-10807 -11061 11065 0
10807 -11065 0
11061 -11065 0
11064 11065 -11066 0
-11064 11066 0
-11065 11066 0
-314 -10829 11067 0
314 -11067 0
10829 -11067 0
-10813 -11067 -11068 0
10813 11067 -11068 0
10813 -11067 11068 0
-10813 11067 11068 0
-11068 -11066 -11069 0
11068 11066 -11069 0
11068 -11066 11069 0
-11068 11066 11069 0
-11068 -11066 11070 0
11068 -11070 0
11066 -11070 0
-10813 -11067 11071 0
10813 -11071 0
11067 -11071 0
11070 11071 -11072 0
-11070 11072 0
-11071 11072 0
-322 -10829 11073 0
322 -11073 0
10829 -11073 0
-10819 -11073 -11074 0
10819 11073 -11074 0
10819 -11073 11074 0
-10819 11073 11074 0
-11074 -11072 -11075 0
11074 11072 -11075 0
11074 -11072 11075 0
-11074 11072 11075 0
-11074 -11072 11076 0
11074 -11076 0
11072 -11076 0
-10819 -11073 11077 0
10819 -11077 0
11073 -11077 0
11076 11077 -11078 0
-11076 11078 0
-11077 11078 0
-330 -10829 11079 0
330 -11079 0
10829 -11079 0
-10825 -11079 -11080 0
10825 11079 -11080 0
10825 -11079 11080 0
-10825 11079 11080 0
-11080 -11078 -11081 0
11080 11078 -11081 0
11080 -11078 11081 0
-11080 11078 11081 0
-11080 -11078 11082 0
11080 -11082 0
11078 -11082 0
-10825 -11079 11083 0
10825 -11083 0
11079 -11083 0
11082 11083 -11084 0
-11082 11084 0
-11083 11084 0
-338 -10829 11085 0
338 -11085 0
10829 -11085 0
-10828 -11085 -11086 0
10828 11085 -11086 0
10828 -11085 11086 0
-10828 11085 11086 0
-11086 -11084 -11087 0
11086 11084 -11087 0
11086 -11084 11087 0
-11086 11084 11087 0
-11086 -11084 11088 0
11086 -11088 0
11084 -11088 0
-10828 -11085 11089 0
10828 -11089 0
11085 -11089 0
11088 11089 -11090 0
-11088 11090 0
-11089 11090 0
-1 -11091 11092 0
1 -11092 0
11091 -11092 0
-10835 -11092 -11093 0
10835 11092 -11093 0
10835 -11092 11093 0
-10835 11092 11093 0
-10835 -11092 11094 0
10835 -11094 0
11092 -11094 0
-4 -11091 11095 0
4 -11095 0
11091 -11095 0
-10841 -11095 -11096 0
10841 11095 -11096 0
10841 -11095 11096 0
-10841 11095 11096 0
-11096 -11094 -11097 0
11096 11094 -11097 0
11096 -11094 11097 0
-11096 11094 11097 0
-11096 -11094 11098 0
11096 -11098 0
11094 -11098 0
-10841 -11095 11099 0
10841 -11099 0
11095 -11099 0
11098 11099 -11100 0
-11098 11100 0
-11099 11100 0
-10 -11091 11101 0
10 -11101 0
11091 -11101 0
-10847 -11101 -11102 0
10847 11101 -11102 0
10847 -11101 11102 0
-10847 11101 11102 0
-11102 -11100 -11103 0
11102 11100 -11103 0
11102 -11100 11103 0
-11102 11100 11103 0
-11102 -11100 11104 0
11102 -11104 0
11100 -11104 0
-10847 -11101 11105 0
10847 -11105 0
11101 -11105 0
11104 11105 -11106 0
-11104 11106 0
-11105 11106 0
-18 -11091 11107 0
18 -11107 0
11091 -11107 0
-10853 -11107 -11108 0
10853 11107 -11108 0
10853 -11107 11108 0
-10853 11107 11108 0
-11108 -11106 -11109 0
11108 11106 -11109 0
11108 -11106 11109 0
-11108 11106 11109 0
-11108 -11106 11110 0
11108 -11110 0
11106 -11110 0
-10853 -11107 11111 0
10853 -11111 0
11107 -11111 0
11110 11111 -11112 0
-11110 11112 0
-11111 11112 0
-26 -11091 11113 0
26 -11113 0
11091 -11113 0
-10859 -11113 -11114 0
10859 11113 -11114 0
10859 -11113 11114 0
-10859 11113 11114 0
-11114 -11112 -11115 0
11114 11112 -11115 0
11114 -11112 11115 0
-11114 11112 11115 0
-11114 -11112 11116 0
11114 -11116 0
11112 -11116 0
-10859 -11113 11117 0
10859 -11117 0
11113 -11117 0
11116 11117 -11118 0
-11116 11118 0
-11117 11118 0
-34 -11091 11119 0
34 -11119 0
11091 -11119 0
-10865 -11119 -11120 0
10865 11119 -11120 0
10865 -11119 11120 0
-10865 11119 11120 0
-11120 -11118 -11121 0
11120 11118 -11121 0
11120 -11118 11121 0
-11120 11118 11121 0
-11120 -11118 11122 0
11120 -11122 0
11118 -11122 0
-10865 -11119 11123 0
10865 -11123 0
11119 -11123 0
11122 11123 -11124 0
-11122 11124 0
-11123 11124 0
-42 -11091 11125 0
42 -11125 0
11091 -11125 0
-10871 -11125 -11126 0
10871 11125 -11126 0
10871 -11125 11126 0
-10871 11125 11126 0
-11126 -11124 -11127 0
11126 11124 -11127 0
11126 -11124 11127 0
-11126 11124 11127 0
-11126 -11124 11128 0
11126 -11128 0
11124 -11128 0
-10871 -11125 11129 0
10871 -11129 0
11125 -11129 0
11128 11129 -11130 0
-11128 11130 0
-11129 11130 0
-50 -11091 11131 0
50 -11131 0
11091 -11131 0
-10877 -11131 -11132 0
10877 11131 -11132 0
10877 -11131 11132 0
-10877 11131 11132 0
-11132 -11130 -11133 0
11132 11130 -11133 0
11132 -11130 11133 0
-11132 11130 11133 0
-11132 -11130 11134 0
11132 -11134 0
11130 -11134 0
-10877 -11131 11135 0
10877 -11135 0
11131 -11135 0
11134 11135 -11136 0
-11134 11136 0
-11135 11136 0
-58 -11091 11137 0
58 -11137 0
11091 -11137 0
-10883 -11137 -11138 0
10883 11137 -11138 0
10883 -11137 11138 0
-10883 11137 11138 0
-11138 -11136 -11139 0
11138 11136 -11139 0
11138 -11136 11139 0
-11138 11136 11139 0
-11138 -11136 11140 0
11138 -11140 0
11136 -11140 0
-10883 -11137 11141 0
10883 -11141 0
11137 -11141 0
11140 11141 -11142 0
-11140 11142 0
-11141 11142 0
-66 -11091 11143 0
66 -11143 0
11091 -11143 0
-10889 -11143 -11144 0
10889 11143 -11144 0
10889 -11143 11144 0
-10889 11143 11144 0
-11144 -11142 -11145 0
11144 11142 -11145 0
11144 -11142 11145 0
-11144 11142 11145 0
-11144 -11142 11146 0
11144 -11146 0
11142 -11146 0
-10889 -11143 11147 0
10889 -11147 0
11143 -11147 0
11146 11147 -11148 0
-11146 11148 0
-11147 11148 0
-74 -11091 11149 0
74 -11149 0
11091 -11149 0
-10895 -11149 -11150 0
10895 11149 -11150 0
10895 -11149 11150 0
-10895 11149 11150 0
-11150 -11148 -11151 0
11150 11148 -11151 0
11150 -11148 11151 0
-11150 11148 11151 0
-11150 -11148 11152 0
11150 -11152 0
11148 -11152 0
-10895 -11149 11153 0
10895 -11153 0
11149 -11153 0
11152 11153 -11154 0
-11152 11154 0
-11153 11154 0
-82 -11091 11155 0
82 -11155 0
11091 -11155 0
-10901 -11155 -11156 0
10901 11155 -11156 0
10901 -11155 11156 0
-10901 11155 11156 0
-11156 -11154 -11157 0
11156 11154 -11157 0
11156 -11154 11157 0
-11156 11154 11157 0
-11156 -11154 11158 0
11156 -11158 0
11154 -11158 0
-10901 -11155 11159 0
10901 -11159 0
11155 -11159 0
11158 11159 -11160 0
-11158 11160 0
-11159 11160 0
-90 -11091 11161 0
90 -11161 0
11091 -11161 0
-10907 -11161 -11162 0
10907 11161 -11162 0
10907 -11161 11162 0
-10907 11161 11162 0
-11162 -11160 -11163 0
11162 11160 -11163 0
11162 -11160 11163 0
-11162 11160 11163 0
-11162 -11160 11164 0
11162 -11164 0
11160 -11164 0
-10907 -11161 11165 0
10907 -11165 0
11161 -11165 0
11164 11165 -11166 0
-11164 11166 0
-11165 11166 0
-98 -11091 11167 0
98 -11167 0
11091 -11167 0
-10913 -11167 -11168 0
10913 11167 -11168 0
10913 -11167 11168 0
-10913 11167 11168 0
-11168 -11166 -11169 0
11168 11166 -11169 0
11168 -11166 11169 0
-11168 11166 11169 0
-11168 -11166 11170 0
11168 -11170 0
11166 -11170 0
-10913 -11167 11171 0
10913 -11171 0
11167 -11171 0
11170 11171 -11172 0
-11170 11172 0
-11171 11172 0
-106 -11091 11173 0
106 -11173 0
11091 -11173 0
-10919 -11173 -11174 0
10919 11173 -11174 0
10919 -11173 11174 0
-10919 11173 11174 0
-11174 -11172 -11175 0
11174 11172 -11175 0
11174 -11172 11175 0
-11174 11172 11175 0
-11174 -11172 11176 0
11174 -11176 0
11172 -11176 0
-10919 -11173 11177 0
10919 -11177 0
11173 -11177 0
11176 11177 -11178 0
-11176 11178 0
-11177 11178 0
-114 -11091 11179 0
114 -11179 0
11091 -11179 0
-10925 -11179 -11180 0
10925 11179 -11180 0
10925 -11179 11180 0
-10925 11179 11180 0
-11180 -11178 -11181 0
11180 11178 -11181 0
11180 -11178 11181 0
-11180 11178 11181 0
-11180 -11178 11182 0
11180 -11182 0
11178 -11182 0
-10925 -11179 11183 0
10925 -11183 0
11179 -11183 0
11182 11183 -11184 0
-11182 11184 0
-11183 11184 0
-122 -11091 11185 0
122 -11185 0
11091 -11185 0
-10931 -11185 -11186 0
10931 11185 -11186 0
10931 -11185 11186 0
-10931 11185 11186 0
-11186 -11184 -11187 0
11186 11184 -11187 0
11186 -11184 11187 0
-11186 11184 11187 0
-11186 -11184 11188 0
11186 -11188 0
11184 -11188 0
-10931 -11185 11189 0
10931 -11189 0
11185 -11189 0
11188 11189 -11190 0
-11188 11190 0
-11189 11190 0
-130 -11091 11191 0
130 -11191 0
11091 -11191 0
-10937 -11191 -11192 0
10937 11191 -11192 0
10937 -11191 11192 0
-10937 11191 11192 0
-11192 -11190 -11193 0
11192 11190 -11193 0
11192 -11190 11193 0
-11192 11190 11193 0
-11192 -11190 11194 0
11192 -11194 0
11190 -11194 0
-10937 -11191 11195 0
10937 -11195 0
11191 -11195 0
11194 11195 -11196 0
-11194 11196 0
-11195 11196 0
-138 -11091 11197 0
138 -11197 0
11091 -11197 0
-10943 -11197 -11198 0
10943 11197 -11198 0
10943 -11197 11198 0
-10943 11197 11198 0
-11198 -11196 -11199 0
11198 11196 -11199 0
11198 -11196 11199 0
-11198 11196 11199 0
-11198 -11196 11200 0
11198 -11200 0
11196 -11200 0
-10943 -11197 11201 0
10943 -11201 0
11197 -11201 0
11200 11201 -11202 0
-11200 11202 0
-11201 11202 0
-146 -11091 11203 0
146 -11203 0
11091 -11203 0
-10949 -11203 -11204 0
10949 11203 -11204 0
10949 -11203 11204 0
-10949 11203 11204 0
-11204 -11202 -11205 0
11204 11202 -11205 0
11204 -11202 11205 0
-11204 11202 11205 0
-11204 -11202 11206 0
11204 -11206 0
11202 -11206 0
-10949 -11203 11207 0
10949 -11207 0
11203 -11207 0
11206 11207 -11208 0
-11206 11208 0
-11207 11208 0
-154 -11091 11209 0
154 -11209 0
11091 -11209 0
-10955 -11209 -11210 0
10955 11209 -11210 0
10955 -11209 11210 0
-10955 11209 11210 0
-11210 -11208 -11211 0
11210 11208 -11211 0
11210 -11208 11211 0
-11210 11208 11211 0
-11210 -11208 11212 0
11210 -11212 0
11208 -11212 0
-10955 -11209 11213 0
10955 -11213 0
11209 -11213 0
11212 11213 -11214 0
-11212 11214 0
-11213 11214 0
-162 -11091 11215 0
162 -11215 0
11091 -11215 0
-10961 -11215 -11216 0
10961 11215 -11216 0
10961 -11215 11216 0
-10961 11215 11216 0
-11216 -11214 -11217 0
11216 11214 -11217 0
11216 -11214 11217 0
-11216 11214 11217 0
-11216 -11214 11218 0
11216 -11218 0
11214 -11218 0
-10961 -11215 11219 0
10961 -11219 0
11215 -11219 0
11218 11219 -11220 0
-11218 11220 0
-11219 11220 0
-170 -11091 11221 0
170 -11221 0
11091 -11221 0
-10967 -11221 -11222 0
10967 11221 -11222 0
10967 -11221 11222 0
-10967 11221 11222 0
-11222 -11220 -11223 0
11222 11220 -11223 0
11222 -11220 11223 0
-11222 11220 11223 0
-11222 -11220 11224 0
11222 -11224 0
11220 -11224 0
-10967 -11221 11225 0
10967 -11225 0
11221 -11225 0
11224 11225 -11226 0
-11224 11226 0
-11225 11226 0
-178 -11091 11227 0
178 -11227 0
11091 -11227 0
-10973 -11227 -11228 0
10973 11227 -11228 0
10973 -11227 11228 0
-10973 11227 11228 0
-11228 -11226 -11229 0
11228 11226 -11229 0
11228 -11226 11229 0
-11228 11226 11229 0
-11228 -11226 11230 0
11228 -11230 0
11226 -11230 0
-10973 -11227 11231 0
10973 -11231 0
11227 -11231 0
11230 11231 -11232 0
-11230 11232 0
-11231 11232 0
-186 -11091 11233 0
186 -11233 0
11091 -11233 0
-10979 -11233 -11234 0
10979 11233 -11234 0
10979 -11233 11234 0
-10979 11233 11234 0
-11234 -11232 -11235 0
11234 11232 -11235 0
11234 -11232 11235 0
-11234 11232 11235 0
-11234 -11232 11236 0
11234 -11236 0
11232 -11236 0
-10979 -11233 11237 0
10979 -11237 0
11233 -11237 0
11236 11237 -11238 0
-11236 11238 0
-11237 11238 0
-194 -11091 11239 0
194 -11239 0
11091 -11239 0
-10985 -11239 -11240 0
10985 11239 -11240 0
10985 -11239 11240 0
-10985 11239 11240 0
-11240 -11238 -11241 0
11240 11238 -11241 0
11240 -11238 11241 0
-11240 11238 11241 0
-11240 -11238 11242 0
11240 -11242 0
11238 -11242 0
-10985 -11239 11243 0
10985 -11243 0
11239 -11243 0
11242 11243 -11244 0
-11242 11244 0
-11243 11244 0
-202 -11091 11245 0
202 -11245 0
11091 -11245 0
-10991 -11245 -11246 0
10991 11245 -11246 0
10991 -11245 11246 0
-10991 11245 11246 0
-11246 -11244 -11247 0
11246 11244 -11247 0
11246 -11244 11247 0
-11246 11244 11247 0
-11246 -11244 11248 0
11246 -11248 0
11244 -11248 0
-10991 -11245 11249 0
10991 -11249 0
11245 -11249 0
11248 11249 -11250 0
-11248 11250 0
-11249 11250 0
-210 -11091 11251 0
210 -11251 0
11091 -11251 0
-10997 -11251 -11252 0
10997 11251 -11252 0
10997 -11251 11252 0
-10997 11251 11252 0
-11252 -11250 -11253 0
11252 11250 -11253 0
11252 -11250 11253 0
-11252 11250 11253 0
-11252 -11250 11254 0
11252 -11254 0
11250 -11254 0
-10997 -11251 11255 0
10997 -11255 0
11251 -11255 0
11254 11255 -11256 0
-11254 11256 0
-11255 11256 0
-218 -11091 11257 0
218 -11257 0
11091 -11257 0
-11003 -11257 -11258 0
11003 11257 -11258 0
11003 -11257 11258 0
-11003 11257 11258 0
-11258 -11256 -11259 0
11258 11256 -11259 0
11258 -11256 11259 0
-11258 11256 11259 0
-11258 -11256 11260 0
11258 -11260 0
11256 -11260 0
-11003 -11257 11261 0
11003 -11261 0
11257 -11261 0
11260 11261 -11262 0
-11260 11262 0
-11261 11262 0
-226 -11091 11263 0
226 -11263 0
11091 -11263 0
-11009 -11263 -11264 0
11009 11263 -11264 0
11009 -11263 11264 0
-11009 11263 11264 0
-11264 -11262 -11265 0
11264 11262 -11265 0
11264 -11262 11265 0
-11264 11262 11265 0
-11264 -11262 11266 0
11264 -11266 0
11262 -11266 0
-11009 -11263 11267 0
11009 -11267 0
11263 -11267 0
11266 11267 -11268 0
-11266 11268 0
-11267 11268 0
-234 -11091 11269 0
234 -11269 0
11091 -11269 0
-11015 -11269 -11270 0
11015 11269 -11270 0
11015 -11269 11270 0
-11015 11269 11270 0
-11270 -11268 -11271 0
11270 11268 -11271 0
11270 -11268 11271 0
-11270 11268 11271 0
-11270 -11268 11272 0
11270 -11272 0
11268 -11272 0
-11015 -11269 11273 0
11015 -11273 0
11269 -11273 0
11272 11273 -11274 0
-11272 11274 0
-11273 11274 0
-242 -11091 11275 0
242 -11275 0
11091 -11275 0
-11021 -11275 -11276 0
11021 11275 -11276 0
11021 -11275 11276 0
-11021 11275 11276 0
-11276 -11274 -11277 0
11276 11274 -11277 0
11276 -11274 11277 0
-11276 11274 11277 0
-11276 -11274 11278 0
11276 -11278 0
11274 -11278 0
-11021 -11275 11279 0
11021 -11279 0
11275 -11279 0
11278 11279 -11280 0
-11278 11280 0
-11279 11280 0
-250 -11091 11281 0
250 -11281 0
11091 -11281 0
-11027 -11281 -11282 0
11027 11281 -11282 0
11027 -11281 11282 0
-11027 11281 11282 0
-11282 -11280 -11283 0
11282 11280 -11283 0
11282 -11280 11283 0
-11282 11280 11283 0
-11282 -11280 11284 0
11282 -11284 0
11280 -11284 0
-11027 -11281 11285 0
11027 -11285 0
11281 -11285 0
11284 11285 -11286 0
-11284 11286 0
-11285 11286 0
-258 -11091 11287 0
258 -11287 0
11091 -11287 0
-11033 -11287 -11288 0
11033 11287 -11288 0
11033 -11287 11288 0
-11033 11287 11288 0
-11288 -11286 -11289 0
11288 11286 -11289 0
11288 -11286 11289 0
-11288 11286 11289 0
-11288 -11286 11290 0
11288 -11290 0
11286 -11290 0
-11033 -11287 11291 0
11033 -11291 0
11287 -11291 0
11290 11291 -11292 0
-11290 11292 0
-11291 11292 0
-266 -11091 11293 0
266 -11293 0
11091 -11293 0
-11039 -11293 -11294 0
11039 11293 -11294 0
11039 -11293 11294 0
-11039 11293 11294 0
-11294 -11292 -11295 0
11294 11292 -11295 0
11294 -11292 11295 0
-11294 11292 11295 0
-11294 -11292 11296 0
11294 -11296 0
11292 -11296 0
-11039 -11293 11297 0
11039 -11297 0
11293 -11297 0
11296 11297 -11298 0
-11296 11298 0
-11297 11298 0
-274 -11091 11299 0
274 -11299 0
11091 -11299 0
-11045 -11299 -11300 0
11045 11299 -11300 0
11045 -11299 11300 0
-11045 11299 11300 0
-11300 -11298 -11301 0
11300 11298 -11301 0
11300 -11298 11301 0
-11300 11298 11301 0
-11300 -11298 11302 0
11300 -11302 0
11298 -11302 0
-11045 -11299 11303 0
11045 -11303 0
11299 -11303 0
11302 11303 -11304 0
-11302 11304 0
-11303 11304 0
-282 -11091 11305 0
282 -11305 0
11091 -11305 0
-11051 -11305 -11306 0
11051 11305 -11306 0
11051 -11305 11306 0
-11051 11305 11306 0
-11306 -11304 -11307 0
11306 11304 -11307 0
11306 -11304 11307 0
-11306 11304 11307 0
-11306 -11304 11308 0
11306 -11308 0
11304 -11308 0
-11051 -11305 11309 0
11051 -11309 0
11305 -11309 0
11308 11309 -11310 0
-11308 11310 0
-11309 11310 0
-290 -11091 11311 0
290 -11311 0
11091 -11311 0
-11057 -11311 -11312 0
11057 11311 -11312 0
11057 -11311 11312 0
-11057 11311 11312 0
-11312 -11310 -11313 0
11312 11310 -11313 0
11312 -11310 11313 0
-11312 11310 11313 0
-11312 -11310 11314 0
11312 -11314 0
11310 -11314 0
-11057 -11311 11315 0
11057 -11315 0
11311 -11315 0
11314 11315 -11316 0
-11314 11316 0
-11315 11316 0
-298 -11091 11317 0
298 -11317 0
11091 -11317 0
-11063 -11317 -11318 0
11063 11317 -11318 0
11063 -11317 11318 0
-11063 11317 11318 0
-11318 -11316 -11319 0
11318 11316 -11319 0
11318 -11316 11319 0
-11318 11316 11319 0
-11318 -11316 11320 0
11318 -11320 0
11316 -11320 0
-11063 -11317 11321 0
11063 -11321 0
11317 -11321 0
11320 11321 -11322 0
-11320 11322 0
-11321 11322 0
-306 -11091 11323 0
306 -11323 0
11091 -11323 0
-11069 -11323 -11324 0
11069 11323 -11324 0
11069 -11323 11324 0
-11069 11323 11324 0
-11324 -11322 -11325 0
11324 11322 -11325 0
11324 -11322 11325 0
-11324 11322 11325 0
-11324 -11322 11326 0
11324 -11326 0
11322 -11326 0
-11069 -11323 11327 0
11069 -11327 0
11323 -11327 0
11326 11327 -11328 0
-11326 11328 0
-11327 11328 0
-314 -11091 11329 0
314 -11329 0
11091 -11329 0
-11075 -11329 -11330 0
11075 11329 -11330 0
11075 -11329 11330 0
-11075 11329 11330 0
-11330 -11328 -11331 0
11330 11328 -11331 0
11330 -11328 11331 0
-11330 11328 11331 0
-11330 -11328 11332 0
11330 -11332 0
11328 -11332 0
-11075 -11329 11333 0
11075 -11333 0
11329 -11333 0
11332 11333 -11334 0
-11332 11334 0
-11333 11334 0
-322 -11091 11335 0
322 -11335 0
11091 -11335 0
-11081 -11335 -11336 0
11081 11335 -11336 0
11081 -11335 11336 0
-11081 11335 11336 0
-11336 -11334 -11337 0
11336 11334 -11337 0
11336 -11334 11337 0
-11336 11334 11337 0
-11336 -11334 11338 0
11336 -11338 0
11334 -11338 0
-11081 -11335 11339 0
11081 -11339 0
11335 -11339 0
11338 11339 -11340 0
-11338 11340 0
-11339 11340 0
-330 -11091 11341 0
330 -11341 0
11091 -11341 0
-11087 -11341 -11342 0
11087 11341 -11342 0
11087 -11341 11342 0
-11087 11341 11342 0
-11342 -11340 -11343 0
11342 11340 -11343 0
11342 -11340 11343 0
-11342 11340 11343 0
-11342 -11340 11344 0
11342 -11344 0
11340 -11344 0
-11087 -11341 11345 0
11087 -11345 0
11341 -11345 0
11344 11345 -11346 0
-11344 11346 0
-11345 11346 0
-338 -11091 11347 0
338 -11347 0
11091 -11347 0
-11090 -11347 -11348 0
11090 11347 -11348 0
11090 -11347 11348 0
-11090 11347 11348 0
-11348 -11346 -11349 0
11348 11346 -11349 0
11348 -11346 11349 0
-11348 11346 11349 0
-11348 -11346 11350 0
11348 -11350 0
11346 -11350 0
-11090 -11347 11351 0
11090 -11351 0
11347 -11351 0
11350 11351 -11352 0
-11350 11352 0
-11351 11352 0
3 0
8 0
-351 0
613 0
-875 0
1137 0
1399 0
1661 0
1923 0
2185 0
-2447 0
-2709 0
-2971 0
-3233 0
-3495 0
-3757 0
-4019 0
-4281 0
-4543 0
-4805 0
-5067 0
-5329 0
-5591 0
5853 0
6115 0
-6377 0
-6639 0
6901 0
-7163 0
-7425 0
-7687 0
-7949 0
-8211 0
-8473 0
-8735 0
-8997 0
-9259 0
-9521 0
-9783 0
-10045 0
-10307 0
-10569 0
10831 0
-11093 0
-11097 0
-11103 0
-11109 0
-11115 0
-11121 0
-11127 0
-11133 0
-11139 0
-11145 0
-11151 0
-11157 0
-11163 0
-11169 0
-11175 0
-11181 0
-11187 0
-11193 0
-11199 0
-11205 0
-11211 0
-11217 0
-11223 0
-11229 0
-11235 0
-11241 0
-11247 0
-11253 0
-11259 0
-11265 0
-11271 0
-11277 0
-11283 0
-11289 0
-11295 0
-11301 0
-11307 0
-11313 0
-11319 0
-11325 0
-11331 0
-11337 0
-11343 0
-11349 0
-11352 0
