p cnf 180 570
-2 3 -1 0
1 -3 0
-3 2 0
5 -4 -2 0
-5 4 0
-5 2 0
-6 7 -1 0
1 -7 0
6 -7 0
-8 -7 -5 0
-8 5 7 0
8 5 -7 0
8 -5 7 0
-7 9 -5 0
-9 5 0
-9 7 0
-10 11 -2 0
-11 10 0
-11 2 0
-6 -4 12 0
-12 4 0
-12 6 0
-12 -11 -13 0
11 -13 12 0
-12 11 13 0
-11 13 12 0
-9 -14 -13 0
-14 9 13 0
-9 14 13 0
14 9 -13 0
-9 15 -13 0
-15 13 0
9 -15 0
-12 -11 16 0
11 -16 0
-16 12 0
15 16 -17 0
-15 17 0
-16 17 0
-2 19 -18 0
-19 18 0
-19 2 0
-10 -6 20 0
10 -20 0
6 -20 0
-21 -19 -20 0
-21 19 20 0
21 19 -20 0
21 -19 20 0
-17 -21 -22 0
21 -22 17 0
21 22 -17 0
22 -21 17 0
23 -17 -21 0
21 -23 0
-23 17 0
-19 24 -20 0
-24 19 0
-24 20 0
23 24 -25 0
25 -23 0
-24 25 0
-26 27 -2 0
26 -27 0
-27 2 0
-6 28 -18 0
-28 18 0
6 -28 0
-27 -29 -28 0
27 -29 28 0
27 29 -28 0
-27 28 29 0
-30 -29 -25 0
-30 25 29 0
30 29 -25 0
-29 25 30 0
-29 31 -25 0
29 -31 0
25 -31 0
-27 32 -28 0
27 -32 0
-32 28 0
-33 32 31 0
33 -31 0
-32 33 0
35 -2 -34 0
-35 34 0
-35 2 0
-26 -6 36 0
26 -36 0
-36 6 0
-36 -37 -35 0
36 35 -37 0
-36 35 37 0
36 37 -35 0
-38 -37 -33 0
37 -38 33 0
37 -33 38 0
-37 33 38 0
39 -37 -33 0
37 -39 0
-39 33 0
40 -36 -35 0
-40 35 0
36 -40 0
40 39 -41 0
-39 41 0
-40 41 0
-6 42 -34 0
-42 34 0
-42 6 0
-42 -43 -41 0
-43 41 42 0
-42 43 41 0
43 -41 42 0
-42 44 -41 0
-44 41 0
-44 42 0
-45 46 -1 0
1 -46 0
-46 45 0
-46 -14 -47 0
-47 14 46 0
-46 14 47 0
-14 46 47 0
-46 -14 48 0
-48 14 0
-48 46 0
-45 49 -4 0
-49 4 0
-49 45 0
-50 -49 -22 0
49 22 -50 0
22 -49 50 0
49 50 -22 0
-50 -48 -51 0
-51 50 48 0
-48 51 50 0
-50 51 48 0
-50 -48 52 0
-52 50 0
-52 48 0
-49 -22 53 0
22 -53 0
49 -53 0
53 52 -54 0
-52 54 0
54 -53 0
-45 -10 55 0
10 -55 0
45 -55 0
-30 -56 -55 0
55 -56 30 0
30 56 -55 0
-30 55 56 0
-56 -57 -54 0
54 -57 56 0
57 56 -54 0
54 57 -56 0
-56 58 -54 0
-58 56 0
54 -58 0
-30 59 -55 0
-59 30 0
55 -59 0
-60 58 59 0
-58 60 0
-59 60 0
-45 61 -18 0
-61 18 0
-61 45 0
-62 -38 -61 0
-62 61 38 0
62 -61 38 0
-38 61 62 0
-63 -62 -60 0
-63 62 60 0
-60 62 63 0
63 -62 60 0
64 -62 -60 0
-64 62 0
-64 60 0
65 -38 -61 0
-65 38 0
-65 61 0
64 65 -66 0
-64 66 0
-65 66 0
-45 -26 67 0
26 -67 0
-67 45 0
-67 -68 -43 0
-68 43 67 0
-67 43 68 0
68 -43 67 0
-68 -69 -66 0
-69 66 68 0
-66 69 68 0
-68 66 69 0
-68 70 -66 0
-70 68 0
-70 66 0
-67 -43 71 0
-71 43 0
-71 67 0
-72 70 71 0
-70 72 0
72 -71 0
-45 73 -34 0
-73 34 0
-73 45 0
-73 -74 -44 0
73 44 -74 0
74 44 -73 0
73 74 -44 0
-75 -74 -72 0
72 74 -75 0
75 74 -72 0
72 -74 75 0
-74 -72 76 0
-76 74 0
72 -76 0
-73 77 -44 0
44 -77 0
73 -77 0
77 76 -78 0
-76 78 0
-77 78 0
-79 80 -1 0
1 -80 0
79 -80 0
-51 -81 -80 0
51 80 -81 0
81 51 -80 0
-51 81 80 0
-51 82 -80 0
51 -82 0
80 -82 0
83 -4 -79 0
-83 4 0
79 -83 0
-57 -84 -83 0
83 57 -84 0
57 -83 84 0
83 -57 84 0
-84 -85 -82 0
82 -85 84 0
85 84 -82 0
82 85 -84 0
-84 86 -82 0
-86 84 0
82 -86 0
-57 -83 87 0
57 -87 0
83 -87 0
87 -88 86 0
88 -86 0
88 -87 0
-10 89 -79 0
-89 10 0
-89 79 0
-89 -63 -90 0
-90 89 63 0
-89 90 63 0
89 -63 90 0
-90 -91 -88 0
88 90 -91 0
91 90 -88 0
-90 91 88 0
-90 92 -88 0
-92 90 0
-92 88 0
-89 -63 93 0
-93 63 0
89 -93 0
93 92 -94 0
-92 94 0
94 -93 0
-79 95 -18 0
-95 18 0
79 -95 0
-96 -95 -69 0
-96 95 69 0
96 -95 69 0
96 -69 95 0
-97 -96 -94 0
96 -97 94 0
96 97 -94 0
94 -96 97 0
98 -96 -94 0
96 -98 0
94 -98 0
99 -95 -69 0
-99 69 0
-99 95 0
99 98 -100 0
100 -98 0
100 -99 0
-26 101 -79 0
26 -101 0
-101 79 0
-75 -102 -101 0
-102 75 101 0
75 -101 102 0
-75 101 102 0
-102 -100 -103 0
100 -103 102 0
-100 103 102 0
-102 103 100 0
-102 -100 104 0
-104 102 0
-104 100 0
-75 -101 105 0
75 -105 0
101 -105 0
104 -106 105 0
-104 106 0
106 -105 0
107 -79 -34 0
-107 34 0
79 -107 0
-78 -107 -108 0
107 -108 78 0
108 -107 78 0
108 -78 107 0
-106 -109 -108 0
106 108 -109 0
109 108 -106 0
106 109 -108 0
110 -106 -108 0
108 -110 0
106 -110 0
-78 111 -107 0
-111 78 0
107 -111 0
-112 111 110 0
112 -110 0
112 -111 0
114 -113 -1 0
1 -114 0
113 -114 0
-114 -85 -115 0
85 -115 114 0
85 -114 115 0
114 115 -85 0
116 -114 -85 0
-116 85 0
-116 114 0
-113 -4 117 0
-117 4 0
-117 113 0
-117 -118 -91 0
-118 91 117 0
-117 91 118 0
118 -91 117 0
-118 -116 -119 0
116 -119 118 0
-116 119 118 0
-118 119 116 0
-118 -116 120 0
-120 118 0
-120 116 0
-117 121 -91 0
-121 91 0
-121 117 0
-122 120 121 0
-120 122 0
-121 122 0
-10 123 -113 0
-123 10 0
113 -123 0
-97 -123 -124 0
-124 123 97 0
124 -123 97 0
-97 124 123 0
-124 -125 -122 0
124 122 -125 0
124 125 -122 0
-124 125 122 0
-124 126 -122 0
124 -126 0
-126 122 0
-97 127 -123 0
-127 97 0
-127 123 0
-128 127 126 0
-126 128 0
-127 128 0
-113 129 -18 0
-129 18 0
113 -129 0
-130 -129 -103 0
-130 103 129 0
130 103 -129 0
130 129 -103 0
-130 -131 -128 0
130 -131 128 0
130 131 -128 0
-130 131 128 0
-130 -128 132 0
130 -132 0
-132 128 0
-129 133 -103 0
-133 103 0
-133 129 0
132 133 -134 0
-132 134 0
-133 134 0
-26 -113 135 0
26 -135 0
113 -135 0
-136 -135 -109 0
109 -136 135 0
109 -135 136 0
-109 136 135 0
-137 -136 -134 0
134 -137 136 0
137 -134 136 0
137 -136 134 0
138 -136 -134 0
-138 136 0
-138 134 0
139 -135 -109 0
109 -139 0
-139 135 0
138 139 -140 0
-138 140 0
-139 140 0
141 -113 -34 0
-141 34 0
113 -141 0
-112 -141 -142 0
112 141 -142 0
112 -141 142 0
142 -112 141 0
-142 -140 -143 0
142 140 -143 0
142 -140 143 0
140 -142 143 0
144 -142 -140 0
142 -144 0
140 -144 0
-112 -141 145 0
112 -145 0
141 -145 0
145 -146 144 0
146 -144 0
146 -145 0
148 -147 -1 0
1 -148 0
-148 147 0
-119 -148 -149 0
119 148 -149 0
119 -148 149 0
-119 148 149 0
-119 -148 150 0
-150 119 0
-150 148 0
-147 151 -4 0
-151 4 0
-151 147 0
-151 -152 -125 0
-152 125 151 0
-151 125 152 0
152 151 -125 0
-150 -152 -153 0
-153 150 152 0
-150 153 152 0
153 -152 150 0
-150 -152 154 0
152 -154 0
150 -154 0
-151 155 -125 0
-155 125 0
-155 151 0
-156 154 155 0
156 -154 0
-155 156 0
-10 -147 157 0
-157 10 0
-157 147 0
-157 -131 -158 0
131 -158 157 0
-157 131 158 0
-131 157 158 0
-156 -158 -159 0
156 158 -159 0
-156 159 158 0
-158 156 159 0
160 -156 -158 0
-160 158 0
156 -160 0
-157 -131 161 0
131 -161 0
157 -161 0
-162 160 161 0
162 -160 0
162 -161 0
-147 163 -18 0
-163 18 0
147 -163 0
-164 -137 -163 0
-164 137 163 0
137 164 -163 0
-137 164 163 0
-164 -165 -162 0
162 -165 164 0
-162 165 164 0
-164 165 162 0
-164 166 -162 0
-166 164 0
162 -166 0
167 -137 -163 0
137 -167 0
-167 163 0
166 -168 167 0
-166 168 0
-167 168 0
169 -26 -147 0
26 -169 0
-169 147 0
-170 -169 -143 0
169 -170 143 0
-169 170 143 0
169 -143 170 0
-170 -168 -171 0
168 -171 170 0
-168 171 170 0
-170 168 171 0
-170 -168 172 0
-172 170 0
168 -172 0
-169 173 -143 0
-173 143 0
169 -173 0
-174 173 172 0
174 -172 0
174 -173 0
175 -147 -34 0
-175 34 0
-175 147 0
-146 -175 -176 0
175 146 -176 0
-175 146 176 0
-146 175 176 0
-174 -177 -176 0
174 176 -177 0
-174 176 177 0
177 174 -176 0
-174 178 -176 0
-178 176 0
-178 174 0
-146 -175 179 0
146 -179 0
175 -179 0
-180 178 179 0
180 -178 0
180 -179 0
3 0
8 0
-47 0
81 0
-115 0
-149 0
153 0
159 0
-165 0
171 0
177 0
-180 0
