p cnf 252 805
-2 -1 3 0
1 -3 0
-3 2 0
5 -2 -4 0
-5 4 0
-5 2 0
-6 7 -1 0
1 -7 0
6 -7 0
-8 -5 -7 0
-8 5 7 0
5 8 -7 0
7 -5 8 0
9 -5 -7 0
5 -9 0
7 -9 0
-2 -10 11 0
10 -11 0
2 -11 0
-4 -6 12 0
-12 4 0
6 -12 0
-13 -12 -11 0
-13 12 11 0
13 -12 11 0
13 12 -11 0
-13 -9 -14 0
9 13 -14 0
14 -9 13 0
14 -13 9 0
15 -13 -9 0
13 -15 0
9 -15 0
16 -12 -11 0
-16 11 0
-16 12 0
15 16 -17 0
17 -15 0
17 -16 0
-2 -18 19 0
18 -19 0
-19 2 0
-6 -10 20 0
10 -20 0
-20 6 0
-19 -20 -21 0
-21 20 19 0
21 -20 19 0
-19 21 20 0
-22 -21 -17 0
21 17 -22 0
22 21 -17 0
22 17 -21 0
-21 23 -17 0
21 -23 0
17 -23 0
24 -19 -20 0
-24 19 0
20 -24 0
24 -25 23 0
25 -23 0
25 -24 0
-26 -2 27 0
-27 26 0
-27 2 0
-6 -18 28 0
18 -28 0
-28 6 0
-28 -29 -27 0
28 -29 27 0
-28 29 27 0
28 -27 29 0
-29 -25 -30 0
29 25 -30 0
30 29 -25 0
30 25 -29 0
31 -29 -25 0
-31 29 0
-31 25 0
-28 -27 32 0
-32 27 0
-32 28 0
31 32 -33 0
-31 33 0
33 -32 0
-2 35 -34 0
34 -35 0
2 -35 0
36 -26 -6 0
-36 26 0
6 -36 0
-37 -36 -35 0
36 35 -37 0
37 35 -36 0
36 37 -35 0
-38 -33 -37 0
33 -38 37 0
38 -33 37 0
38 33 -37 0
39 -33 -37 0
-39 37 0
-39 33 0
40 -36 -35 0
35 -40 0
36 -40 0
39 40 -41 0
-39 41 0
41 -40 0
-2 43 -42 0
-43 42 0
-43 2 0
-6 44 -34 0
34 -44 0
-44 6 0
-43 -44 -45 0
43 44 -45 0
43 -44 45 0
-43 44 45 0
-46 -41 -45 0
41 -46 45 0
46 -41 45 0
46 41 -45 0
47 -41 -45 0
-47 45 0
41 -47 0
-43 -44 48 0
-48 43 0
-48 44 0
-49 47 48 0
49 -47 0
-48 49 0
50 -6 -42 0
42 -50 0
6 -50 0
-51 -49 -50 0
-51 49 50 0
51 49 -50 0
51 -49 50 0
52 -49 -50 0
49 -52 0
-52 50 0
-53 -1 54 0
1 -54 0
-54 53 0
-54 -14 -55 0
14 -55 54 0
14 -54 55 0
55 -14 54 0
-54 56 -14 0
14 -56 0
-56 54 0
-53 -4 57 0
-57 4 0
53 -57 0
-22 -57 -58 0
22 57 -58 0
22 58 -57 0
58 -22 57 0
-59 -56 -58 0
-59 56 58 0
59 58 -56 0
59 56 -58 0
60 -56 -58 0
-60 58 0
-60 56 0
61 -22 -57 0
22 -61 0
-61 57 0
-62 61 60 0
62 -60 0
62 -61 0
-53 63 -10 0
10 -63 0
53 -63 0
-63 -64 -30 0
30 63 -64 0
30 64 -63 0
64 63 -30 0
-62 -65 -64 0
62 64 -65 0
-62 64 65 0
62 65 -64 0
-62 -64 66 0
64 -66 0
62 -66 0
67 -63 -30 0
30 -67 0
-67 63 0
67 -68 66 0
68 -66 0
-67 68 0
-53 -18 69 0
18 -69 0
53 -69 0
-69 -38 -70 0
38 -70 69 0
38 -69 70 0
70 -38 69 0
-71 -68 -70 0
-71 68 70 0
71 -68 70 0
71 68 -70 0
72 -68 -70 0
-72 70 0
-72 68 0
73 -69 -38 0
38 -73 0
-73 69 0
73 72 -74 0
74 -72 0
74 -73 0
-26 -53 75 0
-75 26 0
53 -75 0
-76 -46 -75 0
-76 75 46 0
76 -75 46 0
76 -46 75 0
-77 -76 -74 0
74 76 -77 0
76 -74 77 0
74 -76 77 0
-76 -74 78 0
76 -78 0
74 -78 0
79 -46 -75 0
-79 46 0
-79 75 0
79 78 -80 0
80 -78 0
-79 80 0
81 -53 -34 0
34 -81 0
53 -81 0
-51 -81 -82 0
81 51 -82 0
51 -81 82 0
81 -51 82 0
-83 -82 -80 0
-83 82 80 0
82 -80 83 0
80 -82 83 0
-82 -80 84 0
-84 82 0
-84 80 0
-51 -81 85 0
51 -85 0
81 -85 0
-86 85 84 0
-84 86 0
86 -85 0
-53 -42 87 0
42 -87 0
53 -87 0
-88 -87 -52 0
52 -88 87 0
52 88 -87 0
88 -52 87 0
-88 -86 -89 0
88 -89 86 0
-86 88 89 0
-88 86 89 0
-88 -86 90 0
88 -90 0
-90 86 0
91 -87 -52 0
52 -91 0
-91 87 0
90 91 -92 0
-90 92 0
-91 92 0
-1 94 -93 0
1 -94 0
-94 93 0
-94 -59 -95 0
59 94 -95 0
59 95 -94 0
-59 95 94 0
-94 -59 96 0
59 -96 0
94 -96 0
-4 -93 97 0
4 -97 0
93 -97 0
-98 -65 -97 0
65 -98 97 0
65 -97 98 0
-65 98 97 0
-99 -98 -96 0
-99 96 98 0
99 98 -96 0
99 96 -98 0
-98 -96 100 0
-100 98 0
96 -100 0
101 -65 -97 0
65 -101 0
-101 97 0
101 -102 100 0
-100 102 0
-101 102 0
103 -93 -10 0
10 -103 0
93 -103 0
-104 -71 -103 0
71 -104 103 0
71 104 -103 0
103 -71 104 0
-104 -105 -102 0
-105 104 102 0
104 105 -102 0
-104 105 102 0
-104 106 -102 0
104 -106 0
-106 102 0
107 -71 -103 0
71 -107 0
-107 103 0
106 107 -108 0
108 -106 0
108 -107 0
109 -18 -93 0
18 -109 0
93 -109 0
-77 -110 -109 0
-110 109 77 0
110 -109 77 0
-77 109 110 0
-110 -108 -111 0
108 -111 110 0
111 -108 110 0
-110 111 108 0
-110 112 -108 0
-112 110 0
108 -112 0
-77 113 -109 0
-113 77 0
-113 109 0
112 113 -114 0
114 -112 0
-113 114 0
-26 -93 115 0
-115 26 0
93 -115 0
-116 -83 -115 0
-116 115 83 0
-115 116 83 0
116 -83 115 0
-116 -114 -117 0
116 -117 114 0
116 117 -114 0
-116 117 114 0
-116 -114 118 0
116 -118 0
-118 114 0
-83 119 -115 0
-119 83 0
115 -119 0
119 118 -120 0
120 -118 0
120 -119 0
121 -93 -34 0
34 -121 0
93 -121 0
-121 -89 -122 0
89 121 -122 0
-121 89 122 0
122 -89 121 0
-120 -123 -122 0
-123 120 122 0
123 122 -120 0
120 123 -122 0
-120 124 -122 0
-124 122 0
120 -124 0
-121 -89 125 0
89 -125 0
-125 121 0
125 124 -126 0
126 -124 0
126 -125 0
127 -93 -42 0
42 -127 0
93 -127 0
-128 -92 -127 0
127 -128 92 0
128 92 -127 0
127 128 -92 0
-129 -128 -126 0
126 -129 128 0
128 129 -126 0
126 -128 129 0
130 -128 -126 0
-130 128 0
126 -130 0
131 -92 -127 0
-131 92 0
127 -131 0
130 131 -132 0
-130 132 0
-131 132 0
134 -1 -133 0
1 -134 0
-134 133 0
-99 -135 -134 0
99 -135 134 0
99 -134 135 0
-99 134 135 0
-99 136 -134 0
99 -136 0
-136 134 0
-4 137 -133 0
-137 4 0
-137 133 0
-105 -137 -138 0
137 105 -138 0
-137 105 138 0
-105 137 138 0
-136 -138 -139 0
136 138 -139 0
-136 138 139 0
136 -138 139 0
-136 -138 140 0
-140 138 0
136 -140 0
-105 -137 141 0
-141 105 0
137 -141 0
-142 140 141 0
142 -140 0
142 -141 0
143 -10 -133 0
10 -143 0
-143 133 0
-143 -144 -111 0
111 143 -144 0
111 -143 144 0
144 143 -111 0
-145 -142 -144 0
-145 142 144 0
145 -142 144 0
145 142 -144 0
-142 -144 146 0
-146 144 0
-146 142 0
-143 147 -111 0
111 -147 0
-147 143 0
-148 147 146 0
-146 148 0
-147 148 0
-18 149 -133 0
18 -149 0
-149 133 0
-149 -150 -117 0
149 117 -150 0
-149 150 117 0
150 149 -117 0
-150 -148 -151 0
150 148 -151 0
151 150 -148 0
151 -150 148 0
152 -150 -148 0
-152 150 0
-152 148 0
153 -149 -117 0
-153 117 0
-153 149 0
153 -154 152 0
-152 154 0
-153 154 0
-26 155 -133 0
-155 26 0
-155 133 0
-123 -155 -156 0
-156 155 123 0
-155 156 123 0
-123 156 155 0
-157 -156 -154 0
-157 154 156 0
157 -154 156 0
157 -156 154 0
-156 158 -154 0
-158 156 0
-158 154 0
-123 -155 159 0
-159 123 0
-159 155 0
159 -160 158 0
-158 160 0
-159 160 0
-133 161 -34 0
34 -161 0
-161 133 0
-129 -161 -162 0
161 129 -162 0
162 -161 129 0
161 -129 162 0
-163 -160 -162 0
-163 162 160 0
163 162 -160 0
160 163 -162 0
164 -160 -162 0
-164 162 0
-164 160 0
-129 -161 165 0
-165 129 0
161 -165 0
164 165 -166 0
-164 166 0
166 -165 0
-133 -42 167 0
42 -167 0
-167 133 0
-168 -167 -132 0
-168 132 167 0
168 132 -167 0
168 -132 167 0
-168 -169 -166 0
168 -169 166 0
168 169 -166 0
-168 169 166 0
-168 170 -166 0
-170 168 0
-170 166 0
-167 171 -132 0
132 -171 0
-171 167 0
170 171 -172 0
172 -170 0
172 -171 0
-173 -1 174 0
1 -174 0
173 -174 0
-175 -139 -174 0
174 139 -175 0
175 139 -174 0
175 174 -139 0
176 -139 -174 0
139 -176 0
174 -176 0
177 -173 -4 0
-177 4 0
-177 173 0
-145 -177 -178 0
145 177 -178 0
-177 145 178 0
-145 177 178 0
-179 -178 -176 0
176 -179 178 0
179 -176 178 0
176 -178 179 0
180 -178 -176 0
-180 178 0
176 -180 0
-145 -177 181 0
145 -181 0
177 -181 0
180 -182 181 0
-180 182 0
182 -181 0
183 -173 -10 0
10 -183 0
173 -183 0
-184 -183 -151 0
151 183 -184 0
151 184 -183 0
183 184 -151 0
-182 -184 -185 0
182 184 -185 0
185 -182 184 0
185 182 -184 0
-182 186 -184 0
184 -186 0
182 -186 0
187 -183 -151 0
151 -187 0
-187 183 0
-188 186 187 0
188 -186 0
-187 188 0
-173 -18 189 0
18 -189 0
-189 173 0
-157 -190 -189 0
157 -190 189 0
157 -189 190 0
190 -157 189 0
-188 -190 -191 0
190 -191 188 0
190 -188 191 0
-190 188 191 0
-188 -190 192 0
190 -192 0
-192 188 0
-157 193 -189 0
157 -193 0
-193 189 0
-194 193 192 0
194 -192 0
-193 194 0
-26 -173 195 0
-195 26 0
-195 173 0
-195 -163 -196 0
-196 195 163 0
-195 196 163 0
195 -163 196 0
-194 -196 -197 0
194 196 -197 0
196 197 -194 0
194 197 -196 0
-194 -196 198 0
-198 196 0
194 -198 0
-195 -163 199 0
-199 163 0
195 -199 0
199 -200 198 0
-198 200 0
200 -199 0
-173 201 -34 0
34 -201 0
173 -201 0
-202 -169 -201 0
201 169 -202 0
202 169 -201 0
202 201 -169 0
-202 -200 -203 0
202 200 -203 0
202 203 -200 0
200 203 -202 0
-202 -200 204 0
202 -204 0
200 -204 0
205 -169 -201 0
169 -205 0
201 -205 0
-206 205 204 0
206 -204 0
206 -205 0
207 -173 -42 0
42 -207 0
173 -207 0
-208 -207 -172 0
172 207 -208 0
172 208 -207 0
208 207 -172 0
-206 -209 -208 0
206 208 -209 0
-206 208 209 0
206 209 -208 0
-206 210 -208 0
208 -210 0
206 -210 0
211 -207 -172 0
172 -211 0
-211 207 0
211 210 -212 0
212 -210 0
212 -211 0
-213 214 -1 0
1 -214 0
213 -214 0
-179 -214 -215 0
179 214 -215 0
179 -214 215 0
214 -179 215 0
-179 -214 216 0
179 -216 0
-216 214 0
-213 217 -4 0
-217 4 0
213 -217 0
-218 -217 -185 0
217 185 -218 0
185 218 -217 0
217 218 -185 0
-218 -216 -219 0
218 216 -219 0
218 -216 219 0
-218 216 219 0
-218 -216 220 0
218 -220 0
216 -220 0
221 -217 -185 0
185 -221 0
217 -221 0
220 -222 221 0
-220 222 0
-221 222 0
-213 -10 223 0
10 -223 0
213 -223 0
-223 -191 -224 0
-224 223 191 0
-223 224 191 0
-191 224 223 0
-222 -225 -224 0
-225 224 222 0
-222 224 225 0
225 222 -224 0
-222 226 -224 0
-226 224 0
-226 222 0
-223 -191 227 0
-227 191 0
-227 223 0
-228 227 226 0
-226 228 0
-227 228 0
-213 -18 229 0
18 -229 0
213 -229 0
-230 -229 -197 0
197 -230 229 0
230 197 -229 0
230 229 -197 0
-231 -228 -230 0
-231 228 230 0
-228 230 231 0
228 -230 231 0
232 -228 -230 0
230 -232 0
228 -232 0
233 -229 -197 0
197 -233 0
229 -233 0
233 232 -234 0
234 -232 0
234 -233 0
-213 -26 235 0
-235 26 0
213 -235 0
-236 -235 -203 0
-236 235 203 0
236 -235 203 0
236 235 -203 0
-236 -234 -237 0
236 234 -237 0
237 236 -234 0
-236 234 237 0
-236 238 -234 0
236 -238 0
234 -238 0
-235 239 -203 0
-239 203 0
235 -239 0
-240 238 239 0
240 -238 0
-239 240 0
-213 241 -34 0
34 -241 0
213 -241 0
-242 -209 -241 0
-242 209 241 0
242 209 -241 0
-209 241 242 0
-240 -242 -243 0
240 -243 242 0
-240 243 242 0
-242 240 243 0
-240 -242 244 0
-244 242 0
-244 240 0
-209 245 -241 0
209 -245 0
-245 241 0
-246 244 245 0
-244 246 0
-245 246 0
-213 247 -42 0
42 -247 0
213 -247 0
-212 -247 -248 0
247 212 -248 0
212 248 -247 0
247 -212 248 0
-246 -248 -249 0
-249 248 246 0
-246 248 249 0
249 -248 246 0
-246 -248 250 0
-250 248 0
-250 246 0
-212 251 -247 0
-251 212 0
-251 247 0
251 -252 250 0
-250 252 0
-251 252 0
3 0
8 0
-55 0
-95 0
-135 0
175 0
215 0
-219 0
225 0
-231 0
-237 0
243 0
249 0
-252 0
