p cnf 252 805
-1 3 -2 0
-3 1 0
2 -3 0
-4 5 -2 0
4 -5 0
2 -5 0
-1 -6 7 0
1 -7 0
6 -7 0
-8 -5 -7 0
5 -8 7 0
8 5 -7 0
8 -5 7 0
9 -5 -7 0
5 -9 0
-9 7 0
11 -2 -10 0
10 -11 0
2 -11 0
-4 12 -6 0
4 -12 0
6 -12 0
-13 -11 -12 0
11 -13 12 0
11 -12 13 0
13 -11 12 0
-9 -13 -14 0
9 13 -14 0
14 -9 13 0
9 14 -13 0
-9 -13 15 0
-15 13 0
9 -15 0
-11 -12 16 0
11 -16 0
-16 12 0
-17 15 16 0
-15 17 0
-16 17 0
-2 -18 19 0
18 -19 0
2 -19 0
-6 20 -10 0
10 -20 0
6 -20 0
-21 -19 -20 0
-21 20 19 0
-20 19 21 0
-19 20 21 0
-17 -21 -22 0
-22 21 17 0
-17 22 21 0
-21 22 17 0
-17 -21 23 0
-23 21 0
-23 17 0
-19 -20 24 0
-24 19 0
-24 20 0
23 24 -25 0
-23 25 0
25 -24 0
27 -2 -26 0
-27 26 0
2 -27 0
-6 -18 28 0
18 -28 0
-28 6 0
-27 -28 -29 0
27 -29 28 0
-28 27 29 0
-27 29 28 0
-30 -25 -29 0
25 29 -30 0
29 30 -25 0
25 30 -29 0
31 -25 -29 0
-31 29 0
25 -31 0
32 -27 -28 0
27 -32 0
-32 28 0
32 31 -33 0
-31 33 0
33 -32 0
35 -34 -2 0
-35 34 0
2 -35 0
-6 36 -26 0
-36 26 0
-36 6 0
-37 -36 -35 0
-37 35 36 0
-36 35 37 0
-35 36 37 0
-37 -33 -38 0
33 -38 37 0
-33 37 38 0
-37 33 38 0
39 -37 -33 0
-39 37 0
-39 33 0
40 -36 -35 0
35 -40 0
36 -40 0
39 -41 40 0
-39 41 0
41 -40 0
43 -42 -2 0
-43 42 0
2 -43 0
-6 -34 44 0
-44 34 0
-44 6 0
-44 -43 -45 0
43 -45 44 0
-44 45 43 0
45 -43 44 0
-46 -41 -45 0
-46 45 41 0
45 -41 46 0
46 41 -45 0
-41 47 -45 0
45 -47 0
-47 41 0
-44 -43 48 0
43 -48 0
-48 44 0
48 -49 47 0
-47 49 0
49 -48 0
50 -6 -42 0
42 -50 0
6 -50 0
-49 -50 -51 0
50 49 -51 0
49 51 -50 0
50 -49 51 0
-49 52 -50 0
-52 49 0
50 -52 0
-1 54 -53 0
1 -54 0
53 -54 0
-14 -55 -54 0
14 -55 54 0
14 -54 55 0
-14 55 54 0
56 -14 -54 0
14 -56 0
-56 54 0
-4 57 -53 0
4 -57 0
53 -57 0
-58 -22 -57 0
57 22 -58 0
22 -57 58 0
57 -22 58 0
-58 -56 -59 0
56 -59 58 0
59 -56 58 0
56 -58 59 0
-58 -56 60 0
-60 58 0
56 -60 0
61 -22 -57 0
22 -61 0
57 -61 0
-62 61 60 0
-60 62 0
62 -61 0
63 -10 -53 0
10 -63 0
53 -63 0
-30 -64 -63 0
63 -64 30 0
64 30 -63 0
-30 63 64 0
-64 -65 -62 0
64 -65 62 0
64 -62 65 0
65 -64 62 0
66 -64 -62 0
64 -66 0
-66 62 0
-30 -63 67 0
30 -67 0
63 -67 0
66 -68 67 0
68 -66 0
68 -67 0
69 -18 -53 0
18 -69 0
53 -69 0
-70 -69 -38 0
-70 69 38 0
70 -69 38 0
70 -38 69 0
-70 -71 -68 0
68 70 -71 0
-68 70 71 0
-70 68 71 0
-70 -68 72 0
-72 70 0
68 -72 0
-69 -38 73 0
-73 38 0
-73 69 0
73 -74 72 0
74 -72 0
-73 74 0
75 -53 -26 0
-75 26 0
53 -75 0
-46 -75 -76 0
75 -76 46 0
-75 76 46 0
-46 75 76 0
-74 -77 -76 0
74 -77 76 0
-74 76 77 0
74 77 -76 0
78 -74 -76 0
-78 76 0
74 -78 0
-46 -75 79 0
-79 46 0
-79 75 0
78 79 -80 0
-78 80 0
-79 80 0
81 -34 -53 0
34 -81 0
53 -81 0
-82 -81 -51 0
81 -82 51 0
82 -81 51 0
82 81 -51 0
-80 -83 -82 0
80 -83 82 0
-80 82 83 0
80 -82 83 0
-80 84 -82 0
-84 82 0
-84 80 0
-81 -51 85 0
-85 51 0
-85 81 0
-86 84 85 0
-84 86 0
-85 86 0
87 -42 -53 0
-87 42 0
53 -87 0
-52 -87 -88 0
87 52 -88 0
-87 88 52 0
87 -52 88 0
-86 -88 -89 0
86 -89 88 0
89 -86 88 0
86 89 -88 0
-86 90 -88 0
88 -90 0
86 -90 0
91 -52 -87 0
-91 52 0
87 -91 0
91 -92 90 0
92 -90 0
92 -91 0
-1 -93 94 0
1 -94 0
93 -94 0
-95 -59 -94 0
-95 94 59 0
95 -94 59 0
95 -59 94 0
96 -59 -94 0
-96 59 0
-96 94 0
-4 97 -93 0
4 -97 0
93 -97 0
-98 -65 -97 0
-98 65 97 0
65 98 -97 0
97 -65 98 0
-99 -98 -96 0
96 98 -99 0
98 -96 99 0
96 -98 99 0
100 -98 -96 0
-100 98 0
96 -100 0
101 -65 -97 0
65 -101 0
97 -101 0
100 -102 101 0
-100 102 0
102 -101 0
103 -93 -10 0
10 -103 0
93 -103 0
-103 -104 -71 0
71 103 -104 0
-103 104 71 0
104 -71 103 0
-102 -104 -105 0
104 -105 102 0
105 -102 104 0
105 -104 102 0
106 -102 -104 0
-106 104 0
-106 102 0
107 -103 -71 0
-107 71 0
-107 103 0
107 106 -108 0
-106 108 0
-107 108 0
109 -93 -18 0
18 -109 0
93 -109 0
-77 -110 -109 0
77 109 -110 0
77 110 -109 0
110 -77 109 0
-108 -111 -110 0
110 -111 108 0
-108 110 111 0
-110 111 108 0
-108 -110 112 0
110 -112 0
-112 108 0
-77 113 -109 0
77 -113 0
-113 109 0
-114 113 112 0
114 -112 0
-113 114 0
115 -93 -26 0
26 -115 0
93 -115 0
-116 -83 -115 0
115 -116 83 0
-115 83 116 0
115 -83 116 0
-117 -114 -116 0
114 -117 116 0
-114 117 116 0
114 117 -116 0
-114 118 -116 0
-118 116 0
114 -118 0
119 -83 -115 0
-119 83 0
115 -119 0
-120 119 118 0
-118 120 0
-119 120 0
121 -34 -93 0
-121 34 0
93 -121 0
-89 -121 -122 0
89 -122 121 0
89 122 -121 0
-89 122 121 0
-122 -120 -123 0
122 120 -123 0
123 122 -120 0
-122 123 120 0
-122 -120 124 0
122 -124 0
-124 120 0
125 -89 -121 0
89 -125 0
-125 121 0
125 124 -126 0
-124 126 0
-125 126 0
127 -42 -93 0
-127 42 0
93 -127 0
-127 -92 -128 0
92 127 -128 0
-127 92 128 0
128 -92 127 0
-129 -128 -126 0
-129 128 126 0
129 128 -126 0
129 -128 126 0
130 -128 -126 0
-130 128 0
-130 126 0
-127 -92 131 0
92 -131 0
-131 127 0
130 131 -132 0
-130 132 0
-131 132 0
-1 134 -133 0
-134 1 0
-134 133 0
-134 -135 -99 0
134 -135 99 0
-134 135 99 0
134 135 -99 0
136 -134 -99 0
-136 99 0
-136 134 0
-4 137 -133 0
-137 4 0
-137 133 0
-138 -137 -105 0
105 -138 137 0
105 -137 138 0
138 137 -105 0
-136 -138 -139 0
136 138 -139 0
-136 138 139 0
136 -138 139 0
-136 -138 140 0
138 -140 0
136 -140 0
-137 141 -105 0
105 -141 0
137 -141 0
-142 140 141 0
142 -140 0
142 -141 0
143 -133 -10 0
10 -143 0
133 -143 0
-111 -143 -144 0
143 111 -144 0
144 -143 111 0
143 -111 144 0
-142 -145 -144 0
-145 144 142 0
-142 144 145 0
142 145 -144 0
-142 146 -144 0
144 -146 0
142 -146 0
147 -111 -143 0
-147 111 0
143 -147 0
147 -148 146 0
148 -146 0
-147 148 0
-133 -18 149 0
18 -149 0
-149 133 0
-149 -150 -117 0
-150 117 149 0
150 -149 117 0
150 -117 149 0
-148 -151 -150 0
150 -151 148 0
150 -148 151 0
151 -150 148 0
-148 -150 152 0
150 -152 0
148 -152 0
153 -149 -117 0
117 -153 0
-153 149 0
153 -154 152 0
154 -152 0
154 -153 0
155 -133 -26 0
-155 26 0
133 -155 0
-156 -155 -123 0
123 -156 155 0
123 156 -155 0
156 155 -123 0
-156 -154 -157 0
154 156 -157 0
156 -154 157 0
154 -156 157 0
158 -156 -154 0
-158 156 0
-158 154 0
159 -155 -123 0
-159 123 0
-159 155 0
159 -160 158 0
-158 160 0
-159 160 0
161 -34 -133 0
34 -161 0
133 -161 0
-129 -161 -162 0
129 161 -162 0
129 162 -161 0
161 -129 162 0
-160 -163 -162 0
162 160 -163 0
162 -160 163 0
163 160 -162 0
-160 164 -162 0
162 -164 0
160 -164 0
165 -129 -161 0
129 -165 0
161 -165 0
165 -166 164 0
166 -164 0
166 -165 0
167 -42 -133 0
-167 42 0
133 -167 0
-168 -167 -132 0
167 132 -168 0
132 -167 168 0
167 -132 168 0
-166 -168 -169 0
166 -169 168 0
169 -166 168 0
169 166 -168 0
-166 -168 170 0
-170 168 0
166 -170 0
-167 -132 171 0
132 -171 0
167 -171 0
170 171 -172 0
172 -170 0
172 -171 0
-1 174 -173 0
-174 1 0
173 -174 0
-174 -139 -175 0
-175 174 139 0
-174 175 139 0
-139 175 174 0
-174 -139 176 0
-176 139 0
174 -176 0
-4 -173 177 0
-177 4 0
173 -177 0
-145 -178 -177 0
177 145 -178 0
178 -177 145 0
-145 177 178 0
-178 -179 -176 0
178 -179 176 0
179 178 -176 0
179 -178 176 0
180 -178 -176 0
178 -180 0
176 -180 0
-145 -177 181 0
-181 145 0
-181 177 0
181 180 -182 0
-180 182 0
-181 182 0
-173 -10 183 0
10 -183 0
173 -183 0
-184 -151 -183 0
151 -184 183 0
151 -183 184 0
-151 184 183 0
-185 -184 -182 0
-185 182 184 0
185 -182 184 0
185 -184 182 0
-184 186 -182 0
-186 184 0
-186 182 0
-151 187 -183 0
151 -187 0
-187 183 0
187 -188 186 0
-186 188 0
-187 188 0
189 -173 -18 0
18 -189 0
173 -189 0
-189 -157 -190 0
189 157 -190 0
190 -189 157 0
190 189 -157 0
-191 -188 -190 0
190 -191 188 0
190 191 -188 0
191 188 -190 0
192 -188 -190 0
190 -192 0
-192 188 0
-189 193 -157 0
-193 157 0
-193 189 0
192 193 -194 0
-192 194 0
194 -193 0
195 -173 -26 0
-195 26 0
173 -195 0
-195 -163 -196 0
163 195 -196 0
163 -195 196 0
195 -163 196 0
-197 -194 -196 0
-197 194 196 0
197 -194 196 0
197 194 -196 0
198 -194 -196 0
-198 196 0
-198 194 0
-195 199 -163 0
163 -199 0
-199 195 0
199 -200 198 0
200 -198 0
-199 200 0
-173 -34 201 0
34 -201 0
173 -201 0
-202 -169 -201 0
169 201 -202 0
169 202 -201 0
202 201 -169 0
-200 -202 -203 0
202 200 -203 0
202 -200 203 0
200 203 -202 0
-200 -202 204 0
202 -204 0
200 -204 0
205 -169 -201 0
169 -205 0
-205 201 0
-206 205 204 0
206 -204 0
-205 206 0
-173 -42 207 0
42 -207 0
173 -207 0
-208 -207 -172 0
172 -208 207 0
172 208 -207 0
208 207 -172 0
-206 -208 -209 0
208 206 -209 0
208 -206 209 0
206 -208 209 0
-206 -208 210 0
208 -210 0
206 -210 0
211 -207 -172 0
172 -211 0
-211 207 0
-212 211 210 0
212 -210 0
212 -211 0
-1 214 -213 0
-214 1 0
-214 213 0
-214 -179 -215 0
179 -215 214 0
179 215 -214 0
-179 214 215 0
-214 -179 216 0
179 -216 0
-216 214 0
-4 -213 217 0
4 -217 0
213 -217 0
-218 -185 -217 0
217 185 -218 0
185 218 -217 0
217 -185 218 0
-216 -219 -218 0
-219 218 216 0
-216 219 218 0
-218 219 216 0
-216 -218 220 0
-220 218 0
-220 216 0
221 -185 -217 0
-221 185 0
217 -221 0
221 -222 220 0
-220 222 0
-221 222 0
-213 223 -10 0
10 -223 0
213 -223 0
-191 -223 -224 0
191 223 -224 0
191 -223 224 0
-191 223 224 0
-225 -224 -222 0
-225 224 222 0
225 224 -222 0
225 -224 222 0
-224 -222 226 0
224 -226 0
-226 222 0
227 -191 -223 0
-227 191 0
-227 223 0
227 -228 226 0
-226 228 0
-227 228 0
229 -213 -18 0
18 -229 0
213 -229 0
-197 -229 -230 0
197 229 -230 0
197 230 -229 0
230 -197 229 0
-228 -230 -231 0
230 228 -231 0
230 -228 231 0
231 228 -230 0
-228 -230 232 0
230 -232 0
-232 228 0
-197 -229 233 0
197 -233 0
229 -233 0
-234 233 232 0
-232 234 0
234 -233 0
-213 235 -26 0
-235 26 0
-235 213 0
-235 -236 -203 0
-236 235 203 0
-235 203 236 0
235 236 -203 0
-234 -236 -237 0
-237 234 236 0
-234 237 236 0
-236 234 237 0
-234 -236 238 0
-238 236 0
-238 234 0
-235 239 -203 0
-239 203 0
-239 235 0
-240 239 238 0
-238 240 0
-239 240 0
241 -213 -34 0
34 -241 0
213 -241 0
-242 -209 -241 0
241 -242 209 0
242 -241 209 0
241 -209 242 0
-242 -240 -243 0
242 240 -243 0
-240 242 243 0
-242 240 243 0
-242 -240 244 0
242 -244 0
-244 240 0
-209 245 -241 0
-245 209 0
241 -245 0
-246 245 244 0
246 -244 0
-245 246 0
247 -213 -42 0
-247 42 0
213 -247 0
-212 -248 -247 0
247 212 -248 0
212 248 -247 0
247 -212 248 0
-246 -248 -249 0
246 -249 248 0
-246 249 248 0
246 -248 249 0
-246 -248 250 0
-250 248 0
246 -250 0
-212 251 -247 0
212 -251 0
247 -251 0
-252 251 250 0
-250 252 0
-251 252 0
3 0
8 0
-55 0
-95 0
135 0
-175 0
-215 0
-219 0
-225 0
231 0
237 0
-243 0
249 0
252 0
