p cnf 336 1080
-1 -2 3 0
1 -3 0
2 -3 0
-4 -2 5 0
4 -5 0
2 -5 0
-1 -6 7 0
1 -7 0
6 -7 0
-5 -7 -8 0
5 7 -8 0
5 -7 8 0
-5 7 8 0
-5 -7 9 0
5 -9 0
7 -9 0
-10 -2 11 0
10 -11 0
2 -11 0
-4 -6 12 0
4 -12 0
6 -12 0
-11 -12 -13 0
11 12 -13 0
11 -12 13 0
-11 12 13 0
-13 -9 -14 0
13 9 -14 0
13 -9 14 0
-13 9 14 0
-13 -9 15 0
13 -15 0
9 -15 0
-11 -12 16 0
11 -16 0
12 -16 0
15 16 -17 0
-15 17 0
-16 17 0
-18 -2 19 0
18 -19 0
2 -19 0
-10 -6 20 0
10 -20 0
6 -20 0
-19 -20 -21 0
19 20 -21 0
19 -20 21 0
-19 20 21 0
-21 -17 -22 0
21 17 -22 0
21 -17 22 0
-21 17 22 0
-21 -17 23 0
21 -23 0
17 -23 0
-19 -20 24 0
19 -24 0
20 -24 0
23 24 -25 0
-23 25 0
-24 25 0
-26 -2 27 0
26 -27 0
2 -27 0
-18 -6 28 0
18 -28 0
6 -28 0
-27 -28 -29 0
27 28 -29 0
27 -28 29 0
-27 28 29 0
-29 -25 -30 0
29 25 -30 0
29 -25 30 0
-29 25 30 0
-29 -25 31 0
29 -31 0
25 -31 0
-27 -28 32 0
27 -32 0
28 -32 0
31 32 -33 0
-31 33 0
-32 33 0
-34 -2 35 0
34 -35 0
2 -35 0
-26 -6 36 0
26 -36 0
6 -36 0
-35 -36 -37 0
35 36 -37 0
35 -36 37 0
-35 36 37 0
-37 -33 -38 0
37 33 -38 0
37 -33 38 0
-37 33 38 0
-37 -33 39 0
37 -39 0
33 -39 0
-35 -36 40 0
35 -40 0
36 -40 0
39 40 -41 0
-39 41 0
-40 41 0
-42 -2 43 0
42 -43 0
2 -43 0
-34 -6 44 0
34 -44 0
6 -44 0
-43 -44 -45 0
43 44 -45 0
43 -44 45 0
-43 44 45 0
-45 -41 -46 0
45 41 -46 0
45 -41 46 0
-45 41 46 0
-45 -41 47 0
45 -47 0
41 -47 0
-43 -44 48 0
43 -48 0
44 -48 0
47 48 -49 0
-47 49 0
-48 49 0
-50 -2 51 0
50 -51 0
2 -51 0
-42 -6 52 0
42 -52 0
6 -52 0
-51 -52 -53 0
51 52 -53 0
51 -52 53 0
-51 52 53 0
-53 -49 -54 0
53 49 -54 0
53 -49 54 0
-53 49 54 0
-53 -49 55 0
53 -55 0
49 -55 0
-51 -52 56 0
51 -56 0
52 -56 0
55 56 -57 0
-55 57 0
-56 57 0
-50 -6 58 0
50 -58 0
6 -58 0
-57 -58 -59 0
57 58 -59 0
57 -58 59 0
-57 58 59 0
-57 -58 60 0
57 -60 0
58 -60 0
-1 -61 62 0
1 -62 0
61 -62 0
-14 -62 -63 0
14 62 -63 0
14 -62 63 0
-14 62 63 0
-14 -62 64 0
14 -64 0
62 -64 0
-4 -61 65 0
4 -65 0
61 -65 0
-22 -65 -66 0
22 65 -66 0
22 -65 66 0
-22 65 66 0
-66 -64 -67 0
66 64 -67 0
66 -64 67 0
-66 64 67 0
-66 -64 68 0
66 -68 0
64 -68 0
-22 -65 69 0
22 -69 0
65 -69 0
68 69 -70 0
-68 70 0
-69 70 0
-10 -61 71 0
10 -71 0
61 -71 0
-30 -71 -72 0
30 71 -72 0
30 -71 72 0
-30 71 72 0
-72 -70 -73 0
72 70 -73 0
72 -70 73 0
-72 70 73 0
-72 -70 74 0
72 -74 0
70 -74 0
-30 -71 75 0
30 -75 0
71 -75 0
74 75 -76 0
-74 76 0
-75 76 0
-18 -61 77 0
18 -77 0
61 -77 0
-38 -77 -78 0
38 77 -78 0
38 -77 78 0
-38 77 78 0
-78 -76 -79 0
78 76 -79 0
78 -76 79 0
-78 76 79 0
-78 -76 80 0
78 -80 0
76 -80 0
-38 -77 81 0
38 -81 0
77 -81 0
80 81 -82 0
-80 82 0
-81 82 0
-26 -61 83 0
26 -83 0
61 -83 0
-46 -83 -84 0
46 83 -84 0
46 -83 84 0
-46 83 84 0
-84 -82 -85 0
84 82 -85 0
84 -82 85 0
-84 82 85 0
-84 -82 86 0
84 -86 0
82 -86 0
-46 -83 87 0
46 -87 0
83 -87 0
86 87 -88 0
-86 88 0
-87 88 0
-34 -61 89 0
34 -89 0
61 -89 0
-54 -89 -90 0
54 89 -90 0
54 -89 90 0
-54 89 90 0
-90 -88 -91 0
90 88 -91 0
90 -88 91 0
-90 88 91 0
-90 -88 92 0
90 -92 0
88 -92 0
-54 -89 93 0
54 -93 0
89 -93 0
92 93 -94 0
-92 94 0
-93 94 0
-42 -61 95 0
42 -95 0
61 -95 0
-59 -95 -96 0
59 95 -96 0
59 -95 96 0
-59 95 96 0
-96 -94 -97 0
96 94 -97 0
96 -94 97 0
-96 94 97 0
-96 -94 98 0
96 -98 0
94 -98 0
-59 -95 99 0
59 -99 0
95 -99 0
98 99 -100 0
-98 100 0
-99 100 0
-50 -61 101 0
50 -101 0
61 -101 0
-60 -101 -102 0
60 101 -102 0
60 -101 102 0
-60 101 102 0
-102 -100 -103 0
102 100 -103 0
102 -100 103 0
-102 100 103 0
-102 -100 104 0
102 -104 0
100 -104 0
-60 -101 105 0
60 -105 0
101 -105 0
104 105 -106 0
-104 106 0
-105 106 0
-1 -107 108 0
1 -108 0
107 -108 0
-67 -108 -109 0
67 108 -109 0
67 -108 109 0
-67 108 109 0
-67 -108 110 0
67 -110 0
108 -110 0
-4 -107 111 0
4 -111 0
107 -111 0
-73 -111 -112 0
73 111 -112 0
73 -111 112 0
-73 111 112 0
-112 -110 -113 0
112 110 -113 0
112 -110 113 0
-112 110 113 0
-112 -110 114 0
112 -114 0
110 -114 0
-73 -111 115 0
73 -115 0
111 -115 0
114 115 -116 0
-114 116 0
-115 116 0
-10 -107 117 0
10 -117 0
107 -117 0
-79 -117 -118 0
79 117 -118 0
79 -117 118 0
-79 117 118 0
-118 -116 -119 0
118 116 -119 0
118 -116 119 0
-118 116 119 0
-118 -116 120 0
118 -120 0
116 -120 0
-79 -117 121 0
79 -121 0
117 -121 0
120 121 -122 0
-120 122 0
-121 122 0
-18 -107 123 0
18 -123 0
107 -123 0
-85 -123 -124 0
85 123 -124 0
85 -123 124 0
-85 123 124 0
-124 -122 -125 0
124 122 -125 0
124 -122 125 0
-124 122 125 0
-124 -122 126 0
124 -126 0
122 -126 0
-85 -123 127 0
85 -127 0
123 -127 0
126 127 -128 0
-126 128 0
-127 128 0
-26 -107 129 0
26 -129 0
107 -129 0
-91 -129 -130 0
91 129 -130 0
91 -129 130 0
-91 129 130 0
-130 -128 -131 0
130 128 -131 0
130 -128 131 0
-130 128 131 0
-130 -128 132 0
130 -132 0
128 -132 0
-91 -129 133 0
91 -133 0
129 -133 0
132 133 -134 0
-132 134 0
-133 134 0
-34 -107 135 0
34 -135 0
107 -135 0
-97 -135 -136 0
97 135 -136 0
97 -135 136 0
-97 135 136 0
-136 -134 -137 0
136 134 -137 0
136 -134 137 0
-136 134 137 0
-136 -134 138 0
136 -138 0
134 -138 0
-97 -135 139 0
97 -139 0
135 -139 0
138 139 -140 0
-138 140 0
-139 140 0
-42 -107 141 0
42 -141 0
107 -141 0
-103 -141 -142 0
103 141 -142 0
103 -141 142 0
-103 141 142 0
-142 -140 -143 0
142 140 -143 0
142 -140 143 0
-142 140 143 0
-142 -140 144 0
142 -144 0
140 -144 0
-103 -141 145 0
103 -145 0
141 -145 0
144 145 -146 0
-144 146 0
-145 146 0
-50 -107 147 0
50 -147 0
107 -147 0
-106 -147 -148 0
106 147 -148 0
106 -147 148 0
-106 147 148 0
-148 -146 -149 0
148 146 -149 0
148 -146 149 0
-148 146 149 0
-148 -146 150 0
148 -150 0
146 -150 0
-106 -147 151 0
106 -151 0
147 -151 0
150 151 -152 0
-150 152 0
-151 152 0
-1 -153 154 0
1 -154 0
153 -154 0
-113 -154 -155 0
113 154 -155 0
113 -154 155 0
-113 154 155 0
-113 -154 156 0
113 -156 0
154 -156 0
-4 -153 157 0
4 -157 0
153 -157 0
-119 -157 -158 0
119 157 -158 0
119 -157 158 0
-119 157 158 0
-158 -156 -159 0
158 156 -159 0
158 -156 159 0
-158 156 159 0
-158 -156 160 0
158 -160 0
156 -160 0
-119 -157 161 0
119 -161 0
157 -161 0
160 161 -162 0
-160 162 0
-161 162 0
-10 -153 163 0
10 -163 0
153 -163 0
-125 -163 -164 0
125 163 -164 0
125 -163 164 0
-125 163 164 0
-164 -162 -165 0
164 162 -165 0
164 -162 165 0
-164 162 165 0
-164 -162 166 0
164 -166 0
162 -166 0
-125 -163 167 0
125 -167 0
163 -167 0
166 167 -168 0
-166 168 0
-167 168 0
-18 -153 169 0
18 -169 0
153 -169 0
-131 -169 -170 0
131 169 -170 0
131 -169 170 0
-131 169 170 0
-170 -168 -171 0
170 168 -171 0
170 -168 171 0
-170 168 171 0
-170 -168 172 0
170 -172 0
168 -172 0
-131 -169 173 0
131 -173 0
169 -173 0
172 173 -174 0
-172 174 0
-173 174 0
-26 -153 175 0
26 -175 0
153 -175 0
-137 -175 -176 0
137 175 -176 0
137 -175 176 0
-137 175 176 0
-176 -174 -177 0
176 174 -177 0
176 -174 177 0
-176 174 177 0
-176 -174 178 0
176 -178 0
174 -178 0
-137 -175 179 0
137 -179 0
175 -179 0
178 179 -180 0
-178 180 0
-179 180 0
-34 -153 181 0
34 -181 0
153 -181 0
-143 -181 -182 0
143 181 -182 0
143 -181 182 0
-143 181 182 0
-182 -180 -183 0
182 180 -183 0
182 -180 183 0
-182 180 183 0
-182 -180 184 0
182 -184 0
180 -184 0
-143 -181 185 0
143 -185 0
181 -185 0
184 185 -186 0
-184 186 0
-185 186 0
-42 -153 187 0
42 -187 0
153 -187 0
-149 -187 -188 0
149 187 -188 0
149 -187 188 0
-149 187 188 0
-188 -186 -189 0
188 186 -189 0
188 -186 189 0
-188 186 189 0
-188 -186 190 0
188 -190 0
186 -190 0
-149 -187 191 0
149 -191 0
187 -191 0
190 191 -192 0
-190 192 0
-191 192 0
-50 -153 193 0
50 -193 0
153 -193 0
-152 -193 -194 0
152 193 -194 0
152 -193 194 0
-152 193 194 0
-194 -192 -195 0
194 192 -195 0
194 -192 195 0
-194 192 195 0
-194 -192 196 0
194 -196 0
192 -196 0
-152 -193 197 0
152 -197 0
193 -197 0
196 197 -198 0
-196 198 0
-197 198 0
-1 -199 200 0
1 -200 0
199 -200 0
-159 -200 -201 0
159 200 -201 0
159 -200 201 0
-159 200 201 0
-159 -200 202 0
159 -202 0
200 -202 0
-4 -199 203 0
4 -203 0
199 -203 0
-165 -203 -204 0
165 203 -204 0
165 -203 204 0
-165 203 204 0
-204 -202 -205 0
204 202 -205 0
204 -202 205 0
-204 202 205 0
-204 -202 206 0
204 -206 0
202 -206 0
-165 -203 207 0
165 -207 0
203 -207 0
206 207 -208 0
-206 208 0
-207 208 0
-10 -199 209 0
10 -209 0
199 -209 0
-171 -209 -210 0
171 209 -210 0
171 -209 210 0
-171 209 210 0
-210 -208 -211 0
210 208 -211 0
210 -208 211 0
-210 208 211 0
-210 -208 212 0
210 -212 0
208 -212 0
-171 -209 213 0
171 -213 0
209 -213 0
212 213 -214 0
-212 214 0
-213 214 0
-18 -199 215 0
18 -215 0
199 -215 0
-177 -215 -216 0
177 215 -216 0
177 -215 216 0
-177 215 216 0
-216 -214 -217 0
216 214 -217 0
216 -214 217 0
-216 214 217 0
-216 -214 218 0
216 -218 0
214 -218 0
-177 -215 219 0
177 -219 0
215 -219 0
218 219 -220 0
-218 220 0
-219 220 0
-26 -199 221 0
26 -221 0
199 -221 0
-183 -221 -222 0
183 221 -222 0
183 -221 222 0
-183 221 222 0
-222 -220 -223 0
222 220 -223 0
222 -220 223 0
-222 220 223 0
-222 -220 224 0
222 -224 0
220 -224 0
-183 -221 225 0
183 -225 0
221 -225 0
224 225 -226 0
-224 226 0
-225 226 0
-34 -199 227 0
34 -227 0
199 -227 0
-189 -227 -228 0
189 227 -228 0
189 -227 228 0
-189 227 228 0
-228 -226 -229 0
228 226 -229 0
228 -226 229 0
-228 226 229 0
-228 -226 230 0
228 -230 0
226 -230 0
-189 -227 231 0
189 -231 0
227 -231 0
230 231 -232 0
-230 232 0
-231 232 0
-42 -199 233 0
42 -233 0
199 -233 0
-195 -233 -234 0
195 233 -234 0
195 -233 234 0
-195 233 234 0
-234 -232 -235 0
234 232 -235 0
234 -232 235 0
-234 232 235 0
-234 -232 236 0
234 -236 0
232 -236 0
-195 -233 237 0
195 -237 0
233 -237 0
236 237 -238 0
-236 238 0
-237 238 0
-50 -199 239 0
50 -239 0
199 -239 0
-198 -239 -240 0
198 239 -240 0
198 -239 240 0
-198 239 240 0
-240 -238 -241 0
240 238 -241 0
240 -238 241 0
-240 238 241 0
-240 -238 242 0
240 -242 0
238 -242 0
-198 -239 243 0
198 -243 0
239 -243 0
242 243 -244 0
-242 244 0
-243 244 0
-1 -245 246 0
1 -246 0
245 -246 0
-205 -246 -247 0
205 246 -247 0
205 -246 247 0
-205 246 247 0
-205 -246 248 0
205 -248 0
246 -248 0
-4 -245 249 0
4 -249 0
245 -249 0
-211 -249 -250 0
211 249 -250 0
211 -249 250 0
-211 249 250 0
-250 -248 -251 0
250 248 -251 0
250 -248 251 0
-250 248 251 0
-250 -248 252 0
250 -252 0
248 -252 0
-211 -249 253 0
211 -253 0
249 -253 0
252 253 -254 0
-252 254 0
-253 254 0
-10 -245 255 0
10 -255 0
245 -255 0
-217 -255 -256 0
217 255 -256 0
217 -255 256 0
-217 255 256 0
-256 -254 -257 0
256 254 -257 0
256 -254 257 0
-256 254 257 0
-256 -254 258 0
256 -258 0
254 -258 0
-217 -255 259 0
217 -259 0
255 -259 0
258 259 -260 0
-258 260 0
-259 260 0
-18 -245 261 0
18 -261 0
245 -261 0
-223 -261 -262 0
223 261 -262 0
223 -261 262 0
-223 261 262 0
-262 -260 -263 0
262 260 -263 0
262 -260 263 0
-262 260 263 0
-262 -260 264 0
262 -264 0
260 -264 0
-223 -261 265 0
223 -265 0
261 -265 0
264 265 -266 0
-264 266 0
-265 266 0
-26 -245 267 0
26 -267 0
245 -267 0
-229 -267 -268 0
229 267 -268 0
229 -267 268 0
-229 267 268 0
-268 -266 -269 0
268 266 -269 0
268 -266 269 0
-268 266 269 0
-268 -266 270 0
268 -270 0
266 -270 0
-229 -267 271 0
229 -271 0
267 -271 0
270 271 -272 0
-270 272 0
-271 272 0
-34 -245 273 0
34 -273 0
245 -273 0
-235 -273 -274 0
235 273 -274 0
235 -273 274 0
-235 273 274 0
-274 -272 -275 0
274 272 -275 0
274 -272 275 0
-274 272 275 0
-274 -272 276 0
274 -276 0
272 -276 0
-235 -273 277 0
235 -277 0
273 -277 0
276 277 -278 0
-276 278 0
-277 278 0
-42 -245 279 0
42 -279 0
245 -279 0
-241 -279 -280 0
241 279 -280 0
241 -279 280 0
-241 279 280 0
-280 -278 -281 0
280 278 -281 0
280 -278 281 0
-280 278 281 0
-280 -278 282 0
280 -282 0
278 -282 0
-241 -279 283 0
241 -283 0
279 -283 0
282 283 -284 0
-282 284 0
-283 284 0
-50 -245 285 0
50 -285 0
245 -285 0
-244 -285 -286 0
244 285 -286 0
244 -285 286 0
-244 285 286 0
-286 -284 -287 0
286 284 -287 0
286 -284 287 0
-286 284 287 0
-286 -284 288 0
286 -288 0
284 -288 0
-244 -285 289 0
244 -289 0
285 -289 0
288 289 -290 0
-288 290 0
-289 290 0
-1 -291 292 0
1 -292 0
291 -292 0
-251 -292 -293 0
251 292 -293 0
251 -292 293 0
-251 292 293 0
-251 -292 294 0
251 -294 0
292 -294 0
-4 -291 295 0
4 -295 0
291 -295 0
-257 -295 -296 0
257 295 -296 0
257 -295 296 0
-257 295 296 0
-296 -294 -297 0
296 294 -297 0
296 -294 297 0
-296 294 297 0
-296 -294 298 0
296 -298 0
294 -298 0
-257 -295 299 0
257 -299 0
295 -299 0
298 299 -300 0
-298 300 0
-299 300 0
-10 -291 301 0
10 -301 0
291 -301 0
-263 -301 -302 0
263 301 -302 0
263 -301 302 0
-263 301 302 0
-302 -300 -303 0
302 300 -303 0
302 -300 303 0
-302 300 303 0
-302 -300 304 0
302 -304 0
300 -304 0
-263 -301 305 0
263 -305 0
301 -305 0
304 305 -306 0
-304 306 0
-305 306 0
-18 -291 307 0
18 -307 0
291 -307 0
-269 -307 -308 0
269 307 -308 0
269 -307 308 0
-269 307 308 0
-308 -306 -309 0
308 306 -309 0
308 -306 309 0
-308 306 309 0
-308 -306 310 0
308 -310 0
306 -310 0
-269 -307 311 0
269 -311 0
307 -311 0
310 311 -312 0
-310 312 0
-311 312 0
-26 -291 313 0
26 -313 0
291 -313 0
-275 -313 -314 0
275 313 -314 0
275 -313 314 0
-275 313 314 0
-314 -312 -315 0
314 312 -315 0
314 -312 315 0
-314 312 315 0
-314 -312 316 0
314 -316 0
312 -316 0
-275 -313 317 0
275 -317 0
313 -317 0
316 317 -318 0
-316 318 0
-317 318 0
-34 -291 319 0
34 -319 0
291 -319 0
-281 -319 -320 0
281 319 -320 0
281 -319 320 0
-281 319 320 0
-320 -318 -321 0
320 318 -321 0
320 -318 321 0
-320 318 321 0
-320 -318 322 0
320 -322 0
318 -322 0
-281 -319 323 0
281 -323 0
319 -323 0
322 323 -324 0
-322 324 0
-323 324 0
-42 -291 325 0
42 -325 0
291 -325 0
-287 -325 -326 0
287 325 -326 0
287 -325 326 0
-287 325 326 0
-326 -324 -327 0
326 324 -327 0
326 -324 327 0
-326 324 327 0
-326 -324 328 0
326 -328 0
324 -328 0
-287 -325 329 0
287 -329 0
325 -329 0
328 329 -330 0
-328 330 0
-329 330 0
-50 -291 331 0
50 -331 0
291 -331 0
-290 -331 -332 0
290 331 -332 0
290 -331 332 0
-290 331 332 0
-332 -330 -333 0
332 330 -333 0
332 -330 333 0
-332 330 333 0
-332 -330 334 0
332 -334 0
330 -334 0
-290 -331 335 0
290 -335 0
331 -335 0
334 335 -336 0
-334 336 0
-335 336 0
3 0
8 0
63 0
109 0
-155 0
-201 0
-247 0
293 0
-297 0
-303 0
-309 0
-315 0
-321 0
-327 0
-333 0
-336 0
