p cnf 336 1080
-2 3 -1 0
1 -3 0
-3 2 0
5 -4 -2 0
-5 4 0
-5 2 0
-6 7 -1 0
1 -7 0
6 -7 0
-8 -7 -5 0
-8 5 7 0
8 5 -7 0
8 -5 7 0
-7 9 -5 0
-9 5 0
-9 7 0
-10 11 -2 0
-11 10 0
-11 2 0
-6 -4 12 0
-12 4 0
-12 6 0
-12 -11 -13 0
11 -13 12 0
-12 11 13 0
-11 13 12 0
-9 -14 -13 0
-14 9 13 0
-9 14 13 0
14 9 -13 0
-9 15 -13 0
-15 13 0
9 -15 0
-12 -11 16 0
11 -16 0
-16 12 0
15 16 -17 0
-15 17 0
-16 17 0
-2 19 -18 0
-19 18 0
-19 2 0
-10 -6 20 0
10 -20 0
6 -20 0
-21 -19 -20 0
-21 19 20 0
21 19 -20 0
21 -19 20 0
-17 -21 -22 0
21 -22 17 0
21 22 -17 0
22 -21 17 0
23 -17 -21 0
21 -23 0
-23 17 0
-19 24 -20 0
-24 19 0
-24 20 0
23 24 -25 0
25 -23 0
-24 25 0
-26 27 -2 0
26 -27 0
-27 2 0
-6 28 -18 0
-28 18 0
6 -28 0
-27 -29 -28 0
27 -29 28 0
27 29 -28 0
-27 28 29 0
-30 -29 -25 0
-30 25 29 0
30 29 -25 0
-29 25 30 0
-29 31 -25 0
29 -31 0
25 -31 0
-27 32 -28 0
27 -32 0
-32 28 0
-33 32 31 0
33 -31 0
-32 33 0
35 -2 -34 0
-35 34 0
-35 2 0
-26 -6 36 0
26 -36 0
-36 6 0
-36 -37 -35 0
36 35 -37 0
-36 35 37 0
36 37 -35 0
-38 -37 -33 0
37 -38 33 0
37 -33 38 0
-37 33 38 0
39 -37 -33 0
37 -39 0
-39 33 0
40 -36 -35 0
-40 35 0
36 -40 0
40 39 -41 0
-39 41 0
-40 41 0
-42 43 -2 0
-43 42 0
-43 2 0
-6 44 -34 0
-44 34 0
-44 6 0
-45 -44 -43 0
-45 44 43 0
-44 43 45 0
44 -43 45 0
-45 -46 -41 0
-46 45 41 0
46 -41 45 0
-45 46 41 0
-45 -41 47 0
-47 45 0
-47 41 0
-44 -43 48 0
-48 43 0
44 -48 0
48 -49 47 0
49 -47 0
49 -48 0
-50 51 -2 0
-51 50 0
-51 2 0
-42 -6 52 0
-52 42 0
-52 6 0
-52 -51 -53 0
51 -53 52 0
-52 51 53 0
-51 53 52 0
-49 -53 -54 0
49 53 -54 0
-49 53 54 0
54 49 -53 0
55 -49 -53 0
53 -55 0
49 -55 0
-52 -51 56 0
51 -56 0
-56 52 0
55 -57 56 0
57 -55 0
57 -56 0
-50 -6 58 0
-58 50 0
-58 6 0
-59 -58 -57 0
57 -59 58 0
57 -58 59 0
-57 58 59 0
-58 -57 60 0
57 -60 0
-60 58 0
-61 62 -1 0
1 -62 0
-62 61 0
-63 -62 -14 0
-63 14 62 0
-62 14 63 0
-14 62 63 0
64 -62 -14 0
-64 14 0
-64 62 0
65 -61 -4 0
-65 4 0
-65 61 0
-65 -22 -66 0
65 22 -66 0
-65 22 66 0
65 66 -22 0
-64 -67 -66 0
64 -67 66 0
-64 66 67 0
64 67 -66 0
68 -64 -66 0
-68 66 0
64 -68 0
-65 -22 69 0
22 -69 0
65 -69 0
-70 69 68 0
-68 70 0
70 -69 0
-10 -61 71 0
10 -71 0
61 -71 0
-72 -30 -71 0
-72 30 71 0
72 30 -71 0
72 -30 71 0
-70 -73 -72 0
72 -73 70 0
72 73 -70 0
73 -72 70 0
-70 74 -72 0
72 -74 0
-74 70 0
75 -30 -71 0
-75 30 0
-75 71 0
-76 74 75 0
-74 76 0
-75 76 0
77 -61 -18 0
-77 18 0
-77 61 0
-77 -38 -78 0
77 38 -78 0
-77 38 78 0
77 -38 78 0
-76 -78 -79 0
76 78 -79 0
-76 79 78 0
-78 79 76 0
-76 -78 80 0
78 -80 0
76 -80 0
81 -77 -38 0
-81 38 0
77 -81 0
81 80 -82 0
82 -80 0
82 -81 0
83 -26 -61 0
26 -83 0
61 -83 0
-46 -84 -83 0
83 -84 46 0
84 -83 46 0
83 -46 84 0
-84 -85 -82 0
82 -85 84 0
85 84 -82 0
82 85 -84 0
-84 86 -82 0
-86 84 0
82 -86 0
-46 -83 87 0
-87 46 0
83 -87 0
87 -88 86 0
88 -86 0
88 -87 0
89 -61 -34 0
-89 34 0
-89 61 0
-89 -90 -54 0
54 89 -90 0
54 90 -89 0
89 90 -54 0
-90 -91 -88 0
88 90 -91 0
91 90 -88 0
-90 91 88 0
-90 92 -88 0
-92 90 0
-92 88 0
-89 93 -54 0
54 -93 0
89 -93 0
93 92 -94 0
-92 94 0
94 -93 0
-42 -61 95 0
-95 42 0
61 -95 0
-96 -59 -95 0
-96 59 95 0
96 -95 59 0
96 -59 95 0
-97 -96 -94 0
96 -97 94 0
96 97 -94 0
94 -96 97 0
98 -96 -94 0
96 -98 0
94 -98 0
99 -59 -95 0
-99 59 0
-99 95 0
99 98 -100 0
100 -98 0
100 -99 0
-50 -61 101 0
-101 50 0
-101 61 0
-102 -101 -60 0
-102 101 60 0
-101 60 102 0
101 -60 102 0
-102 -100 -103 0
100 -103 102 0
-100 103 102 0
-102 103 100 0
-102 -100 104 0
-104 102 0
-104 100 0
-101 -60 105 0
-105 60 0
101 -105 0
104 -106 105 0
-104 106 0
106 -105 0
108 -107 -1 0
1 -108 0
107 -108 0
-109 -67 -108 0
108 -109 67 0
109 -108 67 0
109 108 -67 0
110 -67 -108 0
-110 67 0
108 -110 0
111 -107 -4 0
-111 4 0
107 -111 0
-112 -73 -111 0
73 -112 111 0
73 -111 112 0
111 -73 112 0
-112 -110 -113 0
112 -113 110 0
112 113 -110 0
-112 113 110 0
-112 114 -110 0
112 -114 0
-114 110 0
-73 -111 115 0
73 -115 0
111 -115 0
-116 114 115 0
-114 116 0
116 -115 0
-10 -107 117 0
-117 10 0
-117 107 0
-117 -118 -79 0
-118 79 117 0
-117 79 118 0
118 117 -79 0
-118 -116 -119 0
116 -119 118 0
-116 119 118 0
-118 119 116 0
-118 -116 120 0
-120 118 0
-120 116 0
-117 121 -79 0
-121 79 0
-121 117 0
-122 120 121 0
-120 122 0
-121 122 0
123 -107 -18 0
-123 18 0
107 -123 0
-124 -123 -85 0
-124 85 123 0
124 85 -123 0
124 123 -85 0
-124 -125 -122 0
124 122 -125 0
124 125 -122 0
-124 125 122 0
-124 126 -122 0
124 -126 0
-126 122 0
127 -123 -85 0
-127 85 0
-127 123 0
-128 127 126 0
-126 128 0
-127 128 0
-26 -107 129 0
26 -129 0
107 -129 0
-130 -129 -91 0
-130 91 129 0
130 91 -129 0
130 -91 129 0
-130 -131 -128 0
130 -131 128 0
130 131 -128 0
-130 131 128 0
-130 -128 132 0
130 -132 0
-132 128 0
133 -129 -91 0
-133 91 0
-133 129 0
132 133 -134 0
-132 134 0
-133 134 0
-107 135 -34 0
-135 34 0
107 -135 0
-97 -135 -136 0
-136 97 135 0
-135 97 136 0
-97 136 135 0
-137 -136 -134 0
134 -137 136 0
137 -134 136 0
137 -136 134 0
138 -136 -134 0
-138 136 0
-138 134 0
-97 -135 139 0
-139 97 0
-139 135 0
138 139 -140 0
-138 140 0
-139 140 0
-42 141 -107 0
-141 42 0
107 -141 0
-141 -142 -103 0
141 103 -142 0
142 -141 103 0
142 141 -103 0
-142 -140 -143 0
142 140 -143 0
142 -140 143 0
140 -142 143 0
144 -142 -140 0
142 -144 0
140 -144 0
-141 145 -103 0
103 -145 0
141 -145 0
145 -146 144 0
146 -144 0
146 -145 0
-50 147 -107 0
-147 50 0
107 -147 0
-106 -147 -148 0
106 -148 147 0
106 148 -147 0
-106 147 148 0
-146 -148 -149 0
148 -149 146 0
-146 148 149 0
-148 146 149 0
-146 -148 150 0
-150 148 0
-150 146 0
-106 -147 151 0
106 -151 0
-151 147 0
150 151 -152 0
-150 152 0
-151 152 0
-153 154 -1 0
1 -154 0
153 -154 0
-155 -113 -154 0
113 -155 154 0
113 155 -154 0
154 -113 155 0
156 -113 -154 0
113 -156 0
-156 154 0
157 -153 -4 0
-157 4 0
153 -157 0
-157 -119 -158 0
157 119 -158 0
-157 119 158 0
157 -119 158 0
-156 -158 -159 0
156 158 -159 0
-156 159 158 0
-158 156 159 0
160 -156 -158 0
-160 158 0
156 -160 0
-157 -119 161 0
119 -161 0
157 -161 0
-162 160 161 0
162 -160 0
162 -161 0
-10 -153 163 0
10 -163 0
153 -163 0
-164 -163 -125 0
-164 125 163 0
125 164 -163 0
163 164 -125 0
-164 -165 -162 0
162 -165 164 0
-162 165 164 0
-164 165 162 0
-164 166 -162 0
-166 164 0
162 -166 0
167 -163 -125 0
-167 125 0
-167 163 0
166 -168 167 0
-166 168 0
-167 168 0
169 -153 -18 0
-169 18 0
153 -169 0
-131 -170 -169 0
131 169 -170 0
131 -169 170 0
-131 169 170 0
-170 -168 -171 0
168 -171 170 0
-168 171 170 0
-170 168 171 0
-170 -168 172 0
-172 170 0
168 -172 0
-131 -169 173 0
131 -173 0
169 -173 0
-174 173 172 0
174 -172 0
174 -173 0
-26 -153 175 0
26 -175 0
153 -175 0
-175 -137 -176 0
137 -176 175 0
137 -175 176 0
175 176 -137 0
-174 -177 -176 0
174 176 -177 0
-174 176 177 0
177 174 -176 0
-174 178 -176 0
-178 176 0
-178 174 0
-175 179 -137 0
137 -179 0
175 -179 0
-180 178 179 0
180 -178 0
180 -179 0
181 -153 -34 0
-181 34 0
153 -181 0
-182 -181 -143 0
-182 181 143 0
182 -181 143 0
181 182 -143 0
-180 -183 -182 0
-183 180 182 0
-180 183 182 0
183 180 -182 0
-180 -182 184 0
182 -184 0
180 -184 0
185 -181 -143 0
-185 143 0
181 -185 0
185 -186 184 0
186 -184 0
-185 186 0
-42 187 -153 0
-187 42 0
153 -187 0
-187 -188 -149 0
187 -188 149 0
-187 188 149 0
188 187 -149 0
-188 -186 -189 0
188 186 -189 0
188 -186 189 0
-188 186 189 0
190 -188 -186 0
188 -190 0
186 -190 0
-187 191 -149 0
-191 149 0
187 -191 0
190 191 -192 0
192 -190 0
192 -191 0
-50 -153 193 0
-193 50 0
153 -193 0
-152 -193 -194 0
193 152 -194 0
152 194 -193 0
193 -152 194 0
-192 -195 -194 0
192 194 -195 0
-192 195 194 0
192 195 -194 0
-192 196 -194 0
194 -196 0
192 -196 0
-152 197 -193 0
-197 152 0
193 -197 0
-198 197 196 0
-196 198 0
-197 198 0
-199 200 -1 0
1 -200 0
-200 199 0
-200 -201 -159 0
200 159 -201 0
-200 201 159 0
200 201 -159 0
-200 202 -159 0
159 -202 0
200 -202 0
203 -199 -4 0
-203 4 0
-203 199 0
-165 -204 -203 0
203 165 -204 0
204 165 -203 0
203 -165 204 0
-204 -205 -202 0
204 -205 202 0
205 204 -202 0
205 -204 202 0
-204 206 -202 0
204 -206 0
-206 202 0
-165 -203 207 0
165 -207 0
203 -207 0
207 -208 206 0
208 -206 0
208 -207 0
209 -10 -199 0
-209 10 0
-209 199 0
-209 -210 -171 0
209 -210 171 0
-209 171 210 0
209 -171 210 0
-211 -210 -208 0
-211 208 210 0
211 -208 210 0
211 208 -210 0
212 -210 -208 0
-212 210 0
208 -212 0
-209 213 -171 0
-213 171 0
209 -213 0
212 -214 213 0
214 -212 0
-213 214 0
-199 215 -18 0
-215 18 0
-215 199 0
-215 -216 -177 0
215 -216 177 0
-215 216 177 0
215 216 -177 0
-214 -216 -217 0
214 -217 216 0
217 -214 216 0
217 -216 214 0
-214 -216 218 0
-218 216 0
-218 214 0
-215 219 -177 0
-219 177 0
215 -219 0
219 -220 218 0
220 -218 0
-219 220 0
-26 221 -199 0
26 -221 0
-221 199 0
-222 -183 -221 0
183 221 -222 0
183 -221 222 0
222 221 -183 0
-222 -223 -220 0
222 -223 220 0
222 223 -220 0
-222 220 223 0
-222 -220 224 0
222 -224 0
220 -224 0
225 -183 -221 0
183 -225 0
221 -225 0
225 -226 224 0
226 -224 0
226 -225 0
-199 227 -34 0
-227 34 0
-227 199 0
-227 -228 -189 0
-228 227 189 0
-227 228 189 0
228 227 -189 0
-229 -226 -228 0
-229 226 228 0
229 -226 228 0
226 -228 229 0
-226 -228 230 0
228 -230 0
226 -230 0
231 -227 -189 0
-231 189 0
-231 227 0
231 -232 230 0
232 -230 0
232 -231 0
-42 -199 233 0
-233 42 0
-233 199 0
-234 -233 -195 0
-234 195 233 0
-233 234 195 0
233 234 -195 0
-234 -235 -232 0
232 234 -235 0
234 235 -232 0
232 -234 235 0
-234 -232 236 0
-236 234 0
232 -236 0
-233 237 -195 0
195 -237 0
-237 233 0
-238 237 236 0
-236 238 0
238 -237 0
-50 239 -199 0
-239 50 0
-239 199 0
-240 -239 -198 0
-240 239 198 0
-239 240 198 0
239 -198 240 0
-238 -240 -241 0
238 240 -241 0
-238 241 240 0
238 -240 241 0
-238 -240 242 0
240 -242 0
238 -242 0
-239 -198 243 0
-243 198 0
239 -243 0
-244 243 242 0
244 -242 0
244 -243 0
246 -245 -1 0
1 -246 0
-246 245 0
-246 -205 -247 0
246 205 -247 0
-246 247 205 0
247 246 -205 0
-246 -205 248 0
205 -248 0
246 -248 0
-245 -4 249 0
-249 4 0
245 -249 0
-211 -249 -250 0
211 -250 249 0
211 -249 250 0
-211 250 249 0
-251 -250 -248 0
-251 248 250 0
251 -248 250 0
251 248 -250 0
-250 252 -248 0
-252 250 0
248 -252 0
-211 253 -249 0
211 -253 0
-253 249 0
253 -254 252 0
254 -252 0
-253 254 0
-10 -245 255 0
-255 10 0
245 -255 0
-217 -255 -256 0
217 255 -256 0
217 -255 256 0
-217 255 256 0
-257 -254 -256 0
-257 254 256 0
257 -254 256 0
257 254 -256 0
258 -254 -256 0
-258 256 0
-258 254 0
-217 -255 259 0
217 -259 0
-259 255 0
-260 258 259 0
-258 260 0
-259 260 0
-245 261 -18 0
-261 18 0
245 -261 0
-223 -261 -262 0
-262 223 261 0
262 -261 223 0
-223 262 261 0
-263 -260 -262 0
260 262 -263 0
262 -260 263 0
260 -262 263 0
264 -260 -262 0
262 -264 0
260 -264 0
265 -223 -261 0
-265 223 0
-265 261 0
265 264 -266 0
-264 266 0
-265 266 0
-26 -245 267 0
26 -267 0
245 -267 0
-229 -268 -267 0
229 267 -268 0
229 268 -267 0
-229 267 268 0
-266 -269 -268 0
268 -269 266 0
268 269 -266 0
269 266 -268 0
270 -266 -268 0
-270 268 0
-270 266 0
-229 271 -267 0
229 -271 0
267 -271 0
-272 270 271 0
-270 272 0
272 -271 0
273 -245 -34 0
-273 34 0
245 -273 0
-274 -235 -273 0
273 235 -274 0
235 274 -273 0
273 -235 274 0
-275 -274 -272 0
-275 272 274 0
-272 275 274 0
-274 272 275 0
-274 -272 276 0
-276 274 0
272 -276 0
-235 277 -273 0
-277 235 0
273 -277 0
-278 277 276 0
278 -276 0
-277 278 0
-42 -245 279 0
-279 42 0
-279 245 0
-279 -280 -241 0
-280 241 279 0
-279 280 241 0
280 -241 279 0
-278 -280 -281 0
280 278 -281 0
281 -278 280 0
281 278 -280 0
-278 -280 282 0
-282 280 0
-282 278 0
-279 283 -241 0
-283 241 0
-283 279 0
-284 283 282 0
-282 284 0
284 -283 0
-50 -245 285 0
50 -285 0
245 -285 0
-244 -285 -286 0
244 285 -286 0
244 -285 286 0
-244 285 286 0
-284 -287 -286 0
-287 284 286 0
-284 287 286 0
284 287 -286 0
288 -284 -286 0
-288 286 0
284 -288 0
289 -244 -285 0
-289 244 0
-289 285 0
288 289 -290 0
290 -288 0
-289 290 0
292 -291 -1 0
1 -292 0
291 -292 0
-293 -251 -292 0
-293 292 251 0
251 293 -292 0
292 -251 293 0
294 -251 -292 0
251 -294 0
292 -294 0
295 -291 -4 0
-295 4 0
291 -295 0
-257 -296 -295 0
257 -296 295 0
257 296 -295 0
-257 295 296 0
-294 -296 -297 0
294 296 -297 0
-294 296 297 0
294 -296 297 0
298 -294 -296 0
-298 296 0
294 -298 0
-257 299 -295 0
257 -299 0
-299 295 0
299 298 -300 0
-298 300 0
-299 300 0
-10 -291 301 0
10 -301 0
291 -301 0
-302 -263 -301 0
-302 301 263 0
-301 302 263 0
-263 301 302 0
-302 -300 -303 0
300 302 -303 0
-300 302 303 0
-302 300 303 0
-302 -300 304 0
-304 302 0
-304 300 0
305 -263 -301 0
-305 263 0
-305 301 0
305 304 -306 0
-304 306 0
-305 306 0
-291 307 -18 0
-307 18 0
-307 291 0
-307 -308 -269 0
-308 269 307 0
-307 269 308 0
308 307 -269 0
-308 -309 -306 0
-309 308 306 0
309 308 -306 0
309 -308 306 0
310 -308 -306 0
-310 308 0
-310 306 0
-307 311 -269 0
269 -311 0
307 -311 0
310 311 -312 0
-310 312 0
312 -311 0
-26 313 -291 0
26 -313 0
291 -313 0
-314 -313 -275 0
-314 313 275 0
-313 275 314 0
313 -275 314 0
-314 -312 -315 0
312 -315 314 0
-312 315 314 0
-314 315 312 0
-314 -312 316 0
-316 314 0
-316 312 0
317 -313 -275 0
275 -317 0
313 -317 0
317 -318 316 0
-316 318 0
318 -317 0
-291 319 -34 0
-319 34 0
291 -319 0
-320 -319 -281 0
281 -320 319 0
281 320 -319 0
320 319 -281 0
-321 -320 -318 0
-321 318 320 0
321 320 -318 0
318 -320 321 0
322 -320 -318 0
320 -322 0
318 -322 0
323 -319 -281 0
281 -323 0
319 -323 0
323 322 -324 0
-322 324 0
324 -323 0
-42 -291 325 0
-325 42 0
291 -325 0
-287 -325 -326 0
-326 287 325 0
326 -325 287 0
-287 326 325 0
-327 -324 -326 0
326 324 -327 0
327 326 -324 0
324 327 -326 0
328 -324 -326 0
-328 326 0
-328 324 0
-287 -325 329 0
-329 287 0
-329 325 0
328 -330 329 0
330 -328 0
-329 330 0
-50 -291 331 0
-331 50 0
291 -331 0
-332 -331 -290 0
290 331 -332 0
-331 290 332 0
332 331 -290 0
-333 -330 -332 0
332 330 -333 0
-330 332 333 0
330 -332 333 0
-330 334 -332 0
-334 332 0
-334 330 0
335 -331 -290 0
-335 290 0
-335 331 0
335 334 -336 0
-334 336 0
336 -335 0
3 0
8 0
63 0
109 0
155 0
-201 0
247 0
-293 0
297 0
-303 0
-309 0
315 0
321 0
-327 0
333 0
-336 0
