p cnf 336 1080
-1 3 -2 0
-3 1 0
2 -3 0
-4 5 -2 0
4 -5 0
2 -5 0
-1 -6 7 0
1 -7 0
6 -7 0
-8 -5 -7 0
5 -8 7 0
8 5 -7 0
8 -5 7 0
9 -5 -7 0
5 -9 0
-9 7 0
11 -2 -10 0
10 -11 0
2 -11 0
-4 12 -6 0
4 -12 0
6 -12 0
-13 -11 -12 0
11 -13 12 0
11 -12 13 0
13 -11 12 0
-9 -13 -14 0
9 13 -14 0
14 -9 13 0
9 14 -13 0
-9 -13 15 0
-15 13 0
9 -15 0
-11 -12 16 0
11 -16 0
-16 12 0
-17 15 16 0
-15 17 0
-16 17 0
-2 -18 19 0
18 -19 0
2 -19 0
-6 20 -10 0
10 -20 0
6 -20 0
-21 -19 -20 0
-21 20 19 0
-20 19 21 0
-19 20 21 0
-17 -21 -22 0
-22 21 17 0
-17 22 21 0
-21 22 17 0
-17 -21 23 0
-23 21 0
-23 17 0
-19 -20 24 0
-24 19 0
-24 20 0
23 24 -25 0
-23 25 0
25 -24 0
27 -2 -26 0
-27 26 0
2 -27 0
-6 -18 28 0
18 -28 0
-28 6 0
-27 -28 -29 0
27 -29 28 0
-28 27 29 0
-27 29 28 0
-30 -25 -29 0
25 29 -30 0
29 30 -25 0
25 30 -29 0
31 -25 -29 0
-31 29 0
25 -31 0
32 -27 -28 0
27 -32 0
-32 28 0
32 31 -33 0
-31 33 0
33 -32 0
35 -34 -2 0
-35 34 0
2 -35 0
-6 36 -26 0
-36 26 0
-36 6 0
-37 -36 -35 0
-37 35 36 0
-36 35 37 0
-35 36 37 0
-37 -33 -38 0
33 -38 37 0
-33 37 38 0
-37 33 38 0
39 -37 -33 0
-39 37 0
-39 33 0
40 -36 -35 0
35 -40 0
36 -40 0
39 -41 40 0
-39 41 0
41 -40 0
43 -42 -2 0
-43 42 0
2 -43 0
-6 -34 44 0
-44 34 0
-44 6 0
-44 -43 -45 0
43 -45 44 0
-44 45 43 0
45 -43 44 0
-46 -41 -45 0
-46 45 41 0
45 -41 46 0
46 41 -45 0
-41 47 -45 0
45 -47 0
-47 41 0
-44 -43 48 0
43 -48 0
-48 44 0
48 -49 47 0
-47 49 0
49 -48 0
-2 51 -50 0
50 -51 0
2 -51 0
-6 -42 52 0
-52 42 0
-52 6 0
-52 -51 -53 0
52 51 -53 0
53 -52 51 0
53 52 -51 0
-49 -54 -53 0
53 49 -54 0
53 -49 54 0
54 49 -53 0
-49 55 -53 0
53 -55 0
49 -55 0
-52 56 -51 0
-56 51 0
-56 52 0
56 -57 55 0
57 -55 0
57 -56 0
-6 -50 58 0
50 -58 0
-58 6 0
-58 -57 -59 0
57 -59 58 0
57 59 -58 0
59 -57 58 0
-58 60 -57 0
-60 57 0
-60 58 0
-1 -61 62 0
1 -62 0
61 -62 0
-14 -62 -63 0
14 62 -63 0
63 14 -62 0
62 63 -14 0
64 -14 -62 0
-64 14 0
-64 62 0
-4 65 -61 0
4 -65 0
61 -65 0
-66 -65 -22 0
65 -66 22 0
66 -65 22 0
66 65 -22 0
-64 -66 -67 0
66 64 -67 0
66 -64 67 0
67 64 -66 0
68 -64 -66 0
66 -68 0
-68 64 0
69 -65 -22 0
-69 22 0
65 -69 0
-70 68 69 0
-68 70 0
70 -69 0
71 -61 -10 0
10 -71 0
61 -71 0
-30 -72 -71 0
-72 71 30 0
30 -71 72 0
-30 71 72 0
-70 -73 -72 0
-73 70 72 0
-70 73 72 0
70 -72 73 0
-70 74 -72 0
-74 72 0
-74 70 0
-30 75 -71 0
-75 30 0
-75 71 0
74 75 -76 0
-74 76 0
-75 76 0
77 -61 -18 0
18 -77 0
61 -77 0
-78 -77 -38 0
-78 77 38 0
78 -77 38 0
78 77 -38 0
-79 -78 -76 0
78 76 -79 0
78 79 -76 0
79 -78 76 0
-78 -76 80 0
78 -80 0
-80 76 0
81 -77 -38 0
-81 38 0
77 -81 0
80 81 -82 0
-80 82 0
-81 82 0
-61 83 -26 0
26 -83 0
61 -83 0
-46 -84 -83 0
-84 46 83 0
84 -83 46 0
-46 84 83 0
-84 -85 -82 0
-85 84 82 0
84 -82 85 0
-84 82 85 0
-84 86 -82 0
-86 84 0
-86 82 0
-46 87 -83 0
-87 46 0
-87 83 0
86 87 -88 0
-86 88 0
-87 88 0
89 -34 -61 0
-89 34 0
-89 61 0
-89 -90 -54 0
89 -90 54 0
-89 90 54 0
89 -54 90 0
-91 -90 -88 0
-91 88 90 0
91 90 -88 0
91 -90 88 0
92 -90 -88 0
-92 90 0
-92 88 0
93 -89 -54 0
-93 54 0
89 -93 0
93 92 -94 0
-92 94 0
-93 94 0
-42 -61 95 0
-95 42 0
-95 61 0
-95 -96 -59 0
95 -96 59 0
-95 96 59 0
96 -59 95 0
-97 -96 -94 0
96 94 -97 0
96 97 -94 0
97 -96 94 0
98 -96 -94 0
96 -98 0
-98 94 0
-95 -59 99 0
-99 59 0
-99 95 0
-100 98 99 0
100 -98 0
100 -99 0
101 -61 -50 0
50 -101 0
61 -101 0
-60 -102 -101 0
-102 101 60 0
102 60 -101 0
-60 101 102 0
-103 -102 -100 0
100 -103 102 0
-100 103 102 0
100 -102 103 0
-102 104 -100 0
-104 102 0
100 -104 0
105 -60 -101 0
-105 60 0
101 -105 0
-106 105 104 0
106 -104 0
106 -105 0
-1 -107 108 0
-108 1 0
107 -108 0
-108 -109 -67 0
67 -109 108 0
67 109 -108 0
108 109 -67 0
-108 110 -67 0
67 -110 0
-110 108 0
-4 -107 111 0
-111 4 0
107 -111 0
-73 -111 -112 0
73 -112 111 0
73 -111 112 0
-73 111 112 0
-113 -112 -110 0
110 -113 112 0
113 -110 112 0
110 -112 113 0
114 -112 -110 0
-114 112 0
-114 110 0
115 -73 -111 0
73 -115 0
111 -115 0
115 114 -116 0
-114 116 0
-115 116 0
-107 117 -10 0
10 -117 0
107 -117 0
-79 -118 -117 0
79 117 -118 0
79 118 -117 0
-79 117 118 0
-119 -118 -116 0
-119 118 116 0
119 118 -116 0
119 -118 116 0
120 -118 -116 0
-120 118 0
-120 116 0
-79 121 -117 0
79 -121 0
-121 117 0
-122 121 120 0
-120 122 0
122 -121 0
123 -107 -18 0
18 -123 0
107 -123 0
-85 -124 -123 0
123 -124 85 0
-123 124 85 0
-85 123 124 0
-125 -122 -124 0
-125 122 124 0
125 -122 124 0
125 122 -124 0
-122 -124 126 0
124 -126 0
122 -126 0
-85 127 -123 0
-127 85 0
-127 123 0
127 -128 126 0
128 -126 0
-127 128 0
129 -107 -26 0
-129 26 0
107 -129 0
-130 -129 -91 0
129 91 -130 0
-129 130 91 0
129 130 -91 0
-130 -131 -128 0
-131 130 128 0
130 131 -128 0
-130 131 128 0
-130 132 -128 0
130 -132 0
-132 128 0
-129 -91 133 0
91 -133 0
129 -133 0
132 133 -134 0
134 -132 0
134 -133 0
135 -107 -34 0
-135 34 0
107 -135 0
-136 -135 -97 0
-136 97 135 0
136 97 -135 0
136 135 -97 0
-136 -134 -137 0
136 134 -137 0
136 -134 137 0
-136 134 137 0
-136 138 -134 0
136 -138 0
-138 134 0
-135 139 -97 0
-139 97 0
-139 135 0
138 139 -140 0
-138 140 0
-139 140 0
141 -107 -42 0
42 -141 0
107 -141 0
-142 -103 -141 0
-142 141 103 0
142 -141 103 0
-103 141 142 0
-142 -143 -140 0
140 -143 142 0
143 142 -140 0
-142 143 140 0
-142 144 -140 0
142 -144 0
140 -144 0
-103 145 -141 0
-145 103 0
-145 141 0
144 145 -146 0
146 -144 0
-145 146 0
147 -107 -50 0
50 -147 0
107 -147 0
-106 -148 -147 0
106 -148 147 0
106 -147 148 0
-106 147 148 0
-148 -149 -146 0
-149 146 148 0
149 148 -146 0
-148 146 149 0
150 -148 -146 0
-150 148 0
-150 146 0
-106 151 -147 0
106 -151 0
147 -151 0
150 151 -152 0
-150 152 0
-151 152 0
-1 154 -153 0
-154 1 0
153 -154 0
-113 -155 -154 0
154 113 -155 0
113 -154 155 0
-113 154 155 0
-113 156 -154 0
-156 113 0
154 -156 0
-4 157 -153 0
4 -157 0
153 -157 0
-158 -119 -157 0
-158 119 157 0
119 158 -157 0
-119 158 157 0
-159 -158 -156 0
-159 156 158 0
159 -156 158 0
159 -158 156 0
-158 -156 160 0
-160 158 0
-160 156 0
161 -119 -157 0
119 -161 0
-161 157 0
161 160 -162 0
-160 162 0
162 -161 0
163 -153 -10 0
10 -163 0
153 -163 0
-125 -164 -163 0
125 -164 163 0
125 164 -163 0
-125 164 163 0
-164 -165 -162 0
162 164 -165 0
165 164 -162 0
162 -164 165 0
166 -164 -162 0
-166 164 0
162 -166 0
-125 167 -163 0
125 -167 0
163 -167 0
166 167 -168 0
-166 168 0
-167 168 0
169 -153 -18 0
18 -169 0
153 -169 0
-131 -170 -169 0
169 -170 131 0
170 131 -169 0
169 -131 170 0
-170 -171 -168 0
170 -171 168 0
170 171 -168 0
-170 171 168 0
172 -170 -168 0
170 -172 0
-172 168 0
-131 -169 173 0
-173 131 0
169 -173 0
172 173 -174 0
174 -172 0
174 -173 0
175 -153 -26 0
-175 26 0
153 -175 0
-175 -137 -176 0
175 137 -176 0
-175 137 176 0
176 -137 175 0
-174 -177 -176 0
176 174 -177 0
176 -174 177 0
177 174 -176 0
-174 178 -176 0
176 -178 0
-178 174 0
179 -175 -137 0
-179 137 0
-179 175 0
179 178 -180 0
-178 180 0
-179 180 0
181 -34 -153 0
-181 34 0
-181 153 0
-181 -143 -182 0
181 143 -182 0
-181 143 182 0
181 -143 182 0
-180 -183 -182 0
180 182 -183 0
-180 183 182 0
183 180 -182 0
-180 184 -182 0
-184 182 0
-184 180 0
-181 185 -143 0
143 -185 0
181 -185 0
185 -186 184 0
-184 186 0
-185 186 0
187 -42 -153 0
-187 42 0
153 -187 0
-187 -149 -188 0
-188 187 149 0
-187 188 149 0
-149 188 187 0
-186 -188 -189 0
-189 188 186 0
-186 188 189 0
-188 186 189 0
190 -186 -188 0
188 -190 0
186 -190 0
-187 -149 191 0
-191 149 0
-191 187 0
-192 190 191 0
192 -190 0
192 -191 0
-153 193 -50 0
50 -193 0
153 -193 0
-194 -193 -152 0
193 -194 152 0
194 -193 152 0
193 194 -152 0
-192 -195 -194 0
192 -195 194 0
-192 194 195 0
192 -194 195 0
-192 -194 196 0
194 -196 0
192 -196 0
197 -193 -152 0
-197 152 0
-197 193 0
197 -198 196 0
198 -196 0
-197 198 0
-1 200 -199 0
-200 1 0
199 -200 0
-159 -200 -201 0
159 200 -201 0
159 201 -200 0
-159 200 201 0
-159 202 -200 0
159 -202 0
200 -202 0
-199 -4 203 0
4 -203 0
199 -203 0
-204 -165 -203 0
165 -204 203 0
165 204 -203 0
203 -165 204 0
-205 -204 -202 0
202 204 -205 0
-202 205 204 0
202 -204 205 0
206 -204 -202 0
-206 204 0
202 -206 0
207 -165 -203 0
165 -207 0
203 -207 0
206 -208 207 0
208 -206 0
208 -207 0
-199 -10 209 0
10 -209 0
-209 199 0
-209 -171 -210 0
-210 171 209 0
-209 171 210 0
210 -171 209 0
-211 -208 -210 0
208 -211 210 0
211 -208 210 0
208 211 -210 0
212 -208 -210 0
-212 210 0
208 -212 0
-209 -171 213 0
-213 171 0
-213 209 0
-214 212 213 0
-212 214 0
214 -213 0
-199 215 -18 0
18 -215 0
-215 199 0
-216 -177 -215 0
-216 177 215 0
177 -215 216 0
-177 215 216 0
-216 -217 -214 0
214 -217 216 0
-214 217 216 0
-216 217 214 0
-216 218 -214 0
-218 216 0
-218 214 0
-177 -215 219 0
177 -219 0
-219 215 0
219 218 -220 0
-218 220 0
-219 220 0
-199 221 -26 0
-221 26 0
-221 199 0
-221 -222 -183 0
221 183 -222 0
-221 183 222 0
221 -183 222 0
-222 -223 -220 0
-223 220 222 0
223 -220 222 0
-222 223 220 0
224 -222 -220 0
-224 222 0
-224 220 0
225 -221 -183 0
-225 183 0
-225 221 0
225 224 -226 0
-224 226 0
-225 226 0
-199 227 -34 0
-227 34 0
-227 199 0
-227 -189 -228 0
227 -228 189 0
-227 228 189 0
227 -189 228 0
-228 -226 -229 0
228 226 -229 0
-226 229 228 0
-228 229 226 0
230 -228 -226 0
228 -230 0
226 -230 0
231 -227 -189 0
189 -231 0
227 -231 0
230 -232 231 0
-230 232 0
-231 232 0
-199 -42 233 0
42 -233 0
199 -233 0
-195 -233 -234 0
195 -234 233 0
195 234 -233 0
-195 234 233 0
-235 -232 -234 0
-235 234 232 0
-232 235 234 0
-234 235 232 0
-232 -234 236 0
-236 234 0
-236 232 0
-195 237 -233 0
195 -237 0
-237 233 0
237 236 -238 0
-236 238 0
238 -237 0
-199 239 -50 0
50 -239 0
-239 199 0
-239 -240 -198 0
-240 239 198 0
-239 240 198 0
239 -198 240 0
-240 -238 -241 0
240 238 -241 0
241 240 -238 0
241 -240 238 0
-240 242 -238 0
-242 240 0
-242 238 0
-239 -198 243 0
-243 198 0
239 -243 0
242 -244 243 0
-242 244 0
-243 244 0
-1 246 -245 0
-246 1 0
-246 245 0
-205 -246 -247 0
246 205 -247 0
247 -246 205 0
-205 247 246 0
-205 -246 248 0
-248 205 0
246 -248 0
-245 -4 249 0
-249 4 0
-249 245 0
-211 -249 -250 0
211 249 -250 0
-249 211 250 0
-211 249 250 0
-248 -251 -250 0
248 -251 250 0
-248 251 250 0
248 -250 251 0
-248 -250 252 0
-252 250 0
-252 248 0
-211 -249 253 0
211 -253 0
-253 249 0
-254 253 252 0
254 -252 0
-253 254 0
-245 255 -10 0
-255 10 0
-255 245 0
-255 -256 -217 0
255 217 -256 0
-255 217 256 0
255 256 -217 0
-256 -254 -257 0
-257 254 256 0
257 -254 256 0
-256 254 257 0
-256 258 -254 0
-258 256 0
-258 254 0
-255 259 -217 0
217 -259 0
255 -259 0
258 259 -260 0
-258 260 0
-259 260 0
-245 261 -18 0
18 -261 0
-261 245 0
-261 -262 -223 0
261 -262 223 0
-261 223 262 0
261 -223 262 0
-262 -263 -260 0
260 -263 262 0
263 262 -260 0
263 -262 260 0
-262 264 -260 0
-264 262 0
-264 260 0
265 -261 -223 0
-265 223 0
261 -265 0
-266 265 264 0
266 -264 0
266 -265 0
-245 267 -26 0
26 -267 0
245 -267 0
-267 -229 -268 0
229 267 -268 0
268 229 -267 0
268 267 -229 0
-266 -269 -268 0
268 -269 266 0
268 -266 269 0
266 269 -268 0
-266 270 -268 0
268 -270 0
266 -270 0
-267 -229 271 0
229 -271 0
-271 267 0
271 -272 270 0
272 -270 0
272 -271 0
-245 -34 273 0
34 -273 0
245 -273 0
-274 -235 -273 0
235 -274 273 0
235 274 -273 0
-235 274 273 0
-275 -272 -274 0
272 -275 274 0
-272 274 275 0
272 -274 275 0
-272 -274 276 0
-276 274 0
272 -276 0
-235 -273 277 0
235 -277 0
273 -277 0
-278 277 276 0
-276 278 0
278 -277 0
-245 279 -42 0
-279 42 0
-279 245 0
-279 -241 -280 0
241 279 -280 0
241 280 -279 0
280 279 -241 0
-278 -280 -281 0
280 278 -281 0
-278 280 281 0
281 278 -280 0
282 -278 -280 0
280 -282 0
-282 278 0
-279 -241 283 0
241 -283 0
-283 279 0
282 -284 283 0
-282 284 0
-283 284 0
-245 285 -50 0
50 -285 0
-285 245 0
-286 -285 -244 0
-286 285 244 0
-285 286 244 0
-244 286 285 0
-286 -284 -287 0
-287 286 284 0
-284 286 287 0
-286 284 287 0
-286 -284 288 0
-288 286 0
-288 284 0
-285 -244 289 0
-289 244 0
-289 285 0
289 -290 288 0
-288 290 0
-289 290 0
-1 292 -291 0
-292 1 0
-292 291 0
-293 -292 -251 0
-293 292 251 0
-292 251 293 0
292 -251 293 0
294 -292 -251 0
251 -294 0
292 -294 0
-4 295 -291 0
4 -295 0
-295 291 0
-257 -295 -296 0
295 -296 257 0
-295 257 296 0
-257 295 296 0
-294 -296 -297 0
294 296 -297 0
-294 297 296 0
294 -296 297 0
-294 -296 298 0
-298 296 0
294 -298 0
-257 -295 299 0
-299 257 0
295 -299 0
-300 299 298 0
-298 300 0
-299 300 0
301 -291 -10 0
-301 10 0
-301 291 0
-301 -263 -302 0
263 301 -302 0
263 302 -301 0
302 -263 301 0
-300 -302 -303 0
302 -303 300 0
302 303 -300 0
303 -302 300 0
-300 304 -302 0
302 -304 0
-304 300 0
-301 -263 305 0
263 -305 0
-305 301 0
-306 304 305 0
306 -304 0
-305 306 0
307 -291 -18 0
-307 18 0
-307 291 0
-307 -308 -269 0
-308 307 269 0
-307 308 269 0
-269 307 308 0
-309 -306 -308 0
-309 308 306 0
-306 308 309 0
-308 309 306 0
-306 -308 310 0
-310 308 0
-310 306 0
-307 -269 311 0
-311 269 0
307 -311 0
311 310 -312 0
-310 312 0
312 -311 0
313 -291 -26 0
-313 26 0
-313 291 0
-275 -313 -314 0
313 275 -314 0
-313 314 275 0
-275 313 314 0
-312 -314 -315 0
314 -315 312 0
314 -312 315 0
315 -314 312 0
316 -312 -314 0
314 -316 0
-316 312 0
-275 -313 317 0
-317 275 0
-317 313 0
316 -318 317 0
318 -316 0
-317 318 0
-34 319 -291 0
34 -319 0
291 -319 0
-320 -319 -281 0
281 319 -320 0
281 320 -319 0
320 319 -281 0
-321 -318 -320 0
318 320 -321 0
320 321 -318 0
318 321 -320 0
-318 322 -320 0
320 -322 0
318 -322 0
-319 323 -281 0
281 -323 0
-323 319 0
-324 322 323 0
324 -322 0
324 -323 0
-291 -42 325 0
42 -325 0
291 -325 0
-326 -287 -325 0
-326 325 287 0
326 -325 287 0
326 325 -287 0
-327 -324 -326 0
326 -327 324 0
326 -324 327 0
324 -326 327 0
328 -324 -326 0
326 -328 0
324 -328 0
329 -287 -325 0
-329 287 0
-329 325 0
329 -330 328 0
-328 330 0
-329 330 0
331 -291 -50 0
50 -331 0
291 -331 0
-332 -290 -331 0
-332 331 290 0
332 -331 290 0
332 331 -290 0
-333 -330 -332 0
332 -333 330 0
332 -330 333 0
333 -332 330 0
334 -330 -332 0
332 -334 0
330 -334 0
335 -290 -331 0
-335 290 0
-335 331 0
334 335 -336 0
336 -334 0
336 -335 0
3 0
8 0
63 0
109 0
155 0
201 0
247 0
293 0
297 0
303 0
309 0
315 0
-321 0
-327 0
-333 0
336 0
