p cnf 336 1080
-2 -1 3 0
1 -3 0
-3 2 0
5 -2 -4 0
-5 4 0
-5 2 0
-6 7 -1 0
1 -7 0
6 -7 0
-8 -5 -7 0
-8 5 7 0
5 8 -7 0
7 -5 8 0
9 -5 -7 0
5 -9 0
7 -9 0
-2 -10 11 0
10 -11 0
2 -11 0
-4 -6 12 0
-12 4 0
6 -12 0
-13 -12 -11 0
-13 12 11 0
13 -12 11 0
13 12 -11 0
-13 -9 -14 0
9 13 -14 0
14 -9 13 0
14 -13 9 0
15 -13 -9 0
13 -15 0
9 -15 0
16 -12 -11 0
-16 11 0
-16 12 0
15 16 -17 0
17 -15 0
17 -16 0
-2 -18 19 0
18 -19 0
-19 2 0
-6 -10 20 0
10 -20 0
-20 6 0
-19 -20 -21 0
-21 20 19 0
21 -20 19 0
-19 21 20 0
-22 -21 -17 0
21 17 -22 0
22 21 -17 0
22 17 -21 0
-21 23 -17 0
21 -23 0
17 -23 0
24 -19 -20 0
-24 19 0
20 -24 0
24 -25 23 0
25 -23 0
25 -24 0
-26 -2 27 0
-27 26 0
-27 2 0
-6 -18 28 0
18 -28 0
-28 6 0
-28 -29 -27 0
28 -29 27 0
-28 29 27 0
28 -27 29 0
-29 -25 -30 0
29 25 -30 0
30 29 -25 0
30 25 -29 0
31 -29 -25 0
-31 29 0
-31 25 0
-28 -27 32 0
-32 27 0
-32 28 0
31 32 -33 0
-31 33 0
33 -32 0
-2 35 -34 0
34 -35 0
2 -35 0
36 -26 -6 0
-36 26 0
6 -36 0
-37 -36 -35 0
36 35 -37 0
37 35 -36 0
36 37 -35 0
-38 -33 -37 0
33 -38 37 0
38 -33 37 0
38 33 -37 0
39 -33 -37 0
-39 37 0
-39 33 0
40 -36 -35 0
35 -40 0
36 -40 0
39 40 -41 0
-39 41 0
41 -40 0
-2 43 -42 0
-43 42 0
-43 2 0
-6 44 -34 0
34 -44 0
-44 6 0
-43 -44 -45 0
43 44 -45 0
43 -44 45 0
-43 44 45 0
-46 -41 -45 0
41 -46 45 0
46 -41 45 0
46 41 -45 0
47 -41 -45 0
-47 45 0
41 -47 0
-43 -44 48 0
-48 43 0
-48 44 0
-49 47 48 0
49 -47 0
-48 49 0
-2 51 -50 0
-51 50 0
-51 2 0
52 -6 -42 0
42 -52 0
6 -52 0
-51 -52 -53 0
52 51 -53 0
51 53 -52 0
52 -51 53 0
-53 -49 -54 0
49 53 -54 0
53 -49 54 0
-53 49 54 0
55 -53 -49 0
53 -55 0
49 -55 0
-51 56 -52 0
51 -56 0
52 -56 0
55 56 -57 0
-55 57 0
57 -56 0
58 -6 -50 0
50 -58 0
6 -58 0
-59 -57 -58 0
-59 58 57 0
59 57 -58 0
58 59 -57 0
-57 60 -58 0
-60 57 0
-60 58 0
62 -61 -1 0
1 -62 0
-62 61 0
-62 -14 -63 0
14 -63 62 0
14 -62 63 0
62 63 -14 0
-62 64 -14 0
14 -64 0
62 -64 0
65 -4 -61 0
-65 4 0
61 -65 0
-22 -65 -66 0
22 65 -66 0
22 -65 66 0
65 -22 66 0
-67 -64 -66 0
64 -67 66 0
67 -64 66 0
64 67 -66 0
68 -64 -66 0
-68 66 0
64 -68 0
-22 -65 69 0
22 -69 0
65 -69 0
-70 68 69 0
70 -68 0
-69 70 0
71 -61 -10 0
10 -71 0
61 -71 0
-71 -72 -30 0
71 30 -72 0
30 -71 72 0
71 72 -30 0
-72 -73 -70 0
72 -73 70 0
73 72 -70 0
73 -72 70 0
74 -72 -70 0
72 -74 0
-74 70 0
-71 75 -30 0
30 -75 0
71 -75 0
74 -76 75 0
76 -74 0
76 -75 0
-61 -18 77 0
18 -77 0
-77 61 0
-77 -38 -78 0
38 -78 77 0
38 -77 78 0
78 -38 77 0
-79 -76 -78 0
76 78 -79 0
-76 79 78 0
79 76 -78 0
-76 80 -78 0
78 -80 0
76 -80 0
-77 81 -38 0
38 -81 0
-81 77 0
81 80 -82 0
82 -80 0
82 -81 0
-26 -61 83 0
-83 26 0
61 -83 0
-84 -83 -46 0
83 -84 46 0
-83 84 46 0
-46 84 83 0
-84 -82 -85 0
82 -85 84 0
-82 85 84 0
-84 82 85 0
-84 86 -82 0
-86 84 0
-86 82 0
-83 -46 87 0
-87 46 0
-87 83 0
-88 86 87 0
-86 88 0
88 -87 0
-61 -34 89 0
34 -89 0
61 -89 0
-54 -90 -89 0
-90 89 54 0
90 -89 54 0
90 -54 89 0
-88 -91 -90 0
90 88 -91 0
90 91 -88 0
91 88 -90 0
-88 -90 92 0
90 -92 0
88 -92 0
93 -54 -89 0
-93 54 0
89 -93 0
-94 93 92 0
94 -92 0
-93 94 0
95 -61 -42 0
42 -95 0
61 -95 0
-59 -95 -96 0
59 95 -96 0
59 96 -95 0
-59 96 95 0
-94 -97 -96 0
96 94 -97 0
-94 96 97 0
94 -96 97 0
-94 98 -96 0
96 -98 0
94 -98 0
99 -59 -95 0
59 -99 0
-99 95 0
99 -100 98 0
-98 100 0
-99 100 0
101 -61 -50 0
-101 50 0
61 -101 0
-101 -60 -102 0
101 60 -102 0
-101 60 102 0
101 -60 102 0
-103 -100 -102 0
100 -103 102 0
103 -100 102 0
100 103 -102 0
104 -100 -102 0
-104 102 0
-104 100 0
-101 -60 105 0
-105 60 0
101 -105 0
-106 104 105 0
-104 106 0
106 -105 0
108 -107 -1 0
1 -108 0
-108 107 0
-67 -108 -109 0
108 67 -109 0
109 67 -108 0
108 -67 109 0
-67 -108 110 0
-110 67 0
108 -110 0
111 -107 -4 0
4 -111 0
107 -111 0
-112 -73 -111 0
111 73 -112 0
112 73 -111 0
111 112 -73 0
-110 -113 -112 0
112 -113 110 0
-110 112 113 0
110 113 -112 0
-110 114 -112 0
112 -114 0
-114 110 0
115 -73 -111 0
73 -115 0
111 -115 0
-116 115 114 0
-114 116 0
116 -115 0
117 -107 -10 0
10 -117 0
107 -117 0
-79 -118 -117 0
79 -118 117 0
79 118 -117 0
-79 117 118 0
-116 -119 -118 0
116 -119 118 0
-116 119 118 0
116 119 -118 0
-116 -118 120 0
118 -120 0
116 -120 0
-79 121 -117 0
79 -121 0
-121 117 0
120 121 -122 0
122 -120 0
-121 122 0
-107 -18 123 0
18 -123 0
-123 107 0
-123 -124 -85 0
-124 85 123 0
-123 124 85 0
124 -85 123 0
-124 -125 -122 0
124 -125 122 0
125 124 -122 0
125 -124 122 0
126 -124 -122 0
124 -126 0
122 -126 0
-123 127 -85 0
85 -127 0
-127 123 0
126 127 -128 0
128 -126 0
128 -127 0
-26 -107 129 0
-129 26 0
-129 107 0
-130 -91 -129 0
91 -130 129 0
91 130 -129 0
-91 129 130 0
-130 -131 -128 0
130 128 -131 0
130 131 -128 0
-130 128 131 0
-130 132 -128 0
130 -132 0
128 -132 0
-91 -129 133 0
91 -133 0
-133 129 0
132 -134 133 0
134 -132 0
134 -133 0
135 -107 -34 0
34 -135 0
-135 107 0
-136 -135 -97 0
-136 135 97 0
-135 136 97 0
136 -97 135 0
-137 -136 -134 0
136 134 -137 0
136 137 -134 0
-136 134 137 0
-136 -134 138 0
136 -138 0
134 -138 0
-135 -97 139 0
-139 97 0
-139 135 0
-140 138 139 0
-138 140 0
140 -139 0
-107 141 -42 0
42 -141 0
-141 107 0
-142 -141 -103 0
-142 103 141 0
103 -141 142 0
142 141 -103 0
-143 -140 -142 0
-143 142 140 0
142 -140 143 0
143 140 -142 0
144 -140 -142 0
142 -144 0
140 -144 0
145 -141 -103 0
-145 103 0
-145 141 0
-146 145 144 0
-144 146 0
-145 146 0
-107 -50 147 0
-147 50 0
-147 107 0
-147 -148 -106 0
106 -148 147 0
-147 106 148 0
148 -106 147 0
-146 -149 -148 0
-149 148 146 0
-146 149 148 0
149 -148 146 0
-146 150 -148 0
-150 148 0
-150 146 0
151 -147 -106 0
106 -151 0
-151 147 0
151 150 -152 0
-150 152 0
152 -151 0
-153 154 -1 0
1 -154 0
153 -154 0
-155 -113 -154 0
-155 154 113 0
-154 113 155 0
-113 154 155 0
-113 156 -154 0
-156 113 0
-156 154 0
-153 -4 157 0
-157 4 0
153 -157 0
-157 -158 -119 0
157 -158 119 0
-157 119 158 0
157 -119 158 0
-158 -159 -156 0
-159 156 158 0
159 -156 158 0
159 -158 156 0
-158 -156 160 0
-160 158 0
156 -160 0
-157 161 -119 0
-161 119 0
157 -161 0
161 160 -162 0
162 -160 0
162 -161 0
-153 -10 163 0
10 -163 0
153 -163 0
-163 -125 -164 0
125 -164 163 0
125 -163 164 0
164 -125 163 0
-164 -165 -162 0
164 162 -165 0
164 165 -162 0
-164 162 165 0
-164 166 -162 0
164 -166 0
162 -166 0
-163 -125 167 0
125 -167 0
-167 163 0
-168 166 167 0
168 -166 0
168 -167 0
-153 169 -18 0
18 -169 0
153 -169 0
-170 -131 -169 0
-170 169 131 0
170 131 -169 0
-131 170 169 0
-168 -170 -171 0
168 170 -171 0
-168 170 171 0
-170 168 171 0
-168 -170 172 0
170 -172 0
168 -172 0
-131 173 -169 0
-173 131 0
-173 169 0
172 173 -174 0
174 -172 0
-173 174 0
-153 -26 175 0
-175 26 0
153 -175 0
-175 -137 -176 0
175 137 -176 0
176 -175 137 0
176 175 -137 0
-177 -176 -174 0
176 -177 174 0
176 177 -174 0
177 174 -176 0
178 -176 -174 0
176 -178 0
-178 174 0
179 -175 -137 0
-179 137 0
175 -179 0
179 -180 178 0
180 -178 0
180 -179 0
-153 181 -34 0
34 -181 0
153 -181 0
-143 -182 -181 0
181 -182 143 0
182 143 -181 0
181 182 -143 0
-180 -182 -183 0
180 182 -183 0
-180 183 182 0
180 183 -182 0
-180 -182 184 0
182 -184 0
180 -184 0
185 -143 -181 0
143 -185 0
181 -185 0
185 184 -186 0
186 -184 0
186 -185 0
-153 187 -42 0
-187 42 0
153 -187 0
-187 -149 -188 0
-188 187 149 0
-187 188 149 0
-149 188 187 0
-188 -189 -186 0
186 188 -189 0
189 188 -186 0
-188 186 189 0
-188 -186 190 0
-190 188 0
-190 186 0
-187 -149 191 0
-191 149 0
-191 187 0
190 -192 191 0
-190 192 0
-191 192 0
-153 193 -50 0
-193 50 0
153 -193 0
-193 -152 -194 0
-194 193 152 0
-193 194 152 0
194 -152 193 0
-195 -192 -194 0
194 -195 192 0
194 -192 195 0
195 -194 192 0
-192 -194 196 0
194 -196 0
-196 192 0
197 -193 -152 0
152 -197 0
193 -197 0
-198 196 197 0
-196 198 0
198 -197 0
200 -1 -199 0
1 -200 0
199 -200 0
-159 -201 -200 0
159 200 -201 0
159 201 -200 0
201 200 -159 0
202 -159 -200 0
159 -202 0
200 -202 0
203 -4 -199 0
4 -203 0
199 -203 0
-204 -203 -165 0
165 203 -204 0
204 165 -203 0
204 203 -165 0
-205 -202 -204 0
202 -205 204 0
205 -202 204 0
202 205 -204 0
206 -202 -204 0
-206 204 0
202 -206 0
207 -203 -165 0
165 -207 0
203 -207 0
206 207 -208 0
-206 208 0
208 -207 0
-10 -199 209 0
10 -209 0
199 -209 0
-209 -171 -210 0
171 -210 209 0
210 -209 171 0
210 -171 209 0
-211 -210 -208 0
208 210 -211 0
211 210 -208 0
211 208 -210 0
212 -210 -208 0
-212 210 0
-212 208 0
213 -209 -171 0
-213 171 0
-213 209 0
213 212 -214 0
-212 214 0
-213 214 0
-18 -199 215 0
18 -215 0
199 -215 0
-177 -216 -215 0
-216 177 215 0
216 177 -215 0
-177 216 215 0
-216 -214 -217 0
214 216 -217 0
217 216 -214 0
217 -216 214 0
-216 218 -214 0
-218 216 0
-218 214 0
-177 219 -215 0
177 -219 0
-219 215 0
218 219 -220 0
-218 220 0
220 -219 0
-26 221 -199 0
-221 26 0
199 -221 0
-222 -221 -183 0
183 221 -222 0
183 -221 222 0
222 221 -183 0
-223 -222 -220 0
-223 220 222 0
-220 222 223 0
220 -222 223 0
-222 224 -220 0
222 -224 0
220 -224 0
225 -221 -183 0
183 -225 0
-225 221 0
-226 224 225 0
226 -224 0
-225 226 0
227 -199 -34 0
34 -227 0
199 -227 0
-189 -228 -227 0
-228 227 189 0
-227 228 189 0
-189 228 227 0
-226 -228 -229 0
228 -229 226 0
-226 228 229 0
-228 229 226 0
-226 -228 230 0
228 -230 0
-230 226 0
-189 231 -227 0
-231 189 0
-231 227 0
230 -232 231 0
232 -230 0
-231 232 0
233 -199 -42 0
42 -233 0
199 -233 0
-195 -234 -233 0
195 233 -234 0
195 234 -233 0
-195 233 234 0
-235 -234 -232 0
232 -235 234 0
235 234 -232 0
235 232 -234 0
236 -234 -232 0
-236 234 0
-236 232 0
-195 237 -233 0
195 -237 0
233 -237 0
-238 236 237 0
-236 238 0
238 -237 0
239 -50 -199 0
-239 50 0
199 -239 0
-240 -198 -239 0
-240 239 198 0
-239 240 198 0
-198 240 239 0
-240 -238 -241 0
240 238 -241 0
240 -238 241 0
-240 238 241 0
-240 -238 242 0
-242 240 0
-242 238 0
-198 -239 243 0
-243 198 0
239 -243 0
-244 243 242 0
-242 244 0
244 -243 0
-1 -245 246 0
1 -246 0
-246 245 0
-246 -247 -205 0
205 -247 246 0
-246 247 205 0
247 246 -205 0
-246 248 -205 0
-248 205 0
-248 246 0
-4 -245 249 0
-249 4 0
-249 245 0
-249 -250 -211 0
211 -250 249 0
-249 211 250 0
249 -211 250 0
-251 -250 -248 0
-251 248 250 0
-248 251 250 0
-250 251 248 0
-250 -248 252 0
-252 250 0
248 -252 0
-249 253 -211 0
211 -253 0
-253 249 0
253 -254 252 0
254 -252 0
254 -253 0
255 -10 -245 0
10 -255 0
245 -255 0
-217 -255 -256 0
217 255 -256 0
217 -255 256 0
255 -217 256 0
-257 -254 -256 0
254 -257 256 0
257 -254 256 0
257 254 -256 0
258 -254 -256 0
-258 256 0
254 -258 0
259 -217 -255 0
217 -259 0
255 -259 0
259 -260 258 0
260 -258 0
260 -259 0
-18 -245 261 0
18 -261 0
-261 245 0
-223 -262 -261 0
-262 223 261 0
262 -261 223 0
-223 262 261 0
-262 -260 -263 0
260 262 -263 0
263 262 -260 0
263 -262 260 0
-262 -260 264 0
-264 262 0
-264 260 0
-223 -261 265 0
-265 223 0
-265 261 0
-266 265 264 0
-264 266 0
-265 266 0
267 -26 -245 0
-267 26 0
245 -267 0
-268 -229 -267 0
267 -268 229 0
268 229 -267 0
267 -229 268 0
-266 -268 -269 0
-269 268 266 0
-266 268 269 0
269 -268 266 0
-266 270 -268 0
-270 268 0
-270 266 0
-229 271 -267 0
-271 229 0
267 -271 0
270 -272 271 0
272 -270 0
272 -271 0
273 -245 -34 0
34 -273 0
245 -273 0
-235 -274 -273 0
235 -274 273 0
274 235 -273 0
274 -235 273 0
-272 -274 -275 0
274 272 -275 0
274 275 -272 0
272 275 -274 0
276 -272 -274 0
274 -276 0
272 -276 0
-235 277 -273 0
235 -277 0
-277 273 0
-278 277 276 0
278 -276 0
278 -277 0
279 -245 -42 0
-279 42 0
-279 245 0
-280 -279 -241 0
-280 279 241 0
280 -279 241 0
279 280 -241 0
-280 -278 -281 0
278 280 -281 0
281 -278 280 0
-280 281 278 0
-280 282 -278 0
-282 280 0
-282 278 0
283 -279 -241 0
241 -283 0
279 -283 0
282 283 -284 0
284 -282 0
284 -283 0
-50 285 -245 0
-285 50 0
-285 245 0
-244 -285 -286 0
244 -286 285 0
244 -285 286 0
-244 286 285 0
-287 -286 -284 0
284 -287 286 0
287 286 -284 0
287 284 -286 0
288 -286 -284 0
286 -288 0
284 -288 0
-244 -285 289 0
244 -289 0
-289 285 0
288 -290 289 0
290 -288 0
290 -289 0
-291 292 -1 0
1 -292 0
291 -292 0
-251 -292 -293 0
251 292 -293 0
251 293 -292 0
-251 292 293 0
-251 294 -292 0
251 -294 0
292 -294 0
295 -4 -291 0
4 -295 0
291 -295 0
-257 -296 -295 0
257 295 -296 0
257 296 -295 0
295 296 -257 0
-297 -294 -296 0
-297 296 294 0
296 -294 297 0
297 294 -296 0
-294 -296 298 0
-298 296 0
-298 294 0
-257 299 -295 0
257 -299 0
295 -299 0
299 -300 298 0
-298 300 0
300 -299 0
301 -291 -10 0
10 -301 0
-301 291 0
-301 -302 -263 0
263 301 -302 0
263 302 -301 0
302 301 -263 0
-303 -300 -302 0
300 302 -303 0
303 302 -300 0
300 -302 303 0
-300 -302 304 0
302 -304 0
300 -304 0
305 -301 -263 0
263 -305 0
-305 301 0
305 -306 304 0
306 -304 0
306 -305 0
-291 -18 307 0
18 -307 0
-307 291 0
-307 -308 -269 0
-308 307 269 0
-307 308 269 0
307 308 -269 0
-306 -308 -309 0
306 308 -309 0
-306 308 309 0
306 -308 309 0
-306 -308 310 0
308 -310 0
306 -310 0
-307 311 -269 0
-311 269 0
-311 307 0
311 -312 310 0
312 -310 0
312 -311 0
-26 313 -291 0
-313 26 0
-313 291 0
-313 -314 -275 0
275 313 -314 0
275 -313 314 0
314 313 -275 0
-315 -314 -312 0
312 314 -315 0
314 -312 315 0
312 -314 315 0
316 -314 -312 0
-316 314 0
312 -316 0
-313 -275 317 0
275 -317 0
313 -317 0
316 -318 317 0
318 -316 0
318 -317 0
-291 -34 319 0
-319 34 0
-319 291 0
-319 -320 -281 0
281 -320 319 0
-319 281 320 0
319 320 -281 0
-320 -321 -318 0
318 -321 320 0
321 320 -318 0
318 -320 321 0
-320 322 -318 0
320 -322 0
318 -322 0
-319 323 -281 0
-323 281 0
-323 319 0
-324 323 322 0
324 -322 0
-323 324 0
-291 325 -42 0
42 -325 0
-325 291 0
-326 -287 -325 0
287 -326 325 0
287 326 -325 0
326 -287 325 0
-324 -327 -326 0
326 324 -327 0
-324 326 327 0
324 -326 327 0
-324 -326 328 0
326 -328 0
324 -328 0
-287 329 -325 0
287 -329 0
-329 325 0
329 -330 328 0
-328 330 0
-329 330 0
331 -291 -50 0
50 -331 0
291 -331 0
-290 -332 -331 0
331 290 -332 0
290 332 -331 0
331 -290 332 0
-332 -333 -330 0
332 330 -333 0
333 -330 332 0
333 -332 330 0
334 -332 -330 0
-334 332 0
-334 330 0
335 -290 -331 0
-335 290 0
331 -335 0
334 -336 335 0
336 -334 0
336 -335 0
3 0
8 0
-63 0
109 0
155 0
-201 0
247 0
293 0
-297 0
-303 0
-309 0
-315 0
321 0
327 0
333 0
-336 0
