p cnf 1836 6030
-1 -2 3 0
1 -3 0
2 -3 0
-4 -2 5 0
4 -5 0
2 -5 0
-1 -6 7 0
1 -7 0
6 -7 0
-5 -7 -8 0
5 7 -8 0
5 -7 8 0
-5 7 8 0
-5 -7 9 0
5 -9 0
7 -9 0
-10 -2 11 0
10 -11 0
2 -11 0
-4 -6 12 0
4 -12 0
6 -12 0
-11 -12 -13 0
11 12 -13 0
11 -12 13 0
-11 12 13 0
-13 -9 -14 0
13 9 -14 0
13 -9 14 0
-13 9 14 0
-13 -9 15 0
13 -15 0
9 -15 0
-11 -12 16 0
11 -16 0
12 -16 0
15 16 -17 0
-15 17 0
-16 17 0
-18 -2 19 0
18 -19 0
2 -19 0
-10 -6 20 0
10 -20 0
6 -20 0
-19 -20 -21 0
19 20 -21 0
19 -20 21 0
-19 20 21 0
-21 -17 -22 0
21 17 -22 0
21 -17 22 0
-21 17 22 0
-21 -17 23 0
21 -23 0
17 -23 0
-19 -20 24 0
19 -24 0
20 -24 0
23 24 -25 0
-23 25 0
-24 25 0
-26 -2 27 0
26 -27 0
2 -27 0
-18 -6 28 0
18 -28 0
6 -28 0
-27 -28 -29 0
27 28 -29 0
27 -28 29 0
-27 28 29 0
-29 -25 -30 0
29 25 -30 0
29 -25 30 0
-29 25 30 0
-29 -25 31 0
29 -31 0
25 -31 0
-27 -28 32 0
27 -32 0
28 -32 0
31 32 -33 0
-31 33 0
-32 33 0
-34 -2 35 0
34 -35 0
2 -35 0
-26 -6 36 0
26 -36 0
6 -36 0
-35 -36 -37 0
35 36 -37 0
35 -36 37 0
-35 36 37 0
-37 -33 -38 0
37 33 -38 0
37 -33 38 0
-37 33 38 0
-37 -33 39 0
37 -39 0
33 -39 0
-35 -36 40 0
35 -40 0
36 -40 0
39 40 -41 0
-39 41 0
-40 41 0
-42 -2 43 0
42 -43 0
2 -43 0
-34 -6 44 0
34 -44 0
6 -44 0
-43 -44 -45 0
43 44 -45 0
43 -44 45 0
-43 44 45 0
-45 -41 -46 0
45 41 -46 0
45 -41 46 0
-45 41 46 0
-45 -41 47 0
45 -47 0
41 -47 0
-43 -44 48 0
43 -48 0
44 -48 0
47 48 -49 0
-47 49 0
-48 49 0
-50 -2 51 0
50 -51 0
2 -51 0
-42 -6 52 0
42 -52 0
6 -52 0
-51 -52 -53 0
51 52 -53 0
51 -52 53 0
-51 52 53 0
-53 -49 -54 0
53 49 -54 0
53 -49 54 0
-53 49 54 0
-53 -49 55 0
53 -55 0
49 -55 0
-51 -52 56 0
51 -56 0
52 -56 0
55 56 -57 0
-55 57 0
-56 57 0
-58 -2 59 0
58 -59 0
2 -59 0
-50 -6 60 0
50 -60 0
6 -60 0
-59 -60 -61 0
59 60 -61 0
59 -60 61 0
-59 60 61 0
-61 -57 -62 0
61 57 -62 0
61 -57 62 0
-61 57 62 0
-61 -57 63 0
61 -63 0
57 -63 0
-59 -60 64 0
59 -64 0
60 -64 0
63 64 -65 0
-63 65 0
-64 65 0
-66 -2 67 0
66 -67 0
2 -67 0
-58 -6 68 0
58 -68 0
6 -68 0
-67 -68 -69 0
67 68 -69 0
67 -68 69 0
-67 68 69 0
-69 -65 -70 0
69 65 -70 0
69 -65 70 0
-69 65 70 0
-69 -65 71 0
69 -71 0
65 -71 0
-67 -68 72 0
67 -72 0
68 -72 0
71 72 -73 0
-71 73 0
-72 73 0
-74 -2 75 0
74 -75 0
2 -75 0
-66 -6 76 0
66 -76 0
6 -76 0
-75 -76 -77 0
75 76 -77 0
75 -76 77 0
-75 76 77 0
-77 -73 -78 0
77 73 -78 0
77 -73 78 0
-77 73 78 0
-77 -73 79 0
77 -79 0
73 -79 0
-75 -76 80 0
75 -80 0
76 -80 0
79 80 -81 0
-79 81 0
-80 81 0
-82 -2 83 0
82 -83 0
2 -83 0
-74 -6 84 0
74 -84 0
6 -84 0
-83 -84 -85 0
83 84 -85 0
83 -84 85 0
-83 84 85 0
-85 -81 -86 0
85 81 -86 0
85 -81 86 0
-85 81 86 0
-85 -81 87 0
85 -87 0
81 -87 0
-83 -84 88 0
83 -88 0
84 -88 0
87 88 -89 0
-87 89 0
-88 89 0
-90 -2 91 0
90 -91 0
2 -91 0
-82 -6 92 0
82 -92 0
6 -92 0
-91 -92 -93 0
91 92 -93 0
91 -92 93 0
-91 92 93 0
-93 -89 -94 0
93 89 -94 0
93 -89 94 0
-93 89 94 0
-93 -89 95 0
93 -95 0
89 -95 0
-91 -92 96 0
91 -96 0
92 -96 0
95 96 -97 0
-95 97 0
-96 97 0
-98 -2 99 0
98 -99 0
2 -99 0
-90 -6 100 0
90 -100 0
6 -100 0
-99 -100 -101 0
99 100 -101 0
99 -100 101 0
-99 100 101 0
-101 -97 -102 0
101 97 -102 0
101 -97 102 0
-101 97 102 0
-101 -97 103 0
101 -103 0
97 -103 0
-99 -100 104 0
99 -104 0
100 -104 0
103 104 -105 0
-103 105 0
-104 105 0
-106 -2 107 0
106 -107 0
2 -107 0
-98 -6 108 0
98 -108 0
6 -108 0
-107 -108 -109 0
107 108 -109 0
107 -108 109 0
-107 108 109 0
-109 -105 -110 0
109 105 -110 0
109 -105 110 0
-109 105 110 0
-109 -105 111 0
109 -111 0
105 -111 0
-107 -108 112 0
107 -112 0
108 -112 0
111 112 -113 0
-111 113 0
-112 113 0
-114 -2 115 0
114 -115 0
2 -115 0
-106 -6 116 0
106 -116 0
6 -116 0
-115 -116 -117 0
115 116 -117 0
115 -116 117 0
-115 116 117 0
-117 -113 -118 0
117 113 -118 0
117 -113 118 0
-117 113 118 0
-117 -113 119 0
117 -119 0
113 -119 0
-115 -116 120 0
115 -120 0
116 -120 0
119 120 -121 0
-119 121 0
-120 121 0
-122 -2 123 0
122 -123 0
2 -123 0
-114 -6 124 0
114 -124 0
6 -124 0
-123 -124 -125 0
123 124 -125 0
123 -124 125 0
-123 124 125 0
-125 -121 -126 0
125 121 -126 0
125 -121 126 0
-125 121 126 0
-125 -121 127 0
125 -127 0
121 -127 0
-123 -124 128 0
123 -128 0
124 -128 0
127 128 -129 0
-127 129 0
-128 129 0
-130 -2 131 0
130 -131 0
2 -131 0
-122 -6 132 0
122 -132 0
6 -132 0
-131 -132 -133 0
131 132 -133 0
131 -132 133 0
-131 132 133 0
-133 -129 -134 0
133 129 -134 0
133 -129 134 0
-133 129 134 0
-133 -129 135 0
133 -135 0
129 -135 0
-131 -132 136 0
131 -136 0
132 -136 0
135 136 -137 0
-135 137 0
-136 137 0
-130 -6 138 0
130 -138 0
6 -138 0
-137 -138 -139 0
137 138 -139 0
137 -138 139 0
-137 138 139 0
-137 -138 140 0
137 -140 0
138 -140 0
-1 -141 142 0
1 -142 0
141 -142 0
-14 -142 -143 0
14 142 -143 0
14 -142 143 0
-14 142 143 0
-14 -142 144 0
14 -144 0
142 -144 0
-4 -141 145 0
4 -145 0
141 -145 0
-22 -145 -146 0
22 145 -146 0
22 -145 146 0
-22 145 146 0
-146 -144 -147 0
146 144 -147 0
146 -144 147 0
-146 144 147 0
-146 -144 148 0
146 -148 0
144 -148 0
-22 -145 149 0
22 -149 0
145 -149 0
148 149 -150 0
-148 150 0
-149 150 0
-10 -141 151 0
10 -151 0
141 -151 0
-30 -151 -152 0
30 151 -152 0
30 -151 152 0
-30 151 152 0
-152 -150 -153 0
152 150 -153 0
152 -150 153 0
-152 150 153 0
-152 -150 154 0
152 -154 0
150 -154 0
-30 -151 155 0
30 -155 0
151 -155 0
154 155 -156 0
-154 156 0
-155 156 0
-18 -141 157 0
18 -157 0
141 -157 0
-38 -157 -158 0
38 157 -158 0
38 -157 158 0
-38 157 158 0
-158 -156 -159 0
158 156 -159 0
158 -156 159 0
-158 156 159 0
-158 -156 160 0
158 -160 0
156 -160 0
-38 -157 161 0
38 -161 0
157 -161 0
160 161 -162 0
-160 162 0
-161 162 0
-26 -141 163 0
26 -163 0
141 -163 0
-46 -163 -164 0
46 163 -164 0
46 -163 164 0
-46 163 164 0
-164 -162 -165 0
164 162 -165 0
164 -162 165 0
-164 162 165 0
-164 -162 166 0
164 -166 0
162 -166 0
-46 -163 167 0
46 -167 0
163 -167 0
166 167 -168 0
-166 168 0
-167 168 0
-34 -141 169 0
34 -169 0
141 -169 0
-54 -169 -170 0
54 169 -170 0
54 -169 170 0
-54 169 170 0
-170 -168 -171 0
170 168 -171 0
170 -168 171 0
-170 168 171 0
-170 -168 172 0
170 -172 0
168 -172 0
-54 -169 173 0
54 -173 0
169 -173 0
172 173 -174 0
-172 174 0
-173 174 0
-42 -141 175 0
42 -175 0
141 -175 0
-62 -175 -176 0
62 175 -176 0
62 -175 176 0
-62 175 176 0
-176 -174 -177 0
176 174 -177 0
176 -174 177 0
-176 174 177 0
-176 -174 178 0
176 -178 0
174 -178 0
-62 -175 179 0
62 -179 0
175 -179 0
178 179 -180 0
-178 180 0
-179 180 0
-50 -141 181 0
50 -181 0
141 -181 0
-70 -181 -182 0
70 181 -182 0
70 -181 182 0
-70 181 182 0
-182 -180 -183 0
182 180 -183 0
182 -180 183 0
-182 180 183 0
-182 -180 184 0
182 -184 0
180 -184 0
-70 -181 185 0
70 -185 0
181 -185 0
184 185 -186 0
-184 186 0
-185 186 0
-58 -141 187 0
58 -187 0
141 -187 0
-78 -187 -188 0
78 187 -188 0
78 -187 188 0
-78 187 188 0
-188 -186 -189 0
188 186 -189 0
188 -186 189 0
-188 186 189 0
-188 -186 190 0
188 -190 0
186 -190 0
-78 -187 191 0
78 -191 0
187 -191 0
190 191 -192 0
-190 192 0
-191 192 0
-66 -141 193 0
66 -193 0
141 -193 0
-86 -193 -194 0
86 193 -194 0
86 -193 194 0
-86 193 194 0
-194 -192 -195 0
194 192 -195 0
194 -192 195 0
-194 192 195 0
-194 -192 196 0
194 -196 0
192 -196 0
-86 -193 197 0
86 -197 0
193 -197 0
196 197 -198 0
-196 198 0
-197 198 0
-74 -141 199 0
74 -199 0
141 -199 0
-94 -199 -200 0
94 199 -200 0
94 -199 200 0
-94 199 200 0
-200 -198 -201 0
200 198 -201 0
200 -198 201 0
-200 198 201 0
-200 -198 202 0
200 -202 0
198 -202 0
-94 -199 203 0
94 -203 0
199 -203 0
202 203 -204 0
-202 204 0
-203 204 0
-82 -141 205 0
82 -205 0
141 -205 0
-102 -205 -206 0
102 205 -206 0
102 -205 206 0
-102 205 206 0
-206 -204 -207 0
206 204 -207 0
206 -204 207 0
-206 204 207 0
-206 -204 208 0
206 -208 0
204 -208 0
-102 -205 209 0
102 -209 0
205 -209 0
208 209 -210 0
-208 210 0
-209 210 0
-90 -141 211 0
90 -211 0
141 -211 0
-110 -211 -212 0
110 211 -212 0
110 -211 212 0
-110 211 212 0
-212 -210 -213 0
212 210 -213 0
212 -210 213 0
-212 210 213 0
-212 -210 214 0
212 -214 0
210 -214 0
-110 -211 215 0
110 -215 0
211 -215 0
214 215 -216 0
-214 216 0
-215 216 0
-98 -141 217 0
98 -217 0
141 -217 0
-118 -217 -218 0
118 217 -218 0
118 -217 218 0
-118 217 218 0
-218 -216 -219 0
218 216 -219 0
218 -216 219 0
-218 216 219 0
-218 -216 220 0
218 -220 0
216 -220 0
-118 -217 221 0
118 -221 0
217 -221 0
220 221 -222 0
-220 222 0
-221 222 0
-106 -141 223 0
106 -223 0
141 -223 0
-126 -223 -224 0
126 223 -224 0
126 -223 224 0
-126 223 224 0
-224 -222 -225 0
224 222 -225 0
224 -222 225 0
-224 222 225 0
-224 -222 226 0
224 -226 0
222 -226 0
-126 -223 227 0
126 -227 0
223 -227 0
226 227 -228 0
-226 228 0
-227 228 0
-114 -141 229 0
114 -229 0
141 -229 0
-134 -229 -230 0
134 229 -230 0
134 -229 230 0
-134 229 230 0
-230 -228 -231 0
230 228 -231 0
230 -228 231 0
-230 228 231 0
-230 -228 232 0
230 -232 0
228 -232 0
-134 -229 233 0
134 -233 0
229 -233 0
232 233 -234 0
-232 234 0
-233 234 0
-122 -141 235 0
122 -235 0
141 -235 0
-139 -235 -236 0
139 235 -236 0
139 -235 236 0
-139 235 236 0
-236 -234 -237 0
236 234 -237 0
236 -234 237 0
-236 234 237 0
-236 -234 238 0
236 -238 0
234 -238 0
-139 -235 239 0
139 -239 0
235 -239 0
238 239 -240 0
-238 240 0
-239 240 0
-130 -141 241 0
130 -241 0
141 -241 0
-140 -241 -242 0
140 241 -242 0
140 -241 242 0
-140 241 242 0
-242 -240 -243 0
242 240 -243 0
242 -240 243 0
-242 240 243 0
-242 -240 244 0
242 -244 0
240 -244 0
-140 -241 245 0
140 -245 0
241 -245 0
244 245 -246 0
-244 246 0
-245 246 0
-1 -247 248 0
1 -248 0
247 -248 0
-147 -248 -249 0
147 248 -249 0
147 -248 249 0
-147 248 249 0
-147 -248 250 0
147 -250 0
248 -250 0
-4 -247 251 0
4 -251 0
247 -251 0
-153 -251 -252 0
153 251 -252 0
153 -251 252 0
-153 251 252 0
-252 -250 -253 0
252 250 -253 0
252 -250 253 0
-252 250 253 0
-252 -250 254 0
252 -254 0
250 -254 0
-153 -251 255 0
153 -255 0
251 -255 0
254 255 -256 0
-254 256 0
-255 256 0
-10 -247 257 0
10 -257 0
247 -257 0
-159 -257 -258 0
159 257 -258 0
159 -257 258 0
-159 257 258 0
-258 -256 -259 0
258 256 -259 0
258 -256 259 0
-258 256 259 0
-258 -256 260 0
258 -260 0
256 -260 0
-159 -257 261 0
159 -261 0
257 -261 0
260 261 -262 0
-260 262 0
-261 262 0
-18 -247 263 0
18 -263 0
247 -263 0
-165 -263 -264 0
165 263 -264 0
165 -263 264 0
-165 263 264 0
-264 -262 -265 0
264 262 -265 0
264 -262 265 0
-264 262 265 0
-264 -262 266 0
264 -266 0
262 -266 0
-165 -263 267 0
165 -267 0
263 -267 0
266 267 -268 0
-266 268 0
-267 268 0
-26 -247 269 0
26 -269 0
247 -269 0
-171 -269 -270 0
171 269 -270 0
171 -269 270 0
-171 269 270 0
-270 -268 -271 0
270 268 -271 0
270 -268 271 0
-270 268 271 0
-270 -268 272 0
270 -272 0
268 -272 0
-171 -269 273 0
171 -273 0
269 -273 0
272 273 -274 0
-272 274 0
-273 274 0
-34 -247 275 0
34 -275 0
247 -275 0
-177 -275 -276 0
177 275 -276 0
177 -275 276 0
-177 275 276 0
-276 -274 -277 0
276 274 -277 0
276 -274 277 0
-276 274 277 0
-276 -274 278 0
276 -278 0
274 -278 0
-177 -275 279 0
177 -279 0
275 -279 0
278 279 -280 0
-278 280 0
-279 280 0
-42 -247 281 0
42 -281 0
247 -281 0
-183 -281 -282 0
183 281 -282 0
183 -281 282 0
-183 281 282 0
-282 -280 -283 0
282 280 -283 0
282 -280 283 0
-282 280 283 0
-282 -280 284 0
282 -284 0
280 -284 0
-183 -281 285 0
183 -285 0
281 -285 0
284 285 -286 0
-284 286 0
-285 286 0
-50 -247 287 0
50 -287 0
247 -287 0
-189 -287 -288 0
189 287 -288 0
189 -287 288 0
-189 287 288 0
-288 -286 -289 0
288 286 -289 0
288 -286 289 0
-288 286 289 0
-288 -286 290 0
288 -290 0
286 -290 0
-189 -287 291 0
189 -291 0
287 -291 0
290 291 -292 0
-290 292 0
-291 292 0
-58 -247 293 0
58 -293 0
247 -293 0
-195 -293 -294 0
195 293 -294 0
195 -293 294 0
-195 293 294 0
-294 -292 -295 0
294 292 -295 0
294 -292 295 0
-294 292 295 0
-294 -292 296 0
294 -296 0
292 -296 0
-195 -293 297 0
195 -297 0
293 -297 0
296 297 -298 0
-296 298 0
-297 298 0
-66 -247 299 0
66 -299 0
247 -299 0
-201 -299 -300 0
201 299 -300 0
201 -299 300 0
-201 299 300 0
-300 -298 -301 0
300 298 -301 0
300 -298 301 0
-300 298 301 0
-300 -298 302 0
300 -302 0
298 -302 0
-201 -299 303 0
201 -303 0
299 -303 0
302 303 -304 0
-302 304 0
-303 304 0
-74 -247 305 0
74 -305 0
247 -305 0
-207 -305 -306 0
207 305 -306 0
207 -305 306 0
-207 305 306 0
-306 -304 -307 0
306 304 -307 0
306 -304 307 0
-306 304 307 0
-306 -304 308 0
306 -308 0
304 -308 0
-207 -305 309 0
207 -309 0
305 -309 0
308 309 -310 0
-308 310 0
-309 310 0
-82 -247 311 0
82 -311 0
247 -311 0
-213 -311 -312 0
213 311 -312 0
213 -311 312 0
-213 311 312 0
-312 -310 -313 0
312 310 -313 0
312 -310 313 0
-312 310 313 0
-312 -310 314 0
312 -314 0
310 -314 0
-213 -311 315 0
213 -315 0
311 -315 0
314 315 -316 0
-314 316 0
-315 316 0
-90 -247 317 0
90 -317 0
247 -317 0
-219 -317 -318 0
219 317 -318 0
219 -317 318 0
-219 317 318 0
-318 -316 -319 0
318 316 -319 0
318 -316 319 0
-318 316 319 0
-318 -316 320 0
318 -320 0
316 -320 0
-219 -317 321 0
219 -321 0
317 -321 0
320 321 -322 0
-320 322 0
-321 322 0
-98 -247 323 0
98 -323 0
247 -323 0
-225 -323 -324 0
225 323 -324 0
225 -323 324 0
-225 323 324 0
-324 -322 -325 0
324 322 -325 0
324 -322 325 0
-324 322 325 0
-324 -322 326 0
324 -326 0
322 -326 0
-225 -323 327 0
225 -327 0
323 -327 0
326 327 -328 0
-326 328 0
-327 328 0
-106 -247 329 0
106 -329 0
247 -329 0
-231 -329 -330 0
231 329 -330 0
231 -329 330 0
-231 329 330 0
-330 -328 -331 0
330 328 -331 0
330 -328 331 0
-330 328 331 0
-330 -328 332 0
330 -332 0
328 -332 0
-231 -329 333 0
231 -333 0
329 -333 0
332 333 -334 0
-332 334 0
-333 334 0
-114 -247 335 0
114 -335 0
247 -335 0
-237 -335 -336 0
237 335 -336 0
237 -335 336 0
-237 335 336 0
-336 -334 -337 0
336 334 -337 0
336 -334 337 0
-336 334 337 0
-336 -334 338 0
336 -338 0
334 -338 0
-237 -335 339 0
237 -339 0
335 -339 0
338 339 -340 0
-338 340 0
-339 340 0
-122 -247 341 0
122 -341 0
247 -341 0
-243 -341 -342 0
243 341 -342 0
243 -341 342 0
-243 341 342 0
-342 -340 -343 0
342 340 -343 0
342 -340 343 0
-342 340 343 0
-342 -340 344 0
342 -344 0
340 -344 0
-243 -341 345 0
243 -345 0
341 -345 0
344 345 -346 0
-344 346 0
-345 346 0
-130 -247 347 0
130 -347 0
247 -347 0
-246 -347 -348 0
246 347 -348 0
246 -347 348 0
-246 347 348 0
-348 -346 -349 0
348 346 -349 0
348 -346 349 0
-348 346 349 0
-348 -346 350 0
348 -350 0
346 -350 0
-246 -347 351 0
246 -351 0
347 -351 0
350 351 -352 0
-350 352 0
-351 352 0
-1 -353 354 0
1 -354 0
353 -354 0
-253 -354 -355 0
253 354 -355 0
253 -354 355 0
-253 354 355 0
-253 -354 356 0
253 -356 0
354 -356 0
-4 -353 357 0
4 -357 0
353 -357 0
-259 -357 -358 0
259 357 -358 0
259 -357 358 0
-259 357 358 0
-358 -356 -359 0
358 356 -359 0
358 -356 359 0
-358 356 359 0
-358 -356 360 0
358 -360 0
356 -360 0
-259 -357 361 0
259 -361 0
357 -361 0
360 361 -362 0
-360 362 0
-361 362 0
-10 -353 363 0
10 -363 0
353 -363 0
-265 -363 -364 0
265 363 -364 0
265 -363 364 0
-265 363 364 0
-364 -362 -365 0
364 362 -365 0
364 -362 365 0
-364 362 365 0
-364 -362 366 0
364 -366 0
362 -366 0
-265 -363 367 0
265 -367 0
363 -367 0
366 367 -368 0
-366 368 0
-367 368 0
-18 -353 369 0
18 -369 0
353 -369 0
-271 -369 -370 0
271 369 -370 0
271 -369 370 0
-271 369 370 0
-370 -368 -371 0
370 368 -371 0
370 -368 371 0
-370 368 371 0
-370 -368 372 0
370 -372 0
368 -372 0
-271 -369 373 0
271 -373 0
369 -373 0
372 373 -374 0
-372 374 0
-373 374 0
-26 -353 375 0
26 -375 0
353 -375 0
-277 -375 -376 0
277 375 -376 0
277 -375 376 0
-277 375 376 0
-376 -374 -377 0
376 374 -377 0
376 -374 377 0
-376 374 377 0
-376 -374 378 0
376 -378 0
374 -378 0
-277 -375 379 0
277 -379 0
375 -379 0
378 379 -380 0
-378 380 0
-379 380 0
-34 -353 381 0
34 -381 0
353 -381 0
-283 -381 -382 0
283 381 -382 0
283 -381 382 0
-283 381 382 0
-382 -380 -383 0
382 380 -383 0
382 -380 383 0
-382 380 383 0
-382 -380 384 0
382 -384 0
380 -384 0
-283 -381 385 0
283 -385 0
381 -385 0
384 385 -386 0
-384 386 0
-385 386 0
-42 -353 387 0
42 -387 0
353 -387 0
-289 -387 -388 0
289 387 -388 0
289 -387 388 0
-289 387 388 0
-388 -386 -389 0
388 386 -389 0
388 -386 389 0
-388 386 389 0
-388 -386 390 0
388 -390 0
386 -390 0
-289 -387 391 0
289 -391 0
387 -391 0
390 391 -392 0
-390 392 0
-391 392 0
-50 -353 393 0
50 -393 0
353 -393 0
-295 -393 -394 0
295 393 -394 0
295 -393 394 0
-295 393 394 0
-394 -392 -395 0
394 392 -395 0
394 -392 395 0
-394 392 395 0
-394 -392 396 0
394 -396 0
392 -396 0
-295 -393 397 0
295 -397 0
393 -397 0
396 397 -398 0
-396 398 0
-397 398 0
-58 -353 399 0
58 -399 0
353 -399 0
-301 -399 -400 0
301 399 -400 0
301 -399 400 0
-301 399 400 0
-400 -398 -401 0
400 398 -401 0
400 -398 401 0
-400 398 401 0
-400 -398 402 0
400 -402 0
398 -402 0
-301 -399 403 0
301 -403 0
399 -403 0
402 403 -404 0
-402 404 0
-403 404 0
-66 -353 405 0
66 -405 0
353 -405 0
-307 -405 -406 0
307 405 -406 0
307 -405 406 0
-307 405 406 0
-406 -404 -407 0
406 404 -407 0
406 -404 407 0
-406 404 407 0
-406 -404 408 0
406 -408 0
404 -408 0
-307 -405 409 0
307 -409 0
405 -409 0
408 409 -410 0
-408 410 0
-409 410 0
-74 -353 411 0
74 -411 0
353 -411 0
-313 -411 -412 0
313 411 -412 0
313 -411 412 0
-313 411 412 0
-412 -410 -413 0
412 410 -413 0
412 -410 413 0
-412 410 413 0
-412 -410 414 0
412 -414 0
410 -414 0
-313 -411 415 0
313 -415 0
411 -415 0
414 415 -416 0
-414 416 0
-415 416 0
-82 -353 417 0
82 -417 0
353 -417 0
-319 -417 -418 0
319 417 -418 0
319 -417 418 0
-319 417 418 0
-418 -416 -419 0
418 416 -419 0
418 -416 419 0
-418 416 419 0
-418 -416 420 0
418 -420 0
416 -420 0
-319 -417 421 0
319 -421 0
417 -421 0
420 421 -422 0
-420 422 0
-421 422 0
-90 -353 423 0
90 -423 0
353 -423 0
-325 -423 -424 0
325 423 -424 0
325 -423 424 0
-325 423 424 0
-424 -422 -425 0
424 422 -425 0
424 -422 425 0
-424 422 425 0
-424 -422 426 0
424 -426 0
422 -426 0
-325 -423 427 0
325 -427 0
423 -427 0
426 427 -428 0
-426 428 0
-427 428 0
-98 -353 429 0
98 -429 0
353 -429 0
-331 -429 -430 0
331 429 -430 0
331 -429 430 0
-331 429 430 0
-430 -428 -431 0
430 428 -431 0
430 -428 431 0
-430 428 431 0
-430 -428 432 0
430 -432 0
428 -432 0
-331 -429 433 0
331 -433 0
429 -433 0
432 433 -434 0
-432 434 0
-433 434 0
-106 -353 435 0
106 -435 0
353 -435 0
-337 -435 -436 0
337 435 -436 0
337 -435 436 0
-337 435 436 0
-436 -434 -437 0
436 434 -437 0
436 -434 437 0
-436 434 437 0
-436 -434 438 0
436 -438 0
434 -438 0
-337 -435 439 0
337 -439 0
435 -439 0
438 439 -440 0
-438 440 0
-439 440 0
-114 -353 441 0
114 -441 0
353 -441 0
-343 -441 -442 0
343 441 -442 0
343 -441 442 0
-343 441 442 0
-442 -440 -443 0
442 440 -443 0
442 -440 443 0
-442 440 443 0
-442 -440 444 0
442 -444 0
440 -444 0
-343 -441 445 0
343 -445 0
441 -445 0
444 445 -446 0
-444 446 0
-445 446 0
-122 -353 447 0
122 -447 0
353 -447 0
-349 -447 -448 0
349 447 -448 0
349 -447 448 0
-349 447 448 0
-448 -446 -449 0
448 446 -449 0
448 -446 449 0
-448 446 449 0
-448 -446 450 0
448 -450 0
446 -450 0
-349 -447 451 0
349 -451 0
447 -451 0
450 451 -452 0
-450 452 0
-451 452 0
-130 -353 453 0
130 -453 0
353 -453 0
-352 -453 -454 0
352 453 -454 0
352 -453 454 0
-352 453 454 0
-454 -452 -455 0
454 452 -455 0
454 -452 455 0
-454 452 455 0
-454 -452 456 0
454 -456 0
452 -456 0
-352 -453 457 0
352 -457 0
453 -457 0
456 457 -458 0
-456 458 0
-457 458 0
-1 -459 460 0
1 -460 0
459 -460 0
-359 -460 -461 0
359 460 -461 0
359 -460 461 0
-359 460 461 0
-359 -460 462 0
359 -462 0
460 -462 0
-4 -459 463 0
4 -463 0
459 -463 0
-365 -463 -464 0
365 463 -464 0
365 -463 464 0
-365 463 464 0
-464 -462 -465 0
464 462 -465 0
464 -462 465 0
-464 462 465 0
-464 -462 466 0
464 -466 0
462 -466 0
-365 -463 467 0
365 -467 0
463 -467 0
466 467 -468 0
-466 468 0
-467 468 0
-10 -459 469 0
10 -469 0
459 -469 0
-371 -469 -470 0
371 469 -470 0
371 -469 470 0
-371 469 470 0
-470 -468 -471 0
470 468 -471 0
470 -468 471 0
-470 468 471 0
-470 -468 472 0
470 -472 0
468 -472 0
-371 -469 473 0
371 -473 0
469 -473 0
472 473 -474 0
-472 474 0
-473 474 0
-18 -459 475 0
18 -475 0
459 -475 0
-377 -475 -476 0
377 475 -476 0
377 -475 476 0
-377 475 476 0
-476 -474 -477 0
476 474 -477 0
476 -474 477 0
-476 474 477 0
-476 -474 478 0
476 -478 0
474 -478 0
-377 -475 479 0
377 -479 0
475 -479 0
478 479 -480 0
-478 480 0
-479 480 0
-26 -459 481 0
26 -481 0
459 -481 0
-383 -481 -482 0
383 481 -482 0
383 -481 482 0
-383 481 482 0
-482 -480 -483 0
482 480 -483 0
482 -480 483 0
-482 480 483 0
-482 -480 484 0
482 -484 0
480 -484 0
-383 -481 485 0
383 -485 0
481 -485 0
484 485 -486 0
-484 486 0
-485 486 0
-34 -459 487 0
34 -487 0
459 -487 0
-389 -487 -488 0
389 487 -488 0
389 -487 488 0
-389 487 488 0
-488 -486 -489 0
488 486 -489 0
488 -486 489 0
-488 486 489 0
-488 -486 490 0
488 -490 0
486 -490 0
-389 -487 491 0
389 -491 0
487 -491 0
490 491 -492 0
-490 492 0
-491 492 0
-42 -459 493 0
42 -493 0
459 -493 0
-395 -493 -494 0
395 493 -494 0
395 -493 494 0
-395 493 494 0
-494 -492 -495 0
494 492 -495 0
494 -492 495 0
-494 492 495 0
-494 -492 496 0
494 -496 0
492 -496 0
-395 -493 497 0
395 -497 0
493 -497 0
496 497 -498 0
-496 498 0
-497 498 0
-50 -459 499 0
50 -499 0
459 -499 0
-401 -499 -500 0
401 499 -500 0
401 -499 500 0
-401 499 500 0
-500 -498 -501 0
500 498 -501 0
500 -498 501 0
-500 498 501 0
-500 -498 502 0
500 -502 0
498 -502 0
-401 -499 503 0
401 -503 0
499 -503 0
502 503 -504 0
-502 504 0
-503 504 0
-58 -459 505 0
58 -505 0
459 -505 0
-407 -505 -506 0
407 505 -506 0
407 -505 506 0
-407 505 506 0
-506 -504 -507 0
506 504 -507 0
506 -504 507 0
-506 504 507 0
-506 -504 508 0
506 -508 0
504 -508 0
-407 -505 509 0
407 -509 0
505 -509 0
508 509 -510 0
-508 510 0
-509 510 0
-66 -459 511 0
66 -511 0
459 -511 0
-413 -511 -512 0
413 511 -512 0
413 -511 512 0
-413 511 512 0
-512 -510 -513 0
512 510 -513 0
512 -510 513 0
-512 510 513 0
-512 -510 514 0
512 -514 0
510 -514 0
-413 -511 515 0
413 -515 0
511 -515 0
514 515 -516 0
-514 516 0
-515 516 0
-74 -459 517 0
74 -517 0
459 -517 0
-419 -517 -518 0
419 517 -518 0
419 -517 518 0
-419 517 518 0
-518 -516 -519 0
518 516 -519 0
518 -516 519 0
-518 516 519 0
-518 -516 520 0
518 -520 0
516 -520 0
-419 -517 521 0
419 -521 0
517 -521 0
520 521 -522 0
-520 522 0
-521 522 0
-82 -459 523 0
82 -523 0
459 -523 0
-425 -523 -524 0
425 523 -524 0
425 -523 524 0
-425 523 524 0
-524 -522 -525 0
524 522 -525 0
524 -522 525 0
-524 522 525 0
-524 -522 526 0
524 -526 0
522 -526 0
-425 -523 527 0
425 -527 0
523 -527 0
526 527 -528 0
-526 528 0
-527 528 0
-90 -459 529 0
90 -529 0
459 -529 0
-431 -529 -530 0
431 529 -530 0
431 -529 530 0
-431 529 530 0
-530 -528 -531 0
530 528 -531 0
530 -528 531 0
-530 528 531 0
-530 -528 532 0
530 -532 0
528 -532 0
-431 -529 533 0
431 -533 0
529 -533 0
532 533 -534 0
-532 534 0
-533 534 0
-98 -459 535 0
98 -535 0
459 -535 0
-437 -535 -536 0
437 535 -536 0
437 -535 536 0
-437 535 536 0
-536 -534 -537 0
536 534 -537 0
536 -534 537 0
-536 534 537 0
-536 -534 538 0
536 -538 0
534 -538 0
-437 -535 539 0
437 -539 0
535 -539 0
538 539 -540 0
-538 540 0
-539 540 0
-106 -459 541 0
106 -541 0
459 -541 0
-443 -541 -542 0
443 541 -542 0
443 -541 542 0
-443 541 542 0
-542 -540 -543 0
542 540 -543 0
542 -540 543 0
-542 540 543 0
-542 -540 544 0
542 -544 0
540 -544 0
-443 -541 545 0
443 -545 0
541 -545 0
544 545 -546 0
-544 546 0
-545 546 0
-114 -459 547 0
114 -547 0
459 -547 0
-449 -547 -548 0
449 547 -548 0
449 -547 548 0
-449 547 548 0
-548 -546 -549 0
548 546 -549 0
548 -546 549 0
-548 546 549 0
-548 -546 550 0
548 -550 0
546 -550 0
-449 -547 551 0
449 -551 0
547 -551 0
550 551 -552 0
-550 552 0
-551 552 0
-122 -459 553 0
122 -553 0
459 -553 0
-455 -553 -554 0
455 553 -554 0
455 -553 554 0
-455 553 554 0
-554 -552 -555 0
554 552 -555 0
554 -552 555 0
-554 552 555 0
-554 -552 556 0
554 -556 0
552 -556 0
-455 -553 557 0
455 -557 0
553 -557 0
556 557 -558 0
-556 558 0
-557 558 0
-130 -459 559 0
130 -559 0
459 -559 0
-458 -559 -560 0
458 559 -560 0
458 -559 560 0
-458 559 560 0
-560 -558 -561 0
560 558 -561 0
560 -558 561 0
-560 558 561 0
-560 -558 562 0
560 -562 0
558 -562 0
-458 -559 563 0
458 -563 0
559 -563 0
562 563 -564 0
-562 564 0
-563 564 0
-1 -565 566 0
1 -566 0
565 -566 0
-465 -566 -567 0
465 566 -567 0
465 -566 567 0
-465 566 567 0
-465 -566 568 0
465 -568 0
566 -568 0
-4 -565 569 0
4 -569 0
565 -569 0
-471 -569 -570 0
471 569 -570 0
471 -569 570 0
-471 569 570 0
-570 -568 -571 0
570 568 -571 0
570 -568 571 0
-570 568 571 0
-570 -568 572 0
570 -572 0
568 -572 0
-471 -569 573 0
471 -573 0
569 -573 0
572 573 -574 0
-572 574 0
-573 574 0
-10 -565 575 0
10 -575 0
565 -575 0
-477 -575 -576 0
477 575 -576 0
477 -575 576 0
-477 575 576 0
-576 -574 -577 0
576 574 -577 0
576 -574 577 0
-576 574 577 0
-576 -574 578 0
576 -578 0
574 -578 0
-477 -575 579 0
477 -579 0
575 -579 0
578 579 -580 0
-578 580 0
-579 580 0
-18 -565 581 0
18 -581 0
565 -581 0
-483 -581 -582 0
483 581 -582 0
483 -581 582 0
-483 581 582 0
-582 -580 -583 0
582 580 -583 0
582 -580 583 0
-582 580 583 0
-582 -580 584 0
582 -584 0
580 -584 0
-483 -581 585 0
483 -585 0
581 -585 0
584 585 -586 0
-584 586 0
-585 586 0
-26 -565 587 0
26 -587 0
565 -587 0
-489 -587 -588 0
489 587 -588 0
489 -587 588 0
-489 587 588 0
-588 -586 -589 0
588 586 -589 0
588 -586 589 0
-588 586 589 0
-588 -586 590 0
588 -590 0
586 -590 0
-489 -587 591 0
489 -591 0
587 -591 0
590 591 -592 0
-590 592 0
-591 592 0
-34 -565 593 0
34 -593 0
565 -593 0
-495 -593 -594 0
495 593 -594 0
495 -593 594 0
-495 593 594 0
-594 -592 -595 0
594 592 -595 0
594 -592 595 0
-594 592 595 0
-594 -592 596 0
594 -596 0
592 -596 0
-495 -593 597 0
495 -597 0
593 -597 0
596 597 -598 0
-596 598 0
-597 598 0
-42 -565 599 0
42 -599 0
565 -599 0
-501 -599 -600 0
501 599 -600 0
501 -599 600 0
-501 599 600 0
-600 -598 -601 0
600 598 -601 0
600 -598 601 0
-600 598 601 0
-600 -598 602 0
600 -602 0
598 -602 0
-501 -599 603 0
501 -603 0
599 -603 0
602 603 -604 0
-602 604 0
-603 604 0
-50 -565 605 0
50 -605 0
565 -605 0
-507 -605 -606 0
507 605 -606 0
507 -605 606 0
-507 605 606 0
-606 -604 -607 0
606 604 -607 0
606 -604 607 0
-606 604 607 0
-606 -604 608 0
606 -608 0
604 -608 0
-507 -605 609 0
507 -609 0
605 -609 0
608 609 -610 0
-608 610 0
-609 610 0
-58 -565 611 0
58 -611 0
565 -611 0
-513 -611 -612 0
513 611 -612 0
513 -611 612 0
-513 611 612 0
-612 -610 -613 0
612 610 -613 0
612 -610 613 0
-612 610 613 0
-612 -610 614 0
612 -614 0
610 -614 0
-513 -611 615 0
513 -615 0
611 -615 0
614 615 -616 0
-614 616 0
-615 616 0
-66 -565 617 0
66 -617 0
565 -617 0
-519 -617 -618 0
519 617 -618 0
519 -617 618 0
-519 617 618 0
-618 -616 -619 0
618 616 -619 0
618 -616 619 0
-618 616 619 0
-618 -616 620 0
618 -620 0
616 -620 0
-519 -617 621 0
519 -621 0
617 -621 0
620 621 -622 0
-620 622 0
-621 622 0
-74 -565 623 0
74 -623 0
565 -623 0
-525 -623 -624 0
525 623 -624 0
525 -623 624 0
-525 623 624 0
-624 -622 -625 0
624 622 -625 0
624 -622 625 0
-624 622 625 0
-624 -622 626 0
624 -626 0
622 -626 0
-525 -623 627 0
525 -627 0
623 -627 0
626 627 -628 0
-626 628 0
-627 628 0
-82 -565 629 0
82 -629 0
565 -629 0
-531 -629 -630 0
531 629 -630 0
531 -629 630 0
-531 629 630 0
-630 -628 -631 0
630 628 -631 0
630 -628 631 0
-630 628 631 0
-630 -628 632 0
630 -632 0
628 -632 0
-531 -629 633 0
531 -633 0
629 -633 0
632 633 -634 0
-632 634 0
-633 634 0
-90 -565 635 0
90 -635 0
565 -635 0
-537 -635 -636 0
537 635 -636 0
537 -635 636 0
-537 635 636 0
-636 -634 -637 0
636 634 -637 0
636 -634 637 0
-636 634 637 0
-636 -634 638 0
636 -638 0
634 -638 0
-537 -635 639 0
537 -639 0
635 -639 0
638 639 -640 0
-638 640 0
-639 640 0
-98 -565 641 0
98 -641 0
565 -641 0
-543 -641 -642 0
543 641 -642 0
543 -641 642 0
-543 641 642 0
-642 -640 -643 0
642 640 -643 0
642 -640 643 0
-642 640 643 0
-642 -640 644 0
642 -644 0
640 -644 0
-543 -641 645 0
543 -645 0
641 -645 0
644 645 -646 0
-644 646 0
-645 646 0
-106 -565 647 0
106 -647 0
565 -647 0
-549 -647 -648 0
549 647 -648 0
549 -647 648 0
-549 647 648 0
-648 -646 -649 0
648 646 -649 0
648 -646 649 0
-648 646 649 0
-648 -646 650 0
648 -650 0
646 -650 0
-549 -647 651 0
549 -651 0
647 -651 0
650 651 -652 0
-650 652 0
-651 652 0
-114 -565 653 0
114 -653 0
565 -653 0
-555 -653 -654 0
555 653 -654 0
555 -653 654 0
-555 653 654 0
-654 -652 -655 0
654 652 -655 0
654 -652 655 0
-654 652 655 0
-654 -652 656 0
654 -656 0
652 -656 0
-555 -653 657 0
555 -657 0
653 -657 0
656 657 -658 0
-656 658 0
-657 658 0
-122 -565 659 0
122 -659 0
565 -659 0
-561 -659 -660 0
561 659 -660 0
561 -659 660 0
-561 659 660 0
-660 -658 -661 0
660 658 -661 0
660 -658 661 0
-660 658 661 0
-660 -658 662 0
660 -662 0
658 -662 0
-561 -659 663 0
561 -663 0
659 -663 0
662 663 -664 0
-662 664 0
-663 664 0
-130 -565 665 0
130 -665 0
565 -665 0
-564 -665 -666 0
564 665 -666 0
564 -665 666 0
-564 665 666 0
-666 -664 -667 0
666 664 -667 0
666 -664 667 0
-666 664 667 0
-666 -664 668 0
666 -668 0
664 -668 0
-564 -665 669 0
564 -669 0
665 -669 0
668 669 -670 0
-668 670 0
-669 670 0
-1 -671 672 0
1 -672 0
671 -672 0
-571 -672 -673 0
571 672 -673 0
571 -672 673 0
-571 672 673 0
-571 -672 674 0
571 -674 0
672 -674 0
-4 -671 675 0
4 -675 0
671 -675 0
-577 -675 -676 0
577 675 -676 0
577 -675 676 0
-577 675 676 0
-676 -674 -677 0
676 674 -677 0
676 -674 677 0
-676 674 677 0
-676 -674 678 0
676 -678 0
674 -678 0
-577 -675 679 0
577 -679 0
675 -679 0
678 679 -680 0
-678 680 0
-679 680 0
-10 -671 681 0
10 -681 0
671 -681 0
-583 -681 -682 0
583 681 -682 0
583 -681 682 0
-583 681 682 0
-682 -680 -683 0
682 680 -683 0
682 -680 683 0
-682 680 683 0
-682 -680 684 0
682 -684 0
680 -684 0
-583 -681 685 0
583 -685 0
681 -685 0
684 685 -686 0
-684 686 0
-685 686 0
-18 -671 687 0
18 -687 0
671 -687 0
-589 -687 -688 0
589 687 -688 0
589 -687 688 0
-589 687 688 0
-688 -686 -689 0
688 686 -689 0
688 -686 689 0
-688 686 689 0
-688 -686 690 0
688 -690 0
686 -690 0
-589 -687 691 0
589 -691 0
687 -691 0
690 691 -692 0
-690 692 0
-691 692 0
-26 -671 693 0
26 -693 0
671 -693 0
-595 -693 -694 0
595 693 -694 0
595 -693 694 0
-595 693 694 0
-694 -692 -695 0
694 692 -695 0
694 -692 695 0
-694 692 695 0
-694 -692 696 0
694 -696 0
692 -696 0
-595 -693 697 0
595 -697 0
693 -697 0
696 697 -698 0
-696 698 0
-697 698 0
-34 -671 699 0
34 -699 0
671 -699 0
-601 -699 -700 0
601 699 -700 0
601 -699 700 0
-601 699 700 0
-700 -698 -701 0
700 698 -701 0
700 -698 701 0
-700 698 701 0
-700 -698 702 0
700 -702 0
698 -702 0
-601 -699 703 0
601 -703 0
699 -703 0
702 703 -704 0
-702 704 0
-703 704 0
-42 -671 705 0
42 -705 0
671 -705 0
-607 -705 -706 0
607 705 -706 0
607 -705 706 0
-607 705 706 0
-706 -704 -707 0
706 704 -707 0
706 -704 707 0
-706 704 707 0
-706 -704 708 0
706 -708 0
704 -708 0
-607 -705 709 0
607 -709 0
705 -709 0
708 709 -710 0
-708 710 0
-709 710 0
-50 -671 711 0
50 -711 0
671 -711 0
-613 -711 -712 0
613 711 -712 0
613 -711 712 0
-613 711 712 0
-712 -710 -713 0
712 710 -713 0
712 -710 713 0
-712 710 713 0
-712 -710 714 0
712 -714 0
710 -714 0
-613 -711 715 0
613 -715 0
711 -715 0
714 715 -716 0
-714 716 0
-715 716 0
-58 -671 717 0
58 -717 0
671 -717 0
-619 -717 -718 0
619 717 -718 0
619 -717 718 0
-619 717 718 0
-718 -716 -719 0
718 716 -719 0
718 -716 719 0
-718 716 719 0
-718 -716 720 0
718 -720 0
716 -720 0
-619 -717 721 0
619 -721 0
717 -721 0
720 721 -722 0
-720 722 0
-721 722 0
-66 -671 723 0
66 -723 0
671 -723 0
-625 -723 -724 0
625 723 -724 0
625 -723 724 0
-625 723 724 0
-724 -722 -725 0
724 722 -725 0
724 -722 725 0
-724 722 725 0
-724 -722 726 0
724 -726 0
722 -726 0
-625 -723 727 0
625 -727 0
723 -727 0
726 727 -728 0
-726 728 0
-727 728 0
-74 -671 729 0
74 -729 0
671 -729 0
-631 -729 -730 0
631 729 -730 0
631 -729 730 0
-631 729 730 0
-730 -728 -731 0
730 728 -731 0
730 -728 731 0
-730 728 731 0
-730 -728 732 0
730 -732 0
728 -732 0
-631 -729 733 0
631 -733 0
729 -733 0
732 733 -734 0
-732 734 0
-733 734 0
-82 -671 735 0
82 -735 0
671 -735 0
-637 -735 -736 0
637 735 -736 0
637 -735 736 0
-637 735 736 0
-736 -734 -737 0
736 734 -737 0
736 -734 737 0
-736 734 737 0
-736 -734 738 0
736 -738 0
734 -738 0
-637 -735 739 0
637 -739 0
735 -739 0
738 739 -740 0
-738 740 0
-739 740 0
-90 -671 741 0
90 -741 0
671 -741 0
-643 -741 -742 0
643 741 -742 0
643 -741 742 0
-643 741 742 0
-742 -740 -743 0
742 740 -743 0
742 -740 743 0
-742 740 743 0
-742 -740 744 0
742 -744 0
740 -744 0
-643 -741 745 0
643 -745 0
741 -745 0
744 745 -746 0
-744 746 0
-745 746 0
-98 -671 747 0
98 -747 0
671 -747 0
-649 -747 -748 0
649 747 -748 0
649 -747 748 0
-649 747 748 0
-748 -746 -749 0
748 746 -749 0
748 -746 749 0
-748 746 749 0
-748 -746 750 0
748 -750 0
746 -750 0
-649 -747 751 0
649 -751 0
747 -751 0
750 751 -752 0
-750 752 0
-751 752 0
-106 -671 753 0
106 -753 0
671 -753 0
-655 -753 -754 0
655 753 -754 0
655 -753 754 0
-655 753 754 0
-754 -752 -755 0
754 752 -755 0
754 -752 755 0
-754 752 755 0
-754 -752 756 0
754 -756 0
752 -756 0
-655 -753 757 0
655 -757 0
753 -757 0
756 757 -758 0
-756 758 0
-757 758 0
-114 -671 759 0
114 -759 0
671 -759 0
-661 -759 -760 0
661 759 -760 0
661 -759 760 0
-661 759 760 0
-760 -758 -761 0
760 758 -761 0
760 -758 761 0
-760 758 761 0
-760 -758 762 0
760 -762 0
758 -762 0
-661 -759 763 0
661 -763 0
759 -763 0
762 763 -764 0
-762 764 0
-763 764 0
-122 -671 765 0
122 -765 0
671 -765 0
-667 -765 -766 0
667 765 -766 0
667 -765 766 0
-667 765 766 0
-766 -764 -767 0
766 764 -767 0
766 -764 767 0
-766 764 767 0
-766 -764 768 0
766 -768 0
764 -768 0
-667 -765 769 0
667 -769 0
765 -769 0
768 769 -770 0
-768 770 0
-769 770 0
-130 -671 771 0
130 -771 0
671 -771 0
-670 -771 -772 0
670 771 -772 0
670 -771 772 0
-670 771 772 0
-772 -770 -773 0
772 770 -773 0
772 -770 773 0
-772 770 773 0
-772 -770 774 0
772 -774 0
770 -774 0
-670 -771 775 0
670 -775 0
771 -775 0
774 775 -776 0
-774 776 0
-775 776 0
-1 -777 778 0
1 -778 0
777 -778 0
-677 -778 -779 0
677 778 -779 0
677 -778 779 0
-677 778 779 0
-677 -778 780 0
677 -780 0
778 -780 0
-4 -777 781 0
4 -781 0
777 -781 0
-683 -781 -782 0
683 781 -782 0
683 -781 782 0
-683 781 782 0
-782 -780 -783 0
782 780 -783 0
782 -780 783 0
-782 780 783 0
-782 -780 784 0
782 -784 0
780 -784 0
-683 -781 785 0
683 -785 0
781 -785 0
784 785 -786 0
-784 786 0
-785 786 0
-10 -777 787 0
10 -787 0
777 -787 0
-689 -787 -788 0
689 787 -788 0
689 -787 788 0
-689 787 788 0
-788 -786 -789 0
788 786 -789 0
788 -786 789 0
-788 786 789 0
-788 -786 790 0
788 -790 0
786 -790 0
-689 -787 791 0
689 -791 0
787 -791 0
790 791 -792 0
-790 792 0
-791 792 0
-18 -777 793 0
18 -793 0
777 -793 0
-695 -793 -794 0
695 793 -794 0
695 -793 794 0
-695 793 794 0
-794 -792 -795 0
794 792 -795 0
794 -792 795 0
-794 792 795 0
-794 -792 796 0
794 -796 0
792 -796 0
-695 -793 797 0
695 -797 0
793 -797 0
796 797 -798 0
-796 798 0
-797 798 0
-26 -777 799 0
26 -799 0
777 -799 0
-701 -799 -800 0
701 799 -800 0
701 -799 800 0
-701 799 800 0
-800 -798 -801 0
800 798 -801 0
800 -798 801 0
-800 798 801 0
-800 -798 802 0
800 -802 0
798 -802 0
-701 -799 803 0
701 -803 0
799 -803 0
802 803 -804 0
-802 804 0
-803 804 0
-34 -777 805 0
34 -805 0
777 -805 0
-707 -805 -806 0
707 805 -806 0
707 -805 806 0
-707 805 806 0
-806 -804 -807 0
806 804 -807 0
806 -804 807 0
-806 804 807 0
-806 -804 808 0
806 -808 0
804 -808 0
-707 -805 809 0
707 -809 0
805 -809 0
808 809 -810 0
-808 810 0
-809 810 0
-42 -777 811 0
42 -811 0
777 -811 0
-713 -811 -812 0
713 811 -812 0
713 -811 812 0
-713 811 812 0
-812 -810 -813 0
812 810 -813 0
812 -810 813 0
-812 810 813 0
-812 -810 814 0
812 -814 0
810 -814 0
-713 -811 815 0
713 -815 0
811 -815 0
814 815 -816 0
-814 816 0
-815 816 0
-50 -777 817 0
50 -817 0
777 -817 0
-719 -817 -818 0
719 817 -818 0
719 -817 818 0
-719 817 818 0
-818 -816 -819 0
818 816 -819 0
818 -816 819 0
-818 816 819 0
-818 -816 820 0
818 -820 0
816 -820 0
-719 -817 821 0
719 -821 0
817 -821 0
820 821 -822 0
-820 822 0
-821 822 0
-58 -777 823 0
58 -823 0
777 -823 0
-725 -823 -824 0
725 823 -824 0
725 -823 824 0
-725 823 824 0
-824 -822 -825 0
824 822 -825 0
824 -822 825 0
-824 822 825 0
-824 -822 826 0
824 -826 0
822 -826 0
-725 -823 827 0
725 -827 0
823 -827 0
826 827 -828 0
-826 828 0
-827 828 0
-66 -777 829 0
66 -829 0
777 -829 0
-731 -829 -830 0
731 829 -830 0
731 -829 830 0
-731 829 830 0
-830 -828 -831 0
830 828 -831 0
830 -828 831 0
-830 828 831 0
-830 -828 832 0
830 -832 0
828 -832 0
-731 -829 833 0
731 -833 0
829 -833 0
832 833 -834 0
-832 834 0
-833 834 0
-74 -777 835 0
74 -835 0
777 -835 0
-737 -835 -836 0
737 835 -836 0
737 -835 836 0
-737 835 836 0
-836 -834 -837 0
836 834 -837 0
836 -834 837 0
-836 834 837 0
-836 -834 838 0
836 -838 0
834 -838 0
-737 -835 839 0
737 -839 0
835 -839 0
838 839 -840 0
-838 840 0
-839 840 0
-82 -777 841 0
82 -841 0
777 -841 0
-743 -841 -842 0
743 841 -842 0
743 -841 842 0
-743 841 842 0
-842 -840 -843 0
842 840 -843 0
842 -840 843 0
-842 840 843 0
-842 -840 844 0
842 -844 0
840 -844 0
-743 -841 845 0
743 -845 0
841 -845 0
844 845 -846 0
-844 846 0
-845 846 0
-90 -777 847 0
90 -847 0
777 -847 0
-749 -847 -848 0
749 847 -848 0
749 -847 848 0
-749 847 848 0
-848 -846 -849 0
848 846 -849 0
848 -846 849 0
-848 846 849 0
-848 -846 850 0
848 -850 0
846 -850 0
-749 -847 851 0
749 -851 0
847 -851 0
850 851 -852 0
-850 852 0
-851 852 0
-98 -777 853 0
98 -853 0
777 -853 0
-755 -853 -854 0
755 853 -854 0
755 -853 854 0
-755 853 854 0
-854 -852 -855 0
854 852 -855 0
854 -852 855 0
-854 852 855 0
-854 -852 856 0
854 -856 0
852 -856 0
-755 -853 857 0
755 -857 0
853 -857 0
856 857 -858 0
-856 858 0
-857 858 0
-106 -777 859 0
106 -859 0
777 -859 0
-761 -859 -860 0
761 859 -860 0
761 -859 860 0
-761 859 860 0
-860 -858 -861 0
860 858 -861 0
860 -858 861 0
-860 858 861 0
-860 -858 862 0
860 -862 0
858 -862 0
-761 -859 863 0
761 -863 0
859 -863 0
862 863 -864 0
-862 864 0
-863 864 0
-114 -777 865 0
114 -865 0
777 -865 0
-767 -865 -866 0
767 865 -866 0
767 -865 866 0
-767 865 866 0
-866 -864 -867 0
866 864 -867 0
866 -864 867 0
-866 864 867 0
-866 -864 868 0
866 -868 0
864 -868 0
-767 -865 869 0
767 -869 0
865 -869 0
868 869 -870 0
-868 870 0
-869 870 0
-122 -777 871 0
122 -871 0
777 -871 0
-773 -871 -872 0
773 871 -872 0
773 -871 872 0
-773 871 872 0
-872 -870 -873 0
872 870 -873 0
872 -870 873 0
-872 870 873 0
-872 -870 874 0
872 -874 0
870 -874 0
-773 -871 875 0
773 -875 0
871 -875 0
874 875 -876 0
-874 876 0
-875 876 0
-130 -777 877 0
130 -877 0
777 -877 0
-776 -877 -878 0
776 877 -878 0
776 -877 878 0
-776 877 878 0
-878 -876 -879 0
878 876 -879 0
878 -876 879 0
-878 876 879 0
-878 -876 880 0
878 -880 0
876 -880 0
-776 -877 881 0
776 -881 0
877 -881 0
880 881 -882 0
-880 882 0
-881 882 0
-1 -883 884 0
1 -884 0
883 -884 0
-783 -884 -885 0
783 884 -885 0
783 -884 885 0
-783 884 885 0
-783 -884 886 0
783 -886 0
884 -886 0
-4 -883 887 0
4 -887 0
883 -887 0
-789 -887 -888 0
789 887 -888 0
789 -887 888 0
-789 887 888 0
-888 -886 -889 0
888 886 -889 0
888 -886 889 0
-888 886 889 0
-888 -886 890 0
888 -890 0
886 -890 0
-789 -887 891 0
789 -891 0
887 -891 0
890 891 -892 0
-890 892 0
-891 892 0
-10 -883 893 0
10 -893 0
883 -893 0
-795 -893 -894 0
795 893 -894 0
795 -893 894 0
-795 893 894 0
-894 -892 -895 0
894 892 -895 0
894 -892 895 0
-894 892 895 0
-894 -892 896 0
894 -896 0
892 -896 0
-795 -893 897 0
795 -897 0
893 -897 0
896 897 -898 0
-896 898 0
-897 898 0
-18 -883 899 0
18 -899 0
883 -899 0
-801 -899 -900 0
801 899 -900 0
801 -899 900 0
-801 899 900 0
-900 -898 -901 0
900 898 -901 0
900 -898 901 0
-900 898 901 0
-900 -898 902 0
900 -902 0
898 -902 0
-801 -899 903 0
801 -903 0
899 -903 0
902 903 -904 0
-902 904 0
-903 904 0
-26 -883 905 0
26 -905 0
883 -905 0
-807 -905 -906 0
807 905 -906 0
807 -905 906 0
-807 905 906 0
-906 -904 -907 0
906 904 -907 0
906 -904 907 0
-906 904 907 0
-906 -904 908 0
906 -908 0
904 -908 0
-807 -905 909 0
807 -909 0
905 -909 0
908 909 -910 0
-908 910 0
-909 910 0
-34 -883 911 0
34 -911 0
883 -911 0
-813 -911 -912 0
813 911 -912 0
813 -911 912 0
-813 911 912 0
-912 -910 -913 0
912 910 -913 0
912 -910 913 0
-912 910 913 0
-912 -910 914 0
912 -914 0
910 -914 0
-813 -911 915 0
813 -915 0
911 -915 0
914 915 -916 0
-914 916 0
-915 916 0
-42 -883 917 0
42 -917 0
883 -917 0
-819 -917 -918 0
819 917 -918 0
819 -917 918 0
-819 917 918 0
-918 -916 -919 0
918 916 -919 0
918 -916 919 0
-918 916 919 0
-918 -916 920 0
918 -920 0
916 -920 0
-819 -917 921 0
819 -921 0
917 -921 0
920 921 -922 0
-920 922 0
-921 922 0
-50 -883 923 0
50 -923 0
883 -923 0
-825 -923 -924 0
825 923 -924 0
825 -923 924 0
-825 923 924 0
-924 -922 -925 0
924 922 -925 0
924 -922 925 0
-924 922 925 0
-924 -922 926 0
924 -926 0
922 -926 0
-825 -923 927 0
825 -927 0
923 -927 0
926 927 -928 0
-926 928 0
-927 928 0
-58 -883 929 0
58 -929 0
883 -929 0
-831 -929 -930 0
831 929 -930 0
831 -929 930 0
-831 929 930 0
-930 -928 -931 0
930 928 -931 0
930 -928 931 0
-930 928 931 0
-930 -928 932 0
930 -932 0
928 -932 0
-831 -929 933 0
831 -933 0
929 -933 0
932 933 -934 0
-932 934 0
-933 934 0
-66 -883 935 0
66 -935 0
883 -935 0
-837 -935 -936 0
837 935 -936 0
837 -935 936 0
-837 935 936 0
-936 -934 -937 0
936 934 -937 0
936 -934 937 0
-936 934 937 0
-936 -934 938 0
936 -938 0
934 -938 0
-837 -935 939 0
837 -939 0
935 -939 0
938 939 -940 0
-938 940 0
-939 940 0
-74 -883 941 0
74 -941 0
883 -941 0
-843 -941 -942 0
843 941 -942 0
843 -941 942 0
-843 941 942 0
-942 -940 -943 0
942 940 -943 0
942 -940 943 0
-942 940 943 0
-942 -940 944 0
942 -944 0
940 -944 0
-843 -941 945 0
843 -945 0
941 -945 0
944 945 -946 0
-944 946 0
-945 946 0
-82 -883 947 0
82 -947 0
883 -947 0
-849 -947 -948 0
849 947 -948 0
849 -947 948 0
-849 947 948 0
-948 -946 -949 0
948 946 -949 0
948 -946 949 0
-948 946 949 0
-948 -946 950 0
948 -950 0
946 -950 0
-849 -947 951 0
849 -951 0
947 -951 0
950 951 -952 0
-950 952 0
-951 952 0
-90 -883 953 0
90 -953 0
883 -953 0
-855 -953 -954 0
855 953 -954 0
855 -953 954 0
-855 953 954 0
-954 -952 -955 0
954 952 -955 0
954 -952 955 0
-954 952 955 0
-954 -952 956 0
954 -956 0
952 -956 0
-855 -953 957 0
855 -957 0
953 -957 0
956 957 -958 0
-956 958 0
-957 958 0
-98 -883 959 0
98 -959 0
883 -959 0
-861 -959 -960 0
861 959 -960 0
861 -959 960 0
-861 959 960 0
-960 -958 -961 0
960 958 -961 0
960 -958 961 0
-960 958 961 0
-960 -958 962 0
960 -962 0
958 -962 0
-861 -959 963 0
861 -963 0
959 -963 0
962 963 -964 0
-962 964 0
-963 964 0
-106 -883 965 0
106 -965 0
883 -965 0
-867 -965 -966 0
867 965 -966 0
867 -965 966 0
-867 965 966 0
-966 -964 -967 0
966 964 -967 0
966 -964 967 0
-966 964 967 0
-966 -964 968 0
966 -968 0
964 -968 0
-867 -965 969 0
867 -969 0
965 -969 0
968 969 -970 0
-968 970 0
-969 970 0
-114 -883 971 0
114 -971 0
883 -971 0
-873 -971 -972 0
873 971 -972 0
873 -971 972 0
-873 971 972 0
-972 -970 -973 0
972 970 -973 0
972 -970 973 0
-972 970 973 0
-972 -970 974 0
972 -974 0
970 -974 0
-873 -971 975 0
873 -975 0
971 -975 0
974 975 -976 0
-974 976 0
-975 976 0
-122 -883 977 0
122 -977 0
883 -977 0
-879 -977 -978 0
879 977 -978 0
879 -977 978 0
-879 977 978 0
-978 -976 -979 0
978 976 -979 0
978 -976 979 0
-978 976 979 0
-978 -976 980 0
978 -980 0
976 -980 0
-879 -977 981 0
879 -981 0
977 -981 0
980 981 -982 0
-980 982 0
-981 982 0
-130 -883 983 0
130 -983 0
883 -983 0
-882 -983 -984 0
882 983 -984 0
882 -983 984 0
-882 983 984 0
-984 -982 -985 0
984 982 -985 0
984 -982 985 0
-984 982 985 0
-984 -982 986 0
984 -986 0
982 -986 0
-882 -983 987 0
882 -987 0
983 -987 0
986 987 -988 0
-986 988 0
-987 988 0
-1 -989 990 0
1 -990 0
989 -990 0
-889 -990 -991 0
889 990 -991 0
889 -990 991 0
-889 990 991 0
-889 -990 992 0
889 -992 0
990 -992 0
-4 -989 993 0
4 -993 0
989 -993 0
-895 -993 -994 0
895 993 -994 0
895 -993 994 0
-895 993 994 0
-994 -992 -995 0
994 992 -995 0
994 -992 995 0
-994 992 995 0
-994 -992 996 0
994 -996 0
992 -996 0
-895 -993 997 0
895 -997 0
993 -997 0
996 997 -998 0
-996 998 0
-997 998 0
-10 -989 999 0
10 -999 0
989 -999 0
-901 -999 -1000 0
901 999 -1000 0
901 -999 1000 0
-901 999 1000 0
-1000 -998 -1001 0
1000 998 -1001 0
1000 -998 1001 0
-1000 998 1001 0
-1000 -998 1002 0
1000 -1002 0
998 -1002 0
-901 -999 1003 0
901 -1003 0
999 -1003 0
1002 1003 -1004 0
-1002 1004 0
-1003 1004 0
-18 -989 1005 0
18 -1005 0
989 -1005 0
-907 -1005 -1006 0
907 1005 -1006 0
907 -1005 1006 0
-907 1005 1006 0
-1006 -1004 -1007 0
1006 1004 -1007 0
1006 -1004 1007 0
-1006 1004 1007 0
-1006 -1004 1008 0
1006 -1008 0
1004 -1008 0
-907 -1005 1009 0
907 -1009 0
1005 -1009 0
1008 1009 -1010 0
-1008 1010 0
-1009 1010 0
-26 -989 1011 0
26 -1011 0
989 -1011 0
-913 -1011 -1012 0
913 1011 -1012 0
913 -1011 1012 0
-913 1011 1012 0
-1012 -1010 -1013 0
1012 1010 -1013 0
1012 -1010 1013 0
-1012 1010 1013 0
-1012 -1010 1014 0
1012 -1014 0
1010 -1014 0
-913 -1011 1015 0
913 -1015 0
1011 -1015 0
1014 1015 -1016 0
-1014 1016 0
-1015 1016 0
-34 -989 1017 0
34 -1017 0
989 -1017 0
-919 -1017 -1018 0
919 1017 -1018 0
919 -1017 1018 0
-919 1017 1018 0
-1018 -1016 -1019 0
1018 1016 -1019 0
1018 -1016 1019 0
-1018 1016 1019 0
-1018 -1016 1020 0
1018 -1020 0
1016 -1020 0
-919 -1017 1021 0
919 -1021 0
1017 -1021 0
1020 1021 -1022 0
-1020 1022 0
-1021 1022 0
-42 -989 1023 0
42 -1023 0
989 -1023 0
-925 -1023 -1024 0
925 1023 -1024 0
925 -1023 1024 0
-925 1023 1024 0
-1024 -1022 -1025 0
1024 1022 -1025 0
1024 -1022 1025 0
-1024 1022 1025 0
-1024 -1022 1026 0
1024 -1026 0
1022 -1026 0
-925 -1023 1027 0
925 -1027 0
1023 -1027 0
1026 1027 -1028 0
-1026 1028 0
-1027 1028 0
-50 -989 1029 0
50 -1029 0
989 -1029 0
-931 -1029 -1030 0
931 1029 -1030 0
931 -1029 1030 0
-931 1029 1030 0
-1030 -1028 -1031 0
1030 1028 -1031 0
1030 -1028 1031 0
-1030 1028 1031 0
-1030 -1028 1032 0
1030 -1032 0
1028 -1032 0
-931 -1029 1033 0
931 -1033 0
1029 -1033 0
1032 1033 -1034 0
-1032 1034 0
-1033 1034 0
-58 -989 1035 0
58 -1035 0
989 -1035 0
-937 -1035 -1036 0
937 1035 -1036 0
937 -1035 1036 0
-937 1035 1036 0
-1036 -1034 -1037 0
1036 1034 -1037 0
1036 -1034 1037 0
-1036 1034 1037 0
-1036 -1034 1038 0
1036 -1038 0
1034 -1038 0
-937 -1035 1039 0
937 -1039 0
1035 -1039 0
1038 1039 -1040 0
-1038 1040 0
-1039 1040 0
-66 -989 1041 0
66 -1041 0
989 -1041 0
-943 -1041 -1042 0
943 1041 -1042 0
943 -1041 1042 0
-943 1041 1042 0
-1042 -1040 -1043 0
1042 1040 -1043 0
1042 -1040 1043 0
-1042 1040 1043 0
-1042 -1040 1044 0
1042 -1044 0
1040 -1044 0
-943 -1041 1045 0
943 -1045 0
1041 -1045 0
1044 1045 -1046 0
-1044 1046 0
-1045 1046 0
-74 -989 1047 0
74 -1047 0
989 -1047 0
-949 -1047 -1048 0
949 1047 -1048 0
949 -1047 1048 0
-949 1047 1048 0
-1048 -1046 -1049 0
1048 1046 -1049 0
1048 -1046 1049 0
-1048 1046 1049 0
-1048 -1046 1050 0
1048 -1050 0
1046 -1050 0
-949 -1047 1051 0
949 -1051 0
1047 -1051 0
1050 1051 -1052 0
-1050 1052 0
-1051 1052 0
-82 -989 1053 0
82 -1053 0
989 -1053 0
-955 -1053 -1054 0
955 1053 -1054 0
955 -1053 1054 0
-955 1053 1054 0
-1054 -1052 -1055 0
1054 1052 -1055 0
1054 -1052 1055 0
-1054 1052 1055 0
-1054 -1052 1056 0
1054 -1056 0
1052 -1056 0
-955 -1053 1057 0
955 -1057 0
1053 -1057 0
1056 1057 -1058 0
-1056 1058 0
-1057 1058 0
-90 -989 1059 0
90 -1059 0
989 -1059 0
-961 -1059 -1060 0
961 1059 -1060 0
961 -1059 1060 0
-961 1059 1060 0
-1060 -1058 -1061 0
1060 1058 -1061 0
1060 -1058 1061 0
-1060 1058 1061 0
-1060 -1058 1062 0
1060 -1062 0
1058 -1062 0
-961 -1059 1063 0
961 -1063 0
1059 -1063 0
1062 1063 -1064 0
-1062 1064 0
-1063 1064 0
-98 -989 1065 0
98 -1065 0
989 -1065 0
-967 -1065 -1066 0
967 1065 -1066 0
967 -1065 1066 0
-967 1065 1066 0
-1066 -1064 -1067 0
1066 1064 -1067 0
1066 -1064 1067 0
-1066 1064 1067 0
-1066 -1064 1068 0
1066 -1068 0
1064 -1068 0
-967 -1065 1069 0
967 -1069 0
1065 -1069 0
1068 1069 -1070 0
-1068 1070 0
-1069 1070 0
-106 -989 1071 0
106 -1071 0
989 -1071 0
-973 -1071 -1072 0
973 1071 -1072 0
973 -1071 1072 0
-973 1071 1072 0
-1072 -1070 -1073 0
1072 1070 -1073 0
1072 -1070 1073 0
-1072 1070 1073 0
-1072 -1070 1074 0
1072 -1074 0
1070 -1074 0
-973 -1071 1075 0
973 -1075 0
1071 -1075 0
1074 1075 -1076 0
-1074 1076 0
-1075 1076 0
-114 -989 1077 0
114 -1077 0
989 -1077 0
-979 -1077 -1078 0
979 1077 -1078 0
979 -1077 1078 0
-979 1077 1078 0
-1078 -1076 -1079 0
1078 1076 -1079 0
1078 -1076 1079 0
-1078 1076 1079 0
-1078 -1076 1080 0
1078 -1080 0
1076 -1080 0
-979 -1077 1081 0
979 -1081 0
1077 -1081 0
1080 1081 -1082 0
-1080 1082 0
-1081 1082 0
-122 -989 1083 0
122 -1083 0
989 -1083 0
-985 -1083 -1084 0
985 1083 -1084 0
985 -1083 1084 0
-985 1083 1084 0
-1084 -1082 -1085 0
1084 1082 -1085 0
1084 -1082 1085 0
-1084 1082 1085 0
-1084 -1082 1086 0
1084 -1086 0
1082 -1086 0
-985 -1083 1087 0
985 -1087 0
1083 -1087 0
1086 1087 -1088 0
-1086 1088 0
-1087 1088 0
-130 -989 1089 0
130 -1089 0
989 -1089 0
-988 -1089 -1090 0
988 1089 -1090 0
988 -1089 1090 0
-988 1089 1090 0
-1090 -1088 -1091 0
1090 1088 -1091 0
1090 -1088 1091 0
-1090 1088 1091 0
-1090 -1088 1092 0
1090 -1092 0
1088 -1092 0
-988 -1089 1093 0
988 -1093 0
1089 -1093 0
1092 1093 -1094 0
-1092 1094 0
-1093 1094 0
-1 -1095 1096 0
1 -1096 0
1095 -1096 0
-995 -1096 -1097 0
995 1096 -1097 0
995 -1096 1097 0
-995 1096 1097 0
-995 -1096 1098 0
995 -1098 0
1096 -1098 0
-4 -1095 1099 0
4 -1099 0
1095 -1099 0
-1001 -1099 -1100 0
1001 1099 -1100 0
1001 -1099 1100 0
-1001 1099 1100 0
-1100 -1098 -1101 0
1100 1098 -1101 0
1100 -1098 1101 0
-1100 1098 1101 0
-1100 -1098 1102 0
1100 -1102 0
1098 -1102 0
-1001 -1099 1103 0
1001 -1103 0
1099 -1103 0
1102 1103 -1104 0
-1102 1104 0
-1103 1104 0
-10 -1095 1105 0
10 -1105 0
1095 -1105 0
-1007 -1105 -1106 0
1007 1105 -1106 0
1007 -1105 1106 0
-1007 1105 1106 0
-1106 -1104 -1107 0
1106 1104 -1107 0
1106 -1104 1107 0
-1106 1104 1107 0
-1106 -1104 1108 0
1106 -1108 0
1104 -1108 0
-1007 -1105 1109 0
1007 -1109 0
1105 -1109 0
1108 1109 -1110 0
-1108 1110 0
-1109 1110 0
-18 -1095 1111 0
18 -1111 0
1095 -1111 0
-1013 -1111 -1112 0
1013 1111 -1112 0
1013 -1111 1112 0
-1013 1111 1112 0
-1112 -1110 -1113 0
1112 1110 -1113 0
1112 -1110 1113 0
-1112 1110 1113 0
-1112 -1110 1114 0
1112 -1114 0
1110 -1114 0
-1013 -1111 1115 0
1013 -1115 0
1111 -1115 0
1114 1115 -1116 0
-1114 1116 0
-1115 1116 0
-26 -1095 1117 0
26 -1117 0
1095 -1117 0
-1019 -1117 -1118 0
1019 1117 -1118 0
1019 -1117 1118 0
-1019 1117 1118 0
-1118 -1116 -1119 0
1118 1116 -1119 0
1118 -1116 1119 0
-1118 1116 1119 0
-1118 -1116 1120 0
1118 -1120 0
1116 -1120 0
-1019 -1117 1121 0
1019 -1121 0
1117 -1121 0
1120 1121 -1122 0
-1120 1122 0
-1121 1122 0
-34 -1095 1123 0
34 -1123 0
1095 -1123 0
-1025 -1123 -1124 0
1025 1123 -1124 0
1025 -1123 1124 0
-1025 1123 1124 0
-1124 -1122 -1125 0
1124 1122 -1125 0
1124 -1122 1125 0
-1124 1122 1125 0
-1124 -1122 1126 0
1124 -1126 0
1122 -1126 0
-1025 -1123 1127 0
1025 -1127 0
1123 -1127 0
1126 1127 -1128 0
-1126 1128 0
-1127 1128 0
-42 -1095 1129 0
42 -1129 0
1095 -1129 0
-1031 -1129 -1130 0
1031 1129 -1130 0
1031 -1129 1130 0
-1031 1129 1130 0
-1130 -1128 -1131 0
1130 1128 -1131 0
1130 -1128 1131 0
-1130 1128 1131 0
-1130 -1128 1132 0
1130 -1132 0
1128 -1132 0
-1031 -1129 1133 0
1031 -1133 0
1129 -1133 0
1132 1133 -1134 0
-1132 1134 0
-1133 1134 0
-50 -1095 1135 0
50 -1135 0
1095 -1135 0
-1037 -1135 -1136 0
1037 1135 -1136 0
1037 -1135 1136 0
-1037 1135 1136 0
-1136 -1134 -1137 0
1136 1134 -1137 0
1136 -1134 1137 0
-1136 1134 1137 0
-1136 -1134 1138 0
1136 -1138 0
1134 -1138 0
-1037 -1135 1139 0
1037 -1139 0
1135 -1139 0
1138 1139 -1140 0
-1138 1140 0
-1139 1140 0
-58 -1095 1141 0
58 -1141 0
1095 -1141 0
-1043 -1141 -1142 0
1043 1141 -1142 0
1043 -1141 1142 0
-1043 1141 1142 0
-1142 -1140 -1143 0
1142 1140 -1143 0
1142 -1140 1143 0
-1142 1140 1143 0
-1142 -1140 1144 0
1142 -1144 0
1140 -1144 0
-1043 -1141 1145 0
1043 -1145 0
1141 -1145 0
1144 1145 -1146 0
-1144 1146 0
-1145 1146 0
-66 -1095 1147 0
66 -1147 0
1095 -1147 0
-1049 -1147 -1148 0
1049 1147 -1148 0
1049 -1147 1148 0
-1049 1147 1148 0
-1148 -1146 -1149 0
1148 1146 -1149 0
1148 -1146 1149 0
-1148 1146 1149 0
-1148 -1146 1150 0
1148 -1150 0
1146 -1150 0
-1049 -1147 1151 0
1049 -1151 0
1147 -1151 0
1150 1151 -1152 0
-1150 1152 0
-1151 1152 0
-74 -1095 1153 0
74 -1153 0
1095 -1153 0
-1055 -1153 -1154 0
1055 1153 -1154 0
1055 -1153 1154 0
-1055 1153 1154 0
-1154 -1152 -1155 0
1154 1152 -1155 0
1154 -1152 1155 0
-1154 1152 1155 0
-1154 -1152 1156 0
1154 -1156 0
1152 -1156 0
-1055 -1153 1157 0
1055 -1157 0
1153 -1157 0
1156 1157 -1158 0
-1156 1158 0
-1157 1158 0
-82 -1095 1159 0
82 -1159 0
1095 -1159 0
-1061 -1159 -1160 0
1061 1159 -1160 0
1061 -1159 1160 0
-1061 1159 1160 0
-1160 -1158 -1161 0
1160 1158 -1161 0
1160 -1158 1161 0
-1160 1158 1161 0
-1160 -1158 1162 0
1160 -1162 0
1158 -1162 0
-1061 -1159 1163 0
1061 -1163 0
1159 -1163 0
1162 1163 -1164 0
-1162 1164 0
-1163 1164 0
-90 -1095 1165 0
90 -1165 0
1095 -1165 0
-1067 -1165 -1166 0
1067 1165 -1166 0
1067 -1165 1166 0
-1067 1165 1166 0
-1166 -1164 -1167 0
1166 1164 -1167 0
1166 -1164 1167 0
-1166 1164 1167 0
-1166 -1164 1168 0
1166 -1168 0
1164 -1168 0
-1067 -1165 1169 0
1067 -1169 0
1165 -1169 0
1168 1169 -1170 0
-1168 1170 0
-1169 1170 0
-98 -1095 1171 0
98 -1171 0
1095 -1171 0
-1073 -1171 -1172 0
1073 1171 -1172 0
1073 -1171 1172 0
-1073 1171 1172 0
-1172 -1170 -1173 0
1172 1170 -1173 0
1172 -1170 1173 0
-1172 1170 1173 0
-1172 -1170 1174 0
1172 -1174 0
1170 -1174 0
-1073 -1171 1175 0
1073 -1175 0
1171 -1175 0
1174 1175 -1176 0
-1174 1176 0
-1175 1176 0
-106 -1095 1177 0
106 -1177 0
1095 -1177 0
-1079 -1177 -1178 0
1079 1177 -1178 0
1079 -1177 1178 0
-1079 1177 1178 0
-1178 -1176 -1179 0
1178 1176 -1179 0
1178 -1176 1179 0
-1178 1176 1179 0
-1178 -1176 1180 0
1178 -1180 0
1176 -1180 0
-1079 -1177 1181 0
1079 -1181 0
1177 -1181 0
1180 1181 -1182 0
-1180 1182 0
-1181 1182 0
-114 -1095 1183 0
114 -1183 0
1095 -1183 0
-1085 -1183 -1184 0
1085 1183 -1184 0
1085 -1183 1184 0
-1085 1183 1184 0
-1184 -1182 -1185 0
1184 1182 -1185 0
1184 -1182 1185 0
-1184 1182 1185 0
-1184 -1182 1186 0
1184 -1186 0
1182 -1186 0
-1085 -1183 1187 0
1085 -1187 0
1183 -1187 0
1186 1187 -1188 0
-1186 1188 0
-1187 1188 0
-122 -1095 1189 0
122 -1189 0
1095 -1189 0
-1091 -1189 -1190 0
1091 1189 -1190 0
1091 -1189 1190 0
-1091 1189 1190 0
-1190 -1188 -1191 0
1190 1188 -1191 0
1190 -1188 1191 0
-1190 1188 1191 0
-1190 -1188 1192 0
1190 -1192 0
1188 -1192 0
-1091 -1189 1193 0
1091 -1193 0
1189 -1193 0
1192 1193 -1194 0
-1192 1194 0
-1193 1194 0
-130 -1095 1195 0
130 -1195 0
1095 -1195 0
-1094 -1195 -1196 0
1094 1195 -1196 0
1094 -1195 1196 0
-1094 1195 1196 0
-1196 -1194 -1197 0
1196 1194 -1197 0
1196 -1194 1197 0
-1196 1194 1197 0
-1196 -1194 1198 0
1196 -1198 0
1194 -1198 0
-1094 -1195 1199 0
1094 -1199 0
1195 -1199 0
1198 1199 -1200 0
-1198 1200 0
-1199 1200 0
-1 -1201 1202 0
1 -1202 0
1201 -1202 0
-1101 -1202 -1203 0
1101 1202 -1203 0
1101 -1202 1203 0
-1101 1202 1203 0
-1101 -1202 1204 0
1101 -1204 0
1202 -1204 0
-4 -1201 1205 0
4 -1205 0
1201 -1205 0
-1107 -1205 -1206 0
1107 1205 -1206 0
1107 -1205 1206 0
-1107 1205 1206 0
-1206 -1204 -1207 0
1206 1204 -1207 0
1206 -1204 1207 0
-1206 1204 1207 0
-1206 -1204 1208 0
1206 -1208 0
1204 -1208 0
-1107 -1205 1209 0
1107 -1209 0
1205 -1209 0
1208 1209 -1210 0
-1208 1210 0
-1209 1210 0
-10 -1201 1211 0
10 -1211 0
1201 -1211 0
-1113 -1211 -1212 0
1113 1211 -1212 0
1113 -1211 1212 0
-1113 1211 1212 0
-1212 -1210 -1213 0
1212 1210 -1213 0
1212 -1210 1213 0
-1212 1210 1213 0
-1212 -1210 1214 0
1212 -1214 0
1210 -1214 0
-1113 -1211 1215 0
1113 -1215 0
1211 -1215 0
1214 1215 -1216 0
-1214 1216 0
-1215 1216 0
-18 -1201 1217 0
18 -1217 0
1201 -1217 0
-1119 -1217 -1218 0
1119 1217 -1218 0
1119 -1217 1218 0
-1119 1217 1218 0
-1218 -1216 -1219 0
1218 1216 -1219 0
1218 -1216 1219 0
-1218 1216 1219 0
-1218 -1216 1220 0
1218 -1220 0
1216 -1220 0
-1119 -1217 1221 0
1119 -1221 0
1217 -1221 0
1220 1221 -1222 0
-1220 1222 0
-1221 1222 0
-26 -1201 1223 0
26 -1223 0
1201 -1223 0
-1125 -1223 -1224 0
1125 1223 -1224 0
1125 -1223 1224 0
-1125 1223 1224 0
-1224 -1222 -1225 0
1224 1222 -1225 0
1224 -1222 1225 0
-1224 1222 1225 0
-1224 -1222 1226 0
1224 -1226 0
1222 -1226 0
-1125 -1223 1227 0
1125 -1227 0
1223 -1227 0
1226 1227 -1228 0
-1226 1228 0
-1227 1228 0
-34 -1201 1229 0
34 -1229 0
1201 -1229 0
-1131 -1229 -1230 0
1131 1229 -1230 0
1131 -1229 1230 0
-1131 1229 1230 0
-1230 -1228 -1231 0
1230 1228 -1231 0
1230 -1228 1231 0
-1230 1228 1231 0
-1230 -1228 1232 0
1230 -1232 0
1228 -1232 0
-1131 -1229 1233 0
1131 -1233 0
1229 -1233 0
1232 1233 -1234 0
-1232 1234 0
-1233 1234 0
-42 -1201 1235 0
42 -1235 0
1201 -1235 0
-1137 -1235 -1236 0
1137 1235 -1236 0
1137 -1235 1236 0
-1137 1235 1236 0
-1236 -1234 -1237 0
1236 1234 -1237 0
1236 -1234 1237 0
-1236 1234 1237 0
-1236 -1234 1238 0
1236 -1238 0
1234 -1238 0
-1137 -1235 1239 0
1137 -1239 0
1235 -1239 0
1238 1239 -1240 0
-1238 1240 0
-1239 1240 0
-50 -1201 1241 0
50 -1241 0
1201 -1241 0
-1143 -1241 -1242 0
1143 1241 -1242 0
1143 -1241 1242 0
-1143 1241 1242 0
-1242 -1240 -1243 0
1242 1240 -1243 0
1242 -1240 1243 0
-1242 1240 1243 0
-1242 -1240 1244 0
1242 -1244 0
1240 -1244 0
-1143 -1241 1245 0
1143 -1245 0
1241 -1245 0
1244 1245 -1246 0
-1244 1246 0
-1245 1246 0
-58 -1201 1247 0
58 -1247 0
1201 -1247 0
-1149 -1247 -1248 0
1149 1247 -1248 0
1149 -1247 1248 0
-1149 1247 1248 0
-1248 -1246 -1249 0
1248 1246 -1249 0
1248 -1246 1249 0
-1248 1246 1249 0
-1248 -1246 1250 0
1248 -1250 0
1246 -1250 0
-1149 -1247 1251 0
1149 -1251 0
1247 -1251 0
1250 1251 -1252 0
-1250 1252 0
-1251 1252 0
-66 -1201 1253 0
66 -1253 0
1201 -1253 0
-1155 -1253 -1254 0
1155 1253 -1254 0
1155 -1253 1254 0
-1155 1253 1254 0
-1254 -1252 -1255 0
1254 1252 -1255 0
1254 -1252 1255 0
-1254 1252 1255 0
-1254 -1252 1256 0
1254 -1256 0
1252 -1256 0
-1155 -1253 1257 0
1155 -1257 0
1253 -1257 0
1256 1257 -1258 0
-1256 1258 0
-1257 1258 0
-74 -1201 1259 0
74 -1259 0
1201 -1259 0
-1161 -1259 -1260 0
1161 1259 -1260 0
1161 -1259 1260 0
-1161 1259 1260 0
-1260 -1258 -1261 0
1260 1258 -1261 0
1260 -1258 1261 0
-1260 1258 1261 0
-1260 -1258 1262 0
1260 -1262 0
1258 -1262 0
-1161 -1259 1263 0
1161 -1263 0
1259 -1263 0
1262 1263 -1264 0
-1262 1264 0
-1263 1264 0
-82 -1201 1265 0
82 -1265 0
1201 -1265 0
-1167 -1265 -1266 0
1167 1265 -1266 0
1167 -1265 1266 0
-1167 1265 1266 0
-1266 -1264 -1267 0
1266 1264 -1267 0
1266 -1264 1267 0
-1266 1264 1267 0
-1266 -1264 1268 0
1266 -1268 0
1264 -1268 0
-1167 -1265 1269 0
1167 -1269 0
1265 -1269 0
1268 1269 -1270 0
-1268 1270 0
-1269 1270 0
-90 -1201 1271 0
90 -1271 0
1201 -1271 0
-1173 -1271 -1272 0
1173 1271 -1272 0
1173 -1271 1272 0
-1173 1271 1272 0
-1272 -1270 -1273 0
1272 1270 -1273 0
1272 -1270 1273 0
-1272 1270 1273 0
-1272 -1270 1274 0
1272 -1274 0
1270 -1274 0
-1173 -1271 1275 0
1173 -1275 0
1271 -1275 0
1274 1275 -1276 0
-1274 1276 0
-1275 1276 0
-98 -1201 1277 0
98 -1277 0
1201 -1277 0
-1179 -1277 -1278 0
1179 1277 -1278 0
1179 -1277 1278 0
-1179 1277 1278 0
-1278 -1276 -1279 0
1278 1276 -1279 0
1278 -1276 1279 0
-1278 1276 1279 0
-1278 -1276 1280 0
1278 -1280 0
1276 -1280 0
-1179 -1277 1281 0
1179 -1281 0
1277 -1281 0
1280 1281 -1282 0
-1280 1282 0
-1281 1282 0
-106 -1201 1283 0
106 -1283 0
1201 -1283 0
-1185 -1283 -1284 0
1185 1283 -1284 0
1185 -1283 1284 0
-1185 1283 1284 0
-1284 -1282 -1285 0
1284 1282 -1285 0
1284 -1282 1285 0
-1284 1282 1285 0
-1284 -1282 1286 0
1284 -1286 0
1282 -1286 0
-1185 -1283 1287 0
1185 -1287 0
1283 -1287 0
1286 1287 -1288 0
-1286 1288 0
-1287 1288 0
-114 -1201 1289 0
114 -1289 0
1201 -1289 0
-1191 -1289 -1290 0
1191 1289 -1290 0
1191 -1289 1290 0
-1191 1289 1290 0
-1290 -1288 -1291 0
1290 1288 -1291 0
1290 -1288 1291 0
-1290 1288 1291 0
-1290 -1288 1292 0
1290 -1292 0
1288 -1292 0
-1191 -1289 1293 0
1191 -1293 0
1289 -1293 0
1292 1293 -1294 0
-1292 1294 0
-1293 1294 0
-122 -1201 1295 0
122 -1295 0
1201 -1295 0
-1197 -1295 -1296 0
1197 1295 -1296 0
1197 -1295 1296 0
-1197 1295 1296 0
-1296 -1294 -1297 0
1296 1294 -1297 0
1296 -1294 1297 0
-1296 1294 1297 0
-1296 -1294 1298 0
1296 -1298 0
1294 -1298 0
-1197 -1295 1299 0
1197 -1299 0
1295 -1299 0
1298 1299 -1300 0
-1298 1300 0
-1299 1300 0
-130 -1201 1301 0
130 -1301 0
1201 -1301 0
-1200 -1301 -1302 0
1200 1301 -1302 0
1200 -1301 1302 0
-1200 1301 1302 0
-1302 -1300 -1303 0
1302 1300 -1303 0
1302 -1300 1303 0
-1302 1300 1303 0
-1302 -1300 1304 0
1302 -1304 0
1300 -1304 0
-1200 -1301 1305 0
1200 -1305 0
1301 -1305 0
1304 1305 -1306 0
-1304 1306 0
-1305 1306 0
-1 -1307 1308 0
1 -1308 0
1307 -1308 0
-1207 -1308 -1309 0
1207 1308 -1309 0
1207 -1308 1309 0
-1207 1308 1309 0
-1207 -1308 1310 0
1207 -1310 0
1308 -1310 0
-4 -1307 1311 0
4 -1311 0
1307 -1311 0
-1213 -1311 -1312 0
1213 1311 -1312 0
1213 -1311 1312 0
-1213 1311 1312 0
-1312 -1310 -1313 0
1312 1310 -1313 0
1312 -1310 1313 0
-1312 1310 1313 0
-1312 -1310 1314 0
1312 -1314 0
1310 -1314 0
-1213 -1311 1315 0
1213 -1315 0
1311 -1315 0
1314 1315 -1316 0
-1314 1316 0
-1315 1316 0
-10 -1307 1317 0
10 -1317 0
1307 -1317 0
-1219 -1317 -1318 0
1219 1317 -1318 0
1219 -1317 1318 0
-1219 1317 1318 0
-1318 -1316 -1319 0
1318 1316 -1319 0
1318 -1316 1319 0
-1318 1316 1319 0
-1318 -1316 1320 0
1318 -1320 0
1316 -1320 0
-1219 -1317 1321 0
1219 -1321 0
1317 -1321 0
1320 1321 -1322 0
-1320 1322 0
-1321 1322 0
-18 -1307 1323 0
18 -1323 0
1307 -1323 0
-1225 -1323 -1324 0
1225 1323 -1324 0
1225 -1323 1324 0
-1225 1323 1324 0
-1324 -1322 -1325 0
1324 1322 -1325 0
1324 -1322 1325 0
-1324 1322 1325 0
-1324 -1322 1326 0
1324 -1326 0
1322 -1326 0
-1225 -1323 1327 0
1225 -1327 0
1323 -1327 0
1326 1327 -1328 0
-1326 1328 0
-1327 1328 0
-26 -1307 1329 0
26 -1329 0
1307 -1329 0
-1231 -1329 -1330 0
1231 1329 -1330 0
1231 -1329 1330 0
-1231 1329 1330 0
-1330 -1328 -1331 0
1330 1328 -1331 0
1330 -1328 1331 0
-1330 1328 1331 0
-1330 -1328 1332 0
1330 -1332 0
1328 -1332 0
-1231 -1329 1333 0
1231 -1333 0
1329 -1333 0
1332 1333 -1334 0
-1332 1334 0
-1333 1334 0
-34 -1307 1335 0
34 -1335 0
1307 -1335 0
-1237 -1335 -1336 0
1237 1335 -1336 0
1237 -1335 1336 0
-1237 1335 1336 0
-1336 -1334 -1337 0
1336 1334 -1337 0
1336 -1334 1337 0
-1336 1334 1337 0
-1336 -1334 1338 0
1336 -1338 0
1334 -1338 0
-1237 -1335 1339 0
1237 -1339 0
1335 -1339 0
1338 1339 -1340 0
-1338 1340 0
-1339 1340 0
-42 -1307 1341 0
42 -1341 0
1307 -1341 0
-1243 -1341 -1342 0
1243 1341 -1342 0
1243 -1341 1342 0
-1243 1341 1342 0
-1342 -1340 -1343 0
1342 1340 -1343 0
1342 -1340 1343 0
-1342 1340 1343 0
-1342 -1340 1344 0
1342 -1344 0
1340 -1344 0
-1243 -1341 1345 0
1243 -1345 0
1341 -1345 0
1344 1345 -1346 0
-1344 1346 0
-1345 1346 0
-50 -1307 1347 0
50 -1347 0
1307 -1347 0
-1249 -1347 -1348 0
1249 1347 -1348 0
1249 -1347 1348 0
-1249 1347 1348 0
-1348 -1346 -1349 0
1348 1346 -1349 0
1348 -1346 1349 0
-1348 1346 1349 0
-1348 -1346 1350 0
1348 -1350 0
1346 -1350 0
-1249 -1347 1351 0
1249 -1351 0
1347 -1351 0
1350 1351 -1352 0
-1350 1352 0
-1351 1352 0
-58 -1307 1353 0
58 -1353 0
1307 -1353 0
-1255 -1353 -1354 0
1255 1353 -1354 0
1255 -1353 1354 0
-1255 1353 1354 0
-1354 -1352 -1355 0
1354 1352 -1355 0
1354 -1352 1355 0
-1354 1352 1355 0
-1354 -1352 1356 0
1354 -1356 0
1352 -1356 0
-1255 -1353 1357 0
1255 -1357 0
1353 -1357 0
1356 1357 -1358 0
-1356 1358 0
-1357 1358 0
-66 -1307 1359 0
66 -1359 0
1307 -1359 0
-1261 -1359 -1360 0
1261 1359 -1360 0
1261 -1359 1360 0
-1261 1359 1360 0
-1360 -1358 -1361 0
1360 1358 -1361 0
1360 -1358 1361 0
-1360 1358 1361 0
-1360 -1358 1362 0
1360 -1362 0
1358 -1362 0
-1261 -1359 1363 0
1261 -1363 0
1359 -1363 0
1362 1363 -1364 0
-1362 1364 0
-1363 1364 0
-74 -1307 1365 0
74 -1365 0
1307 -1365 0
-1267 -1365 -1366 0
1267 1365 -1366 0
1267 -1365 1366 0
-1267 1365 1366 0
-1366 -1364 -1367 0
1366 1364 -1367 0
1366 -1364 1367 0
-1366 1364 1367 0
-1366 -1364 1368 0
1366 -1368 0
1364 -1368 0
-1267 -1365 1369 0
1267 -1369 0
1365 -1369 0
1368 1369 -1370 0
-1368 1370 0
-1369 1370 0
-82 -1307 1371 0
82 -1371 0
1307 -1371 0
-1273 -1371 -1372 0
1273 1371 -1372 0
1273 -1371 1372 0
-1273 1371 1372 0
-1372 -1370 -1373 0
1372 1370 -1373 0
1372 -1370 1373 0
-1372 1370 1373 0
-1372 -1370 1374 0
1372 -1374 0
1370 -1374 0
-1273 -1371 1375 0
1273 -1375 0
1371 -1375 0
1374 1375 -1376 0
-1374 1376 0
-1375 1376 0
-90 -1307 1377 0
90 -1377 0
1307 -1377 0
-1279 -1377 -1378 0
1279 1377 -1378 0
1279 -1377 1378 0
-1279 1377 1378 0
-1378 -1376 -1379 0
1378 1376 -1379 0
1378 -1376 1379 0
-1378 1376 1379 0
-1378 -1376 1380 0
1378 -1380 0
1376 -1380 0
-1279 -1377 1381 0
1279 -1381 0
1377 -1381 0
1380 1381 -1382 0
-1380 1382 0
-1381 1382 0
-98 -1307 1383 0
98 -1383 0
1307 -1383 0
-1285 -1383 -1384 0
1285 1383 -1384 0
1285 -1383 1384 0
-1285 1383 1384 0
-1384 -1382 -1385 0
1384 1382 -1385 0
1384 -1382 1385 0
-1384 1382 1385 0
-1384 -1382 1386 0
1384 -1386 0
1382 -1386 0
-1285 -1383 1387 0
1285 -1387 0
1383 -1387 0
1386 1387 -1388 0
-1386 1388 0
-1387 1388 0
-106 -1307 1389 0
106 -1389 0
1307 -1389 0
-1291 -1389 -1390 0
1291 1389 -1390 0
1291 -1389 1390 0
-1291 1389 1390 0
-1390 -1388 -1391 0
1390 1388 -1391 0
1390 -1388 1391 0
-1390 1388 1391 0
-1390 -1388 1392 0
1390 -1392 0
1388 -1392 0
-1291 -1389 1393 0
1291 -1393 0
1389 -1393 0
1392 1393 -1394 0
-1392 1394 0
-1393 1394 0
-114 -1307 1395 0
114 -1395 0
1307 -1395 0
-1297 -1395 -1396 0
1297 1395 -1396 0
1297 -1395 1396 0
-1297 1395 1396 0
-1396 -1394 -1397 0
1396 1394 -1397 0
1396 -1394 1397 0
-1396 1394 1397 0
-1396 -1394 1398 0
1396 -1398 0
1394 -1398 0
-1297 -1395 1399 0
1297 -1399 0
1395 -1399 0
1398 1399 -1400 0
-1398 1400 0
-1399 1400 0
-122 -1307 1401 0
122 -1401 0
1307 -1401 0
-1303 -1401 -1402 0
1303 1401 -1402 0
1303 -1401 1402 0
-1303 1401 1402 0
-1402 -1400 -1403 0
1402 1400 -1403 0
1402 -1400 1403 0
-1402 1400 1403 0
-1402 -1400 1404 0
1402 -1404 0
1400 -1404 0
-1303 -1401 1405 0
1303 -1405 0
1401 -1405 0
1404 1405 -1406 0
-1404 1406 0
-1405 1406 0
-130 -1307 1407 0
130 -1407 0
1307 -1407 0
-1306 -1407 -1408 0
1306 1407 -1408 0
1306 -1407 1408 0
-1306 1407 1408 0
-1408 -1406 -1409 0
1408 1406 -1409 0
1408 -1406 1409 0
-1408 1406 1409 0
-1408 -1406 1410 0
1408 -1410 0
1406 -1410 0
-1306 -1407 1411 0
1306 -1411 0
1407 -1411 0
1410 1411 -1412 0
-1410 1412 0
-1411 1412 0
-1 -1413 1414 0
1 -1414 0
1413 -1414 0
-1313 -1414 -1415 0
1313 1414 -1415 0
1313 -1414 1415 0
-1313 1414 1415 0
-1313 -1414 1416 0
1313 -1416 0
1414 -1416 0
-4 -1413 1417 0
4 -1417 0
1413 -1417 0
-1319 -1417 -1418 0
1319 1417 -1418 0
1319 -1417 1418 0
-1319 1417 1418 0
-1418 -1416 -1419 0
1418 1416 -1419 0
1418 -1416 1419 0
-1418 1416 1419 0
-1418 -1416 1420 0
1418 -1420 0
1416 -1420 0
-1319 -1417 1421 0
1319 -1421 0
1417 -1421 0
1420 1421 -1422 0
-1420 1422 0
-1421 1422 0
-10 -1413 1423 0
10 -1423 0
1413 -1423 0
-1325 -1423 -1424 0
1325 1423 -1424 0
1325 -1423 1424 0
-1325 1423 1424 0
-1424 -1422 -1425 0
1424 1422 -1425 0
1424 -1422 1425 0
-1424 1422 1425 0
-1424 -1422 1426 0
1424 -1426 0
1422 -1426 0
-1325 -1423 1427 0
1325 -1427 0
1423 -1427 0
1426 1427 -1428 0
-1426 1428 0
-1427 1428 0
-18 -1413 1429 0
18 -1429 0
1413 -1429 0
-1331 -1429 -1430 0
1331 1429 -1430 0
1331 -1429 1430 0
-1331 1429 1430 0
-1430 -1428 -1431 0
1430 1428 -1431 0
1430 -1428 1431 0
-1430 1428 1431 0
-1430 -1428 1432 0
1430 -1432 0
1428 -1432 0
-1331 -1429 1433 0
1331 -1433 0
1429 -1433 0
1432 1433 -1434 0
-1432 1434 0
-1433 1434 0
-26 -1413 1435 0
26 -1435 0
1413 -1435 0
-1337 -1435 -1436 0
1337 1435 -1436 0
1337 -1435 1436 0
-1337 1435 1436 0
-1436 -1434 -1437 0
1436 1434 -1437 0
1436 -1434 1437 0
-1436 1434 1437 0
-1436 -1434 1438 0
1436 -1438 0
1434 -1438 0
-1337 -1435 1439 0
1337 -1439 0
1435 -1439 0
1438 1439 -1440 0
-1438 1440 0
-1439 1440 0
-34 -1413 1441 0
34 -1441 0
1413 -1441 0
-1343 -1441 -1442 0
1343 1441 -1442 0
1343 -1441 1442 0
-1343 1441 1442 0
-1442 -1440 -1443 0
1442 1440 -1443 0
1442 -1440 1443 0
-1442 1440 1443 0
-1442 -1440 1444 0
1442 -1444 0
1440 -1444 0
-1343 -1441 1445 0
1343 -1445 0
1441 -1445 0
1444 1445 -1446 0
-1444 1446 0
-1445 1446 0
-42 -1413 1447 0
42 -1447 0
1413 -1447 0
-1349 -1447 -1448 0
1349 1447 -1448 0
1349 -1447 1448 0
-1349 1447 1448 0
-1448 -1446 -1449 0
1448 1446 -1449 0
1448 -1446 1449 0
-1448 1446 1449 0
-1448 -1446 1450 0
1448 -1450 0
1446 -1450 0
-1349 -1447 1451 0
1349 -1451 0
1447 -1451 0
1450 1451 -1452 0
-1450 1452 0
-1451 1452 0
-50 -1413 1453 0
50 -1453 0
1413 -1453 0
-1355 -1453 -1454 0
1355 1453 -1454 0
1355 -1453 1454 0
-1355 1453 1454 0
-1454 -1452 -1455 0
1454 1452 -1455 0
1454 -1452 1455 0
-1454 1452 1455 0
-1454 -1452 1456 0
1454 -1456 0
1452 -1456 0
-1355 -1453 1457 0
1355 -1457 0
1453 -1457 0
1456 1457 -1458 0
-1456 1458 0
-1457 1458 0
-58 -1413 1459 0
58 -1459 0
1413 -1459 0
-1361 -1459 -1460 0
1361 1459 -1460 0
1361 -1459 1460 0
-1361 1459 1460 0
-1460 -1458 -1461 0
1460 1458 -1461 0
1460 -1458 1461 0
-1460 1458 1461 0
-1460 -1458 1462 0
1460 -1462 0
1458 -1462 0
-1361 -1459 1463 0
1361 -1463 0
1459 -1463 0
1462 1463 -1464 0
-1462 1464 0
-1463 1464 0
-66 -1413 1465 0
66 -1465 0
1413 -1465 0
-1367 -1465 -1466 0
1367 1465 -1466 0
1367 -1465 1466 0
-1367 1465 1466 0
-1466 -1464 -1467 0
1466 1464 -1467 0
1466 -1464 1467 0
-1466 1464 1467 0
-1466 -1464 1468 0
1466 -1468 0
1464 -1468 0
-1367 -1465 1469 0
1367 -1469 0
1465 -1469 0
1468 1469 -1470 0
-1468 1470 0
-1469 1470 0
-74 -1413 1471 0
74 -1471 0
1413 -1471 0
-1373 -1471 -1472 0
1373 1471 -1472 0
1373 -1471 1472 0
-1373 1471 1472 0
-1472 -1470 -1473 0
1472 1470 -1473 0
1472 -1470 1473 0
-1472 1470 1473 0
-1472 -1470 1474 0
1472 -1474 0
1470 -1474 0
-1373 -1471 1475 0
1373 -1475 0
1471 -1475 0
1474 1475 -1476 0
-1474 1476 0
-1475 1476 0
-82 -1413 1477 0
82 -1477 0
1413 -1477 0
-1379 -1477 -1478 0
1379 1477 -1478 0
1379 -1477 1478 0
-1379 1477 1478 0
-1478 -1476 -1479 0
1478 1476 -1479 0
1478 -1476 1479 0
-1478 1476 1479 0
-1478 -1476 1480 0
1478 -1480 0
1476 -1480 0
-1379 -1477 1481 0
1379 -1481 0
1477 -1481 0
1480 1481 -1482 0
-1480 1482 0
-1481 1482 0
-90 -1413 1483 0
90 -1483 0
1413 -1483 0
-1385 -1483 -1484 0
1385 1483 -1484 0
1385 -1483 1484 0
-1385 1483 1484 0
-1484 -1482 -1485 0
1484 1482 -1485 0
1484 -1482 1485 0
-1484 1482 1485 0
-1484 -1482 1486 0
1484 -1486 0
1482 -1486 0
-1385 -1483 1487 0
1385 -1487 0
1483 -1487 0
1486 1487 -1488 0
-1486 1488 0
-1487 1488 0
-98 -1413 1489 0
98 -1489 0
1413 -1489 0
-1391 -1489 -1490 0
1391 1489 -1490 0
1391 -1489 1490 0
-1391 1489 1490 0
-1490 -1488 -1491 0
1490 1488 -1491 0
1490 -1488 1491 0
-1490 1488 1491 0
-1490 -1488 1492 0
1490 -1492 0
1488 -1492 0
-1391 -1489 1493 0
1391 -1493 0
1489 -1493 0
1492 1493 -1494 0
-1492 1494 0
-1493 1494 0
-106 -1413 1495 0
106 -1495 0
1413 -1495 0
-1397 -1495 -1496 0
1397 1495 -1496 0
1397 -1495 1496 0
-1397 1495 1496 0
-1496 -1494 -1497 0
1496 1494 -1497 0
1496 -1494 1497 0
-1496 1494 1497 0
-1496 -1494 1498 0
1496 -1498 0
1494 -1498 0
-1397 -1495 1499 0
1397 -1499 0
1495 -1499 0
1498 1499 -1500 0
-1498 1500 0
-1499 1500 0
-114 -1413 1501 0
114 -1501 0
1413 -1501 0
-1403 -1501 -1502 0
1403 1501 -1502 0
1403 -1501 1502 0
-1403 1501 1502 0
-1502 -1500 -1503 0
1502 1500 -1503 0
1502 -1500 1503 0
-1502 1500 1503 0
-1502 -1500 1504 0
1502 -1504 0
1500 -1504 0
-1403 -1501 1505 0
1403 -1505 0
1501 -1505 0
1504 1505 -1506 0
-1504 1506 0
-1505 1506 0
-122 -1413 1507 0
122 -1507 0
1413 -1507 0
-1409 -1507 -1508 0
1409 1507 -1508 0
1409 -1507 1508 0
-1409 1507 1508 0
-1508 -1506 -1509 0
1508 1506 -1509 0
1508 -1506 1509 0
-1508 1506 1509 0
-1508 -1506 1510 0
1508 -1510 0
1506 -1510 0
-1409 -1507 1511 0
1409 -1511 0
1507 -1511 0
1510 1511 -1512 0
-1510 1512 0
-1511 1512 0
-130 -1413 1513 0
130 -1513 0
1413 -1513 0
-1412 -1513 -1514 0
1412 1513 -1514 0
1412 -1513 1514 0
-1412 1513 1514 0
-1514 -1512 -1515 0
1514 1512 -1515 0
1514 -1512 1515 0
-1514 1512 1515 0
-1514 -1512 1516 0
1514 -1516 0
1512 -1516 0
-1412 -1513 1517 0
1412 -1517 0
1513 -1517 0
1516 1517 -1518 0
-1516 1518 0
-1517 1518 0
-1 -1519 1520 0
1 -1520 0
1519 -1520 0
-1419 -1520 -1521 0
1419 1520 -1521 0
1419 -1520 1521 0
-1419 1520 1521 0
-1419 -1520 1522 0
1419 -1522 0
1520 -1522 0
-4 -1519 1523 0
4 -1523 0
1519 -1523 0
-1425 -1523 -1524 0
1425 1523 -1524 0
1425 -1523 1524 0
-1425 1523 1524 0
-1524 -1522 -1525 0
1524 1522 -1525 0
1524 -1522 1525 0
-1524 1522 1525 0
-1524 -1522 1526 0
1524 -1526 0
1522 -1526 0
-1425 -1523 1527 0
1425 -1527 0
1523 -1527 0
1526 1527 -1528 0
-1526 1528 0
-1527 1528 0
-10 -1519 1529 0
10 -1529 0
1519 -1529 0
-1431 -1529 -1530 0
1431 1529 -1530 0
1431 -1529 1530 0
-1431 1529 1530 0
-1530 -1528 -1531 0
1530 1528 -1531 0
1530 -1528 1531 0
-1530 1528 1531 0
-1530 -1528 1532 0
1530 -1532 0
1528 -1532 0
-1431 -1529 1533 0
1431 -1533 0
1529 -1533 0
1532 1533 -1534 0
-1532 1534 0
-1533 1534 0
-18 -1519 1535 0
18 -1535 0
1519 -1535 0
-1437 -1535 -1536 0
1437 1535 -1536 0
1437 -1535 1536 0
-1437 1535 1536 0
-1536 -1534 -1537 0
1536 1534 -1537 0
1536 -1534 1537 0
-1536 1534 1537 0
-1536 -1534 1538 0
1536 -1538 0
1534 -1538 0
-1437 -1535 1539 0
1437 -1539 0
1535 -1539 0
1538 1539 -1540 0
-1538 1540 0
-1539 1540 0
-26 -1519 1541 0
26 -1541 0
1519 -1541 0
-1443 -1541 -1542 0
1443 1541 -1542 0
1443 -1541 1542 0
-1443 1541 1542 0
-1542 -1540 -1543 0
1542 1540 -1543 0
1542 -1540 1543 0
-1542 1540 1543 0
-1542 -1540 1544 0
1542 -1544 0
1540 -1544 0
-1443 -1541 1545 0
1443 -1545 0
1541 -1545 0
1544 1545 -1546 0
-1544 1546 0
-1545 1546 0
-34 -1519 1547 0
34 -1547 0
1519 -1547 0
-1449 -1547 -1548 0
1449 1547 -1548 0
1449 -1547 1548 0
-1449 1547 1548 0
-1548 -1546 -1549 0
1548 1546 -1549 0
1548 -1546 1549 0
-1548 1546 1549 0
-1548 -1546 1550 0
1548 -1550 0
1546 -1550 0
-1449 -1547 1551 0
1449 -1551 0
1547 -1551 0
1550 1551 -1552 0
-1550 1552 0
-1551 1552 0
-42 -1519 1553 0
42 -1553 0
1519 -1553 0
-1455 -1553 -1554 0
1455 1553 -1554 0
1455 -1553 1554 0
-1455 1553 1554 0
-1554 -1552 -1555 0
1554 1552 -1555 0
1554 -1552 1555 0
-1554 1552 1555 0
-1554 -1552 1556 0
1554 -1556 0
1552 -1556 0
-1455 -1553 1557 0
1455 -1557 0
1553 -1557 0
1556 1557 -1558 0
-1556 1558 0
-1557 1558 0
-50 -1519 1559 0
50 -1559 0
1519 -1559 0
-1461 -1559 -1560 0
1461 1559 -1560 0
1461 -1559 1560 0
-1461 1559 1560 0
-1560 -1558 -1561 0
1560 1558 -1561 0
1560 -1558 1561 0
-1560 1558 1561 0
-1560 -1558 1562 0
1560 -1562 0
1558 -1562 0
-1461 -1559 1563 0
1461 -1563 0
1559 -1563 0
1562 1563 -1564 0
-1562 1564 0
-1563 1564 0
-58 -1519 1565 0
58 -1565 0
1519 -1565 0
-1467 -1565 -1566 0
1467 1565 -1566 0
1467 -1565 1566 0
-1467 1565 1566 0
-1566 -1564 -1567 0
1566 1564 -1567 0
1566 -1564 1567 0
-1566 1564 1567 0
-1566 -1564 1568 0
1566 -1568 0
1564 -1568 0
-1467 -1565 1569 0
1467 -1569 0
1565 -1569 0
1568 1569 -1570 0
-1568 1570 0
-1569 1570 0
-66 -1519 1571 0
66 -1571 0
1519 -1571 0
-1473 -1571 -1572 0
1473 1571 -1572 0
1473 -1571 1572 0
-1473 1571 1572 0
-1572 -1570 -1573 0
1572 1570 -1573 0
1572 -1570 1573 0
-1572 1570 1573 0
-1572 -1570 1574 0
1572 -1574 0
1570 -1574 0
-1473 -1571 1575 0
1473 -1575 0
1571 -1575 0
1574 1575 -1576 0
-1574 1576 0
-1575 1576 0
-74 -1519 1577 0
74 -1577 0
1519 -1577 0
-1479 -1577 -1578 0
1479 1577 -1578 0
1479 -1577 1578 0
-1479 1577 1578 0
-1578 -1576 -1579 0
1578 1576 -1579 0
1578 -1576 1579 0
-1578 1576 1579 0
-1578 -1576 1580 0
1578 -1580 0
1576 -1580 0
-1479 -1577 1581 0
1479 -1581 0
1577 -1581 0
1580 1581 -1582 0
-1580 1582 0
-1581 1582 0
-82 -1519 1583 0
82 -1583 0
1519 -1583 0
-1485 -1583 -1584 0
1485 1583 -1584 0
1485 -1583 1584 0
-1485 1583 1584 0
-1584 -1582 -1585 0
1584 1582 -1585 0
1584 -1582 1585 0
-1584 1582 1585 0
-1584 -1582 1586 0
1584 -1586 0
1582 -1586 0
-1485 -1583 1587 0
1485 -1587 0
1583 -1587 0
1586 1587 -1588 0
-1586 1588 0
-1587 1588 0
-90 -1519 1589 0
90 -1589 0
1519 -1589 0
-1491 -1589 -1590 0
1491 1589 -1590 0
1491 -1589 1590 0
-1491 1589 1590 0
-1590 -1588 -1591 0
1590 1588 -1591 0
1590 -1588 1591 0
-1590 1588 1591 0
-1590 -1588 1592 0
1590 -1592 0
1588 -1592 0
-1491 -1589 1593 0
1491 -1593 0
1589 -1593 0
1592 1593 -1594 0
-1592 1594 0
-1593 1594 0
-98 -1519 1595 0
98 -1595 0
1519 -1595 0
-1497 -1595 -1596 0
1497 1595 -1596 0
1497 -1595 1596 0
-1497 1595 1596 0
-1596 -1594 -1597 0
1596 1594 -1597 0
1596 -1594 1597 0
-1596 1594 1597 0
-1596 -1594 1598 0
1596 -1598 0
1594 -1598 0
-1497 -1595 1599 0
1497 -1599 0
1595 -1599 0
1598 1599 -1600 0
-1598 1600 0
-1599 1600 0
-106 -1519 1601 0
106 -1601 0
1519 -1601 0
-1503 -1601 -1602 0
1503 1601 -1602 0
1503 -1601 1602 0
-1503 1601 1602 0
-1602 -1600 -1603 0
1602 1600 -1603 0
1602 -1600 1603 0
-1602 1600 1603 0
-1602 -1600 1604 0
1602 -1604 0
1600 -1604 0
-1503 -1601 1605 0
1503 -1605 0
1601 -1605 0
1604 1605 -1606 0
-1604 1606 0
-1605 1606 0
-114 -1519 1607 0
114 -1607 0
1519 -1607 0
-1509 -1607 -1608 0
1509 1607 -1608 0
1509 -1607 1608 0
-1509 1607 1608 0
-1608 -1606 -1609 0
1608 1606 -1609 0
1608 -1606 1609 0
-1608 1606 1609 0
-1608 -1606 1610 0
1608 -1610 0
1606 -1610 0
-1509 -1607 1611 0
1509 -1611 0
1607 -1611 0
1610 1611 -1612 0
-1610 1612 0
-1611 1612 0
-122 -1519 1613 0
122 -1613 0
1519 -1613 0
-1515 -1613 -1614 0
1515 1613 -1614 0
1515 -1613 1614 0
-1515 1613 1614 0
-1614 -1612 -1615 0
1614 1612 -1615 0
1614 -1612 1615 0
-1614 1612 1615 0
-1614 -1612 1616 0
1614 -1616 0
1612 -1616 0
-1515 -1613 1617 0
1515 -1617 0
1613 -1617 0
1616 1617 -1618 0
-1616 1618 0
-1617 1618 0
-130 -1519 1619 0
130 -1619 0
1519 -1619 0
-1518 -1619 -1620 0
1518 1619 -1620 0
1518 -1619 1620 0
-1518 1619 1620 0
-1620 -1618 -1621 0
1620 1618 -1621 0
1620 -1618 1621 0
-1620 1618 1621 0
-1620 -1618 1622 0
1620 -1622 0
1618 -1622 0
-1518 -1619 1623 0
1518 -1623 0
1619 -1623 0
1622 1623 -1624 0
-1622 1624 0
-1623 1624 0
-1 -1625 1626 0
1 -1626 0
1625 -1626 0
-1525 -1626 -1627 0
1525 1626 -1627 0
1525 -1626 1627 0
-1525 1626 1627 0
-1525 -1626 1628 0
1525 -1628 0
1626 -1628 0
-4 -1625 1629 0
4 -1629 0
1625 -1629 0
-1531 -1629 -1630 0
1531 1629 -1630 0
1531 -1629 1630 0
-1531 1629 1630 0
-1630 -1628 -1631 0
1630 1628 -1631 0
1630 -1628 1631 0
-1630 1628 1631 0
-1630 -1628 1632 0
1630 -1632 0
1628 -1632 0
-1531 -1629 1633 0
1531 -1633 0
1629 -1633 0
1632 1633 -1634 0
-1632 1634 0
-1633 1634 0
-10 -1625 1635 0
10 -1635 0
1625 -1635 0
-1537 -1635 -1636 0
1537 1635 -1636 0
1537 -1635 1636 0
-1537 1635 1636 0
-1636 -1634 -1637 0
1636 1634 -1637 0
1636 -1634 1637 0
-1636 1634 1637 0
-1636 -1634 1638 0
1636 -1638 0
1634 -1638 0
-1537 -1635 1639 0
1537 -1639 0
1635 -1639 0
1638 1639 -1640 0
-1638 1640 0
-1639 1640 0
-18 -1625 1641 0
18 -1641 0
1625 -1641 0
-1543 -1641 -1642 0
1543 1641 -1642 0
1543 -1641 1642 0
-1543 1641 1642 0
-1642 -1640 -1643 0
1642 1640 -1643 0
1642 -1640 1643 0
-1642 1640 1643 0
-1642 -1640 1644 0
1642 -1644 0
1640 -1644 0
-1543 -1641 1645 0
1543 -1645 0
1641 -1645 0
1644 1645 -1646 0
-1644 1646 0
-1645 1646 0
-26 -1625 1647 0
26 -1647 0
1625 -1647 0
-1549 -1647 -1648 0
1549 1647 -1648 0
1549 -1647 1648 0
-1549 1647 1648 0
-1648 -1646 -1649 0
1648 1646 -1649 0
1648 -1646 1649 0
-1648 1646 1649 0
-1648 -1646 1650 0
1648 -1650 0
1646 -1650 0
-1549 -1647 1651 0
1549 -1651 0
1647 -1651 0
1650 1651 -1652 0
-1650 1652 0
-1651 1652 0
-34 -1625 1653 0
34 -1653 0
1625 -1653 0
-1555 -1653 -1654 0
1555 1653 -1654 0
1555 -1653 1654 0
-1555 1653 1654 0
-1654 -1652 -1655 0
1654 1652 -1655 0
1654 -1652 1655 0
-1654 1652 1655 0
-1654 -1652 1656 0
1654 -1656 0
1652 -1656 0
-1555 -1653 1657 0
1555 -1657 0
1653 -1657 0
1656 1657 -1658 0
-1656 1658 0
-1657 1658 0
-42 -1625 1659 0
42 -1659 0
1625 -1659 0
-1561 -1659 -1660 0
1561 1659 -1660 0
1561 -1659 1660 0
-1561 1659 1660 0
-1660 -1658 -1661 0
1660 1658 -1661 0
1660 -1658 1661 0
-1660 1658 1661 0
-1660 -1658 1662 0
1660 -1662 0
1658 -1662 0
-1561 -1659 1663 0
1561 -1663 0
1659 -1663 0
1662 1663 -1664 0
-1662 1664 0
-1663 1664 0
-50 -1625 1665 0
50 -1665 0
1625 -1665 0
-1567 -1665 -1666 0
1567 1665 -1666 0
1567 -1665 1666 0
-1567 1665 1666 0
-1666 -1664 -1667 0
1666 1664 -1667 0
1666 -1664 1667 0
-1666 1664 1667 0
-1666 -1664 1668 0
1666 -1668 0
1664 -1668 0
-1567 -1665 1669 0
1567 -1669 0
1665 -1669 0
1668 1669 -1670 0
-1668 1670 0
-1669 1670 0
-58 -1625 1671 0
58 -1671 0
1625 -1671 0
-1573 -1671 -1672 0
1573 1671 -1672 0
1573 -1671 1672 0
-1573 1671 1672 0
-1672 -1670 -1673 0
1672 1670 -1673 0
1672 -1670 1673 0
-1672 1670 1673 0
-1672 -1670 1674 0
1672 -1674 0
1670 -1674 0
-1573 -1671 1675 0
1573 -1675 0
1671 -1675 0
1674 1675 -1676 0
-1674 1676 0
-1675 1676 0
-66 -1625 1677 0
66 -1677 0
1625 -1677 0
-1579 -1677 -1678 0
1579 1677 -1678 0
1579 -1677 1678 0
-1579 1677 1678 0
-1678 -1676 -1679 0
1678 1676 -1679 0
1678 -1676 1679 0
-1678 1676 1679 0
-1678 -1676 1680 0
1678 -1680 0
1676 -1680 0
-1579 -1677 1681 0
1579 -1681 0
1677 -1681 0
1680 1681 -1682 0
-1680 1682 0
-1681 1682 0
-74 -1625 1683 0
74 -1683 0
1625 -1683 0
-1585 -1683 -1684 0
1585 1683 -1684 0
1585 -1683 1684 0
-1585 1683 1684 0
-1684 -1682 -1685 0
1684 1682 -1685 0
1684 -1682 1685 0
-1684 1682 1685 0
-1684 -1682 1686 0
1684 -1686 0
1682 -1686 0
-1585 -1683 1687 0
1585 -1687 0
1683 -1687 0
1686 1687 -1688 0
-1686 1688 0
-1687 1688 0
-82 -1625 1689 0
82 -1689 0
1625 -1689 0
-1591 -1689 -1690 0
1591 1689 -1690 0
1591 -1689 1690 0
-1591 1689 1690 0
-1690 -1688 -1691 0
1690 1688 -1691 0
1690 -1688 1691 0
-1690 1688 1691 0
-1690 -1688 1692 0
1690 -1692 0
1688 -1692 0
-1591 -1689 1693 0
1591 -1693 0
1689 -1693 0
1692 1693 -1694 0
-1692 1694 0
-1693 1694 0
-90 -1625 1695 0
90 -1695 0
1625 -1695 0
-1597 -1695 -1696 0
1597 1695 -1696 0
1597 -1695 1696 0
-1597 1695 1696 0
-1696 -1694 -1697 0
1696 1694 -1697 0
1696 -1694 1697 0
-1696 1694 1697 0
-1696 -1694 1698 0
1696 -1698 0
1694 -1698 0
-1597 -1695 1699 0
1597 -1699 0
1695 -1699 0
1698 1699 -1700 0
-1698 1700 0
-1699 1700 0
-98 -1625 1701 0
98 -1701 0
1625 -1701 0
-1603 -1701 -1702 0
1603 1701 -1702 0
1603 -1701 1702 0
-1603 1701 1702 0
-1702 -1700 -1703 0
1702 1700 -1703 0
1702 -1700 1703 0
-1702 1700 1703 0
-1702 -1700 1704 0
1702 -1704 0
1700 -1704 0
-1603 -1701 1705 0
1603 -1705 0
1701 -1705 0
1704 1705 -1706 0
-1704 1706 0
-1705 1706 0
-106 -1625 1707 0
106 -1707 0
1625 -1707 0
-1609 -1707 -1708 0
1609 1707 -1708 0
1609 -1707 1708 0
-1609 1707 1708 0
-1708 -1706 -1709 0
1708 1706 -1709 0
1708 -1706 1709 0
-1708 1706 1709 0
-1708 -1706 1710 0
1708 -1710 0
1706 -1710 0
-1609 -1707 1711 0
1609 -1711 0
1707 -1711 0
1710 1711 -1712 0
-1710 1712 0
-1711 1712 0
-114 -1625 1713 0
114 -1713 0
1625 -1713 0
-1615 -1713 -1714 0
1615 1713 -1714 0
1615 -1713 1714 0
-1615 1713 1714 0
-1714 -1712 -1715 0
1714 1712 -1715 0
1714 -1712 1715 0
-1714 1712 1715 0
-1714 -1712 1716 0
1714 -1716 0
1712 -1716 0
-1615 -1713 1717 0
1615 -1717 0
1713 -1717 0
1716 1717 -1718 0
-1716 1718 0
-1717 1718 0
-122 -1625 1719 0
122 -1719 0
1625 -1719 0
-1621 -1719 -1720 0
1621 1719 -1720 0
1621 -1719 1720 0
-1621 1719 1720 0
-1720 -1718 -1721 0
1720 1718 -1721 0
1720 -1718 1721 0
-1720 1718 1721 0
-1720 -1718 1722 0
1720 -1722 0
1718 -1722 0
-1621 -1719 1723 0
1621 -1723 0
1719 -1723 0
1722 1723 -1724 0
-1722 1724 0
-1723 1724 0
-130 -1625 1725 0
130 -1725 0
1625 -1725 0
-1624 -1725 -1726 0
1624 1725 -1726 0
1624 -1725 1726 0
-1624 1725 1726 0
-1726 -1724 -1727 0
1726 1724 -1727 0
1726 -1724 1727 0
-1726 1724 1727 0
-1726 -1724 1728 0
1726 -1728 0
1724 -1728 0
-1624 -1725 1729 0
1624 -1729 0
1725 -1729 0
1728 1729 -1730 0
-1728 1730 0
-1729 1730 0
-1 -1731 1732 0
1 -1732 0
1731 -1732 0
-1631 -1732 -1733 0
1631 1732 -1733 0
1631 -1732 1733 0
-1631 1732 1733 0
-1631 -1732 1734 0
1631 -1734 0
1732 -1734 0
-4 -1731 1735 0
4 -1735 0
1731 -1735 0
-1637 -1735 -1736 0
1637 1735 -1736 0
1637 -1735 1736 0
-1637 1735 1736 0
-1736 -1734 -1737 0
1736 1734 -1737 0
1736 -1734 1737 0
-1736 1734 1737 0
-1736 -1734 1738 0
1736 -1738 0
1734 -1738 0
-1637 -1735 1739 0
1637 -1739 0
1735 -1739 0
1738 1739 -1740 0
-1738 1740 0
-1739 1740 0
-10 -1731 1741 0
10 -1741 0
1731 -1741 0
-1643 -1741 -1742 0
1643 1741 -1742 0
1643 -1741 1742 0
-1643 1741 1742 0
-1742 -1740 -1743 0
1742 1740 -1743 0
1742 -1740 1743 0
-1742 1740 1743 0
-1742 -1740 1744 0
1742 -1744 0
1740 -1744 0
-1643 -1741 1745 0
1643 -1745 0
1741 -1745 0
1744 1745 -1746 0
-1744 1746 0
-1745 1746 0
-18 -1731 1747 0
18 -1747 0
1731 -1747 0
-1649 -1747 -1748 0
1649 1747 -1748 0
1649 -1747 1748 0
-1649 1747 1748 0
-1748 -1746 -1749 0
1748 1746 -1749 0
1748 -1746 1749 0
-1748 1746 1749 0
-1748 -1746 1750 0
1748 -1750 0
1746 -1750 0
-1649 -1747 1751 0
1649 -1751 0
1747 -1751 0
1750 1751 -1752 0
-1750 1752 0
-1751 1752 0
-26 -1731 1753 0
26 -1753 0
1731 -1753 0
-1655 -1753 -1754 0
1655 1753 -1754 0
1655 -1753 1754 0
-1655 1753 1754 0
-1754 -1752 -1755 0
1754 1752 -1755 0
1754 -1752 1755 0
-1754 1752 1755 0
-1754 -1752 1756 0
1754 -1756 0
1752 -1756 0
-1655 -1753 1757 0
1655 -1757 0
1753 -1757 0
1756 1757 -1758 0
-1756 1758 0
-1757 1758 0
-34 -1731 1759 0
34 -1759 0
1731 -1759 0
-1661 -1759 -1760 0
1661 1759 -1760 0
1661 -1759 1760 0
-1661 1759 1760 0
-1760 -1758 -1761 0
1760 1758 -1761 0
1760 -1758 1761 0
-1760 1758 1761 0
-1760 -1758 1762 0
1760 -1762 0
1758 -1762 0
-1661 -1759 1763 0
1661 -1763 0
1759 -1763 0
1762 1763 -1764 0
-1762 1764 0
-1763 1764 0
-42 -1731 1765 0
42 -1765 0
1731 -1765 0
-1667 -1765 -1766 0
1667 1765 -1766 0
1667 -1765 1766 0
-1667 1765 1766 0
-1766 -1764 -1767 0
1766 1764 -1767 0
1766 -1764 1767 0
-1766 1764 1767 0
-1766 -1764 1768 0
1766 -1768 0
1764 -1768 0
-1667 -1765 1769 0
1667 -1769 0
1765 -1769 0
1768 1769 -1770 0
-1768 1770 0
-1769 1770 0
-50 -1731 1771 0
50 -1771 0
1731 -1771 0
-1673 -1771 -1772 0
1673 1771 -1772 0
1673 -1771 1772 0
-1673 1771 1772 0
-1772 -1770 -1773 0
1772 1770 -1773 0
1772 -1770 1773 0
-1772 1770 1773 0
-1772 -1770 1774 0
1772 -1774 0
1770 -1774 0
-1673 -1771 1775 0
1673 -1775 0
1771 -1775 0
1774 1775 -1776 0
-1774 1776 0
-1775 1776 0
-58 -1731 1777 0
58 -1777 0
1731 -1777 0
-1679 -1777 -1778 0
1679 1777 -1778 0
1679 -1777 1778 0
-1679 1777 1778 0
-1778 -1776 -1779 0
1778 1776 -1779 0
1778 -1776 1779 0
-1778 1776 1779 0
-1778 -1776 1780 0
1778 -1780 0
1776 -1780 0
-1679 -1777 1781 0
1679 -1781 0
1777 -1781 0
1780 1781 -1782 0
-1780 1782 0
-1781 1782 0
-66 -1731 1783 0
66 -1783 0
1731 -1783 0
-1685 -1783 -1784 0
1685 1783 -1784 0
1685 -1783 1784 0
-1685 1783 1784 0
-1784 -1782 -1785 0
1784 1782 -1785 0
1784 -1782 1785 0
-1784 1782 1785 0
-1784 -1782 1786 0
1784 -1786 0
1782 -1786 0
-1685 -1783 1787 0
1685 -1787 0
1783 -1787 0
1786 1787 -1788 0
-1786 1788 0
-1787 1788 0
-74 -1731 1789 0
74 -1789 0
1731 -1789 0
-1691 -1789 -1790 0
1691 1789 -1790 0
1691 -1789 1790 0
-1691 1789 1790 0
-1790 -1788 -1791 0
1790 1788 -1791 0
1790 -1788 1791 0
-1790 1788 1791 0
-1790 -1788 1792 0
1790 -1792 0
1788 -1792 0
-1691 -1789 1793 0
1691 -1793 0
1789 -1793 0
1792 1793 -1794 0
-1792 1794 0
-1793 1794 0
-82 -1731 1795 0
82 -1795 0
1731 -1795 0
-1697 -1795 -1796 0
1697 1795 -1796 0
1697 -1795 1796 0
-1697 1795 1796 0
-1796 -1794 -1797 0
1796 1794 -1797 0
1796 -1794 1797 0
-1796 1794 1797 0
-1796 -1794 1798 0
1796 -1798 0
1794 -1798 0
-1697 -1795 1799 0
1697 -1799 0
1795 -1799 0
1798 1799 -1800 0
-1798 1800 0
-1799 1800 0
-90 -1731 1801 0
90 -1801 0
1731 -1801 0
-1703 -1801 -1802 0
1703 1801 -1802 0
1703 -1801 1802 0
-1703 1801 1802 0
-1802 -1800 -1803 0
1802 1800 -1803 0
1802 -1800 1803 0
-1802 1800 1803 0
-1802 -1800 1804 0
1802 -1804 0
1800 -1804 0
-1703 -1801 1805 0
1703 -1805 0
1801 -1805 0
1804 1805 -1806 0
-1804 1806 0
-1805 1806 0
-98 -1731 1807 0
98 -1807 0
1731 -1807 0
-1709 -1807 -1808 0
1709 1807 -1808 0
1709 -1807 1808 0
-1709 1807 1808 0
-1808 -1806 -1809 0
1808 1806 -1809 0
1808 -1806 1809 0
-1808 1806 1809 0
-1808 -1806 1810 0
1808 -1810 0
1806 -1810 0
-1709 -1807 1811 0
1709 -1811 0
1807 -1811 0
1810 1811 -1812 0
-1810 1812 0
-1811 1812 0
-106 -1731 1813 0
106 -1813 0
1731 -1813 0
-1715 -1813 -1814 0
1715 1813 -1814 0
1715 -1813 1814 0
-1715 1813 1814 0
-1814 -1812 -1815 0
1814 1812 -1815 0
1814 -1812 1815 0
-1814 1812 1815 0
-1814 -1812 1816 0
1814 -1816 0
1812 -1816 0
-1715 -1813 1817 0
1715 -1817 0
1813 -1817 0
1816 1817 -1818 0
-1816 1818 0
-1817 1818 0
-114 -1731 1819 0
114 -1819 0
1731 -1819 0
-1721 -1819 -1820 0
1721 1819 -1820 0
1721 -1819 1820 0
-1721 1819 1820 0
-1820 -1818 -1821 0
1820 1818 -1821 0
1820 -1818 1821 0
-1820 1818 1821 0
-1820 -1818 1822 0
1820 -1822 0
1818 -1822 0
-1721 -1819 1823 0
1721 -1823 0
1819 -1823 0
1822 1823 -1824 0
-1822 1824 0
-1823 1824 0
-122 -1731 1825 0
122 -1825 0
1731 -1825 0
-1727 -1825 -1826 0
1727 1825 -1826 0
1727 -1825 1826 0
-1727 1825 1826 0
-1826 -1824 -1827 0
1826 1824 -1827 0
1826 -1824 1827 0
-1826 1824 1827 0
-1826 -1824 1828 0
1826 -1828 0
1824 -1828 0
-1727 -1825 1829 0
1727 -1829 0
1825 -1829 0
1828 1829 -1830 0
-1828 1830 0
-1829 1830 0
-130 -1731 1831 0
130 -1831 0
1731 -1831 0
-1730 -1831 -1832 0
1730 1831 -1832 0
1730 -1831 1832 0
-1730 1831 1832 0
-1832 -1830 -1833 0
1832 1830 -1833 0
1832 -1830 1833 0
-1832 1830 1833 0
-1832 -1830 1834 0
1832 -1834 0
1830 -1834 0
-1730 -1831 1835 0
1730 -1835 0
1831 -1835 0
1834 1835 -1836 0
-1834 1836 0
-1835 1836 0
3 0
8 0
-143 0
249 0
-355 0
461 0
567 0
-673 0
-779 0
-885 0
991 0
-1097 0
-1203 0
-1309 0
-1415 0
-1521 0
-1627 0
-1733 0
-1737 0
1743 0
-1749 0
-1755 0
-1761 0
1767 0
-1773 0
-1779 0
-1785 0
-1791 0
-1797 0
-1803 0
-1809 0
-1815 0
-1821 0
-1827 0
1833 0
-1836 0
