p cnf 180 570
-1 -2 3 0
1 -3 0
2 -3 0
-4 -2 5 0
4 -5 0
2 -5 0
-1 -6 7 0
1 -7 0
6 -7 0
-5 -7 -8 0
5 7 -8 0
5 -7 8 0
-5 7 8 0
-5 -7 9 0
5 -9 0
7 -9 0
-10 -2 11 0
10 -11 0
2 -11 0
-4 -6 12 0
4 -12 0
6 -12 0
-11 -12 -13 0
11 12 -13 0
11 -12 13 0
-11 12 13 0
-13 -9 -14 0
13 9 -14 0
13 -9 14 0
-13 9 14 0
-13 -9 15 0
13 -15 0
9 -15 0
-11 -12 16 0
11 -16 0
12 -16 0
15 16 -17 0
-15 17 0
-16 17 0
-18 -2 19 0
18 -19 0
2 -19 0
-10 -6 20 0
10 -20 0
6 -20 0
-19 -20 -21 0
19 20 -21 0
19 -20 21 0
-19 20 21 0
-21 -17 -22 0
21 17 -22 0
21 -17 22 0
-21 17 22 0
-21 -17 23 0
21 -23 0
17 -23 0
-19 -20 24 0
19 -24 0
20 -24 0
23 24 -25 0
-23 25 0
-24 25 0
-26 -2 27 0
26 -27 0
2 -27 0
-18 -6 28 0
18 -28 0
6 -28 0
-27 -28 -29 0
27 28 -29 0
27 -28 29 0
-27 28 29 0
-29 -25 -30 0
29 25 -30 0
29 -25 30 0
-29 25 30 0
-29 -25 31 0
29 -31 0
25 -31 0
-27 -28 32 0
27 -32 0
28 -32 0
31 32 -33 0
-31 33 0
-32 33 0
-34 -2 35 0
34 -35 0
2 -35 0
-26 -6 36 0
26 -36 0
6 -36 0
-35 -36 -37 0
35 36 -37 0
35 -36 37 0
-35 36 37 0
-37 -33 -38 0
37 33 -38 0
37 -33 38 0
-37 33 38 0
-37 -33 39 0
37 -39 0
33 -39 0
-35 -36 40 0
35 -40 0
36 -40 0
39 40 -41 0
-39 41 0
-40 41 0
-34 -6 42 0
34 -42 0
6 -42 0
-41 -42 -43 0
41 42 -43 0
41 -42 43 0
-41 42 43 0
-41 -42 44 0
41 -44 0
42 -44 0
-1 -45 46 0
1 -46 0
45 -46 0
-14 -46 -47 0
14 46 -47 0
14 -46 47 0
-14 46 47 0
-14 -46 48 0
14 -48 0
46 -48 0
-4 -45 49 0
4 -49 0
45 -49 0
-22 -49 -50 0
22 49 -50 0
22 -49 50 0
-22 49 50 0
-50 -48 -51 0
50 48 -51 0
50 -48 51 0
-50 48 51 0
-50 -48 52 0
50 -52 0
48 -52 0
-22 -49 53 0
22 -53 0
49 -53 0
52 53 -54 0
-52 54 0
-53 54 0
-10 -45 55 0
10 -55 0
45 -55 0
-30 -55 -56 0
30 55 -56 0
30 -55 56 0
-30 55 56 0
-56 -54 -57 0
56 54 -57 0
56 -54 57 0
-56 54 57 0
-56 -54 58 0
56 -58 0
54 -58 0
-30 -55 59 0
30 -59 0
55 -59 0
58 59 -60 0
-58 60 0
-59 60 0
-18 -45 61 0
18 -61 0
45 -61 0
-38 -61 -62 0
38 61 -62 0
38 -61 62 0
-38 61 62 0
-62 -60 -63 0
62 60 -63 0
62 -60 63 0
-62 60 63 0
-62 -60 64 0
62 -64 0
60 -64 0
-38 -61 65 0
38 -65 0
61 -65 0
64 65 -66 0
-64 66 0
-65 66 0
-26 -45 67 0
26 -67 0
45 -67 0
-43 -67 -68 0
43 67 -68 0
43 -67 68 0
-43 67 68 0
-68 -66 -69 0
68 66 -69 0
68 -66 69 0
-68 66 69 0
-68 -66 70 0
68 -70 0
66 -70 0
-43 -67 71 0
43 -71 0
67 -71 0
70 71 -72 0
-70 72 0
-71 72 0
-34 -45 73 0
34 -73 0
45 -73 0
-44 -73 -74 0
44 73 -74 0
44 -73 74 0
-44 73 74 0
-74 -72 -75 0
74 72 -75 0
74 -72 75 0
-74 72 75 0
-74 -72 76 0
74 -76 0
72 -76 0
-44 -73 77 0
44 -77 0
73 -77 0
76 77 -78 0
-76 78 0
-77 78 0
-1 -79 80 0
1 -80 0
79 -80 0
-51 -80 -81 0
51 80 -81 0
51 -80 81 0
-51 80 81 0
-51 -80 82 0
51 -82 0
80 -82 0
-4 -79 83 0
4 -83 0
79 -83 0
-57 -83 -84 0
57 83 -84 0
57 -83 84 0
-57 83 84 0
-84 -82 -85 0
84 82 -85 0
84 -82 85 0
-84 82 85 0
-84 -82 86 0
84 -86 0
82 -86 0
-57 -83 87 0
57 -87 0
83 -87 0
86 87 -88 0
-86 88 0
-87 88 0
-10 -79 89 0
10 -89 0
79 -89 0
-63 -89 -90 0
63 89 -90 0
63 -89 90 0
-63 89 90 0
-90 -88 -91 0
90 88 -91 0
90 -88 91 0
-90 88 91 0
-90 -88 92 0
90 -92 0
88 -92 0
-63 -89 93 0
63 -93 0
89 -93 0
92 93 -94 0
-92 94 0
-93 94 0
-18 -79 95 0
18 -95 0
79 -95 0
-69 -95 -96 0
69 95 -96 0
69 -95 96 0
-69 95 96 0
-96 -94 -97 0
96 94 -97 0
96 -94 97 0
-96 94 97 0
-96 -94 98 0
96 -98 0
94 -98 0
-69 -95 99 0
69 -99 0
95 -99 0
98 99 -100 0
-98 100 0
-99 100 0
-26 -79 101 0
26 -101 0
79 -101 0
-75 -101 -102 0
75 101 -102 0
75 -101 102 0
-75 101 102 0
-102 -100 -103 0
102 100 -103 0
102 -100 103 0
-102 100 103 0
-102 -100 104 0
102 -104 0
100 -104 0
-75 -101 105 0
75 -105 0
101 -105 0
104 105 -106 0
-104 106 0
-105 106 0
-34 -79 107 0
34 -107 0
79 -107 0
-78 -107 -108 0
78 107 -108 0
78 -107 108 0
-78 107 108 0
-108 -106 -109 0
108 106 -109 0
108 -106 109 0
-108 106 109 0
-108 -106 110 0
108 -110 0
106 -110 0
-78 -107 111 0
78 -111 0
107 -111 0
110 111 -112 0
-110 112 0
-111 112 0
-1 -113 114 0
1 -114 0
113 -114 0
-85 -114 -115 0
85 114 -115 0
85 -114 115 0
-85 114 115 0
-85 -114 116 0
85 -116 0
114 -116 0
-4 -113 117 0
4 -117 0
113 -117 0
-91 -117 -118 0
91 117 -118 0
91 -117 118 0
-91 117 118 0
-118 -116 -119 0
118 116 -119 0
118 -116 119 0
-118 116 119 0
-118 -116 120 0
118 -120 0
116 -120 0
-91 -117 121 0
91 -121 0
117 -121 0
120 121 -122 0
-120 122 0
-121 122 0
-10 -113 123 0
10 -123 0
113 -123 0
-97 -123 -124 0
97 123 -124 0
97 -123 124 0
-97 123 124 0
-124 -122 -125 0
124 122 -125 0
124 -122 125 0
-124 122 125 0
-124 -122 126 0
124 -126 0
122 -126 0
-97 -123 127 0
97 -127 0
123 -127 0
126 127 -128 0
-126 128 0
-127 128 0
-18 -113 129 0
18 -129 0
113 -129 0
-103 -129 -130 0
103 129 -130 0
103 -129 130 0
-103 129 130 0
-130 -128 -131 0
130 128 -131 0
130 -128 131 0
-130 128 131 0
-130 -128 132 0
130 -132 0
128 -132 0
-103 -129 133 0
103 -133 0
129 -133 0
132 133 -134 0
-132 134 0
-133 134 0
-26 -113 135 0
26 -135 0
113 -135 0
-109 -135 -136 0
109 135 -136 0
109 -135 136 0
-109 135 136 0
-136 -134 -137 0
136 134 -137 0
136 -134 137 0
-136 134 137 0
-136 -134 138 0
136 -138 0
134 -138 0
-109 -135 139 0
109 -139 0
135 -139 0
138 139 -140 0
-138 140 0
-139 140 0
-34 -113 141 0
34 -141 0
113 -141 0
-112 -141 -142 0
112 141 -142 0
112 -141 142 0
-112 141 142 0
-142 -140 -143 0
142 140 -143 0
142 -140 143 0
-142 140 143 0
-142 -140 144 0
142 -144 0
140 -144 0
-112 -141 145 0
112 -145 0
141 -145 0
144 145 -146 0
-144 146 0
-145 146 0
-1 -147 148 0
1 -148 0
147 -148 0
-119 -148 -149 0
119 148 -149 0
119 -148 149 0
-119 148 149 0
-119 -148 150 0
119 -150 0
148 -150 0
-4 -147 151 0
4 -151 0
147 -151 0
-125 -151 -152 0
125 151 -152 0
125 -151 152 0
-125 151 152 0
-152 -150 -153 0
152 150 -153 0
152 -150 153 0
-152 150 153 0
-152 -150 154 0
152 -154 0
150 -154 0
-125 -151 155 0
125 -155 0
151 -155 0
154 155 -156 0
-154 156 0
-155 156 0
-10 -147 157 0
10 -157 0
147 -157 0
-131 -157 -158 0
131 157 -158 0
131 -157 158 0
-131 157 158 0
-158 -156 -159 0
158 156 -159 0
158 -156 159 0
-158 156 159 0
-158 -156 160 0
158 -160 0
156 -160 0
-131 -157 161 0
131 -161 0
157 -161 0
160 161 -162 0
-160 162 0
-161 162 0
-18 -147 163 0
18 -163 0
147 -163 0
-137 -163 -164 0
137 163 -164 0
137 -163 164 0
-137 163 164 0
-164 -162 -165 0
164 162 -165 0
164 -162 165 0
-164 162 165 0
-164 -162 166 0
164 -166 0
162 -166 0
-137 -163 167 0
137 -167 0
163 -167 0
166 167 -168 0
-166 168 0
-167 168 0
-26 -147 169 0
26 -169 0
147 -169 0
-143 -169 -170 0
143 169 -170 0
143 -169 170 0
-143 169 170 0
-170 -168 -171 0
170 168 -171 0
170 -168 171 0
-170 168 171 0
-170 -168 172 0
170 -172 0
168 -172 0
-143 -169 173 0
143 -173 0
169 -173 0
172 173 -174 0
-172 174 0
-173 174 0
-34 -147 175 0
34 -175 0
147 -175 0
-146 -175 -176 0
146 175 -176 0
146 -175 176 0
-146 175 176 0
-176 -174 -177 0
176 174 -177 0
176 -174 177 0
-176 174 177 0
-176 -174 178 0
176 -178 0
174 -178 0
-146 -175 179 0
146 -179 0
175 -179 0
178 179 -180 0
-178 180 0
-179 180 0
3 0
-8 0
47 0
81 0
-115 0
149 0
153 0
159 0
165 0
-171 0
177 0
-180 0
