p cnf 432 1395
-1 -2 3 0
1 -3 0
2 -3 0
-4 -2 5 0
4 -5 0
2 -5 0
-1 -6 7 0
1 -7 0
6 -7 0
-5 -7 -8 0
5 7 -8 0
5 -7 8 0
-5 7 8 0
-5 -7 9 0
5 -9 0
7 -9 0
-10 -2 11 0
10 -11 0
2 -11 0
-4 -6 12 0
4 -12 0
6 -12 0
-11 -12 -13 0
11 12 -13 0
11 -12 13 0
-11 12 13 0
-13 -9 -14 0
13 9 -14 0
13 -9 14 0
-13 9 14 0
-13 -9 15 0
13 -15 0
9 -15 0
-11 -12 16 0
11 -16 0
12 -16 0
15 16 -17 0
-15 17 0
-16 17 0
-18 -2 19 0
18 -19 0
2 -19 0
-10 -6 20 0
10 -20 0
6 -20 0
-19 -20 -21 0
19 20 -21 0
19 -20 21 0
-19 20 21 0
-21 -17 -22 0
21 17 -22 0
21 -17 22 0
-21 17 22 0
-21 -17 23 0
21 -23 0
17 -23 0
-19 -20 24 0
19 -24 0
20 -24 0
23 24 -25 0
-23 25 0
-24 25 0
-26 -2 27 0
26 -27 0
2 -27 0
-18 -6 28 0
18 -28 0
6 -28 0
-27 -28 -29 0
27 28 -29 0
27 -28 29 0
-27 28 29 0
-29 -25 -30 0
29 25 -30 0
29 -25 30 0
-29 25 30 0
-29 -25 31 0
29 -31 0
25 -31 0
-27 -28 32 0
27 -32 0
28 -32 0
31 32 -33 0
-31 33 0
-32 33 0
-34 -2 35 0
34 -35 0
2 -35 0
-26 -6 36 0
26 -36 0
6 -36 0
-35 -36 -37 0
35 36 -37 0
35 -36 37 0
-35 36 37 0
-37 -33 -38 0
37 33 -38 0
37 -33 38 0
-37 33 38 0
-37 -33 39 0
37 -39 0
33 -39 0
-35 -36 40 0
35 -40 0
36 -40 0
39 40 -41 0
-39 41 0
-40 41 0
-42 -2 43 0
42 -43 0
2 -43 0
-34 -6 44 0
34 -44 0
6 -44 0
-43 -44 -45 0
43 44 -45 0
43 -44 45 0
-43 44 45 0
-45 -41 -46 0
45 41 -46 0
45 -41 46 0
-45 41 46 0
-45 -41 47 0
45 -47 0
41 -47 0
-43 -44 48 0
43 -48 0
44 -48 0
47 48 -49 0
-47 49 0
-48 49 0
-50 -2 51 0
50 -51 0
2 -51 0
-42 -6 52 0
42 -52 0
6 -52 0
-51 -52 -53 0
51 52 -53 0
51 -52 53 0
-51 52 53 0
-53 -49 -54 0
53 49 -54 0
53 -49 54 0
-53 49 54 0
-53 -49 55 0
53 -55 0
49 -55 0
-51 -52 56 0
51 -56 0
52 -56 0
55 56 -57 0
-55 57 0
-56 57 0
-58 -2 59 0
58 -59 0
2 -59 0
-50 -6 60 0
50 -60 0
6 -60 0
-59 -60 -61 0
59 60 -61 0
59 -60 61 0
-59 60 61 0
-61 -57 -62 0
61 57 -62 0
61 -57 62 0
-61 57 62 0
-61 -57 63 0
61 -63 0
57 -63 0
-59 -60 64 0
59 -64 0
60 -64 0
63 64 -65 0
-63 65 0
-64 65 0
-58 -6 66 0
58 -66 0
6 -66 0
-65 -66 -67 0
65 66 -67 0
65 -66 67 0
-65 66 67 0
-65 -66 68 0
65 -68 0
66 -68 0
-1 -69 70 0
1 -70 0
69 -70 0
-14 -70 -71 0
14 70 -71 0
14 -70 71 0
-14 70 71 0
-14 -70 72 0
14 -72 0
70 -72 0
-4 -69 73 0
4 -73 0
69 -73 0
-22 -73 -74 0
22 73 -74 0
22 -73 74 0
-22 73 74 0
-74 -72 -75 0
74 72 -75 0
74 -72 75 0
-74 72 75 0
-74 -72 76 0
74 -76 0
72 -76 0
-22 -73 77 0
22 -77 0
73 -77 0
76 77 -78 0
-76 78 0
-77 78 0
-10 -69 79 0
10 -79 0
69 -79 0
-30 -79 -80 0
30 79 -80 0
30 -79 80 0
-30 79 80 0
-80 -78 -81 0
80 78 -81 0
80 -78 81 0
-80 78 81 0
-80 -78 82 0
80 -82 0
78 -82 0
-30 -79 83 0
30 -83 0
79 -83 0
82 83 -84 0
-82 84 0
-83 84 0
-18 -69 85 0
18 -85 0
69 -85 0
-38 -85 -86 0
38 85 -86 0
38 -85 86 0
-38 85 86 0
-86 -84 -87 0
86 84 -87 0
86 -84 87 0
-86 84 87 0
-86 -84 88 0
86 -88 0
84 -88 0
-38 -85 89 0
38 -89 0
85 -89 0
88 89 -90 0
-88 90 0
-89 90 0
-26 -69 91 0
26 -91 0
69 -91 0
-46 -91 -92 0
46 91 -92 0
46 -91 92 0
-46 91 92 0
-92 -90 -93 0
92 90 -93 0
92 -90 93 0
-92 90 93 0
-92 -90 94 0
92 -94 0
90 -94 0
-46 -91 95 0
46 -95 0
91 -95 0
94 95 -96 0
-94 96 0
-95 96 0
-34 -69 97 0
34 -97 0
69 -97 0
-54 -97 -98 0
54 97 -98 0
54 -97 98 0
-54 97 98 0
-98 -96 -99 0
98 96 -99 0
98 -96 99 0
-98 96 99 0
-98 -96 100 0
98 -100 0
96 -100 0
-54 -97 101 0
54 -101 0
97 -101 0
100 101 -102 0
-100 102 0
-101 102 0
-42 -69 103 0
42 -103 0
69 -103 0
-62 -103 -104 0
62 103 -104 0
62 -103 104 0
-62 103 104 0
-104 -102 -105 0
104 102 -105 0
104 -102 105 0
-104 102 105 0
-104 -102 106 0
104 -106 0
102 -106 0
-62 -103 107 0
62 -107 0
103 -107 0
106 107 -108 0
-106 108 0
-107 108 0
-50 -69 109 0
50 -109 0
69 -109 0
-67 -109 -110 0
67 109 -110 0
67 -109 110 0
-67 109 110 0
-110 -108 -111 0
110 108 -111 0
110 -108 111 0
-110 108 111 0
-110 -108 112 0
110 -112 0
108 -112 0
-67 -109 113 0
67 -113 0
109 -113 0
112 113 -114 0
-112 114 0
-113 114 0
-58 -69 115 0
58 -115 0
69 -115 0
-68 -115 -116 0
68 115 -116 0
68 -115 116 0
-68 115 116 0
-116 -114 -117 0
116 114 -117 0
116 -114 117 0
-116 114 117 0
-116 -114 118 0
116 -118 0
114 -118 0
-68 -115 119 0
68 -119 0
115 -119 0
118 119 -120 0
-118 120 0
-119 120 0
-1 -121 122 0
1 -122 0
121 -122 0
-75 -122 -123 0
75 122 -123 0
75 -122 123 0
-75 122 123 0
-75 -122 124 0
75 -124 0
122 -124 0
-4 -121 125 0
4 -125 0
121 -125 0
-81 -125 -126 0
81 125 -126 0
81 -125 126 0
-81 125 126 0
-126 -124 -127 0
126 124 -127 0
126 -124 127 0
-126 124 127 0
-126 -124 128 0
126 -128 0
124 -128 0
-81 -125 129 0
81 -129 0
125 -129 0
128 129 -130 0
-128 130 0
-129 130 0
-10 -121 131 0
10 -131 0
121 -131 0
-87 -131 -132 0
87 131 -132 0
87 -131 132 0
-87 131 132 0
-132 -130 -133 0
132 130 -133 0
132 -130 133 0
-132 130 133 0
-132 -130 134 0
132 -134 0
130 -134 0
-87 -131 135 0
87 -135 0
131 -135 0
134 135 -136 0
-134 136 0
-135 136 0
-18 -121 137 0
18 -137 0
121 -137 0
-93 -137 -138 0
93 137 -138 0
93 -137 138 0
-93 137 138 0
-138 -136 -139 0
138 136 -139 0
138 -136 139 0
-138 136 139 0
-138 -136 140 0
138 -140 0
136 -140 0
-93 -137 141 0
93 -141 0
137 -141 0
140 141 -142 0
-140 142 0
-141 142 0
-26 -121 143 0
26 -143 0
121 -143 0
-99 -143 -144 0
99 143 -144 0
99 -143 144 0
-99 143 144 0
-144 -142 -145 0
144 142 -145 0
144 -142 145 0
-144 142 145 0
-144 -142 146 0
144 -146 0
142 -146 0
-99 -143 147 0
99 -147 0
143 -147 0
146 147 -148 0
-146 148 0
-147 148 0
-34 -121 149 0
34 -149 0
121 -149 0
-105 -149 -150 0
105 149 -150 0
105 -149 150 0
-105 149 150 0
-150 -148 -151 0
150 148 -151 0
150 -148 151 0
-150 148 151 0
-150 -148 152 0
150 -152 0
148 -152 0
-105 -149 153 0
105 -153 0
149 -153 0
152 153 -154 0
-152 154 0
-153 154 0
-42 -121 155 0
42 -155 0
121 -155 0
-111 -155 -156 0
111 155 -156 0
111 -155 156 0
-111 155 156 0
-156 -154 -157 0
156 154 -157 0
156 -154 157 0
-156 154 157 0
-156 -154 158 0
156 -158 0
154 -158 0
-111 -155 159 0
111 -159 0
155 -159 0
158 159 -160 0
-158 160 0
-159 160 0
-50 -121 161 0
50 -161 0
121 -161 0
-117 -161 -162 0
117 161 -162 0
117 -161 162 0
-117 161 162 0
-162 -160 -163 0
162 160 -163 0
162 -160 163 0
-162 160 163 0
-162 -160 164 0
162 -164 0
160 -164 0
-117 -161 165 0
117 -165 0
161 -165 0
164 165 -166 0
-164 166 0
-165 166 0
-58 -121 167 0
58 -167 0
121 -167 0
-120 -167 -168 0
120 167 -168 0
120 -167 168 0
-120 167 168 0
-168 -166 -169 0
168 166 -169 0
168 -166 169 0
-168 166 169 0
-168 -166 170 0
168 -170 0
166 -170 0
-120 -167 171 0
120 -171 0
167 -171 0
170 171 -172 0
-170 172 0
-171 172 0
-1 -173 174 0
1 -174 0
173 -174 0
-127 -174 -175 0
127 174 -175 0
127 -174 175 0
-127 174 175 0
-127 -174 176 0
127 -176 0
174 -176 0
-4 -173 177 0
4 -177 0
173 -177 0
-133 -177 -178 0
133 177 -178 0
133 -177 178 0
-133 177 178 0
-178 -176 -179 0
178 176 -179 0
178 -176 179 0
-178 176 179 0
-178 -176 180 0
178 -180 0
176 -180 0
-133 -177 181 0
133 -181 0
177 -181 0
180 181 -182 0
-180 182 0
-181 182 0
-10 -173 183 0
10 -183 0
173 -183 0
-139 -183 -184 0
139 183 -184 0
139 -183 184 0
-139 183 184 0
-184 -182 -185 0
184 182 -185 0
184 -182 185 0
-184 182 185 0
-184 -182 186 0
184 -186 0
182 -186 0
-139 -183 187 0
139 -187 0
183 -187 0
186 187 -188 0
-186 188 0
-187 188 0
-18 -173 189 0
18 -189 0
173 -189 0
-145 -189 -190 0
145 189 -190 0
145 -189 190 0
-145 189 190 0
-190 -188 -191 0
190 188 -191 0
190 -188 191 0
-190 188 191 0
-190 -188 192 0
190 -192 0
188 -192 0
-145 -189 193 0
145 -193 0
189 -193 0
192 193 -194 0
-192 194 0
-193 194 0
-26 -173 195 0
26 -195 0
173 -195 0
-151 -195 -196 0
151 195 -196 0
151 -195 196 0
-151 195 196 0
-196 -194 -197 0
196 194 -197 0
196 -194 197 0
-196 194 197 0
-196 -194 198 0
196 -198 0
194 -198 0
-151 -195 199 0
151 -199 0
195 -199 0
198 199 -200 0
-198 200 0
-199 200 0
-34 -173 201 0
34 -201 0
173 -201 0
-157 -201 -202 0
157 201 -202 0
157 -201 202 0
-157 201 202 0
-202 -200 -203 0
202 200 -203 0
202 -200 203 0
-202 200 203 0
-202 -200 204 0
202 -204 0
200 -204 0
-157 -201 205 0
157 -205 0
201 -205 0
204 205 -206 0
-204 206 0
-205 206 0
-42 -173 207 0
42 -207 0
173 -207 0
-163 -207 -208 0
163 207 -208 0
163 -207 208 0
-163 207 208 0
-208 -206 -209 0
208 206 -209 0
208 -206 209 0
-208 206 209 0
-208 -206 210 0
208 -210 0
206 -210 0
-163 -207 211 0
163 -211 0
207 -211 0
210 211 -212 0
-210 212 0
-211 212 0
-50 -173 213 0
50 -213 0
173 -213 0
-169 -213 -214 0
169 213 -214 0
169 -213 214 0
-169 213 214 0
-214 -212 -215 0
214 212 -215 0
214 -212 215 0
-214 212 215 0
-214 -212 216 0
214 -216 0
212 -216 0
-169 -213 217 0
169 -217 0
213 -217 0
216 217 -218 0
-216 218 0
-217 218 0
-58 -173 219 0
58 -219 0
173 -219 0
-172 -219 -220 0
172 219 -220 0
172 -219 220 0
-172 219 220 0
-220 -218 -221 0
220 218 -221 0
220 -218 221 0
-220 218 221 0
-220 -218 222 0
220 -222 0
218 -222 0
-172 -219 223 0
172 -223 0
219 -223 0
222 223 -224 0
-222 224 0
-223 224 0
-1 -225 226 0
1 -226 0
225 -226 0
-179 -226 -227 0
179 226 -227 0
179 -226 227 0
-179 226 227 0
-179 -226 228 0
179 -228 0
226 -228 0
-4 -225 229 0
4 -229 0
225 -229 0
-185 -229 -230 0
185 229 -230 0
185 -229 230 0
-185 229 230 0
-230 -228 -231 0
230 228 -231 0
230 -228 231 0
-230 228 231 0
-230 -228 232 0
230 -232 0
228 -232 0
-185 -229 233 0
185 -233 0
229 -233 0
232 233 -234 0
-232 234 0
-233 234 0
-10 -225 235 0
10 -235 0
225 -235 0
-191 -235 -236 0
191 235 -236 0
191 -235 236 0
-191 235 236 0
-236 -234 -237 0
236 234 -237 0
236 -234 237 0
-236 234 237 0
-236 -234 238 0
236 -238 0
234 -238 0
-191 -235 239 0
191 -239 0
235 -239 0
238 239 -240 0
-238 240 0
-239 240 0
-18 -225 241 0
18 -241 0
225 -241 0
-197 -241 -242 0
197 241 -242 0
197 -241 242 0
-197 241 242 0
-242 -240 -243 0
242 240 -243 0
242 -240 243 0
-242 240 243 0
-242 -240 244 0
242 -244 0
240 -244 0
-197 -241 245 0
197 -245 0
241 -245 0
244 245 -246 0
-244 246 0
-245 246 0
-26 -225 247 0
26 -247 0
225 -247 0
-203 -247 -248 0
203 247 -248 0
203 -247 248 0
-203 247 248 0
-248 -246 -249 0
248 246 -249 0
248 -246 249 0
-248 246 249 0
-248 -246 250 0
248 -250 0
246 -250 0
-203 -247 251 0
203 -251 0
247 -251 0
250 251 -252 0
-250 252 0
-251 252 0
-34 -225 253 0
34 -253 0
225 -253 0
-209 -253 -254 0
209 253 -254 0
209 -253 254 0
-209 253 254 0
-254 -252 -255 0
254 252 -255 0
254 -252 255 0
-254 252 255 0
-254 -252 256 0
254 -256 0
252 -256 0
-209 -253 257 0
209 -257 0
253 -257 0
256 257 -258 0
-256 258 0
-257 258 0
-42 -225 259 0
42 -259 0
225 -259 0
-215 -259 -260 0
215 259 -260 0
215 -259 260 0
-215 259 260 0
-260 -258 -261 0
260 258 -261 0
260 -258 261 0
-260 258 261 0
-260 -258 262 0
260 -262 0
258 -262 0
-215 -259 263 0
215 -263 0
259 -263 0
262 263 -264 0
-262 264 0
-263 264 0
-50 -225 265 0
50 -265 0
225 -265 0
-221 -265 -266 0
221 265 -266 0
221 -265 266 0
-221 265 266 0
-266 -264 -267 0
266 264 -267 0
266 -264 267 0
-266 264 267 0
-266 -264 268 0
266 -268 0
264 -268 0
-221 -265 269 0
221 -269 0
265 -269 0
268 269 -270 0
-268 270 0
-269 270 0
-58 -225 271 0
58 -271 0
225 -271 0
-224 -271 -272 0
224 271 -272 0
224 -271 272 0
-224 271 272 0
-272 -270 -273 0
272 270 -273 0
272 -270 273 0
-272 270 273 0
-272 -270 274 0
272 -274 0
270 -274 0
-224 -271 275 0
224 -275 0
271 -275 0
274 275 -276 0
-274 276 0
-275 276 0
-1 -277 278 0
1 -278 0
277 -278 0
-231 -278 -279 0
231 278 -279 0
231 -278 279 0
-231 278 279 0
-231 -278 280 0
231 -280 0
278 -280 0
-4 -277 281 0
4 -281 0
277 -281 0
-237 -281 -282 0
237 281 -282 0
237 -281 282 0
-237 281 282 0
-282 -280 -283 0
282 280 -283 0
282 -280 283 0
-282 280 283 0
-282 -280 284 0
282 -284 0
280 -284 0
-237 -281 285 0
237 -285 0
281 -285 0
284 285 -286 0
-284 286 0
-285 286 0
-10 -277 287 0
10 -287 0
277 -287 0
-243 -287 -288 0
243 287 -288 0
243 -287 288 0
-243 287 288 0
-288 -286 -289 0
288 286 -289 0
288 -286 289 0
-288 286 289 0
-288 -286 290 0
288 -290 0
286 -290 0
-243 -287 291 0
243 -291 0
287 -291 0
290 291 -292 0
-290 292 0
-291 292 0
-18 -277 293 0
18 -293 0
277 -293 0
-249 -293 -294 0
249 293 -294 0
249 -293 294 0
-249 293 294 0
-294 -292 -295 0
294 292 -295 0
294 -292 295 0
-294 292 295 0
-294 -292 296 0
294 -296 0
292 -296 0
-249 -293 297 0
249 -297 0
293 -297 0
296 297 -298 0
-296 298 0
-297 298 0
-26 -277 299 0
26 -299 0
277 -299 0
-255 -299 -300 0
255 299 -300 0
255 -299 300 0
-255 299 300 0
-300 -298 -301 0
300 298 -301 0
300 -298 301 0
-300 298 301 0
-300 -298 302 0
300 -302 0
298 -302 0
-255 -299 303 0
255 -303 0
299 -303 0
302 303 -304 0
-302 304 0
-303 304 0
-34 -277 305 0
34 -305 0
277 -305 0
-261 -305 -306 0
261 305 -306 0
261 -305 306 0
-261 305 306 0
-306 -304 -307 0
306 304 -307 0
306 -304 307 0
-306 304 307 0
-306 -304 308 0
306 -308 0
304 -308 0
-261 -305 309 0
261 -309 0
305 -309 0
308 309 -310 0
-308 310 0
-309 310 0
-42 -277 311 0
42 -311 0
277 -311 0
-267 -311 -312 0
267 311 -312 0
267 -311 312 0
-267 311 312 0
-312 -310 -313 0
312 310 -313 0
312 -310 313 0
-312 310 313 0
-312 -310 314 0
312 -314 0
310 -314 0
-267 -311 315 0
267 -315 0
311 -315 0
314 315 -316 0
-314 316 0
-315 316 0
-50 -277 317 0
50 -317 0
277 -317 0
-273 -317 -318 0
273 317 -318 0
273 -317 318 0
-273 317 318 0
-318 -316 -319 0
318 316 -319 0
318 -316 319 0
-318 316 319 0
-318 -316 320 0
318 -320 0
316 -320 0
-273 -317 321 0
273 -321 0
317 -321 0
320 321 -322 0
-320 322 0
-321 322 0
-58 -277 323 0
58 -323 0
277 -323 0
-276 -323 -324 0
276 323 -324 0
276 -323 324 0
-276 323 324 0
-324 -322 -325 0
324 322 -325 0
324 -322 325 0
-324 322 325 0
-324 -322 326 0
324 -326 0
322 -326 0
-276 -323 327 0
276 -327 0
323 -327 0
326 327 -328 0
-326 328 0
-327 328 0
-1 -329 330 0
1 -330 0
329 -330 0
-283 -330 -331 0
283 330 -331 0
283 -330 331 0
-283 330 331 0
-283 -330 332 0
283 -332 0
330 -332 0
-4 -329 333 0
4 -333 0
329 -333 0
-289 -333 -334 0
289 333 -334 0
289 -333 334 0
-289 333 334 0
-334 -332 -335 0
334 332 -335 0
334 -332 335 0
-334 332 335 0
-334 -332 336 0
334 -336 0
332 -336 0
-289 -333 337 0
289 -337 0
333 -337 0
336 337 -338 0
-336 338 0
-337 338 0
-10 -329 339 0
10 -339 0
329 -339 0
-295 -339 -340 0
295 339 -340 0
295 -339 340 0
-295 339 340 0
-340 -338 -341 0
340 338 -341 0
340 -338 341 0
-340 338 341 0
-340 -338 342 0
340 -342 0
338 -342 0
-295 -339 343 0
295 -343 0
339 -343 0
342 343 -344 0
-342 344 0
-343 344 0
-18 -329 345 0
18 -345 0
329 -345 0
-301 -345 -346 0
301 345 -346 0
301 -345 346 0
-301 345 346 0
-346 -344 -347 0
346 344 -347 0
346 -344 347 0
-346 344 347 0
-346 -344 348 0
346 -348 0
344 -348 0
-301 -345 349 0
301 -349 0
345 -349 0
348 349 -350 0
-348 350 0
-349 350 0
-26 -329 351 0
26 -351 0
329 -351 0
-307 -351 -352 0
307 351 -352 0
307 -351 352 0
-307 351 352 0
-352 -350 -353 0
352 350 -353 0
352 -350 353 0
-352 350 353 0
-352 -350 354 0
352 -354 0
350 -354 0
-307 -351 355 0
307 -355 0
351 -355 0
354 355 -356 0
-354 356 0
-355 356 0
-34 -329 357 0
34 -357 0
329 -357 0
-313 -357 -358 0
313 357 -358 0
313 -357 358 0
-313 357 358 0
-358 -356 -359 0
358 356 -359 0
358 -356 359 0
-358 356 359 0
-358 -356 360 0
358 -360 0
356 -360 0
-313 -357 361 0
313 -361 0
357 -361 0
360 361 -362 0
-360 362 0
-361 362 0
-42 -329 363 0
42 -363 0
329 -363 0
-319 -363 -364 0
319 363 -364 0
319 -363 364 0
-319 363 364 0
-364 -362 -365 0
364 362 -365 0
364 -362 365 0
-364 362 365 0
-364 -362 366 0
364 -366 0
362 -366 0
-319 -363 367 0
319 -367 0
363 -367 0
366 367 -368 0
-366 368 0
-367 368 0
-50 -329 369 0
50 -369 0
329 -369 0
-325 -369 -370 0
325 369 -370 0
325 -369 370 0
-325 369 370 0
-370 -368 -371 0
370 368 -371 0
370 -368 371 0
-370 368 371 0
-370 -368 372 0
370 -372 0
368 -372 0
-325 -369 373 0
325 -373 0
369 -373 0
372 373 -374 0
-372 374 0
-373 374 0
-58 -329 375 0
58 -375 0
329 -375 0
-328 -375 -376 0
328 375 -376 0
328 -375 376 0
-328 375 376 0
-376 -374 -377 0
376 374 -377 0
376 -374 377 0
-376 374 377 0
-376 -374 378 0
376 -378 0
374 -378 0
-328 -375 379 0
328 -379 0
375 -379 0
378 379 -380 0
-378 380 0
-379 380 0
-1 -381 382 0
1 -382 0
381 -382 0
-335 -382 -383 0
335 382 -383 0
335 -382 383 0
-335 382 383 0
-335 -382 384 0
335 -384 0
382 -384 0
-4 -381 385 0
4 -385 0
381 -385 0
-341 -385 -386 0
341 385 -386 0
341 -385 386 0
-341 385 386 0
-386 -384 -387 0
386 384 -387 0
386 -384 387 0
-386 384 387 0
-386 -384 388 0
386 -388 0
384 -388 0
-341 -385 389 0
341 -389 0
385 -389 0
388 389 -390 0
-388 390 0
-389 390 0
-10 -381 391 0
10 -391 0
381 -391 0
-347 -391 -392 0
347 391 -392 0
347 -391 392 0
-347 391 392 0
-392 -390 -393 0
392 390 -393 0
392 -390 393 0
-392 390 393 0
-392 -390 394 0
392 -394 0
390 -394 0
-347 -391 395 0
347 -395 0
391 -395 0
394 395 -396 0
-394 396 0
-395 396 0
-18 -381 397 0
18 -397 0
381 -397 0
-353 -397 -398 0
353 397 -398 0
353 -397 398 0
-353 397 398 0
-398 -396 -399 0
398 396 -399 0
398 -396 399 0
-398 396 399 0
-398 -396 400 0
398 -400 0
396 -400 0
-353 -397 401 0
353 -401 0
397 -401 0
400 401 -402 0
-400 402 0
-401 402 0
-26 -381 403 0
26 -403 0
381 -403 0
-359 -403 -404 0
359 403 -404 0
359 -403 404 0
-359 403 404 0
-404 -402 -405 0
404 402 -405 0
404 -402 405 0
-404 402 405 0
-404 -402 406 0
404 -406 0
402 -406 0
-359 -403 407 0
359 -407 0
403 -407 0
406 407 -408 0
-406 408 0
-407 408 0
-34 -381 409 0
34 -409 0
381 -409 0
-365 -409 -410 0
365 409 -410 0
365 -409 410 0
-365 409 410 0
-410 -408 -411 0
410 408 -411 0
410 -408 411 0
-410 408 411 0
-410 -408 412 0
410 -412 0
408 -412 0
-365 -409 413 0
365 -413 0
409 -413 0
412 413 -414 0
-412 414 0
-413 414 0
-42 -381 415 0
42 -415 0
381 -415 0
-371 -415 -416 0
371 415 -416 0
371 -415 416 0
-371 415 416 0
-416 -414 -417 0
416 414 -417 0
416 -414 417 0
-416 414 417 0
-416 -414 418 0
416 -418 0
414 -418 0
-371 -415 419 0
371 -419 0
415 -419 0
418 419 -420 0
-418 420 0
-419 420 0
-50 -381 421 0
50 -421 0
381 -421 0
-377 -421 -422 0
377 421 -422 0
377 -421 422 0
-377 421 422 0
-422 -420 -423 0
422 420 -423 0
422 -420 423 0
-422 420 423 0
-422 -420 424 0
422 -424 0
420 -424 0
-377 -421 425 0
377 -425 0
421 -425 0
424 425 -426 0
-424 426 0
-425 426 0
-58 -381 427 0
58 -427 0
381 -427 0
-380 -427 -428 0
380 427 -428 0
380 -427 428 0
-380 427 428 0
-428 -426 -429 0
428 426 -429 0
428 -426 429 0
-428 426 429 0
-428 -426 430 0
428 -430 0
426 -430 0
-380 -427 431 0
380 -431 0
427 -431 0
430 431 -432 0
-430 432 0
-431 432 0
3 0
8 0
71 0
-123 0
-175 0
-227 0
-279 0
-331 0
-383 0
-387 0
-393 0
399 0
-405 0
-411 0
-417 0
-423 0
429 0
-432 0
